<?xml version="1.0"?>
<VTKFile type="UnstructuredGrid" version="0.1" byte_order="LittleEndian">
<UnstructuredGrid>
<Piece NumberOfPoints="31276" NumberOfCells="10929">
<Points>
<DataArray type="Float64" NumberOfComponents="3" format="ascii">
-0.5 -0.5 0 -0.46923843965502993 -0.47425283389558609 0 -0.43682302177596799 -0.50000000000000022 0 -0.5 -0.5 0 -0.46923843965502993 -0.47425283389558609 0 -0.5 -0.46257642347735162 0 -0.46923843965502993 -0.47425283389558609 0 -0.43935653915708822 -0.47402027420018289 0 -0.43682302177596799 -0.50000000000000022 0 -0.46923843965502993 -0.47425283389558609 0 -0.43935653915708822 -0.47402027420018289 0 -0.45571557809183277 -0.45863326473851501 0 -0.45571557809183277 -0.45863326473851501 0 -0.45717673497480088 -0.4400850653914547 0 -0.43576510246219918 -0.45529637433737807 0 -0.45717673497480088 -0.4400850653914547 0 -0.43576510246219918 -0.45529637433737807 0 -0.45717673497480088 -0.4400850653914547 0 -0.43576510246219918 -0.45529637433737807 0 -0.43220274427772282 -0.43822953761653488 0 -0.43935653915708822 -0.47402027420018289 0 -0.45571557809183277 -0.45863326473851501 0 -0.43576510246219918 -0.45529637433737807 0 -0.46923843965502993 -0.47425283389558609 0 -0.45571557809183277 -0.45863326473851501 0 -0.47973031991980669 -0.44915648125863911 0 -0.45571557809183277 -0.45863326473851501 0 -0.45717673497480088 -0.4400850653914547 0 -0.47973031991980669 -0.44915648125863911 0 -0.45717673497480088 -0.4400850653914547 0 -0.47973031991980669 -0.44915648125863911 0 -0.47858836748740269 -0.42487375644553133 0 -0.47973031991980669 -0.44915648125863911 0 -0.5 -0.46257642347735162 0 -0.50000000000000333 -0.40966244749960651 0 -0.46923843965502993 -0.47425283389558609 0 -0.47973031991980669 -0.44915648125863911 0 -0.5 -0.46257642347735162 0 -0.47973031991980669 -0.44915648125863911 0 -0.50000000000000333 -0.40966244749960651 0 -0.47858836748740269 -0.42487375644553133 0 -0.50000000000000333 -0.40966244749960651 0 -0.47858836748740269 -0.42487375644553133 0 -0.50000000000000333 -0.40966244749960651 0 -0.47858836748740269 -0.42487375644553133 0 -0.47678800273139982 -0.4050100869172904 0 -0.47858836748740269 -0.42487375644553133 0 -0.47678800273139982 -0.4050100869172904 0 -0.45958029956000718 -0.418468782386959 0 -0.49023557346368879 -0.39028020158908988 0 -0.49999999999999772 -0.39110536279539732 0 -0.5 -0.36647695644839973 0 -0.50000000000000333 -0.40966244749960651 0 -0.49649642642249142 -0.40194663853446028 0 -0.47678800273139982 -0.4050100869172904 0 -0.49023557346368879 -0.39028020158908988 0 -0.49649642642249142 -0.40194663853446028 0 -0.47678800273139982 -0.4050100869172904 0 -0.50000000000000333 -0.40966244749960651 0 -0.49999999999999772 -0.39110536279539732 0 -0.49649642642249142 -0.40194663853446028 0 -0.49023557346368879 -0.39028020158908988 0 -0.49999999999999772 -0.39110536279539732 0 -0.49023557346368879 -0.39028020158908988 0 -0.49999999999999772 -0.39110536279539732 0 -0.49649642642249142 -0.40194663853446028 0 -0.49023557346368879 -0.39028020158908988 0 -0.49649642642249142 -0.40194663853446028 0 -0.49023557346368879 -0.39028020158908988 0 -0.47678800273139982 -0.4050100869172904 0 -0.46157147162619838 -0.38785788781961472 0 -0.49023557346368879 -0.39028020158908988 0 -0.46157147162619838 -0.38785788781961472 0 -0.49023557346368879 -0.39028020158908988 0 -0.46157147162619838 -0.38785788781961472 0 -0.47746603303382162 -0.36648551431137971 0 -0.49023557346368879 -0.39028020158908988 0 -0.47746603303382162 -0.36648551431137971 0 -0.46157147162619838 -0.38785788781961472 0 -0.47746603303382162 -0.36648551431137971 0 -0.46389872468676258 -0.37208028234858231 0 -0.47678800273139982 -0.4050100869172904 0 -0.46157147162619838 -0.38785788781961472 0 -0.4468951695169443 -0.40157663195815851 0 -0.46157147162619838 -0.38785788781961472 0 -0.4468951695169443 -0.40157663195815851 0 -0.43290736978870797 -0.38543557405013978 0 -0.46157147162619838 -0.38785788781961472 0 -0.43290736978870797 -0.38543557405013978 0 -0.46157147162619838 -0.38785788781961472 0 -0.43290736978870797 -0.38543557405013978 0 -0.46389872468676258 -0.37208028234858231 0 -0.45717673497480088 -0.4400850653914547 0 -0.47858836748740269 -0.42487375644553133 0 -0.45958029956000718 -0.418468782386959 0 -0.45717673497480088 -0.4400850653914547 0 -0.47858836748740269 -0.42487375644553133 0 -0.47678800273139982 -0.4050100869172904 0 -0.4468951695169443 -0.40157663195815851 0 -0.45958029956000718 -0.418468782386959 0 -0.4468951695169443 -0.40157663195815851 0 -0.43845322308948842 -0.42079837122236019 0 -0.42815873913274261 -0.40867043191173108 0 -0.4468951695169443 -0.40157663195815851 0 -0.45958029956000718 -0.418468782386959 0 -0.43845322308948842 -0.42079837122236019 0 -0.45717673497480088 -0.4400850653914547 0 -0.45958029956000718 -0.418468782386959 0 -0.43845322308948842 -0.42079837122236019 0 -0.45717673497480088 -0.4400850653914547 0 -0.43845322308948842 -0.42079837122236019 0 -0.43220274427772282 -0.43822953761653488 0 -0.43845322308948842 -0.42079837122236019 0 -0.41027287653904099 -0.42915817562833569 0 -0.43220274427772282 -0.43822953761653488 0 -0.43845322308948842 -0.42079837122236019 0 -0.42815873913274261 -0.40867043191173108 0 -0.41027287653904099 -0.42915817562833569 0 -0.41027287653904099 -0.42915817562833569 0 -0.41568579642774889 -0.40026933933609382 0 -0.41027287653904099 -0.42915817562833569 0 -0.41568579642774889 -0.40026933933609382 0 -0.39890337244936153 -0.41143880489529572 0 -0.42815873913274261 -0.40867043191173108 0 -0.41027287653904099 -0.42915817562833569 0 -0.41568579642774889 -0.40026933933609382 0 -0.43290736978870797 -0.38543557405013978 0 -0.42318566361039311 -0.38461402300793168 0 -0.43126905445349678 -0.37234441644099969 0 -0.42318566361039311 -0.38461402300793168 0 -0.43126905445349678 -0.37234441644099969 0 -0.42109871631645679 -0.37138050304385167 0 -0.43290736978870797 -0.38543557405013978 0 -0.42948663009049037 -0.39154964141370752 0 -0.43290736978870797 -0.38543557405013978 0 -0.42318566361039311 -0.38461402300793168 0 -0.43290736978870797 -0.38543557405013978 0 -0.42318566361039311 -0.38461402300793168 0 -0.42948663009049037 -0.39154964141370752 0 -0.4468951695169443 -0.40157663195815851 0 -0.43290736978870797 -0.38543557405013978 0 -0.42948663009049037 -0.39154964141370752 0 -0.4468951695169443 -0.40157663195815851 0 -0.42815873913274261 -0.40867043191173108 0 -0.42948663009049037 -0.39154964141370752 0 -0.42815873913274261 -0.40867043191173108 0 -0.42948663009049037 -0.39154964141370752 0 -0.41568579642774889 -0.40026933933609382 0 -0.42318566361039311 -0.38461402300793168 0 -0.42948663009049037 -0.39154964141370752 0 -0.41568579642774889 -0.40026933933609382 0 -0.41568579642774889 -0.40026933933609382 0 -0.40565570684054059 -0.38199308209152538 0 -0.42109871631645679 -0.37138050304385167 0 -0.41568579642774889 -0.40026933933609382 0 -0.42109871631645679 -0.37138050304385167 0 -0.42318566361039311 -0.38461402300793168 0 -0.41568579642774889 -0.40026933933609382 0 -0.42109871631645679 -0.37138050304385167 0 -0.40565570684054059 -0.38199308209152538 0 -0.38546681847730169 -0.39416962699579478 0 -0.39329765606401179 -0.36591906924242928 0 -0.41568579642774889 -0.40026933933609382 0 -0.40565570684054059 -0.38199308209152538 0 -0.38546681847730169 -0.39416962699579478 0 -0.41568579642774889 -0.40026933933609382 0 -0.38546681847730169 -0.39416962699579478 0 -0.39890337244936153 -0.41143880489529572 0 -0.38546681847730169 -0.39416962699579478 0 -0.39329765606401179 -0.36591906924242928 0 -0.37178503006078351 -0.36529734894278382 0 -0.41027287653904099 -0.42915817562833569 0 -0.38418799835335438 -0.42215807762095819 0 -0.38554242520648091 -0.43819238400717231 0 -0.41027287653904099 -0.42915817562833569 0 -0.39890337244936153 -0.41143880489529572 0 -0.38418799835335438 -0.42215807762095819 0 -0.38546681847730169 -0.39416962699579478 0 -0.39890337244936153 -0.41143880489529572 0 -0.38418799835335438 -0.42215807762095819 0 -0.38546681847730169 -0.39416962699579478 0 -0.38418799835335438 -0.42215807762095819 0 -0.36857509023582058 -0.4147292750795083 0 -0.38418799835335438 -0.42215807762095819 0 -0.38554242520648091 -0.43819238400717231 0 -0.37377006278066488 -0.4377091529438093 0 -0.38293400131272082 -0.44971448590963131 0 -0.38554242520648091 -0.43819238400717231 0 -0.37377006278066488 -0.4377091529438093 0 -0.38293400131272082 -0.44971448590963131 0 -0.38554242520648091 -0.43819238400717231 0 -0.39607208800642862 -0.44651253151289028 0 -0.41027287653904099 -0.42915817562833569 0 -0.38554242520648091 -0.43819238400717231 0 -0.39607208800642862 -0.44651253151289028 0 -0.41027287653904099 -0.42915817562833569 0 -0.39607208800642862 -0.44651253151289028 0 -0.40485995665033331 -0.45804701192057767 0 -0.38293400131272082 -0.44971448590963131 0 -0.39607208800642862 -0.44651253151289028 0 -0.3930467882704432 -0.45763966575418841 0 -0.39607208800642862 -0.44651253151289028 0 -0.40485995665033331 -0.45804701192057767 0 -0.39607208800642862 -0.44651253151289028 0 -0.40485995665033331 -0.45804701192057767 0 -0.3930467882704432 -0.45763966575418841 0 -0.40485995665033331 -0.45804701192057767 0 -0.3930467882704432 -0.45763966575418841 0 -0.39654655526454569 -0.46846263852393422 0 -0.3930467882704432 -0.45763966575418841 0 -0.39654655526454569 -0.46846263852393422 0 -0.38282279939685859 -0.46639898879402059 0 -0.38293400131272082 -0.44971448590963131 0 -0.3930467882704432 -0.45763966575418841 0 -0.38282279939685859 -0.46639898879402059 0 -0.38293400131272082 -0.44971448590963131 0 -0.38282279939685859 -0.46639898879402059 0 -0.36535057385478381 -0.45230285639076279 0 -0.38282279939685859 -0.46639898879402059 0 -0.38318830888483713 -0.47966333414824092 0 -0.36972453897116919 -0.47027377262069769 0 -0.38282279939685859 -0.46639898879402059 0 -0.38318830888483713 -0.47966333414824092 0 -0.40060672202465258 -0.4807465902147442 0 -0.38318830888483713 -0.47966333414824092 0 -0.38675538139731658 -0.49011399079108359 0 -0.40060672202465258 -0.4807465902147442 0 -0.38675538139731658 -0.49011399079108359 0 -0.39699919821518381 -0.50000000000000544 0 -0.37321573785569989 -0.50000000000000033 0 -0.37696322049074632 -0.49070689952205598 0 -0.38675538139731658 -0.49011399079108359 0 -0.37321573785569989 -0.50000000000000033 0 -0.38675538139731658 -0.49011399079108359 0 -0.37321573785569989 -0.50000000000000033 0 -0.38318830888483713 -0.47966333414824092 0 -0.37696322049074632 -0.49070689952205598 0 -0.38675538139731658 -0.49011399079108359 0 -0.38318830888483713 -0.47966333414824092 0 -0.37696322049074632 -0.49070689952205598 0 -0.37021707442465868 -0.48402431228606602 0 -0.39699919821518381 -0.50000000000000544 0 -0.40060672202465258 -0.4807465902147442 0 -0.38675538139731658 -0.49011399079108359 0 -0.39699919821518381 -0.50000000000000544 0 -0.40060672202465258 -0.4807465902147442 0 -0.39699919821518381 -0.50000000000000544 0 -0.40060672202465258 -0.4807465902147442 0 -0.40706984252834899 -0.48596086598853883 0 -0.38675538139731658 -0.49011399079108359 0 -0.40060672202465258 -0.4807465902147442 0 -0.40485995665033331 -0.45804701192057767 0 -0.39654655526454569 -0.46846263852393422 0 -0.40060672202465258 -0.4807465902147442 0 -0.40485995665033331 -0.45804701192057767 0 -0.40060672202465258 -0.4807465902147442 0 -0.38282279939685859 -0.46639898879402059 0 -0.40060672202465258 -0.4807465902147442 0 -0.39654655526454569 -0.46846263852393422 0 -0.38282279939685859 -0.46639898879402059 0 -0.40060672202465258 -0.4807465902147442 0 -0.40060672202465258 -0.4807465902147442 0 -0.40706984252834899 -0.48596086598853883 0 -0.40060672202465258 -0.4807465902147442 0 -0.4143534699495971 -0.47050768328330078 0 -0.4143534699495971 -0.47050768328330078 0 -0.40706984252834899 -0.48596086598853883 0 -0.42558824586278249 -0.48525384164165059 0 -0.40485995665033331 -0.45804701192057767 0 -0.40060672202465258 -0.4807465902147442 0 -0.4143534699495971 -0.47050768328330078 0 -0.40060672202465258 -0.4807465902147442 0 -0.4143534699495971 -0.47050768328330078 0 -0.40706984252834899 -0.48596086598853883 0 -0.4143534699495971 -0.47050768328330078 0 -0.42558824586278249 -0.48525384164165059 0 -0.4169111099955759 -0.5 0 -0.40706984252834899 -0.48596086598853883 0 -0.42558824586278249 -0.48525384164165059 0 -0.39699919821518381 -0.50000000000000544 0 -0.4169111099955759 -0.5 0 -0.40706984252834899 -0.48596086598853883 0 -0.43935653915708822 -0.47402027420018289 0 -0.42558824586278249 -0.48525384164165059 0 -0.43682302177596799 -0.50000000000000022 0 -0.4169111099955759 -0.5 0 -0.42558824586278249 -0.48525384164165059 0 -0.43682302177596799 -0.50000000000000022 0 -0.42558824586278249 -0.48525384164165059 0 -0.43682302177596799 -0.50000000000000022 0 -0.43935653915708822 -0.47402027420018289 0 -0.4143534699495971 -0.47050768328330078 0 -0.42558824586278249 -0.48525384164165059 0 -0.4143534699495971 -0.47050768328330078 0 -0.43576510246219918 -0.45529637433737807 0 -0.41934578432308472 -0.44580970150314592 0 -0.4143534699495971 -0.47050768328330078 0 -0.43576510246219918 -0.45529637433737807 0 -0.43935653915708822 -0.47402027420018289 0 -0.4143534699495971 -0.47050768328330078 0 -0.43576510246219918 -0.45529637433737807 0 -0.43576510246219918 -0.45529637433737807 0 -0.43220274427772282 -0.43822953761653488 0 -0.41934578432308472 -0.44580970150314592 0 -0.41027287653904099 -0.42915817562833569 0 -0.40485995665033331 -0.45804701192057767 0 -0.41027287653904099 -0.42915817562833569 0 -0.40485995665033331 -0.45804701192057767 0 -0.41934578432308472 -0.44580970150314592 0 -0.41027287653904099 -0.42915817562833569 0 -0.43220274427772282 -0.43822953761653488 0 -0.41934578432308472 -0.44580970150314592 0 -0.40485995665033331 -0.45804701192057767 0 -0.4143534699495971 -0.47050768328330078 0 -0.41934578432308472 -0.44580970150314592 0 -0.40485995665033331 -0.45804701192057767 0 -0.4143534699495971 -0.47050768328330078 0 -0.43759863023700479 -0.26553954768887672 0 -0.42833458773741268 -0.24897925504711041 0 -0.44852487711113981 -0.2487252104022116 0 -0.45250768629249882 -0.26469745862129251 0 -0.43759863023700479 -0.26553954768887672 0 -0.44852487711113981 -0.2487252104022116 0 -0.43759863023700479 -0.26553954768887672 0 -0.45704432264780648 -0.2816444020937402 0 -0.42952630403250308 -0.27817740054673812 0 -0.45250768629249882 -0.26469745862129251 0 -0.43759863023700479 -0.26553954768887672 0 -0.45704432264780648 -0.2816444020937402 0 -0.45704432264780648 -0.2816444020937402 0 -0.42952630403250308 -0.27817740054673812 0 -0.43759863023700479 -0.26553954768887672 0 -0.45704432264780648 -0.2816444020937402 0 -0.46686291517404421 -0.26288067430034179 0 -0.46632185059303471 -0.28281327999109612 0 -0.45704432264780648 -0.2816444020937402 0 -0.45250768629249882 -0.26469745862129251 0 -0.46686291517404421 -0.26288067430034179 0 -0.45704432264780648 -0.2816444020937402 0 -0.46686291517404421 -0.26288067430034179 0 -0.46632185059303471 -0.28281327999109612 0 -0.45250768629249882 -0.26469745862129251 0 -0.46686291517404421 -0.26288067430034179 0 -0.44852487711113981 -0.2487252104022116 0 -0.46686291517404421 -0.26288067430034179 0 -0.46740397975505588 -0.2429480686095877 0 -0.44852487711113981 -0.2487252104022116 0 -0.46686291517404421 -0.26288067430034179 0 -0.46740397975505588 -0.2429480686095877 0 -0.47841705307217702 -0.25438532903871602 0 -0.48726621247348378 -0.26711775609255611 0 -0.4759976650009175 -0.27390283361340811 0 -0.46686291517404421 -0.26288067430034179 0 -0.47841705307217702 -0.25438532903871602 0 -0.4759976650009175 -0.27390283361340811 0 -0.46686291517404421 -0.26288067430034179 0 -0.47841705307217702 -0.25438532903871602 0 -0.46740397975505588 -0.2429480686095877 0 -0.47841705307217702 -0.25438532903871602 0 -0.48726621247348378 -0.26711775609255611 0 -0.49151080831565569 -0.24535854850053429 0 -0.48726621247348378 -0.26711775609255611 0 -0.49151080831565569 -0.24535854850053429 0 -0.5 -0.25865097633557982 0 -0.48726621247348378 -0.26711775609255611 0 -0.49151080831565569 -0.24535854850053429 0 -0.5 -0.25865097633557982 0 -0.4909191597051093 -0.2759981649845924 0 -0.49999999999999589 -0.28705639784512432 0 -0.5 -0.25865097633557982 0 -0.48726621247348378 -0.26711775609255611 0 -0.4909191597051093 -0.2759981649845924 0 -0.48726621247348378 -0.26711775609255611 0 -0.4909191597051093 -0.2759981649845924 0 -0.4759976650009175 -0.27390283361340811 0 -0.46686291517404421 -0.26288067430034179 0 -0.4759976650009175 -0.27390283361340811 0 -0.46632185059303471 -0.28281327999109612 0 -0.4759976650009175 -0.27390283361340811 0 -0.48316092529651522 -0.28493483891811028 0 -0.46632185059303471 -0.28281327999109612 0 -0.4909191597051093 -0.2759981649845924 0 -0.4759976650009175 -0.27390283361340811 0 -0.48316092529651522 -0.28493483891811028 0 -0.48316092529651522 -0.28493483891811028 0 -0.46614889815243382 -0.28918477966541628 0 -0.46632185059303471 -0.28281327999109612 0 -0.48316092529651522 -0.28493483891811028 0 -0.48005593761530052 -0.30116446744195802 0 -0.46614889815243382 -0.28918477966541628 0 -0.48316092529651522 -0.28493483891811028 0 -0.46632185059303471 -0.28281327999109612 0 -0.48005593761530052 -0.30116446744195802 0 -0.46614889815243382 -0.28918477966541628 0 -0.4909191597051093 -0.2759981649845924 0 -0.48316092529651522 -0.28493483891811028 0 -0.49999999999999589 -0.28705639784512432 0 -0.48316092529651522 -0.28493483891811028 0 -0.49999999999999589 -0.28705639784512432 0 -0.48316092529651522 -0.28493483891811028 0 -0.49176880879739271 -0.29951534996635509 0 -0.48005593761530052 -0.30116446744195802 0 -0.48316092529651522 -0.28493483891811028 0 -0.49999999999999589 -0.28705639784512432 0 -0.49176880879739271 -0.29951534996635509 0 -0.49999999999999589 -0.28705639784512432 0 -0.49999999999999778 -0.30887449577771331 0 -0.49176880879739271 -0.29951534996635509 0 -0.49350859265582347 -0.31184398290848681 0 -0.49999999999999778 -0.30887449577771331 0 -0.49176880879739271 -0.29951534996635509 0 -0.49350859265582347 -0.31184398290848681 0 -0.49999999999999778 -0.30887449577771331 0 -0.49350859265582347 -0.31184398290848681 0 -0.49176880879739271 -0.29951534996635509 0 -0.48005593761530052 -0.30116446744195802 0 -0.49350859265582347 -0.31184398290848681 0 -0.48005593761530052 -0.30116446744195802 0 -0.48005593761530052 -0.30116446744195802 0 -0.47258941737129079 -0.30340912544290871 0 -0.4673983143795401 -0.32378810091117199 0 -0.49350859265582347 -0.31184398290848681 0 -0.48005593761530052 -0.30116446744195802 0 -0.4673983143795401 -0.32378810091117199 0 -0.48005593761530052 -0.30116446744195802 0 -0.4673983143795401 -0.32378810091117199 0 -0.48005593761530052 -0.30116446744195802 0 -0.47258941737129079 -0.30340912544290871 0 -0.46614889815243382 -0.28918477966541628 0 -0.47258941737129079 -0.30340912544290871 0 -0.46566548995666102 -0.30699334687194862 0 -0.46614889815243382 -0.28918477966541628 0 -0.47258941737129079 -0.30340912544290871 0 -0.46566548995666102 -0.30699334687194862 0 -0.4673983143795401 -0.32378810091117199 0 -0.46566548995666102 -0.30699334687194862 0 -0.46614889815243382 -0.28918477966541628 0 -0.46566548995666102 -0.30699334687194862 0 -0.46614889815243382 -0.28918477966541628 0 -0.45455249878237658 -0.29544590796445769 0 -0.46566548995666102 -0.30699334687194862 0 -0.45010357505997362 -0.30960766080215357 0 -0.46025578792770477 -0.31575734672713801 0 -0.46566548995666102 -0.30699334687194862 0 -0.45455249878237658 -0.29544590796445769 0 -0.45010357505997362 -0.30960766080215357 0 -0.46614889815243382 -0.28918477966541628 0 -0.45704432264780648 -0.2816444020937402 0 -0.46632185059303471 -0.28281327999109612 0 -0.45704432264780648 -0.2816444020937402 0 -0.46614889815243382 -0.28918477966541628 0 -0.46632185059303471 -0.28281327999109612 0 -0.45704432264780648 -0.2816444020937402 0 -0.46614889815243382 -0.28918477966541628 0 -0.46632185059303471 -0.28281327999109612 0 -0.46614889815243382 -0.28918477966541628 0 -0.45704432264780648 -0.2816444020937402 0 -0.45455249878237658 -0.29544590796445769 0 -0.45455249878237658 -0.29544590796445769 0 -0.4426433812220455 -0.28911143481225438 0 -0.44230479446029891 -0.29938155685512718 0 -0.45704432264780648 -0.2816444020937402 0 -0.4426433812220455 -0.28911143481225438 0 -0.42952630403250308 -0.27817740054673812 0 -0.45704432264780648 -0.2816444020937402 0 -0.45455249878237658 -0.29544590796445769 0 -0.4426433812220455 -0.28911143481225438 0 -0.4426433812220455 -0.28911143481225438 0 -0.44230479446029891 -0.29938155685512718 0 -0.43017570111974468 -0.29473387401557433 0 -0.44230479446029891 -0.29938155685512718 0 -0.45010357505997362 -0.30960766080215357 0 -0.43145796706030137 -0.31609302327280892 0 -0.45455249878237658 -0.29544590796445769 0 -0.44230479446029891 -0.29938155685512718 0 -0.45010357505997362 -0.30960766080215357 0 -0.45010357505997362 -0.30960766080215357 0 -0.44435118887824693 -0.32029098325517907 0 -0.43145796706030137 -0.31609302327280892 0 -0.44435118887824693 -0.32029098325517907 0 -0.4417979516758016 -0.33549895859754397 0 -0.43145796706030137 -0.31609302327280892 0 -0.45248578672557649 -0.31712972163305359 0 -0.44435118887824693 -0.32029098325517907 0 -0.45499375071391351 -0.32461079429656098 0 -0.44435118887824693 -0.32029098325517907 0 -0.4417979516758016 -0.33549895859754397 0 -0.45499375071391351 -0.32461079429656098 0 -0.45010357505997362 -0.30960766080215357 0 -0.45248578672557649 -0.31712972163305359 0 -0.44435118887824693 -0.32029098325517907 0 -0.4417979516758016 -0.33549895859754397 0 -0.46084149525271739 -0.33550744741770949 0 -0.44166092113712191 -0.34675801097398767 0 -0.4417979516758016 -0.33549895859754397 0 -0.45708426714643552 -0.32850625044347509 0 -0.45499375071391351 -0.32461079429656098 0 -0.4417979516758016 -0.33549895859754397 0 -0.45708426714643552 -0.32850625044347509 0 -0.4417979516758016 -0.33549895859754397 0 -0.46084149525271739 -0.33550744741770949 0 -0.45708426714643552 -0.32850625044347509 0 -0.46084149525271739 -0.33550744741770949 0 -0.45708426714643552 -0.32850625044347509 0 -0.46084149525271739 -0.33550744741770949 0 -0.46469649260395429 -0.34269082703366938 0 -0.46469649260395429 -0.34269082703366938 0 -0.46509799656515649 -0.32789957951390442 0 -0.46084149525271739 -0.33550744741770949 0 -0.45708426714643552 -0.32850625044347509 0 -0.46509799656515649 -0.32789957951390442 0 -0.46509799656515649 -0.32789957951390442 0 -0.4673983143795401 -0.32378810091117199 0 -0.47298438791160979 -0.33380296699225659 0 -0.46469649260395429 -0.34269082703366938 0 -0.46509799656515649 -0.32789957951390442 0 -0.47298438791160979 -0.33380296699225659 0 -0.46084149525271739 -0.33550744741770949 0 -0.46469649260395429 -0.34269082703366938 0 -0.46509799656515649 -0.32789957951390442 0 -0.46084149525271739 -0.33550744741770949 0 -0.46509799656515649 -0.32789957951390442 0 -0.46566548995666102 -0.30699334687194862 0 -0.46518208176088971 -0.32480191407848091 0 -0.46025578792770477 -0.31575734672713801 0 -0.46518208176088971 -0.32480191407848091 0 -0.46509799656515649 -0.32789957951390442 0 -0.4673983143795401 -0.32378810091117199 0 -0.45708426714643552 -0.32850625044347509 0 -0.46518208176088971 -0.32480191407848091 0 -0.46509799656515649 -0.32789957951390442 0 -0.45708426714643552 -0.32850625044347509 0 -0.46518208176088971 -0.32480191407848091 0 -0.46518208176088971 -0.32480191407848091 0 -0.45905061344978038 -0.32192637555877313 0 -0.46025578792770477 -0.31575734672713801 0 -0.46509799656515649 -0.32789957951390442 0 -0.4673983143795401 -0.32378810091117199 0 -0.46566548995666102 -0.30699334687194862 0 -0.46518208176088971 -0.32480191407848091 0 -0.46566548995666102 -0.30699334687194862 0 -0.46518208176088971 -0.32480191407848091 0 -0.4673983143795401 -0.32378810091117199 0 -0.46518208176088971 -0.32480191407848091 0 -0.4673983143795401 -0.32378810091117199 0 -0.46518208176088971 -0.32480191407848091 0 -0.46509799656515649 -0.32789957951390442 0 -0.45708426714643552 -0.32850625044347509 0 -0.45905061344978038 -0.32192637555877313 0 -0.45499375071391351 -0.32461079429656098 0 -0.45708426714643552 -0.32850625044347509 0 -0.46518208176088971 -0.32480191407848091 0 -0.45905061344978038 -0.32192637555877313 0 -0.45248578672557649 -0.31712972163305359 0 -0.45905061344978038 -0.32192637555877313 0 -0.45499375071391351 -0.32461079429656098 0 -0.45708426714643552 -0.32850625044347509 0 -0.45499375071391351 -0.32461079429656098 0 -0.45010357505997362 -0.30960766080215357 0 -0.45248578672557649 -0.31712972163305359 0 -0.46025578792770477 -0.31575734672713801 0 -0.45248578672557649 -0.31712972163305359 0 -0.45905061344978038 -0.32192637555877313 0 -0.46025578792770477 -0.31575734672713801 0 -0.49350859265582347 -0.31184398290848681 0 -0.4673983143795401 -0.32378810091117199 0 -0.49350859265582347 -0.31184398290848681 0 -0.4673983143795401 -0.32378810091117199 0 -0.48528576763365822 -0.32837965709332112 0 -0.49350859265582347 -0.31184398290848681 0 -0.50000000000000067 -0.31722014375440483 0 -0.48528576763365822 -0.32837965709332112 0 -0.49350859265582347 -0.31184398290848681 0 -0.49999999999999778 -0.30887449577771331 0 -0.50000000000000067 -0.31722014375440483 0 -0.49350859265582347 -0.31184398290848681 0 -0.50000000000000067 -0.31722014375440483 0 -0.5 -0.34184855010140219 0 -0.48528576763365822 -0.32837965709332112 0 -0.48244336837574059 -0.34625667040921709 0 -0.50000000000000067 -0.31722014375440483 0 -0.5 -0.34184855010140219 0 -0.48528576763365822 -0.32837965709332112 0 -0.48528576763365822 -0.32837965709332112 0 -0.47298438791160979 -0.33380296699225659 0 -0.48244336837574059 -0.34625667040921709 0 -0.46469649260395429 -0.34269082703366938 0 -0.47298438791160979 -0.33380296699225659 0 -0.48244336837574059 -0.34625667040921709 0 -0.4673983143795401 -0.32378810091117199 0 -0.48528576763365822 -0.32837965709332112 0 -0.47298438791160979 -0.33380296699225659 0 -0.46469649260395429 -0.34269082703366938 0 -0.47746603303382162 -0.36648551431137971 0 -0.46469649260395429 -0.34269082703366938 0 -0.48244336837574059 -0.34625667040921709 0 -0.47746603303382162 -0.36648551431137971 0 -0.5 -0.34184855010140219 0 -0.48244336837574059 -0.34625667040921709 0 -0.5 -0.36647695644839973 0 -0.49023557346368879 -0.39028020158908988 0 -0.5 -0.36647695644839973 0 -0.47746603303382162 -0.36648551431137971 0 -0.48244336837574059 -0.34625667040921709 0 -0.5 -0.36647695644839973 0 -0.47746603303382162 -0.36648551431137971 0 -0.46469649260395429 -0.34269082703366938 0 -0.47746603303382162 -0.36648551431137971 0 -0.46389872468676258 -0.37208028234858231 0 -0.46469649260395429 -0.34269082703366938 0 -0.46389872468676258 -0.37208028234858231 0 -0.46084149525271739 -0.33550744741770949 0 -0.44687443252071368 -0.3604715107339253 0 -0.46469649260395429 -0.34269082703366938 0 -0.46389872468676258 -0.37208028234858231 0 -0.44687443252071368 -0.3604715107339253 0 -0.46084149525271739 -0.33550744741770949 0 -0.46469649260395429 -0.34269082703366938 0 -0.44687443252071368 -0.3604715107339253 0 -0.46084149525271739 -0.33550744741770949 0 -0.44166092113712191 -0.34675801097398767 0 -0.44687443252071368 -0.3604715107339253 0 -0.44166092113712191 -0.34675801097398767 0 -0.44687443252071368 -0.3604715107339253 0 -0.43227909003121101 -0.35982047136914941 0 -0.43290736978870797 -0.38543557405013978 0 -0.44687443252071368 -0.3604715107339253 0 -0.43290736978870797 -0.38543557405013978 0 -0.46389872468676258 -0.37208028234858231 0 -0.44687443252071368 -0.3604715107339253 0 -0.43290736978870797 -0.38543557405013978 0 -0.44687443252071368 -0.3604715107339253 0 -0.43126905445349678 -0.37234441644099969 0 -0.43126905445349678 -0.37234441644099969 0 -0.43227909003121101 -0.35982047136914941 0 -0.42109871631645679 -0.37138050304385167 0 -0.44687443252071368 -0.3604715107339253 0 -0.43126905445349678 -0.37234441644099969 0 -0.43227909003121101 -0.35982047136914941 0 -0.43227909003121101 -0.35982047136914941 0 -0.42109871631645679 -0.37138050304385167 0 -0.42651163620516641 -0.34249166675161002 0 -0.42109871631645679 -0.37138050304385167 0 -0.42651163620516641 -0.34249166675161002 0 -0.44166092113712191 -0.34675801097398767 0 -0.43227909003121101 -0.35982047136914941 0 -0.42651163620516641 -0.34249166675161002 0 -0.41182516172249178 -0.36132552398238871 0 -0.42109871631645679 -0.37138050304385167 0 -0.42651163620516641 -0.34249166675161002 0 -0.41461383023869541 -0.34793430496990069 0 -0.41182516172249178 -0.36132552398238871 0 -0.42651163620516641 -0.34249166675161002 0 -0.41461383023869541 -0.34793430496990069 0 -0.42651163620516641 -0.34249166675161002 0 -0.41461383023869541 -0.34793430496990069 0 -0.41182516172249178 -0.36132552398238871 0 -0.40044762838039122 -0.35141860563878929 0 -0.40565570684054059 -0.38199308209152538 0 -0.41182516172249178 -0.36132552398238871 0 -0.42109871631645679 -0.37138050304385167 0 -0.41182516172249178 -0.36132552398238871 0 -0.39329765606401179 -0.36591906924242928 0 -0.40044762838039122 -0.35141860563878929 0 -0.40565570684054059 -0.38199308209152538 0 -0.41182516172249178 -0.36132552398238871 0 -0.39329765606401179 -0.36591906924242928 0 -0.39329765606401179 -0.36591906924242928 0 -0.37934084389988759 -0.34265061145702203 0 -0.37178503006078351 -0.36529734894278382 0 -0.37934084389988759 -0.34265061145702203 0 -0.37178503006078351 -0.36529734894278382 0 -0.40044762838039122 -0.35141860563878929 0 -0.40113500644273398 -0.33730175990772421 0 -0.37934084389988759 -0.34265061145702203 0 -0.39329765606401179 -0.36591906924242928 0 -0.40044762838039122 -0.35141860563878929 0 -0.37934084389988759 -0.34265061145702203 0 -0.41461383023869541 -0.34793430496990069 0 -0.40044762838039122 -0.35141860563878929 0 -0.40113500644273398 -0.33730175990772421 0 -0.37934084389988759 -0.34265061145702203 0 -0.38689665773899168 -0.32000387397126018 0 -0.36688233114378599 -0.32336449739608991 0 -0.40113500644273398 -0.33730175990772421 0 -0.37934084389988759 -0.34265061145702203 0 -0.38689665773899168 -0.32000387397126018 0 -0.37934084389988759 -0.34265061145702203 0 -0.38689665773899168 -0.32000387397126018 0 -0.40113500644273398 -0.33730175990772421 0 -0.38689665773899168 -0.32000387397126018 0 -0.40789019056120701 -0.32425434509037182 0 -0.38689665773899168 -0.32000387397126018 0 -0.40789019056120701 -0.32425434509037182 0 -0.40707665114014369 -0.30892194600540512 0 -0.40789019056120701 -0.32425434509037182 0 -0.43145796706030137 -0.31609302327280892 0 -0.40707665114014369 -0.30892194600540512 0 -0.40789019056120701 -0.32425434509037182 0 -0.41632172610162049 -0.33361501999848298 0 -0.43145796706030137 -0.31609302327280892 0 -0.40113500644273398 -0.33730175990772421 0 -0.40789019056120701 -0.32425434509037182 0 -0.41632172610162049 -0.33361501999848298 0 -0.41461383023869541 -0.34793430496990069 0 -0.40113500644273398 -0.33730175990772421 0 -0.41632172610162049 -0.33361501999848298 0 -0.41461383023869541 -0.34793430496990069 0 -0.41632172610162049 -0.33361501999848298 0 -0.42651163620516641 -0.34249166675161002 0 -0.42651163620516641 -0.34249166675161002 0 -0.43145796706030137 -0.31609302327280892 0 -0.41632172610162049 -0.33361501999848298 0 -0.42651163620516641 -0.34249166675161002 0 -0.43145796706030137 -0.31609302327280892 0 -0.4417979516758016 -0.33549895859754397 0 -0.42651163620516641 -0.34249166675161002 0 -0.43145796706030137 -0.31609302327280892 0 -0.4417979516758016 -0.33549895859754397 0 -0.44166092113712191 -0.34675801097398767 0 -0.42651163620516641 -0.34249166675161002 0 -0.4417979516758016 -0.33549895859754397 0 -0.42651163620516641 -0.34249166675161002 0 -0.43145796706030137 -0.31609302327280892 0 -0.43017570111974468 -0.29473387401557433 0 -0.41791314895342768 -0.29854386426099699 0 -0.44230479446029891 -0.29938155685512718 0 -0.43145796706030137 -0.31609302327280892 0 -0.43017570111974468 -0.29473387401557433 0 -0.4426433812220455 -0.28911143481225438 0 -0.43017570111974468 -0.29473387401557433 0 -0.42952630403250308 -0.27817740054673812 0 -0.43017570111974468 -0.29473387401557433 0 -0.41720861098989159 -0.28709596434552059 0 -0.42952630403250308 -0.27817740054673812 0 -0.43017570111974468 -0.29473387401557433 0 -0.41720861098989159 -0.28709596434552059 0 -0.41791314895342768 -0.29854386426099699 0 -0.41720861098989159 -0.28709596434552059 0 -0.40746740411384702 -0.29327283039071472 0 -0.40200828541719991 -0.2747103989997367 0 -0.41720861098989159 -0.28709596434552059 0 -0.40746740411384702 -0.29327283039071472 0 -0.41791314895342768 -0.29854386426099699 0 -0.43145796706030137 -0.31609302327280892 0 -0.40707665114014369 -0.30892194600540512 0 -0.41791314895342768 -0.29854386426099699 0 -0.40746740411384702 -0.29327283039071472 0 -0.40707665114014369 -0.30892194600540512 0 -0.41791314895342768 -0.29854386426099699 0 -0.38689665773899168 -0.32000387397126018 0 -0.40707665114014369 -0.30892194600540512 0 -0.39445247157809582 -0.29735713648549839 0 -0.40746740411384702 -0.29327283039071472 0 -0.40707665114014369 -0.30892194600540512 0 -0.39445247157809582 -0.29735713648549839 0 -0.38689665773899168 -0.32000387397126018 0 -0.39445247157809582 -0.29735713648549839 0 -0.38689665773899168 -0.32000387397126018 0 -0.39445247157809582 -0.29735713648549839 0 -0.38037557244982101 -0.30048983606452878 0 -0.38689665773899168 -0.32000387397126018 0 -0.38037557244982101 -0.30048983606452878 0 -0.36717694482859942 -0.30680666312855692 0 -0.38037557244982101 -0.30048983606452878 0 -0.37963392111092292 -0.28717625718561318 0 -0.36583676364519269 -0.28965536830050209 0 -0.39445247157809582 -0.29735713648549839 0 -0.38037557244982101 -0.30048983606452878 0 -0.37963392111092292 -0.28717625718561318 0 -0.39445247157809582 -0.29735713648549839 0 -0.37963392111092292 -0.28717625718561318 0 -0.38989203852294579 -0.28290474668297871 0 -0.39445247157809582 -0.29735713648549839 0 -0.40200828541719991 -0.2747103989997367 0 -0.39445247157809582 -0.29735713648549839 0 -0.38989203852294579 -0.28290474668297871 0 -0.40200828541719991 -0.2747103989997367 0 -0.40746740411384702 -0.29327283039071472 0 -0.39445247157809582 -0.29735713648549839 0 -0.40200828541719991 -0.2747103989997367 0 -0.40200828541719991 -0.2747103989997367 0 -0.38347347598556453 -0.27237519406106647 0 -0.39635240346415312 -0.2588415307594677 0 -0.40200828541719991 -0.2747103989997367 0 -0.38347347598556453 -0.27237519406106647 0 -0.38989203852294579 -0.28290474668297871 0 -0.40200828541719991 -0.2747103989997367 0 -0.38347347598556453 -0.27237519406106647 0 -0.37963392111092292 -0.28717625718561318 0 -0.38989203852294579 -0.28290474668297871 0 -0.38347347598556453 -0.27237519406106647 0 -0.37963392111092292 -0.28717625718561318 0 -0.38347347598556453 -0.27237519406106647 0 -0.37177678906656009 -0.27674374449823708 0 -0.37503959140066129 -0.26459183957438442 0 -0.39635240346415312 -0.2588415307594677 0 -0.37188879865155833 -0.25355628243806172 0 -0.39635240346415312 -0.2588415307594677 0 -0.37188879865155833 -0.25355628243806172 0 -0.39635240346415312 -0.2588415307594677 0 -0.37188879865155833 -0.25355628243806172 0 -0.38717538074916041 -0.24205937736322519 0 -0.38347347598556453 -0.27237519406106647 0 -0.37503959140066129 -0.26459183957438442 0 -0.39635240346415312 -0.2588415307594677 0 -0.40200828541719991 -0.2747103989997367 0 -0.39635240346415312 -0.2588415307594677 0 -0.408217828962744 -0.25609878341776537 0 -0.40200828541719991 -0.2747103989997367 0 -0.408217828962744 -0.25609878341776537 0 -0.39635240346415312 -0.2588415307594677 0 -0.408217828962744 -0.25609878341776537 0 -0.40024772215640941 -0.24409137686402119 0 -0.40200828541719991 -0.2747103989997367 0 -0.408217828962744 -0.25609878341776537 0 -0.41495242933860649 -0.26582550498337337 0 -0.41854359540397512 -0.25437636802851898 0 -0.41495242933860649 -0.26582550498337337 0 -0.42494338421596511 -0.26286915695575841 0 -0.408217828962744 -0.25609878341776537 0 -0.41854359540397512 -0.25437636802851898 0 -0.41495242933860649 -0.26582550498337337 0 -0.41720861098989159 -0.28709596434552059 0 -0.40200828541719991 -0.2747103989997367 0 -0.42952630403250308 -0.27817740054673812 0 -0.40200828541719991 -0.2747103989997367 0 -0.42952630403250308 -0.27817740054673812 0 -0.40200828541719991 -0.2747103989997367 0 -0.41495242933860649 -0.26582550498337337 0 -0.42952630403250308 -0.27817740054673812 0 -0.41495242933860649 -0.26582550498337337 0 -0.42952630403250308 -0.27817740054673812 0 -0.42494338421596511 -0.26286915695575841 0 -0.43759863023700479 -0.26553954768887672 0 -0.42952630403250308 -0.27817740054673812 0 -0.42494338421596511 -0.26286915695575841 0 -0.43759863023700479 -0.26553954768887672 0 -0.42494338421596511 -0.26286915695575841 0 -0.42833458773741268 -0.24897925504711041 0 -0.41854359540397512 -0.25437636802851898 0 -0.42494338421596511 -0.26286915695575841 0 -0.42833458773741268 -0.24897925504711041 0 -0.32718050288791878 -0.26654201225671542 0 -0.31102775191496862 -0.26575833111740338 0 -0.30088630869302119 -0.26030325264646792 0 -0.32718050288791878 -0.26654201225671542 0 -0.30088630869302119 -0.26030325264646792 0 -0.31791543562562691 -0.25779809850038998 0 -0.32718050288791878 -0.26654201225671542 0 -0.30088630869302119 -0.26030325264646792 0 -0.31791543562562691 -0.25779809850038998 0 -0.32718050288791878 -0.26654201225671542 0 -0.33848826412072558 -0.26759081806213109 0 -0.31791543562562691 -0.25779809850038998 0 -0.33318887221925242 -0.25470940155190791 0 -0.32296158902636862 -0.2429857857952496 0 -0.32004575743215868 -0.28044253872316682 0 -0.32718050288791878 -0.26654201225671542 0 -0.31102775191496862 -0.26575833111740338 0 -0.32004575743215868 -0.28044253872316682 0 -0.32718050288791878 -0.26654201225671542 0 -0.33229086667473479 -0.27687074181567289 0 -0.32718050288791878 -0.26654201225671542 0 -0.33229086667473479 -0.27687074181567289 0 -0.33848826412072558 -0.26759081806213109 0 -0.33229086667473479 -0.27687074181567289 0 -0.34288917699532068 -0.28066023778384702 0 -0.33848826412072558 -0.26759081806213109 0 -0.31791543562562691 -0.25779809850038998 0 -0.33848826412072558 -0.26759081806213109 0 -0.33318887221925242 -0.25470940155190791 0 -0.33848826412072558 -0.26759081806213109 0 -0.33318887221925242 -0.25470940155190791 0 -0.34619951054131798 -0.25959090535950452 0 -0.31791543562562691 -0.25779809850038998 0 -0.33848826412072558 -0.26759081806213109 0 -0.33318887221925242 -0.25470940155190791 0 -0.34619951054131798 -0.25959090535950452 0 -0.34742519383896342 -0.2482710341166556 0 -0.34619951054131798 -0.25959090535950452 0 -0.3597330667880439 -0.26087091949655722 0 -0.34742519383896342 -0.2482710341166556 0 -0.33848826412072558 -0.26759081806213109 0 -0.34619951054131798 -0.25959090535950452 0 -0.35216215573960469 -0.26651235357027081 0 -0.34619951054131798 -0.25959090535950452 0 -0.3597330667880439 -0.26087091949655722 0 -0.35216215573960469 -0.26651235357027081 0 -0.3597330667880439 -0.26087091949655722 0 -0.35897374542435051 -0.2687016999532742 0 -0.35216215573960469 -0.26651235357027081 0 -0.3597330667880439 -0.26087091949655722 0 -0.37188879865155833 -0.25355628243806172 0 -0.34742519383896342 -0.2482710341166556 0 -0.37188879865155833 -0.25355628243806172 0 -0.34742519383896342 -0.2482710341166556 0 -0.37503959140066129 -0.26459183957438442 0 -0.3597330667880439 -0.26087091949655722 0 -0.36493866655392909 -0.27003998912239668 0 -0.37503959140066129 -0.26459183957438442 0 -0.3597330667880439 -0.26087091949655722 0 -0.37188879865155833 -0.25355628243806172 0 -0.38347347598556453 -0.27237519406106647 0 -0.37177678906656009 -0.27674374449823708 0 -0.36493866655392909 -0.27003998912239668 0 -0.38347347598556453 -0.27237519406106647 0 -0.37503959140066129 -0.26459183957438442 0 -0.36493866655392909 -0.27003998912239668 0 -0.38347347598556453 -0.27237519406106647 0 -0.36493866655392909 -0.27003998912239668 0 -0.37963392111092292 -0.28717625718561318 0 -0.37177678906656009 -0.27674374449823708 0 -0.35906109261582431 -0.27738353762387208 0 -0.36493866655392909 -0.27003998912239668 0 -0.35906109261582431 -0.27738353762387208 0 -0.35897374542435051 -0.2687016999532742 0 -0.3597330667880439 -0.26087091949655722 0 -0.36493866655392909 -0.27003998912239668 0 -0.35897374542435051 -0.2687016999532742 0 -0.37177678906656009 -0.27674374449823708 0 -0.36493866655392909 -0.27003998912239668 0 -0.35906109261582431 -0.27738353762387208 0 -0.33848826412072558 -0.26759081806213109 0 -0.35906109261582431 -0.27738353762387208 0 -0.35216215573960469 -0.26651235357027081 0 -0.34288917699532068 -0.28066023778384702 0 -0.33848826412072558 -0.26759081806213109 0 -0.35906109261582431 -0.27738353762387208 0 -0.33848826412072558 -0.26759081806213109 0 -0.35906109261582431 -0.27738353762387208 0 -0.35906109261582431 -0.27738353762387208 0 -0.35897374542435051 -0.2687016999532742 0 -0.35216215573960469 -0.26651235357027081 0 -0.34288917699532068 -0.28066023778384702 0 -0.35906109261582431 -0.27738353762387208 0 -0.35210722845770348 -0.29248510496485758 0 -0.35906109261582431 -0.27738353762387208 0 -0.35210722845770348 -0.29248510496485758 0 -0.36583676364519269 -0.28965536830050209 0 -0.37963392111092292 -0.28717625718561318 0 -0.35906109261582431 -0.27738353762387208 0 -0.36583676364519269 -0.28965536830050209 0 -0.35210722845770348 -0.29248510496485758 0 -0.36583676364519269 -0.28965536830050209 0 -0.36717694482859942 -0.30680666312855692 0 -0.37963392111092292 -0.28717625718561318 0 -0.35906109261582431 -0.27738353762387208 0 -0.38037557244982101 -0.30048983606452878 0 -0.36583676364519269 -0.28965536830050209 0 -0.36717694482859942 -0.30680666312855692 0 -0.35210722845770348 -0.29248510496485758 0 -0.33262414653510991 -0.31176418600844519 0 -0.35298601431416099 -0.31324965148243189 0 -0.35210722845770348 -0.29248510496485758 0 -0.36717694482859942 -0.30680666312855692 0 -0.35298601431416099 -0.31324965148243189 0 -0.35210722845770348 -0.29248510496485758 0 -0.33262414653510991 -0.31176418600844519 0 -0.35210722845770348 -0.29248510496485758 0 -0.33262414653510991 -0.31176418600844519 0 -0.33285063193755032 -0.28911810225250428 0 -0.34288917699532068 -0.28066023778384702 0 -0.35210722845770348 -0.29248510496485758 0 -0.33285063193755032 -0.28911810225250428 0 -0.33229086667473479 -0.27687074181567289 0 -0.34288917699532068 -0.28066023778384702 0 -0.33285063193755032 -0.28911810225250428 0 -0.32004575743215868 -0.28044253872316682 0 -0.33229086667473479 -0.27687074181567289 0 -0.33285063193755032 -0.28911810225250428 0 -0.32004575743215868 -0.28044253872316682 0 -0.31760851252970779 -0.29527464433084938 0 -0.30045989251645511 -0.28996897090636758 0 -0.32004575743215868 -0.28044253872316682 0 -0.33285063193755032 -0.28911810225250428 0 -0.31760851252970779 -0.29527464433084938 0 -0.33262414653510991 -0.31176418600844519 0 -0.33285063193755032 -0.28911810225250428 0 -0.31760851252970779 -0.29527464433084938 0 -0.33262414653510991 -0.31176418600844519 0 -0.31760851252970779 -0.29527464433084938 0 -0.30896327336253021 -0.31144898735874421 0 -0.33262414653510991 -0.31176418600844519 0 -0.31314106461251612 -0.33104326705203269 0 -0.33168463361977951 -0.34635441994088689 0 -0.33262414653510991 -0.31176418600844519 0 -0.34988296926897461 -0.33639556796814668 0 -0.33168463361977951 -0.34635441994088689 0 -0.33262414653510991 -0.31176418600844519 0 -0.31314106461251612 -0.33104326705203269 0 -0.33262414653510991 -0.31176418600844519 0 -0.31314106461251612 -0.33104326705203269 0 -0.30896327336253021 -0.31144898735874421 0 -0.31314106461251612 -0.33104326705203269 0 -0.33168463361977951 -0.34635441994088689 0 -0.31419232211825032 -0.35134380601239978 0 -0.33262414653510991 -0.31176418600844519 0 -0.35298601431416099 -0.31324965148243189 0 -0.34988296926897461 -0.33639556796814668 0 -0.35298601431416099 -0.31324965148243189 0 -0.36688233114378599 -0.32336449739608991 0 -0.34988296926897461 -0.33639556796814668 0 -0.36717694482859942 -0.30680666312855692 0 -0.35298601431416099 -0.31324965148243189 0 -0.36688233114378599 -0.32336449739608991 0 -0.38689665773899168 -0.32000387397126018 0 -0.36717694482859942 -0.30680666312855692 0 -0.36688233114378599 -0.32336449739608991 0 -0.37934084389988759 -0.34265061145702203 0 -0.36688233114378599 -0.32336449739608991 0 -0.34988296926897461 -0.33639556796814668 0 -0.34988296926897461 -0.33639556796814668 0 -0.35225036438710611 -0.35868620660607398 0 -0.33168463361977951 -0.34635441994088689 0 -0.37934084389988759 -0.34265061145702203 0 -0.34988296926897461 -0.33639556796814668 0 -0.35225036438710611 -0.35868620660607398 0 -0.37934084389988759 -0.34265061145702203 0 -0.35225036438710611 -0.35868620660607398 0 -0.37178503006078351 -0.36529734894278382 0 -0.35225036438710611 -0.35868620660607398 0 -0.37178503006078351 -0.36529734894278382 0 -0.36071832257077457 -0.38334357118609957 0 -0.35225036438710611 -0.35868620660607398 0 -0.36071832257077457 -0.38334357118609957 0 -0.34271089175443131 -0.38260457501684703 0 -0.35225036438710611 -0.35868620660607398 0 -0.33181720305412532 -0.36523713002702102 0 -0.34271089175443131 -0.38260457501684703 0 -0.35225036438710611 -0.35868620660607398 0 -0.33181720305412532 -0.36523713002702102 0 -0.33168463361977951 -0.34635441994088689 0 -0.33181720305412532 -0.36523713002702102 0 -0.33168463361977951 -0.34635441994088689 0 -0.31419232211825032 -0.35134380601239978 0 -0.33181720305412532 -0.36523713002702102 0 -0.31419232211825032 -0.35134380601239978 0 -0.30939950549939282 -0.3690978934046581 0 -0.33181720305412532 -0.36523713002702102 0 -0.30939950549939282 -0.3690978934046581 0 -0.32401801859692708 -0.38535817519234999 0 -0.30939950549939282 -0.3690978934046581 0 -0.29365798268992238 -0.3503223480956203 0 -0.28980797653648732 -0.36859276033581673 0 -0.31419232211825032 -0.35134380601239978 0 -0.30939950549939282 -0.3690978934046581 0 -0.29365798268992238 -0.3503223480956203 0 -0.31314106461251612 -0.33104326705203269 0 -0.31419232211825032 -0.35134380601239978 0 -0.29365798268992238 -0.3503223480956203 0 -0.29365798268992238 -0.3503223480956203 0 -0.28980797653648732 -0.36859276033581673 0 -0.27808032942746391 -0.3546122674790711 0 -0.29365798268992238 -0.3503223480956203 0 -0.27808032942746391 -0.3546122674790711 0 -0.27932417371942792 -0.33839025048429622 0 -0.28980797653648732 -0.36859276033581673 0 -0.26742365395625978 -0.37098214471832791 0 -0.27808032942746391 -0.3546122674790711 0 -0.26742365395625978 -0.37098214471832791 0 -0.26018786023522222 -0.34477383376129439 0 -0.24859176807149699 -0.36341379124355189 0 -0.26742365395625978 -0.37098214471832791 0 -0.26018786023522222 -0.34477383376129439 0 -0.27808032942746391 -0.3546122674790711 0 -0.26018786023522222 -0.34477383376129439 0 -0.27808032942746391 -0.3546122674790711 0 -0.27932417371942792 -0.33839025048429622 0 -0.26018786023522222 -0.34477383376129439 0 -0.27932417371942792 -0.33839025048429622 0 -0.26654007676695379 -0.32496947236408508 0 -0.26018786023522222 -0.34477383376129439 0 -0.26654007676695379 -0.32496947236408508 0 -0.24829220308125771 -0.3217190068292608 0 -0.26654007676695379 -0.32496947236408508 0 -0.26700625476928802 -0.30644022255972631 0 -0.24829220308125771 -0.3217190068292608 0 -0.26654007676695379 -0.32496947236408508 0 -0.28989203311794148 -0.3141796106953319 0 -0.26700625476928802 -0.30644022255972631 0 -0.27932417371942792 -0.33839025048429622 0 -0.26654007676695379 -0.32496947236408508 0 -0.28989203311794148 -0.3141796106953319 0 -0.27932417371942792 -0.33839025048429622 0 -0.28989203311794148 -0.3141796106953319 0 -0.27932417371942792 -0.33839025048429622 0 -0.28989203311794148 -0.3141796106953319 0 -0.29587721691523272 -0.33308090382889449 0 -0.29365798268992238 -0.3503223480956203 0 -0.27932417371942792 -0.33839025048429622 0 -0.29587721691523272 -0.33308090382889449 0 -0.31314106461251612 -0.33104326705203269 0 -0.29365798268992238 -0.3503223480956203 0 -0.31314106461251612 -0.33104326705203269 0 -0.29365798268992238 -0.3503223480956203 0 -0.29587721691523272 -0.33308090382889449 0 -0.28989203311794148 -0.3141796106953319 0 -0.29587721691523272 -0.33308090382889449 0 -0.30896327336253021 -0.31144898735874421 0 -0.31314106461251612 -0.33104326705203269 0 -0.29587721691523272 -0.33308090382889449 0 -0.30896327336253021 -0.31144898735874421 0 -0.28989203311794148 -0.3141796106953319 0 -0.30896327336253021 -0.31144898735874421 0 -0.30045989251645511 -0.28996897090636758 0 -0.31760851252970779 -0.29527464433084938 0 -0.30896327336253021 -0.31144898735874421 0 -0.30045989251645511 -0.28996897090636758 0 -0.30045989251645511 -0.28996897090636758 0 -0.27917106478415571 -0.29467451143819762 0 -0.28275090593856722 -0.27506735821562028 0 -0.28989203311794148 -0.3141796106953319 0 -0.30045989251645511 -0.28996897090636758 0 -0.28989203311794148 -0.3141796106953319 0 -0.30045989251645511 -0.28996897090636758 0 -0.27917106478415571 -0.29467451143819762 0 -0.28989203311794148 -0.3141796106953319 0 -0.26700625476928802 -0.30644022255972631 0 -0.27917106478415571 -0.29467451143819762 0 -0.26700625476928802 -0.30644022255972631 0 -0.25574623757852688 -0.28771639481394162 0 -0.2483608321007934 -0.30510172651090872 0 -0.26700625476928802 -0.30644022255972631 0 -0.24829220308125771 -0.3217190068292608 0 -0.2483608321007934 -0.30510172651090872 0 -0.26700625476928802 -0.30644022255972631 0 -0.25574623757852688 -0.28771639481394162 0 -0.27917106478415571 -0.29467451143819762 0 -0.25574623757852688 -0.28771639481394162 0 -0.27917106478415571 -0.29467451143819762 0 -0.28275090593856722 -0.27506735821562028 0 -0.25574623757852688 -0.28771639481394162 0 -0.25776330632916039 -0.26646224034157201 0 -0.23846605780934529 -0.27259686614731399 0 -0.25574623757852688 -0.28771639481394162 0 -0.25776330632916039 -0.26646224034157201 0 -0.28275090593856722 -0.27506735821562028 0 -0.25776330632916039 -0.26646224034157201 0 -0.27459211449812371 -0.25406449303622042 0 -0.24829792030322589 -0.24782573342597289 0 -0.27459211449812371 -0.25406449303622042 0 -0.24829792030322589 -0.24782573342597289 0 -0.25776330632916039 -0.26646224034157201 0 -0.27459211449812371 -0.25406449303622042 0 -0.28275090593856722 -0.27506735821562028 0 -0.27459211449812371 -0.25406449303622042 0 -0.30088630869302119 -0.26030325264646792 0 -0.29734260713052812 -0.24800537893864891 0 -0.27459211449812371 -0.25406449303622042 0 -0.30088630869302119 -0.26030325264646792 0 -0.27459211449812371 -0.25406449303622042 0 -0.28275090593856722 -0.27506735821562028 0 -0.30088630869302119 -0.26030325264646792 0 -0.28275090593856722 -0.27506735821562028 0 -0.29859218808952248 -0.27449852690015142 0 -0.30088630869302119 -0.26030325264646792 0 -0.30045989251645511 -0.28996897090636758 0 -0.28275090593856722 -0.27506735821562028 0 -0.29859218808952248 -0.27449852690015142 0 -0.30045989251645511 -0.28996897090636758 0 -0.29859218808952248 -0.27449852690015142 0 -0.31102775191496862 -0.26575833111740338 0 -0.30045989251645511 -0.28996897090636758 0 -0.31102775191496862 -0.26575833111740338 0 -0.32004575743215868 -0.28044253872316682 0 -0.30045989251645511 -0.28996897090636758 0 -0.31102775191496862 -0.26575833111740338 0 -0.29859218808952248 -0.27449852690015142 0 -0.31102775191496862 -0.26575833111740338 0 -0.30088630869302119 -0.26030325264646792 0 -0.31791543562562691 -0.25779809850038998 0 -0.29734260713052812 -0.24800537893864891 0 -0.31791543562562691 -0.25779809850038998 0 -0.30088630869302119 -0.26030325264646792 0 -0.29734260713052812 -0.24800537893864891 0 -0.31791543562562691 -0.25779809850038998 0 -0.29734260713052812 -0.24800537893864891 0 -0.30954081865794197 -0.24672666549110259 0 -0.3318088716460379 -0.45698322677472841 0 -0.34093593996772598 -0.4699684614471365 0 -0.34864763239919327 -0.45512971358297222 0 -0.3318088716460379 -0.45698322677472841 0 -0.32586019831200302 -0.47925710374688618 0 -0.3318088716460379 -0.45698322677472841 0 -0.32586019831200302 -0.47925710374688618 0 -0.34093593996772598 -0.4699684614471365 0 -0.3318088716460379 -0.45698322677472841 0 -0.33775754498007149 -0.43470934980257031 0 -0.32707074995953511 -0.4359603364598188 0 -0.3318088716460379 -0.45698322677472841 0 -0.34864763239919327 -0.45512971358297222 0 -0.34787834831270897 -0.43820672398750499 0 -0.3318088716460379 -0.45698322677472841 0 -0.33775754498007149 -0.43470934980257031 0 -0.3318088716460379 -0.45698322677472841 0 -0.34787834831270897 -0.43820672398750499 0 -0.33775754498007149 -0.43470934980257031 0 -0.31605348825732682 -0.45221516566907588 0 -0.32707074995953511 -0.4359603364598188 0 -0.29851212576262542 -0.44286146587924902 0 -0.3318088716460379 -0.45698322677472841 0 -0.31605348825732682 -0.45221516566907588 0 -0.32707074995953511 -0.4359603364598188 0 -0.32707074995953511 -0.4359603364598188 0 -0.29851212576262542 -0.44286146587924902 0 -0.31605348825732682 -0.45221516566907588 0 -0.32003220181022468 -0.46576933048408931 0 -0.3066069397233826 -0.47173991744962263 0 -0.3318088716460379 -0.45698322677472841 0 -0.32003220181022468 -0.46576933048408931 0 -0.32586019831200302 -0.47925710374688618 0 -0.3318088716460379 -0.45698322677472841 0 -0.31605348825732682 -0.45221516566907588 0 -0.32003220181022468 -0.46576933048408931 0 -0.32003220181022468 -0.46576933048408931 0 -0.32586019831200302 -0.47925710374688618 0 -0.3066069397233826 -0.47173991744962263 0 -0.32586019831200302 -0.47925710374688618 0 -0.3066069397233826 -0.47173991744962263 0 -0.32586019831200302 -0.47925710374688618 0 -0.30875242297607841 -0.48701134229986098 0 -0.3066069397233826 -0.47173991744962263 0 -0.32586019831200302 -0.47925710374688618 0 -0.32032040324328942 -0.49999999999999989 0 -0.30875242297607841 -0.48701134229986098 0 -0.32586019831200302 -0.47925710374688618 0 -0.32032040324328942 -0.49999999999999989 0 -0.32032040324328942 -0.49999999999999989 0 -0.34204366254132279 -0.48557572846108432 0 -0.34588000156725418 -0.5 0 -0.32586019831200302 -0.47925710374688618 0 -0.32032040324328942 -0.49999999999999989 0 -0.34204366254132279 -0.48557572846108432 0 -0.32586019831200302 -0.47925710374688618 0 -0.34204366254132279 -0.48557572846108432 0 -0.32586019831200302 -0.47925710374688618 0 -0.34204366254132279 -0.48557572846108432 0 -0.34093593996772598 -0.4699684614471365 0 -0.34204366254132279 -0.48557572846108432 0 -0.34093593996772598 -0.4699684614471365 0 -0.35631933494007162 -0.47289653467001103 0 -0.34204366254132279 -0.48557572846108432 0 -0.35631933494007162 -0.47289653467001103 0 -0.35822712677064278 -0.4918943531752823 0 -0.34588000156725418 -0.5 0 -0.35822712677064278 -0.4918943531752823 0 -0.371439599891219 -0.5 0 -0.34204366254132279 -0.48557572846108432 0 -0.34588000156725418 -0.5 0 -0.35822712677064278 -0.4918943531752823 0 -0.34204366254132279 -0.48557572846108432 0 -0.35822712677064278 -0.4918943531752823 0 -0.37696322049074632 -0.49070689952205598 0 -0.371439599891219 -0.5 0 -0.37021707442465868 -0.48402431228606602 0 -0.35822712677064278 -0.4918943531752823 0 -0.371439599891219 -0.5 0 -0.37021707442465868 -0.48402431228606602 0 -0.37696322049074632 -0.49070689952205598 0 -0.371439599891219 -0.5 0 -0.37321573785569989 -0.50000000000000033 0 -0.35631933494007162 -0.47289653467001103 0 -0.35822712677064278 -0.4918943531752823 0 -0.37021707442465868 -0.48402431228606602 0 -0.35631933494007162 -0.47289653467001103 0 -0.37021707442465868 -0.48402431228606602 0 -0.36972453897116919 -0.47027377262069769 0 -0.38318830888483713 -0.47966333414824092 0 -0.37021707442465868 -0.48402431228606602 0 -0.36972453897116919 -0.47027377262069769 0 -0.38282279939685859 -0.46639898879402059 0 -0.36972453897116919 -0.47027377262069769 0 -0.36535057385478381 -0.45230285639076279 0 -0.35631933494007162 -0.47289653467001103 0 -0.36972453897116919 -0.47027377262069769 0 -0.36535057385478381 -0.45230285639076279 0 -0.38282279939685859 -0.46639898879402059 0 -0.36535057385478381 -0.45230285639076279 0 -0.35631933494007162 -0.47289653467001103 0 -0.34864763239919327 -0.45512971358297222 0 -0.36535057385478381 -0.45230285639076279 0 -0.34093593996772598 -0.4699684614471365 0 -0.35631933494007162 -0.47289653467001103 0 -0.34864763239919327 -0.45512971358297222 0 -0.34787834831270897 -0.43820672398750499 0 -0.36535057385478381 -0.45230285639076279 0 -0.35562937415644491 -0.42905920704038852 0 -0.34787834831270897 -0.43820672398750499 0 -0.36535057385478381 -0.45230285639076279 0 -0.34864763239919327 -0.45512971358297222 0 -0.34787834831270897 -0.43820672398750499 0 -0.36535057385478381 -0.45230285639076279 0 -0.38293400131272082 -0.44971448590963131 0 -0.36535057385478381 -0.45230285639076279 0 -0.37377006278066488 -0.4377091529438093 0 -0.36535057385478381 -0.45230285639076279 0 -0.37377006278066488 -0.4377091529438093 0 -0.35562937415644491 -0.42905920704038852 0 -0.38418799835335438 -0.42215807762095819 0 -0.37377006278066488 -0.4377091529438093 0 -0.35562937415644491 -0.42905920704038852 0 -0.38418799835335438 -0.42215807762095819 0 -0.36857509023582058 -0.4147292750795083 0 -0.35562937415644491 -0.42905920704038852 0 -0.38418799835335438 -0.42215807762095819 0 -0.35562937415644491 -0.42905920704038852 0 -0.36857509023582058 -0.4147292750795083 0 -0.35260224090209807 -0.41277586592377202 0 -0.36387564773377912 -0.40064239848585281 0 -0.36857509023582058 -0.4147292750795083 0 -0.35260224090209807 -0.41277586592377202 0 -0.35562937415644491 -0.42905920704038852 0 -0.35260224090209807 -0.41277586592377202 0 -0.35562937415644491 -0.42905920704038852 0 -0.33915386437917427 -0.421756523646311 0 -0.34787834831270897 -0.43820672398750499 0 -0.35562937415644491 -0.42905920704038852 0 -0.33775754498007149 -0.43470934980257031 0 -0.38546681847730169 -0.39416962699579478 0 -0.37178503006078351 -0.36529734894278382 0 -0.36071832257077457 -0.38334357118609957 0 -0.38546681847730169 -0.39416962699579478 0 -0.36071832257077457 -0.38334357118609957 0 -0.36387564773377912 -0.40064239848585281 0 -0.38546681847730169 -0.39416962699579478 0 -0.36857509023582058 -0.4147292750795083 0 -0.36387564773377912 -0.40064239848585281 0 -0.35260224090209807 -0.41277586592377202 0 -0.34957778707184273 -0.39781372556312478 0 -0.33449353188899272 -0.4056339987736734 0 -0.36071832257077457 -0.38334357118609957 0 -0.36387564773377912 -0.40064239848585281 0 -0.34957778707184273 -0.39781372556312478 0 -0.35260224090209807 -0.41277586592377202 0 -0.36387564773377912 -0.40064239848585281 0 -0.34957778707184273 -0.39781372556312478 0 -0.36071832257077457 -0.38334357118609957 0 -0.34957778707184273 -0.39781372556312478 0 -0.34271089175443131 -0.38260457501684703 0 -0.33181720305412532 -0.36523713002702102 0 -0.34271089175443131 -0.38260457501684703 0 -0.32401801859692708 -0.38535817519234999 0 -0.34957778707184273 -0.39781372556312478 0 -0.34271089175443131 -0.38260457501684703 0 -0.33449353188899272 -0.4056339987736734 0 -0.34271089175443131 -0.38260457501684703 0 -0.33449353188899272 -0.4056339987736734 0 -0.32401801859692708 -0.38535817519234999 0 -0.31839492617719711 -0.40088023200813983 0 -0.32401801859692708 -0.38535817519234999 0 -0.30328347787813731 -0.39444600295388232 0 -0.33449353188899272 -0.4056339987736734 0 -0.31839492617719711 -0.40088023200813983 0 -0.32401801859692708 -0.38535817519234999 0 -0.35562937415644491 -0.42905920704038852 0 -0.33775754498007149 -0.43470934980257031 0 -0.32707074995953511 -0.4359603364598188 0 -0.35562937415644491 -0.42905920704038852 0 -0.32707074995953511 -0.4359603364598188 0 -0.35562937415644491 -0.42905920704038852 0 -0.33915386437917427 -0.421756523646311 0 -0.32707074995953511 -0.4359603364598188 0 -0.33915386437917427 -0.421756523646311 0 -0.32732783539368632 -0.42380952227401031 0 -0.32707074995953511 -0.4359603364598188 0 -0.33449353188899272 -0.4056339987736734 0 -0.33915386437917427 -0.421756523646311 0 -0.32732783539368632 -0.42380952227401031 0 -0.35260224090209807 -0.41277586592377202 0 -0.33449353188899272 -0.4056339987736734 0 -0.33915386437917427 -0.421756523646311 0 -0.33449353188899272 -0.4056339987736734 0 -0.31678405032643547 -0.41621609820107042 0 -0.32732783539368632 -0.42380952227401031 0 -0.33449353188899272 -0.4056339987736734 0 -0.31839492617719711 -0.40088023200813983 0 -0.31678405032643547 -0.41621609820107042 0 -0.31839492617719711 -0.40088023200813983 0 -0.31678405032643547 -0.41621609820107042 0 -0.30593568394408938 -0.40953851850459361 0 -0.31356300456268782 -0.42838548103223412 0 -0.32707074995953511 -0.4359603364598188 0 -0.29851212576262542 -0.44286146587924902 0 -0.31678405032643547 -0.41621609820107042 0 -0.31356300456268782 -0.42838548103223412 0 -0.32732783539368632 -0.42380952227401031 0 -0.31356300456268782 -0.42838548103223412 0 -0.32732783539368632 -0.42380952227401031 0 -0.32707074995953511 -0.4359603364598188 0 -0.31356300456268782 -0.42838548103223412 0 -0.29772794888160092 -0.42229907206711281 0 -0.29851212576262542 -0.44286146587924902 0 -0.31678405032643547 -0.41621609820107042 0 -0.31356300456268782 -0.42838548103223412 0 -0.29772794888160092 -0.42229907206711281 0 -0.31678405032643547 -0.41621609820107042 0 -0.29772794888160092 -0.42229907206711281 0 -0.30593568394408938 -0.40953851850459361 0 -0.29772794888160092 -0.42229907206711281 0 -0.2822671067730344 -0.40872006864417759 0 -0.27721187024288008 -0.42388573206721458 0 -0.29772794888160092 -0.42229907206711281 0 -0.30593568394408938 -0.40953851850459361 0 -0.2822671067730344 -0.40872006864417759 0 -0.29772794888160092 -0.42229907206711281 0 -0.2880291473034754 -0.43032354514519222 0 -0.27721187024288008 -0.42388573206721458 0 -0.2880291473034754 -0.43032354514519222 0 -0.2791240716529389 -0.43703944868845562 0 -0.29851212576262542 -0.44286146587924902 0 -0.29772794888160092 -0.42229907206711281 0 -0.2880291473034754 -0.43032354514519222 0 -0.29851212576262542 -0.44286146587924902 0 -0.2880291473034754 -0.43032354514519222 0 -0.2791240716529389 -0.43703944868845562 0 -0.27721187024288008 -0.42388573206721458 0 -0.30939950549939282 -0.3690978934046581 0 -0.32401801859692708 -0.38535817519234999 0 -0.30328347787813731 -0.39444600295388232 0 -0.30939950549939282 -0.3690978934046581 0 -0.28980797653648732 -0.36859276033581673 0 -0.30328347787813731 -0.39444600295388232 0 -0.30593568394408938 -0.40953851850459361 0 -0.2822671067730344 -0.40872006864417759 0 -0.30328347787813731 -0.39444600295388232 0 -0.31839492617719711 -0.40088023200813983 0 -0.30593568394408938 -0.40953851850459361 0 -0.30328347787813731 -0.39444600295388232 0 -0.2822671067730344 -0.40872006864417759 0 -0.30328347787813731 -0.39444600295388232 0 -0.2819549322175261 -0.38613846629636922 0 -0.2822671067730344 -0.40872006864417759 0 -0.30328347787813731 -0.39444600295388232 0 -0.28980797653648732 -0.36859276033581673 0 -0.30328347787813731 -0.39444600295388232 0 -0.2819549322175261 -0.38613846629636922 0 -0.26742365395625978 -0.37098214471832791 0 -0.2819549322175261 -0.38613846629636922 0 -0.26929207422222901 -0.39599313771728512 0 -0.28980797653648732 -0.36859276033581673 0 -0.26742365395625978 -0.37098214471832791 0 -0.2819549322175261 -0.38613846629636922 0 -0.2822671067730344 -0.40872006864417759 0 -0.2819549322175261 -0.38613846629636922 0 -0.26929207422222901 -0.39599313771728512 0 -0.26834290009450162 -0.41506523487144548 0 -0.24942693876592151 -0.39256369116226442 0 -0.26929207422222901 -0.39599313771728512 0 -0.26834290009450162 -0.41506523487144548 0 -0.24942693876592151 -0.39256369116226442 0 -0.26742365395625978 -0.37098214471832791 0 -0.24942693876592151 -0.39256369116226442 0 -0.24859176807149699 -0.36341379124355189 0 -0.26742365395625978 -0.37098214471832791 0 -0.26929207422222901 -0.39599313771728512 0 -0.24942693876592151 -0.39256369116226442 0 -0.26854725451272288 -0.43146878472923289 0 -0.27721187024288008 -0.42388573206721458 0 -0.2612507356679315 -0.42299413433447303 0 -0.26854725451272288 -0.43146878472923289 0 -0.2791240716529389 -0.43703944868845562 0 -0.26803046922793849 -0.4425854714899019 0 -0.26854725451272288 -0.43146878472923289 0 -0.2791240716529389 -0.43703944868845562 0 -0.27721187024288008 -0.42388573206721458 0 -0.2822671067730344 -0.40872006864417759 0 -0.26929207422222901 -0.39599313771728512 0 -0.26834290009450162 -0.41506523487144548 0 -0.2822671067730344 -0.40872006864417759 0 -0.2612507356679315 -0.42299413433447303 0 -0.2822671067730344 -0.40872006864417759 0 -0.27721187024288008 -0.42388573206721458 0 -0.2612507356679315 -0.42299413433447303 0 -0.2822671067730344 -0.40872006864417759 0 -0.26834290009450162 -0.41506523487144548 0 -0.2612507356679315 -0.42299413433447303 0 -0.26834290009450162 -0.41506523487144548 0 -0.2612507356679315 -0.42299413433447303 0 -0.24579172529632781 -0.41407627841686551 0 -0.26834290009450162 -0.41506523487144548 0 -0.24579172529632781 -0.41407627841686551 0 -0.24942693876592151 -0.39256369116226442 0 -0.2612507356679315 -0.42299413433447303 0 -0.25409922524604939 -0.43580475414170411 0 -0.24023436456282971 -0.43726820002477002 0 -0.2612507356679315 -0.42299413433447303 0 -0.24023436456282971 -0.43726820002477002 0 -0.26854725451272288 -0.43146878472923289 0 -0.2612507356679315 -0.42299413433447303 0 -0.26106576665067882 -0.43148358815803872 0 -0.2612507356679315 -0.42299413433447303 0 -0.26106576665067882 -0.43148358815803872 0 -0.25409922524604939 -0.43580475414170411 0 -0.26854725451272288 -0.43146878472923289 0 -0.26106576665067882 -0.43148358815803872 0 -0.26012329329615669 -0.4387548702505305 0 -0.26106576665067882 -0.43148358815803872 0 -0.25409922524604939 -0.43580475414170411 0 -0.26012329329615669 -0.4387548702505305 0 -0.25409922524604939 -0.43580475414170411 0 -0.25341089069316469 -0.44321748567236863 0 -0.24889171465428109 -0.44082466645846552 0 -0.25016720565404549 -0.44970375179930561 0 -0.25934576249018382 -0.44576697539217358 0 -0.26581291206362551 -0.4529721774039186 0 -0.25409922524604939 -0.43580475414170411 0 -0.25341089069316469 -0.44321748567236863 0 -0.26012329329615669 -0.4387548702505305 0 -0.25341089069316469 -0.44321748567236863 0 -0.25934576249018382 -0.44576697539217358 0 -0.26012329329615669 -0.4387548702505305 0 -0.25341089069316469 -0.44321748567236863 0 -0.24889171465428109 -0.44082466645846552 0 -0.24782237811508079 -0.4470082259950196 0 -0.25341089069316469 -0.44321748567236863 0 -0.25016720565404549 -0.44970375179930561 0 -0.25934576249018382 -0.44576697539217358 0 -0.25341089069316469 -0.44321748567236863 0 -0.25016720565404549 -0.44970375179930561 0 -0.24782237811508079 -0.4470082259950196 0 -0.25934576249018382 -0.44576697539217358 0 -0.26803046922793849 -0.4425854714899019 0 -0.26581291206362551 -0.4529721774039186 0 -0.26854725451272288 -0.43146878472923289 0 -0.26012329329615669 -0.4387548702505305 0 -0.26803046922793849 -0.4425854714899019 0 -0.25934576249018382 -0.44576697539217358 0 -0.26012329329615669 -0.4387548702505305 0 -0.26803046922793849 -0.4425854714899019 0 -0.25016720565404549 -0.44970375179930561 0 -0.25540248516137032 -0.46791669779003903 0 -0.26810042254614241 -0.45670554485509363 0 -0.25016720565404549 -0.44970375179930561 0 -0.26810042254614241 -0.45670554485509363 0 -0.26581291206362551 -0.4529721774039186 0 -0.25016720565404549 -0.44970375179930561 0 -0.26810042254614241 -0.45670554485509363 0 -0.25540248516137032 -0.46791669779003903 0 -0.26810042254614241 -0.45670554485509363 0 -0.28136412097311869 -0.47835277242754598 0 -0.26810042254614241 -0.45670554485509363 0 -0.28735368113476217 -0.4642227311523589 0 -0.26810042254614241 -0.45670554485509363 0 -0.28735368113476217 -0.4642227311523589 0 -0.28136412097311869 -0.47835277242754598 0 -0.26810042254614241 -0.45670554485509363 0 -0.27497062060223371 -0.44992854827821938 0 -0.28735368113476217 -0.4642227311523589 0 -0.26810042254614241 -0.45670554485509363 0 -0.28136412097311869 -0.47835277242754598 0 -0.26810042254614241 -0.45670554485509363 0 -0.26581291206362551 -0.4529721774039186 0 -0.27497062060223371 -0.44992854827821938 0 -0.26810042254614241 -0.45670554485509363 0 -0.26581291206362551 -0.4529721774039186 0 -0.26803046922793849 -0.4425854714899019 0 -0.26581291206362551 -0.4529721774039186 0 -0.27497062060223371 -0.44992854827821938 0 -0.2791240716529389 -0.43703944868845562 0 -0.26803046922793849 -0.4425854714899019 0 -0.27497062060223371 -0.44992854827821938 0 -0.2791240716529389 -0.43703944868845562 0 -0.27497062060223371 -0.44992854827821938 0 -0.29851212576262542 -0.44286146587924902 0 -0.27497062060223371 -0.44992854827821938 0 -0.28735368113476217 -0.4642227311523589 0 -0.29851212576262542 -0.44286146587924902 0 -0.31605348825732682 -0.45221516566907588 0 -0.29851212576262542 -0.44286146587924902 0 -0.3066069397233826 -0.47173991744962263 0 -0.28735368113476217 -0.4642227311523589 0 -0.29851212576262542 -0.44286146587924902 0 -0.3066069397233826 -0.47173991744962263 0 -0.28735368113476217 -0.4642227311523589 0 -0.3066069397233826 -0.47173991744962263 0 -0.30875242297607841 -0.48701134229986098 0 -0.29634675420162282 -0.4840596903027955 0 -0.29462781940009303 -0.4999999999999995 0 -0.32032040324328942 -0.49999999999999989 0 -0.30875242297607841 -0.48701134229986098 0 -0.29462781940009303 -0.4999999999999995 0 -0.30875242297607841 -0.48701134229986098 0 -0.3066069397233826 -0.47173991744962263 0 -0.29634675420162282 -0.4840596903027955 0 -0.28735368113476217 -0.4642227311523589 0 -0.3066069397233826 -0.47173991744962263 0 -0.29634675420162282 -0.4840596903027955 0 -0.28735368113476217 -0.4642227311523589 0 -0.28136412097311869 -0.47835277242754598 0 -0.29634675420162282 -0.4840596903027955 0 -0.28136412097311869 -0.47835277242754598 0 -0.29634675420162282 -0.4840596903027955 0 -0.29462781940009303 -0.4999999999999995 0 -0.28136412097311869 -0.47835277242754598 0 -0.29462781940009303 -0.4999999999999995 0 -0.27482741278505091 -0.49999999999999928 0 -0.28136412097311869 -0.47835277242754598 0 -0.29462781940009303 -0.4999999999999995 0 -0.28136412097311869 -0.47835277242754598 0 -0.27482741278505091 -0.49999999999999928 0 -0.25369484663182812 -0.4856106569785017 0 -0.25540248516137032 -0.46791669779003903 0 -0.28136412097311869 -0.47835277242754598 0 -0.25369484663182812 -0.4856106569785017 0 -0.27482741278505091 -0.49999999999999928 0 -0.25369484663182812 -0.4856106569785017 0 -0.27482741278505091 -0.49999999999999928 0 -0.25369484663182812 -0.4856106569785017 0 -0.24560515134884051 -0.5 0 -0.25369484663182812 -0.4856106569785017 0 -0.24560515134884051 -0.5 0 -0.23256670011773981 -0.48693456683840541 0 -0.25369484663182812 -0.4856106569785017 0 -0.23256228047860489 -0.47122131395700451 0 -0.25369484663182812 -0.4856106569785017 0 -0.23256228047860489 -0.47122131395700451 0 -0.23256670011773981 -0.48693456683840541 0 -0.25540248516137032 -0.46791669779003903 0 -0.25369484663182812 -0.4856106569785017 0 -0.23256228047860489 -0.47122131395700451 0 -0.23256228047860489 -0.47122131395700451 0 -0.23256670011773981 -0.48693456683840541 0 -0.2145883322167953 -0.47784086325652081 0 -0.24560515134884051 -0.5 0 -0.23256670011773981 -0.48693456683840541 0 -0.21638288991263019 -0.5 0 -0.23256670011773981 -0.48693456683840541 0 -0.21638288991263019 -0.5 0 -0.2145883322167953 -0.47784086325652081 0 -0.25016720565404549 -0.44970375179930561 0 -0.23223398876194931 -0.4427019587435162 0 -0.25016720565404549 -0.44970375179930561 0 -0.24782237811508079 -0.4470082259950196 0 -0.23223398876194931 -0.4427019587435162 0 -0.23223398876194931 -0.4427019587435162 0 -0.24023436456282971 -0.43726820002477002 0 -0.24782237811508079 -0.4470082259950196 0 -0.23223398876194931 -0.4427019587435162 0 -0.24023436456282971 -0.43726820002477002 0 -0.24782237811508079 -0.4470082259950196 0 -0.24023436456282971 -0.43726820002477002 0 -0.24889171465428109 -0.44082466645846552 0 -0.24782237811508079 -0.4470082259950196 0 -0.24023436456282971 -0.43726820002477002 0 -0.25409922524604939 -0.43580475414170411 0 -0.24889171465428109 -0.44082466645846552 0 -0.24023436456282971 -0.43726820002477002 0 -0.25016720565404549 -0.44970375179930561 0 -0.25540248516137032 -0.46791669779003903 0 -0.23256228047860489 -0.47122131395700451 0 -0.25016720565404549 -0.44970375179930561 0 -0.23256228047860489 -0.47122131395700451 0 -0.23223398876194931 -0.4427019587435162 0 -0.23256228047860489 -0.47122131395700451 0 -0.21142971432538199 -0.4568319709355072 0 -0.23256228047860489 -0.47122131395700451 0 -0.21142971432538199 -0.4568319709355072 0 -0.2145883322167953 -0.47784086325652081 0 -0.23256228047860489 -0.47122131395700451 0 -0.23223398876194931 -0.4427019587435162 0 -0.21142971432538199 -0.4568319709355072 0 -0.23223398876194931 -0.4427019587435162 0 -0.2150395218425149 -0.44623694531538288 0 -0.21864648006921489 -0.43739689136030713 0 -0.23223398876194931 -0.4427019587435162 0 -0.21142971432538199 -0.4568319709355072 0 -0.23223398876194931 -0.4427019587435162 0 -0.2150395218425149 -0.44623694531538288 0 -0.21142971432538199 -0.4568319709355072 0 -0.23223398876194931 -0.4427019587435162 0 -0.21864648006921489 -0.43739689136030713 0 -0.20584307988778461 -0.4404079688693342 0 -0.2150395218425149 -0.44623694531538288 0 -0.21864648006921489 -0.43739689136030713 0 -0.2150395218425149 -0.44623694531538288 0 -0.2070443461682436 -0.45384593666824968 0 -0.21142971432538199 -0.4568319709355072 0 -0.20584307988778461 -0.4404079688693342 0 -0.2150395218425149 -0.44623694531538288 0 -0.2070443461682436 -0.45384593666824968 0 -0.20584307988778461 -0.4404079688693342 0 -0.2070443461682436 -0.45384593666824968 0 -0.19837268104550679 -0.44756910969929109 0 -0.21142971432538199 -0.4568319709355072 0 -0.19496541511208801 -0.46801432431801693 0 -0.2145883322167953 -0.47784086325652081 0 -0.21142971432538199 -0.4568319709355072 0 -0.19496541511208801 -0.46801432431801693 0 -0.2070443461682436 -0.45384593666824968 0 -0.21142971432538199 -0.4568319709355072 0 -0.19786376727002419 -0.45825224696994099 0 -0.2070443461682436 -0.45384593666824968 0 -0.21142971432538199 -0.4568319709355072 0 -0.21142971432538199 -0.4568319709355072 0 -0.19496541511208801 -0.46801432431801693 0 -0.19786376727002419 -0.45825224696994099 0 -0.19496541511208801 -0.46801432431801693 0 -0.19786376727002419 -0.45825224696994099 0 -0.18259805655571509 -0.46019065160418832 0 -0.19786376727002419 -0.45825224696994099 0 -0.18843826002397041 -0.45021674885902863 0 -0.18259805655571509 -0.46019065160418832 0 -0.2070443461682436 -0.45384593666824968 0 -0.19786376727002419 -0.45825224696994099 0 -0.19837268104550679 -0.44756910969929109 0 -0.19786376727002419 -0.45825224696994099 0 -0.19837268104550679 -0.44756910969929109 0 -0.18843826002397041 -0.45021674885902863 0 -0.19837268104550679 -0.44756910969929109 0 -0.18843826002397041 -0.45021674885902863 0 -0.19267395187751141 -0.43512264712990251 0 -0.20584307988778461 -0.4404079688693342 0 -0.19837268104550679 -0.44756910969929109 0 -0.19267395187751141 -0.43512264712990251 0 -0.21638288991263019 -0.5 0 -0.2145883322167953 -0.47784086325652081 0 -0.19831967632334549 -0.48501037305501288 0 -0.19496541511208801 -0.46801432431801693 0 -0.19831967632334549 -0.48501037305501288 0 -0.1785011158987943 -0.47919667770052682 0 -0.19496541511208801 -0.46801432431801693 0 -0.2145883322167953 -0.47784086325652081 0 -0.19831967632334549 -0.48501037305501288 0 -0.21638288991263019 -0.5 0 -0.19831967632334549 -0.48501037305501288 0 -0.18716062847641979 -0.5 0 -0.19831967632334549 -0.48501037305501288 0 -0.18716062847641979 -0.5 0 -0.1785011158987943 -0.47919667770052682 0 -0.1785011158987943 -0.47919667770052682 0 -0.16209724814220941 -0.4590461085809025 0 -0.14695504645888749 -0.47762839146978459 0 -0.1579383670402095 -0.5 0 -0.1785011158987943 -0.47919667770052682 0 -0.14695504645888749 -0.47762839146978459 0 -0.18716062847641979 -0.5 0 -0.1579383670402095 -0.5 0 -0.1785011158987943 -0.47919667770052682 0 -0.19496541511208801 -0.46801432431801693 0 -0.1785011158987943 -0.47919667770052682 0 -0.19496541511208801 -0.46801432431801693 0 -0.1785011158987943 -0.47919667770052682 0 -0.18259805655571509 -0.46019065160418832 0 -0.18259805655571509 -0.46019065160418832 0 -0.17372253288720441 -0.44641780319671392 0 -0.16209724814220941 -0.4590461085809025 0 -0.1785011158987943 -0.47919667770052682 0 -0.18259805655571509 -0.46019065160418832 0 -0.16209724814220941 -0.4590461085809025 0 -0.18843826002397041 -0.45021674885902863 0 -0.17372253288720441 -0.44641780319671392 0 -0.19267395187751141 -0.43512264712990251 0 -0.18843826002397041 -0.45021674885902863 0 -0.18259805655571509 -0.46019065160418832 0 -0.17372253288720441 -0.44641780319671392 0 -0.17372253288720441 -0.44641780319671392 0 -0.16209724814220941 -0.4590461085809025 0 -0.15065739787207841 -0.43894829420480402 0 -0.16209724814220941 -0.4590461085809025 0 -0.13468821229704461 -0.45479542492255759 0 -0.14695504645888749 -0.47762839146978459 0 -0.16209724814220941 -0.4590461085809025 0 -0.15065739787207841 -0.43894829420480402 0 -0.13468821229704461 -0.45479542492255759 0 -0.13468821229704461 -0.45479542492255759 0 -0.1345104473539645 -0.42931500370420339 0 -0.1213299483320705 -0.43931237329557188 0 -0.15065739787207841 -0.43894829420480402 0 -0.13468821229704461 -0.45479542492255759 0 -0.1345104473539645 -0.42931500370420339 0 -0.13468821229704461 -0.45479542492255759 0 -0.14695504645888749 -0.47762839146978459 0 -0.11378627236628509 -0.47535842982016541 0 -0.12871610560399899 -0.5 0 -0.14695504645888749 -0.47762839146978459 0 -0.11378627236628509 -0.47535842982016541 0 -0.1579383670402095 -0.5 0 -0.12871610560399899 -0.5 0 -0.14695504645888749 -0.47762839146978459 0 -0.1464537878452046 -0.39299673779244959 0 -0.144231686991382 -0.41666594362095161 0 -0.16493980917902479 -0.40731117223772167 0 -0.1464537878452046 -0.39299673779244959 0 -0.14301444004320071 -0.36465521430155667 0 -0.12465997255891 -0.38276017953189728 0 -0.1464537878452046 -0.39299673779244959 0 -0.12465997255891 -0.38276017953189728 0 -0.1464537878452046 -0.39299673779244959 0 -0.12849527719368559 -0.40215976165868139 0 -0.12465997255891 -0.38276017953189728 0 -0.1464537878452046 -0.39299673779244959 0 -0.12849527719368559 -0.40215976165868139 0 -0.144231686991382 -0.41666594362095161 0 -0.1345104473539645 -0.42931500370420339 0 -0.144231686991382 -0.41666594362095161 0 -0.1215569916070609 -0.41782682216274208 0 -0.12849527719368559 -0.40215976165868139 0 -0.144231686991382 -0.41666594362095161 0 -0.1215569916070609 -0.41782682216274208 0 -0.1345104473539645 -0.42931500370420339 0 -0.1213299483320705 -0.43931237329557188 0 -0.1215569916070609 -0.41782682216274208 0 -0.15065739787207841 -0.43894829420480402 0 -0.1345104473539645 -0.42931500370420339 0 -0.144231686991382 -0.41666594362095161 0 -0.15065739787207841 -0.43894829420480402 0 -0.144231686991382 -0.41666594362095161 0 -0.16188479533273159 -0.42648230336984422 0 -0.16493980917902479 -0.40731117223772167 0 -0.16188479533273159 -0.42648230336984422 0 -0.17974055474834449 -0.42255549305370088 0 -0.144231686991382 -0.41666594362095161 0 -0.16493980917902479 -0.40731117223772167 0 -0.16188479533273159 -0.42648230336984422 0 -0.17372253288720441 -0.44641780319671392 0 -0.15065739787207841 -0.43894829420480402 0 -0.16188479533273159 -0.42648230336984422 0 -0.17372253288720441 -0.44641780319671392 0 -0.16188479533273159 -0.42648230336984422 0 -0.17974055474834449 -0.42255549305370088 0 -0.17372253288720441 -0.44641780319671392 0 -0.17974055474834449 -0.42255549305370088 0 -0.19267395187751141 -0.43512264712990251 0 -0.17974055474834449 -0.42255549305370088 0 -0.1849711935514512 -0.40068401472662929 0 -0.193986213615821 -0.41489159323847008 0 -0.16493980917902479 -0.40731117223772167 0 -0.17974055474834449 -0.42255549305370088 0 -0.1849711935514512 -0.40068401472662929 0 -0.16493980917902479 -0.40731117223772167 0 -0.1849711935514512 -0.40068401472662929 0 -0.17175813323669409 -0.38405981299359132 0 -0.1464537878452046 -0.39299673779244959 0 -0.16493980917902479 -0.40731117223772167 0 -0.17175813323669409 -0.38405981299359132 0 -0.1464537878452046 -0.39299673779244959 0 -0.17175813323669409 -0.38405981299359132 0 -0.16285755575045621 -0.36562947982270128 0 -0.1849711935514512 -0.40068401472662929 0 -0.17175813323669409 -0.38405981299359132 0 -0.195190288498544 -0.37944931664364129 0 -0.195190288498544 -0.37944931664364129 0 -0.21020498051997261 -0.39872227777068431 0 -0.1849711935514512 -0.40068401472662929 0 -0.195190288498544 -0.37944931664364129 0 -0.21020498051997261 -0.39872227777068431 0 -0.1849711935514512 -0.40068401472662929 0 -0.21020498051997261 -0.39872227777068431 0 -0.193986213615821 -0.41489159323847008 0 -0.21020498051997261 -0.39872227777068431 0 -0.21255461610144449 -0.37577110475670111 0 -0.22923642716418749 -0.39558239829159181 0 -0.195190288498544 -0.37944931664364129 0 -0.21020498051997261 -0.39872227777068431 0 -0.21255461610144449 -0.37577110475670111 0 -0.20584307988778461 -0.4404079688693342 0 -0.19267395187751141 -0.43512264712990251 0 -0.2085585490957923 -0.4234757303840988 0 -0.19267395187751141 -0.43512264712990251 0 -0.193986213615821 -0.41489159323847008 0 -0.2085585490957923 -0.4234757303840988 0 -0.17974055474834449 -0.42255549305370088 0 -0.19267395187751141 -0.43512264712990251 0 -0.193986213615821 -0.41489159323847008 0 -0.21020498051997261 -0.39872227777068431 0 -0.2085585490957923 -0.4234757303840988 0 -0.2252196725414011 -0.41799523889772722 0 -0.21020498051997261 -0.39872227777068431 0 -0.193986213615821 -0.41489159323847008 0 -0.2085585490957923 -0.4234757303840988 0 -0.21020498051997261 -0.39872227777068431 0 -0.2252196725414011 -0.41799523889772722 0 -0.20584307988778461 -0.4404079688693342 0 -0.2085585490957923 -0.4234757303840988 0 -0.21864648006921489 -0.43739689136030713 0 -0.2085585490957923 -0.4234757303840988 0 -0.21864648006921489 -0.43739689136030713 0 -0.2252196725414011 -0.41799523889772722 0 -0.2252196725414011 -0.41799523889772722 0 -0.24023436456282971 -0.43726820002477002 0 -0.23223398876194931 -0.4427019587435162 0 -0.21864648006921489 -0.43739689136030713 0 -0.2252196725414011 -0.41799523889772722 0 -0.23223398876194931 -0.4427019587435162 0 -0.2252196725414011 -0.41799523889772722 0 -0.24023436456282971 -0.43726820002477002 0 -0.2252196725414011 -0.41799523889772722 0 -0.24579172529632781 -0.41407627841686551 0 -0.22923642716418749 -0.39558239829159181 0 -0.2252196725414011 -0.41799523889772722 0 -0.24579172529632781 -0.41407627841686551 0 -0.24023436456282971 -0.43726820002477002 0 -0.2612507356679315 -0.42299413433447303 0 -0.24579172529632781 -0.41407627841686551 0 -0.24023436456282971 -0.43726820002477002 0 -0.21255461610144449 -0.37577110475670111 0 -0.22923642716418749 -0.39558239829159181 0 -0.23051097743734139 -0.37006214745308319 0 -0.21020498051997261 -0.39872227777068431 0 -0.2252196725414011 -0.41799523889772722 0 -0.22923642716418749 -0.39558239829159181 0 -0.24579172529632781 -0.41407627841686551 0 -0.22923642716418749 -0.39558239829159181 0 -0.24942693876592151 -0.39256369116226442 0 -0.24942693876592151 -0.39256369116226442 0 -0.24859176807149699 -0.36341379124355189 0 -0.23051097743734139 -0.37006214745308319 0 -0.22923642716418749 -0.39558239829159181 0 -0.24942693876592151 -0.39256369116226442 0 -0.23051097743734139 -0.37006214745308319 0 -0.24942693876592151 -0.39256369116226442 0 -0.23051097743734139 -0.37006214745308319 0 -0.23051097743734139 -0.37006214745308319 0 -0.2336109069808863 -0.33973900339101332 0 -0.2115950161087613 -0.34756060374390202 0 -0.23051097743734139 -0.37006214745308319 0 -0.2115950161087613 -0.34756060374390202 0 -0.24859176807149699 -0.36341379124355189 0 -0.23051097743734139 -0.37006214745308319 0 -0.2336109069808863 -0.33973900339101332 0 -0.26018786023522222 -0.34477383376129439 0 -0.24859176807149699 -0.36341379124355189 0 -0.2336109069808863 -0.33973900339101332 0 -0.26018786023522222 -0.34477383376129439 0 -0.24829220308125771 -0.3217190068292608 0 -0.2336109069808863 -0.33973900339101332 0 -0.24829220308125771 -0.3217190068292608 0 -0.23218680832520389 -0.31855792122641102 0 -0.2336109069808863 -0.33973900339101332 0 -0.24829220308125771 -0.3217190068292608 0 -0.23218680832520389 -0.31855792122641102 0 -0.2483608321007934 -0.30510172651090872 0 -0.23218680832520389 -0.31855792122641102 0 -0.2336109069808863 -0.33973900339101332 0 -0.21310155110252341 -0.32012791286427411 0 -0.23218680832520389 -0.31855792122641102 0 -0.21310155110252341 -0.32012791286427411 0 -0.22995512850707761 -0.29886912434323532 0 -0.2336109069808863 -0.33973900339101332 0 -0.21310155110252341 -0.32012791286427411 0 -0.2115950161087613 -0.34756060374390202 0 -0.21310155110252341 -0.32012791286427411 0 -0.1924732285769776 -0.32411123788675722 0 -0.2115950161087613 -0.34756060374390202 0 -0.1924732285769776 -0.32411123788675722 0 -0.20349528125358449 -0.30144331631947191 0 -0.21310155110252341 -0.32012791286427411 0 -0.1924732285769776 -0.32411123788675722 0 -0.20349528125358449 -0.30144331631947191 0 -0.1924732285769776 -0.32411123788675722 0 -0.20349528125358449 -0.30144331631947191 0 -0.1874433684491324 -0.31714936326452881 0 -0.18972912602311021 -0.32520339830644501 0 -0.18918363051316281 -0.32885714841180902 0 -0.18423056762183279 -0.32692838763744969 0 -0.18972912602311021 -0.32520339830644501 0 -0.1924732285769776 -0.32411123788675722 0 -0.18918363051316281 -0.32885714841180902 0 -0.18972912602311021 -0.32520339830644501 0 -0.18827482570473769 -0.32324189057724001 0 -0.1924732285769776 -0.32411123788675722 0 -0.18827482570473769 -0.32324189057724001 0 -0.1924732285769776 -0.32411123788675722 0 -0.1874433684491324 -0.31714936326452881 0 -0.1924732285769776 -0.32411123788675722 0 -0.19089703025285301 -0.33595085389758261 0 -0.2115950161087613 -0.34756060374390202 0 -0.1924732285769776 -0.32411123788675722 0 -0.2115950161087613 -0.34756060374390202 0 -0.18918363051316281 -0.32885714841180902 0 -0.19089703025285301 -0.33595085389758261 0 -0.18423056762183279 -0.32692838763744969 0 -0.1924732285769776 -0.32411123788675722 0 -0.18918363051316281 -0.32885714841180902 0 -0.19089703025285301 -0.33595085389758261 0 -0.19089703025285301 -0.33595085389758261 0 -0.19172486489071841 -0.34898839123345199 0 -0.18099525622620991 -0.34013907811418248 0 -0.19172486489071841 -0.34898839123345199 0 -0.19859000687986 -0.36324988463730401 0 -0.18017559647711551 -0.36017635551659838 0 -0.19089703025285301 -0.33595085389758261 0 -0.19172486489071841 -0.34898839123345199 0 -0.2115950161087613 -0.34756060374390202 0 -0.19172486489071841 -0.34898839123345199 0 -0.19859000687986 -0.36324988463730401 0 -0.2115950161087613 -0.34756060374390202 0 -0.195190288498544 -0.37944931664364129 0 -0.21255461610144449 -0.37577110475670111 0 -0.19859000687986 -0.36324988463730401 0 -0.195190288498544 -0.37944931664364129 0 -0.18017559647711551 -0.36017635551659838 0 -0.195190288498544 -0.37944931664364129 0 -0.19859000687986 -0.36324988463730401 0 -0.18017559647711551 -0.36017635551659838 0 -0.21255461610144449 -0.37577110475670111 0 -0.19859000687986 -0.36324988463730401 0 -0.2115950161087613 -0.34756060374390202 0 -0.21255461610144449 -0.37577110475670111 0 -0.23051097743734139 -0.37006214745308319 0 -0.2115950161087613 -0.34756060374390202 0 -0.22553938660679851 -0.25610747318490112 0 -0.23846605780934529 -0.27259686614731399 0 -0.24829792030322589 -0.24782573342597289 0 -0.25776330632916039 -0.26646224034157201 0 -0.23846605780934529 -0.27259686614731399 0 -0.24829792030322589 -0.24782573342597289 0 -0.22553938660679851 -0.25610747318490112 0 -0.21451733393019151 -0.27877539475218649 0 -0.22553938660679851 -0.25610747318490112 0 -0.23846605780934529 -0.27259686614731399 0 -0.21451733393019151 -0.27877539475218649 0 -0.23846605780934529 -0.27259686614731399 0 -0.22995512850707761 -0.29886912434323532 0 -0.21451733393019151 -0.27877539475218649 0 -0.25574623757852688 -0.28771639481394162 0 -0.23846605780934529 -0.27259686614731399 0 -0.22995512850707761 -0.29886912434323532 0 -0.23218680832520389 -0.31855792122641102 0 -0.2483608321007934 -0.30510172651090872 0 -0.22995512850707761 -0.29886912434323532 0 -0.25574623757852688 -0.28771639481394162 0 -0.2483608321007934 -0.30510172651090872 0 -0.22995512850707761 -0.29886912434323532 0 -0.21310155110252341 -0.32012791286427411 0 -0.22995512850707761 -0.29886912434323532 0 -0.20349528125358449 -0.30144331631947191 0 -0.20349528125358449 -0.30144331631947191 0 -0.1796452337680291 -0.29005170399417951 0 -0.18074325826612431 -0.30678554573914613 0 -0.20349528125358449 -0.30144331631947191 0 -0.18074325826612431 -0.30678554573914613 0 -0.1874433684491324 -0.31714936326452881 0 -0.20349528125358449 -0.30144331631947191 0 -0.1945361927942704 -0.28046095647545699 0 -0.1796452337680291 -0.29005170399417951 0 -0.22995512850707761 -0.29886912434323532 0 -0.20349528125358449 -0.30144331631947191 0 -0.21451733393019151 -0.27877539475218649 0 -0.20349528125358449 -0.30144331631947191 0 -0.21451733393019151 -0.27877539475218649 0 -0.20349528125358449 -0.30144331631947191 0 -0.21451733393019151 -0.27877539475218649 0 -0.1945361927942704 -0.28046095647545699 0 -0.22553938660679851 -0.25610747318490112 0 -0.21451733393019151 -0.27877539475218649 0 -0.20025091306526199 -0.26319790328966358 0 -0.1945361927942704 -0.28046095647545699 0 -0.20025091306526199 -0.26319790328966358 0 -0.183286160437521 -0.26623984999405959 0 -0.21451733393019151 -0.27877539475218649 0 -0.1945361927942704 -0.28046095647545699 0 -0.20025091306526199 -0.26319790328966358 0 -0.20025091306526199 -0.26319790328966358 0 -0.1835419718658336 -0.246507750115222 0 -0.20445492338319379 -0.24460995720693859 0 -0.20025091306526199 -0.26319790328966358 0 -0.183286160437521 -0.26623984999405959 0 -0.1835419718658336 -0.246507750115222 0 -0.22553938660679851 -0.25610747318490112 0 -0.20025091306526199 -0.26319790328966358 0 -0.20445492338319379 -0.24460995720693859 0 -0.1670977427993986 -0.25356762789353199 0 -0.16316918780325229 -0.26396388613449301 0 -0.183286160437521 -0.26623984999405959 0 -0.1670977427993986 -0.25356762789353199 0 -0.16316918780325229 -0.26396388613449301 0 -0.14952075690691799 -0.25482514058981742 0 -0.1670977427993986 -0.25356762789353199 0 -0.183286160437521 -0.26623984999405959 0 -0.1835419718658336 -0.246507750115222 0 -0.183286160437521 -0.26623984999405959 0 -0.1778403831513026 -0.27866342007153888 0 -0.1644986208848026 -0.27511341803742551 0 -0.1945361927942704 -0.28046095647545699 0 -0.183286160437521 -0.26623984999405959 0 -0.1778403831513026 -0.27866342007153888 0 -0.183286160437521 -0.26623984999405959 0 -0.1644986208848026 -0.27511341803742551 0 -0.16316918780325229 -0.26396388613449301 0 -0.183286160437521 -0.26623984999405959 0 -0.1644986208848026 -0.27511341803742551 0 -0.1778403831513026 -0.27866342007153888 0 -0.1644986208848026 -0.27511341803742551 0 -0.16989250273787121 -0.28564236672709292 0 -0.16316918780325229 -0.26396388613449301 0 -0.1644986208848026 -0.27511341803742551 0 -0.15144265798762149 -0.27007339415763049 0 -0.15867633422500879 -0.28674259306594019 0 -0.16880194166021301 -0.29764069846638019 0 -0.15618876264517831 -0.30347108645123499 0 -0.1644986208848026 -0.27511341803742551 0 -0.15867633422500879 -0.28674259306594019 0 -0.1457110813320846 -0.28398698608079231 0 -0.15867633422500879 -0.28674259306594019 0 -0.16989250273787121 -0.28564236672709292 0 -0.16880194166021301 -0.29764069846638019 0 -0.1644986208848026 -0.27511341803742551 0 -0.15867633422500879 -0.28674259306594019 0 -0.16989250273787121 -0.28564236672709292 0 -0.1945361927942704 -0.28046095647545699 0 -0.1778403831513026 -0.27866342007153888 0 -0.1796452337680291 -0.29005170399417951 0 -0.1778403831513026 -0.27866342007153888 0 -0.16989250273787121 -0.28564236672709292 0 -0.1796452337680291 -0.29005170399417951 0 -0.16989250273787121 -0.28564236672709292 0 -0.1796452337680291 -0.29005170399417951 0 -0.16880194166021301 -0.29764069846638019 0 -0.1796452337680291 -0.29005170399417951 0 -0.18074325826612431 -0.30678554573914613 0 -0.16880194166021301 -0.29764069846638019 0 -0.18074325826612431 -0.30678554573914613 0 -0.16880194166021301 -0.29764069846638019 0 -0.1684363591552574 -0.31409315575695312 0 -0.15618876264517831 -0.30347108645123499 0 -0.1684363591552574 -0.31409315575695312 0 -0.15207051190268109 -0.31750178503778131 0 -0.16880194166021301 -0.29764069846638019 0 -0.15618876264517831 -0.30347108645123499 0 -0.1684363591552574 -0.31409315575695312 0 -0.15618876264517831 -0.30347108645123499 0 -0.1432614682336692 -0.30800224458609998 0 -0.15207051190268109 -0.31750178503778131 0 -0.15618876264517831 -0.30347108645123499 0 -0.1432614682336692 -0.30800224458609998 0 -0.14708490469298841 -0.29661572407283998 0 -0.1432614682336692 -0.30800224458609998 0 -0.13415248522291859 -0.30314904847925572 0 -0.14708490469298841 -0.29661572407283998 0 -0.1432614682336692 -0.30800224458609998 0 -0.13415248522291859 -0.30314904847925572 0 -0.13717142947696839 -0.31915664083778778 0 -0.13415248522291859 -0.30314904847925572 0 -0.1457110813320846 -0.28398698608079231 0 -0.1192769417620527 -0.29647213004997958 0 -0.1457110813320846 -0.28398698608079231 0 -0.1212615555763287 -0.27879053642319629 0 -0.1457110813320846 -0.28398698608079231 0 -0.1192769417620527 -0.29647213004997958 0 -0.1457110813320846 -0.28398698608079231 0 -0.1212615555763287 -0.27879053642319629 0 -0.1192769417620527 -0.29647213004997958 0 -0.15867633422500879 -0.28674259306594019 0 -0.15618876264517831 -0.30347108645123499 0 -0.14708490469298841 -0.29661572407283998 0 -0.13415248522291859 -0.30314904847925572 0 -0.1457110813320846 -0.28398698608079231 0 -0.14708490469298841 -0.29661572407283998 0 -0.15867633422500879 -0.28674259306594019 0 -0.1457110813320846 -0.28398698608079231 0 -0.14708490469298841 -0.29661572407283998 0 -0.15867633422500879 -0.28674259306594019 0 -0.1457110813320846 -0.28398698608079231 0 -0.1644986208848026 -0.27511341803742551 0 -0.1457110813320846 -0.28398698608079231 0 -0.1644986208848026 -0.27511341803742551 0 -0.1457110813320846 -0.28398698608079231 0 -0.15144265798762149 -0.27007339415763049 0 -0.1457110813320846 -0.28398698608079231 0 -0.15144265798762149 -0.27007339415763049 0 -0.13717303167765971 -0.26878616747396578 0 -0.13717303167765971 -0.26878616747396578 0 -0.1241395055170023 -0.26405765775817802 0 -0.1212615555763287 -0.27879053642319629 0 -0.1457110813320846 -0.28398698608079231 0 -0.13717303167765971 -0.26878616747396578 0 -0.1212615555763287 -0.27879053642319629 0 -0.13717303167765971 -0.26878616747396578 0 -0.13190502157042211 -0.25072617741863201 0 -0.1241395055170023 -0.26405765775817802 0 -0.13717303167765971 -0.26878616747396578 0 -0.13190502157042211 -0.25072617741863201 0 -0.14952075690691799 -0.25482514058981742 0 -0.15144265798762149 -0.27007339415763049 0 -0.13717303167765971 -0.26878616747396578 0 -0.14952075690691799 -0.25482514058981742 0 -0.16316918780325229 -0.26396388613449301 0 -0.15144265798762149 -0.27007339415763049 0 -0.14952075690691799 -0.25482514058981742 0 -0.16285755575045621 -0.36562947982270128 0 -0.16516090445568701 -0.34090339438955553 0 -0.14301444004320071 -0.36465521430155667 0 -0.16285755575045621 -0.36562947982270128 0 -0.18017559647711551 -0.36017635551659838 0 -0.16516090445568701 -0.34090339438955553 0 -0.17175813323669409 -0.38405981299359132 0 -0.16285755575045621 -0.36562947982270128 0 -0.18017559647711551 -0.36017635551659838 0 -0.17175813323669409 -0.38405981299359132 0 -0.195190288498544 -0.37944931664364129 0 -0.18017559647711551 -0.36017635551659838 0 -0.18017559647711551 -0.36017635551659838 0 -0.18099525622620991 -0.34013907811418248 0 -0.16516090445568701 -0.34090339438955553 0 -0.18017559647711551 -0.36017635551659838 0 -0.16516090445568701 -0.34090339438955553 0 -0.19172486489071841 -0.34898839123345199 0 -0.18017559647711551 -0.36017635551659838 0 -0.18099525622620991 -0.34013907811418248 0 -0.18099525622620991 -0.34013907811418248 0 -0.17378257365905261 -0.3278870860104578 0 -0.16516090445568701 -0.34090339438955553 0 -0.19089703025285301 -0.33595085389758261 0 -0.18099525622620991 -0.34013907811418248 0 -0.18423056762183279 -0.32692838763744969 0 -0.18099525622620991 -0.34013907811418248 0 -0.18423056762183279 -0.32692838763744969 0 -0.17378257365905261 -0.3278870860104578 0 -0.18074325826612431 -0.30678554573914613 0 -0.1874433684491324 -0.31714936326452881 0 -0.17820051618050189 -0.31780971428005528 0 -0.18827482570473769 -0.32324189057724001 0 -0.1874433684491324 -0.31714936326452881 0 -0.18423056762183279 -0.32692838763744969 0 -0.1874433684491324 -0.31714936326452881 0 -0.18423056762183279 -0.32692838763744969 0 -0.17820051618050189 -0.31780971428005528 0 -0.18972912602311021 -0.32520339830644501 0 -0.18827482570473769 -0.32324189057724001 0 -0.18423056762183279 -0.32692838763744969 0 -0.18423056762183279 -0.32692838763744969 0 -0.17378257365905261 -0.3278870860104578 0 -0.17820051618050189 -0.31780971428005528 0 -0.18074325826612431 -0.30678554573914613 0 -0.17820051618050189 -0.31780971428005528 0 -0.1684363591552574 -0.31409315575695312 0 -0.17378257365905261 -0.3278870860104578 0 -0.17820051618050189 -0.31780971428005528 0 -0.1684363591552574 -0.31409315575695312 0 -0.1684363591552574 -0.31409315575695312 0 -0.16130857202940679 -0.32635720632559811 0 -0.15207051190268109 -0.31750178503778131 0 -0.17378257365905261 -0.3278870860104578 0 -0.1684363591552574 -0.31409315575695312 0 -0.16130857202940679 -0.32635720632559811 0 -0.16130857202940679 -0.32635720632559811 0 -0.16516090445568701 -0.34090339438955553 0 -0.14709251097435599 -0.33140061043324259 0 -0.17378257365905261 -0.3278870860104578 0 -0.16130857202940679 -0.32635720632559811 0 -0.16516090445568701 -0.34090339438955553 0 -0.16516090445568701 -0.34090339438955553 0 -0.14709251097435599 -0.33140061043324259 0 -0.1406618473891891 -0.34639876141345272 0 -0.16130857202940679 -0.32635720632559811 0 -0.14709251097435599 -0.33140061043324259 0 -0.15207051190268109 -0.31750178503778131 0 -0.14709251097435599 -0.33140061043324259 0 -0.15207051190268109 -0.31750178503778131 0 -0.13717142947696839 -0.31915664083778778 0 -0.1432614682336692 -0.30800224458609998 0 -0.15207051190268109 -0.31750178503778131 0 -0.13717142947696839 -0.31915664083778778 0 -0.13415248522291859 -0.30314904847925572 0 -0.13717142947696839 -0.31915664083778778 0 -0.12074189044222509 -0.3175124367468366 0 -0.13717142947696839 -0.31915664083778778 0 -0.1257097100859606 -0.33737371974351132 0 -0.12074189044222509 -0.3175124367468366 0 -0.14709251097435599 -0.33140061043324259 0 -0.1257097100859606 -0.33737371974351132 0 -0.1406618473891891 -0.34639876141345272 0 -0.14709251097435599 -0.33140061043324259 0 -0.13717142947696839 -0.31915664083778778 0 -0.1257097100859606 -0.33737371974351132 0 -0.1406618473891891 -0.34639876141345272 0 -0.14301444004320071 -0.36465521430155667 0 -0.12088664471827019 -0.35799882911990683 0 -0.1257097100859606 -0.33737371974351132 0 -0.1406618473891891 -0.34639876141345272 0 -0.12088664471827019 -0.35799882911990683 0 -0.16516090445568701 -0.34090339438955553 0 -0.1406618473891891 -0.34639876141345272 0 -0.14301444004320071 -0.36465521430155667 0 -0.1464537878452046 -0.39299673779244959 0 -0.16285755575045621 -0.36562947982270128 0 -0.14301444004320071 -0.36465521430155667 0 -0.14301444004320071 -0.36465521430155667 0 -0.12088664471827019 -0.35799882911990683 0 -0.12465997255891 -0.38276017953189728 0 -0.1028661572726154 -0.37252362127134497 0 -0.12088664471827019 -0.35799882911990683 0 -0.12465997255891 -0.38276017953189728 0 -0.1028661572726154 -0.37252362127134497 0 -0.1040966563146542 -0.35414840256788849 0 -0.09286042927860455 -0.3548202832813398 0 -0.1028661572726154 -0.37252362127134497 0 -0.1040966563146542 -0.35414840256788849 0 -0.12088664471827019 -0.35799882911990683 0 -0.098066318519519358 -0.34387940146386209 0 -0.1040966563146542 -0.35414840256788849 0 -0.09286042927860455 -0.3548202832813398 0 -0.098066318519519358 -0.34387940146386209 0 -0.1040966563146542 -0.35414840256788849 0 -0.1124611322471978 -0.34464897453944221 0 -0.1040966563146542 -0.35414840256788849 0 -0.1124611322471978 -0.34464897453944221 0 -0.12088664471827019 -0.35799882911990683 0 -0.1257097100859606 -0.33737371974351132 0 -0.1124611322471978 -0.34464897453944221 0 -0.12088664471827019 -0.35799882911990683 0 -0.1257097100859606 -0.33737371974351132 0 -0.12074189044222509 -0.3175124367468366 0 -0.10674985038553921 -0.33196240454032439 0 -0.1257097100859606 -0.33737371974351132 0 -0.1124611322471978 -0.34464897453944221 0 -0.10674985038553921 -0.33196240454032439 0 -0.12074189044222509 -0.3175124367468366 0 -0.1061318788509036 -0.31662987471019099 0 -0.10674985038553921 -0.33196240454032439 0 -0.1061318788509036 -0.31662987471019099 0 -0.086917360709287794 -0.33261017244288699 0 -0.092842802192021207 -0.30895727401916778 0 -0.1061318788509036 -0.31662987471019099 0 -0.10674985038553921 -0.33196240454032439 0 -0.086917360709287794 -0.33261017244288699 0 -0.098066318519519358 -0.34387940146386209 0 -0.10674985038553921 -0.33196240454032439 0 -0.086917360709287794 -0.33261017244288699 0 -0.098066318519519358 -0.34387940146386209 0 -0.1124611322471978 -0.34464897453944221 0 -0.10674985038553921 -0.33196240454032439 0 -0.098066318519519358 -0.34387940146386209 0 -0.086917360709287794 -0.33261017244288699 0 -0.085312482181832572 -0.34508617141129111 0 -0.086917360709287794 -0.33261017244288699 0 -0.079469528485788477 -0.32480420047095349 0 -0.071709288419854716 -0.33620693743340258 0 -0.086917360709287794 -0.33261017244288699 0 -0.071709288419854716 -0.33620693743340258 0 -0.086917360709287794 -0.33261017244288699 0 -0.071709288419854716 -0.33620693743340258 0 -0.085312482181832572 -0.34508617141129111 0 -0.086917360709287794 -0.33261017244288699 0 -0.079469528485788477 -0.32480420047095349 0 -0.092842802192021207 -0.30895727401916778 0 -0.06640866262199005 -0.32144241798835671 0 -0.092842802192021207 -0.30895727401916778 0 -0.079469528485788477 -0.32480420047095349 0 -0.06640866262199005 -0.32144241798835671 0 -0.092842802192021207 -0.30895727401916778 0 -0.079469528485788477 -0.32480420047095349 0 -0.06640866262199005 -0.32144241798835671 0 -0.071709288419854716 -0.33620693743340258 0 -0.06640866262199005 -0.32144241798835671 0 -0.071709288419854716 -0.33620693743340258 0 -0.06640866262199005 -0.32144241798835671 0 -0.071709288419854716 -0.33620693743340258 0 -0.062459090678893589 -0.3313646601907651 0 -0.071709288419854716 -0.33620693743340258 0 -0.056357985279413228 -0.33983757704659923 0 -0.062459090678893589 -0.3313646601907651 0 -0.071709288419854716 -0.33620693743340258 0 -0.056357985279413228 -0.33983757704659923 0 -0.071709288419854716 -0.33620693743340258 0 -0.065631420931502565 -0.34633528279781151 0 -0.056357985279413228 -0.33983757704659923 0 -0.065631420931502565 -0.34633528279781151 0 -0.0656707524679572 -0.35505293413804839 0 -0.056357985279413228 -0.33983757704659923 0 -0.071709288419854716 -0.33620693743340258 0 -0.065631420931502565 -0.34633528279781151 0 -0.068787657558785006 -0.35424368257319561 0 -0.071709288419854716 -0.33620693743340258 0 -0.068787657558785006 -0.35424368257319561 0 -0.081072341986320295 -0.36228706301079372 0 -0.071709288419854716 -0.33620693743340258 0 -0.081072341986320295 -0.36228706301079372 0 -0.068787657558785006 -0.35424368257319561 0 -0.0656707524679572 -0.35505293413804839 0 -0.081072341986320295 -0.36228706301079372 0 -0.0656707524679572 -0.35505293413804839 0 -0.081072341986320295 -0.36228706301079372 0 -0.065631420931502565 -0.34633528279781151 0 -0.068787657558785006 -0.35424368257319561 0 -0.0656707524679572 -0.35505293413804839 0 -0.068787657558785006 -0.35424368257319561 0 -0.0656707524679572 -0.35505293413804839 0 -0.0656707524679572 -0.35505293413804839 0 -0.067810616814213173 -0.37381830527796678 0 -0.081072341986320295 -0.36228706301079372 0 -0.1028661572726154 -0.37252362127134497 0 -0.081072341986320295 -0.36228706301079372 0 -0.085896755113254841 -0.37572512563582677 0 -0.1028661572726154 -0.37252362127134497 0 -0.081072341986320295 -0.36228706301079372 0 -0.067810616814213173 -0.37381830527796678 0 -0.081072341986320295 -0.36228706301079372 0 -0.085896755113254841 -0.37572512563582677 0 -0.1028661572726154 -0.37252362127134497 0 -0.081072341986320295 -0.36228706301079372 0 -0.09286042927860455 -0.3548202832813398 0 -0.081072341986320295 -0.36228706301079372 0 -0.085896755113254841 -0.37572512563582677 0 -0.081072341986320295 -0.36228706301079372 0 -0.09286042927860455 -0.3548202832813398 0 -0.085312482181832572 -0.34508617141129111 0 -0.071709288419854716 -0.33620693743340258 0 -0.081072341986320295 -0.36228706301079372 0 -0.085312482181832572 -0.34508617141129111 0 -0.098066318519519358 -0.34387940146386209 0 -0.09286042927860455 -0.3548202832813398 0 -0.085312482181832572 -0.34508617141129111 0 -0.11634393893025979 -0.25228084384553928 0 -0.1111609307102279 -0.26619814818480692 0 -0.09461907742776908 -0.2483346929327824 0 -0.096812029820572576 -0.27359408676560082 0 -0.09461907742776908 -0.2483346929327824 0 -0.1111609307102279 -0.26619814818480692 0 -0.096812029820572576 -0.27359408676560082 0 -0.09461907742776908 -0.2483346929327824 0 -0.13190502157042211 -0.25072617741863201 0 -0.11634393893025979 -0.25228084384553928 0 -0.1241395055170023 -0.26405765775817802 0 -0.11634393893025979 -0.25228084384553928 0 -0.1241395055170023 -0.26405765775817802 0 -0.1111609307102279 -0.26619814818480692 0 -0.1111609307102279 -0.26619814818480692 0 -0.1212615555763287 -0.27879053642319629 0 -0.096812029820572576 -0.27359408676560082 0 -0.1241395055170023 -0.26405765775817802 0 -0.1111609307102279 -0.26619814818480692 0 -0.1212615555763287 -0.27879053642319629 0 -0.1212615555763287 -0.27879053642319629 0 -0.096812029820572576 -0.27359408676560082 0 -0.10845815597273981 -0.28716581082212722 0 -0.1212615555763287 -0.27879053642319629 0 -0.096812029820572576 -0.27359408676560082 0 -0.096812029820572576 -0.27359408676560082 0 -0.097643708131475437 -0.28317372473050312 0 -0.088010229302250442 -0.28030547870135458 0 -0.096812029820572576 -0.27359408676560082 0 -0.097643708131475437 -0.28317372473050312 0 -0.10845815597273981 -0.28716581082212722 0 -0.092842802192021207 -0.30895727401916778 0 -0.088392788306270453 -0.29279827998129371 0 -0.097643708131475437 -0.28317372473050312 0 -0.10845815597273981 -0.28716581082212722 0 -0.088392788306270453 -0.29279827998129371 0 -0.096812029820572576 -0.27359408676560082 0 -0.097643708131475437 -0.28317372473050312 0 -0.10845815597273981 -0.28716581082212722 0 -0.1212615555763287 -0.27879053642319629 0 -0.10845815597273981 -0.28716581082212722 0 -0.1192769417620527 -0.29647213004997958 0 -0.13415248522291859 -0.30314904847925572 0 -0.12074189044222509 -0.3175124367468366 0 -0.1192769417620527 -0.29647213004997958 0 -0.12074189044222509 -0.3175124367468366 0 -0.1061318788509036 -0.31662987471019099 0 -0.1192769417620527 -0.29647213004997958 0 -0.1061318788509036 -0.31662987471019099 0 -0.1192769417620527 -0.29647213004997958 0 -0.092842802192021207 -0.30895727401916778 0 -0.1192769417620527 -0.29647213004997958 0 -0.092842802192021207 -0.30895727401916778 0 -0.10845815597273981 -0.28716581082212722 0 -0.1192769417620527 -0.29647213004997958 0 -0.092842802192021207 -0.30895727401916778 0 -0.092842802192021207 -0.30895727401916778 0 -0.07412517869397317 -0.30345385070565811 0 -0.088392788306270453 -0.29279827998129371 0 -0.06640866262199005 -0.32144241798835671 0 -0.07412517869397317 -0.30345385070565811 0 -0.057460270572650532 -0.29651730283165362 0 -0.06640866262199005 -0.32144241798835671 0 -0.092842802192021207 -0.30895727401916778 0 -0.07412517869397317 -0.30345385070565811 0 -0.07600553434966846 -0.28376719930463989 0 -0.057460270572650532 -0.29651730283165362 0 -0.07412517869397317 -0.30345385070565811 0 -0.07600553434966846 -0.28376719930463989 0 -0.057460270572650532 -0.29651730283165362 0 -0.07600553434966846 -0.28376719930463989 0 -0.062588794301653428 -0.28096115862392013 0 -0.057460270572650532 -0.29651730283165362 0 -0.07600553434966846 -0.28376719930463989 0 -0.088392788306270453 -0.29279827998129371 0 -0.088010229302250442 -0.28030547870135458 0 -0.07412517869397317 -0.30345385070565811 0 -0.07600553434966846 -0.28376719930463989 0 -0.088392788306270453 -0.29279827998129371 0 -0.097643708131475437 -0.28317372473050312 0 -0.088392788306270453 -0.29279827998129371 0 -0.088010229302250442 -0.28030547870135458 0 -0.096812029820572576 -0.27359408676560082 0 -0.088010229302250442 -0.28030547870135458 0 -0.081736335997756149 -0.27038993120093913 0 -0.096812029820572576 -0.27359408676560082 0 -0.081736335997756149 -0.27038993120093913 0 -0.07600553434966846 -0.28376719930463989 0 -0.088010229302250442 -0.28030547870135458 0 -0.081736335997756149 -0.27038993120093913 0 -0.07600553434966846 -0.28376719930463989 0 -0.062588794301653428 -0.28096115862392013 0 -0.066660642174939444 -0.26718577563627882 0 -0.07600553434966846 -0.28376719930463989 0 -0.081736335997756149 -0.27038993120093913 0 -0.066660642174939444 -0.26718577563627882 0 -0.081736335997756149 -0.27038993120093913 0 -0.066660642174939444 -0.26718577563627882 0 -0.081736335997756149 -0.27038993120093913 0 -0.066660642174939444 -0.26718577563627882 0 -0.076119915636259583 -0.25974745641386071 0 -0.066660642174939444 -0.26718577563627882 0 -0.049824171052072701 -0.25988622408920969 0 -0.073993733862166705 -0.24790322582111429 0 -0.066660642174939444 -0.26718577563627882 0 -0.076119915636259583 -0.25974745641386071 0 -0.073993733862166705 -0.24790322582111429 0 -0.076119915636259583 -0.25974745641386071 0 -0.073993733862166705 -0.24790322582111429 0 -0.09461907742776908 -0.2483346929327824 0 -0.096812029820572576 -0.27359408676560082 0 -0.081736335997756149 -0.27038993120093913 0 -0.09461907742776908 -0.2483346929327824 0 -0.081736335997756149 -0.27038993120093913 0 -0.076119915636259583 -0.25974745641386071 0 -0.09461907742776908 -0.2483346929327824 0 -0.049824171052072701 -0.25988622408920969 0 -0.036970221907899517 -0.27476836985998432 0 -0.02496809639129045 -0.26055585461843961 0 -0.049824171052072701 -0.25988622408920969 0 -0.02496809639129045 -0.26055585461843961 0 -0.037341291717499163 -0.24905135370329429 0 -0.062588794301653428 -0.28096115862392013 0 -0.066660642174939444 -0.26718577563627882 0 -0.050228730109355302 -0.27637435672310801 0 -0.066660642174939444 -0.26718577563627882 0 -0.049824171052072701 -0.25988622408920969 0 -0.050228730109355302 -0.27637435672310801 0 -0.050228730109355302 -0.27637435672310801 0 -0.036970221907899517 -0.27476836985998432 0 -0.039709023110120617 -0.28983872365357599 0 -0.049824171052072701 -0.25988622408920969 0 -0.050228730109355302 -0.27637435672310801 0 -0.036970221907899517 -0.27476836985998432 0 -0.039709023110120617 -0.28983872365357599 0 -0.037852423381281787 -0.309997945902455 0 -0.020121088876658502 -0.2871866902155879 0 -0.036970221907899517 -0.27476836985998432 0 -0.039709023110120617 -0.28983872365357599 0 -0.020121088876658502 -0.2871866902155879 0 -0.050228730109355302 -0.27637435672310801 0 -0.057460270572650532 -0.29651730283165362 0 -0.062588794301653428 -0.28096115862392013 0 -0.050228730109355302 -0.27637435672310801 0 -0.057460270572650532 -0.29651730283165362 0 -0.050228730109355302 -0.27637435672310801 0 -0.039709023110120617 -0.28983872365357599 0 -0.057460270572650532 -0.29651730283165362 0 -0.057460270572650532 -0.29651730283165362 0 -0.037852423381281787 -0.309997945902455 0 -0.051773700865952108 -0.31812942299761893 0 -0.06640866262199005 -0.32144241798835671 0 -0.057460270572650532 -0.29651730283165362 0 -0.057460270572650532 -0.29651730283165362 0 -0.037852423381281787 -0.309997945902455 0 -0.06640866262199005 -0.32144241798835671 0 -0.057460270572650532 -0.29651730283165362 0 -0.051773700865952108 -0.31812942299761893 0 -0.039709023110120617 -0.28983872365357599 0 -0.057460270572650532 -0.29651730283165362 0 -0.037852423381281787 -0.309997945902455 0 -0.037852423381281787 -0.309997945902455 0 -0.011741705958280189 -0.30517245176052349 0 -0.020121088876658502 -0.2871866902155879 0 -0.011741705958280189 -0.30517245176052349 0 0.007359152392873396 -0.30414063040254607 0 0.0001914317168464046 -0.28580454581531212 0 -0.011741705958280189 -0.30517245176052349 0 -0.001476048506313423 -0.31866223119492831 0 0.007359152392873396 -0.30414063040254607 0 -0.011741705958280189 -0.30517245176052349 0 -0.020121088876658502 -0.2871866902155879 0 0.0001914317168464046 -0.28580454581531212 0 -0.036970221907899517 -0.27476836985998432 0 -0.020121088876658502 -0.2871866902155879 0 -0.02496809639129045 -0.26055585461843961 0 -0.020121088876658502 -0.2871866902155879 0 -0.02496809639129045 -0.26055585461843961 0 -0.020121088876658502 -0.2871866902155879 0 -0.0045210631122281813 -0.25968277032720372 0 -0.02496809639129045 -0.26055585461843961 0 -0.020121088876658502 -0.2871866902155879 0 -0.0045210631122281813 -0.25968277032720372 0 0.0001914317168464046 -0.28580454581531212 0 -0.0045210631122281813 -0.25968277032720372 0 -0.02496809639129045 -0.26055585461843961 0 -0.013591985608380611 -0.2401022274723569 0 -0.035206527701389108 -0.34712147945920713 0 -0.049895158549929187 -0.35914879964971008 0 -0.041006682138971233 -0.34346821665979349 0 -0.035206527701389108 -0.34712147945920713 0 -0.041006682138971233 -0.34346821665979349 0 -0.018800033599468441 -0.34872017065524558 0 -0.035206527701389108 -0.34712147945920713 0 -0.036350687077897362 -0.35618683356661829 0 -0.049895158549929187 -0.35914879964971008 0 -0.035206527701389108 -0.34712147945920713 0 -0.049895158549929187 -0.35914879964971008 0 -0.035206527701389108 -0.34712147945920713 0 -0.036350687077897362 -0.35618683356661829 0 -0.02821306657356256 -0.35487499232169317 0 -0.036350687077897362 -0.35618683356661829 0 -0.03189754898589111 -0.36382157385325381 0 -0.02821306657356256 -0.35487499232169317 0 -0.03189754898589111 -0.36382157385325381 0 -0.049895158549929187 -0.35914879964971008 0 -0.03189754898589111 -0.36382157385325381 0 -0.053348878278263748 -0.37320544570679759 0 -0.049895158549929187 -0.35914879964971008 0 -0.03189754898589111 -0.36382157385325381 0 -0.053348878278263748 -0.37320544570679759 0 -0.040928727905890569 -0.38063897401196828 0 -0.036350687077897362 -0.35618683356661829 0 -0.03189754898589111 -0.36382157385325381 0 -0.049895158549929187 -0.35914879964971008 0 -0.0656707524679572 -0.35505293413804839 0 -0.067810616814213173 -0.37381830527796678 0 -0.049895158549929187 -0.35914879964971008 0 -0.067810616814213173 -0.37381830527796678 0 -0.053348878278263748 -0.37320544570679759 0 -0.049895158549929187 -0.35914879964971008 0 -0.067810616814213173 -0.37381830527796678 0 -0.049895158549929187 -0.35914879964971008 0 -0.0656707524679572 -0.35505293413804839 0 -0.041006682138971233 -0.34346821665979349 0 -0.0656707524679572 -0.35505293413804839 0 -0.049895158549929187 -0.35914879964971008 0 -0.0656707524679572 -0.35505293413804839 0 -0.049895158549929187 -0.35914879964971008 0 -0.041006682138971233 -0.34346821665979349 0 -0.0656707524679572 -0.35505293413804839 0 -0.056357985279413228 -0.33983757704659923 0 -0.041006682138971233 -0.34346821665979349 0 -0.056357985279413228 -0.33983757704659923 0 -0.062459090678893589 -0.3313646601907651 0 -0.052584846408619053 -0.32797156319356618 0 -0.056357985279413228 -0.33983757704659923 0 -0.047917560337735088 -0.33598855613852119 0 -0.052584846408619053 -0.32797156319356618 0 -0.056357985279413228 -0.33983757704659923 0 -0.041006682138971233 -0.34346821665979349 0 -0.056357985279413228 -0.33983757704659923 0 -0.047917560337735088 -0.33598855613852119 0 -0.041006682138971233 -0.34346821665979349 0 -0.06640866262199005 -0.32144241798835671 0 -0.062459090678893589 -0.3313646601907651 0 -0.052584846408619053 -0.32797156319356618 0 -0.06640866262199005 -0.32144241798835671 0 -0.052584846408619053 -0.32797156319356618 0 -0.06640866262199005 -0.32144241798835671 0 -0.052584846408619053 -0.32797156319356618 0 -0.051773700865952108 -0.31812942299761893 0 -0.051773700865952108 -0.31812942299761893 0 -0.033380262263956413 -0.33007699021531128 0 -0.037852423381281787 -0.309997945902455 0 -0.051773700865952108 -0.31812942299761893 0 -0.033380262263956413 -0.33007699021531128 0 -0.052584846408619053 -0.32797156319356618 0 -0.051773700865952108 -0.31812942299761893 0 -0.033380262263956413 -0.33007699021531128 0 -0.052584846408619053 -0.32797156319356618 0 -0.033380262263956413 -0.33007699021531128 0 -0.038761030195248493 -0.33450070839877638 0 -0.047917560337735088 -0.33598855613852119 0 -0.041006682138971233 -0.34346821665979349 0 -0.038761030195248493 -0.33450070839877638 0 -0.052584846408619053 -0.32797156319356618 0 -0.038761030195248493 -0.33450070839877638 0 -0.047917560337735088 -0.33598855613852119 0 -0.052584846408619053 -0.32797156319356618 0 -0.038761030195248493 -0.33450070839877638 0 -0.033380262263956413 -0.33007699021531128 0 -0.038761030195248493 -0.33450070839877638 0 -0.032591531975593398 -0.33951561938450542 0 -0.041006682138971233 -0.34346821665979349 0 -0.032591531975593398 -0.33951561938450542 0 -0.041006682138971233 -0.34346821665979349 0 -0.038761030195248493 -0.33450070839877638 0 -0.032591531975593398 -0.33951561938450542 0 -0.033380262263956413 -0.33007699021531128 0 -0.02387816534130861 -0.34139449576654318 0 -0.014986823661960731 -0.34202455743300381 0 -0.032591531975593398 -0.33951561938450542 0 -0.02387816534130861 -0.34139449576654318 0 -0.018800033599468441 -0.34872017065524558 0 -0.033380262263956413 -0.33007699021531128 0 -0.01824457618991266 -0.32347858897325599 0 -0.014986823661960731 -0.34202455743300381 0 -0.033380262263956413 -0.33007699021531128 0 -0.032591531975593398 -0.33951561938450542 0 -0.02387816534130861 -0.34139449576654318 0 -0.033380262263956413 -0.33007699021531128 0 -0.014986823661960731 -0.34202455743300381 0 -0.037852423381281787 -0.309997945902455 0 -0.011741705958280189 -0.30517245176052349 0 -0.01824457618991266 -0.32347858897325599 0 -0.037852423381281787 -0.309997945902455 0 -0.033380262263956413 -0.33007699021531128 0 -0.01824457618991266 -0.32347858897325599 0 -0.037852423381281787 -0.309997945902455 0 -0.01824457618991266 -0.32347858897325599 0 -0.01824457618991266 -0.32347858897325599 0 -0.001476048506313423 -0.31866223119492831 0 0.001363271001456459 -0.33695923204405698 0 -0.011741705958280189 -0.30517245176052349 0 -0.01824457618991266 -0.32347858897325599 0 -0.001476048506313423 -0.31866223119492831 0 -0.01824457618991266 -0.32347858897325599 0 0.001363271001456459 -0.33695923204405698 0 -0.01824457618991266 -0.32347858897325599 0 -0.014986823661960731 -0.34202455743300381 0 0.001363271001456459 -0.33695923204405698 0 -0.014986823661960731 -0.34202455743300381 0 -0.004807145623944774 -0.3459625356740248 0 0.001363271001456459 -0.33695923204405698 0 -0.004807145623944774 -0.3459625356740248 0 0.001841636670160379 -0.34665091486273469 0 0.001363271001456459 -0.33695923204405698 0 -0.018800033599468441 -0.34872017065524558 0 0.0034066149400347099 -0.3539721246506965 0 -0.014986823661960731 -0.34202455743300381 0 -0.004807145623944774 -0.3459625356740248 0 0.0034066149400347099 -0.3539721246506965 0 -0.014986823661960731 -0.34202455743300381 0 0.0034066149400347099 -0.3539721246506965 0 -0.004807145623944774 -0.3459625356740248 0 0.001841636670160379 -0.34665091486273469 0 0.0013316416042528519 -0.34933408190008453 0 -0.014986823661960731 -0.34202455743300381 0 -0.018800033599468441 -0.34872017065524558 0 0.0034066149400347099 -0.3539721246506965 0 -0.0089530248603548954 -0.35665818151079948 0 -0.018800033599468441 -0.34872017065524558 0 0.0034066149400347099 -0.3539721246506965 0 -0.004807145623944774 -0.3459625356740248 0 0.0013316416042528519 -0.34933408190008453 0 0.0034066149400347099 -0.3539721246506965 0 -0.0028400579241715002 -0.35784654174796909 0 -0.0089530248603548954 -0.35665818151079948 0 0.0034066149400347099 -0.3539721246506965 0 -0.041006682138971233 -0.34346821665979349 0 -0.032591531975593398 -0.33951561938450542 0 -0.018800033599468441 -0.34872017065524558 0 -0.035206527701389108 -0.34712147945920713 0 -0.018800033599468441 -0.34872017065524558 0 -0.02821306657356256 -0.35487499232169317 0 -0.02387816534130861 -0.34139449576654318 0 -0.014986823661960731 -0.34202455743300381 0 -0.018800033599468441 -0.34872017065524558 0 -0.041006682138971233 -0.34346821665979349 0 -0.018800033599468441 -0.34872017065524558 0 -0.018800033599468441 -0.34872017065524558 0 -0.02035272268822591 -0.35851385327955759 0 -0.02821306657356256 -0.35487499232169317 0 -0.0089530248603548954 -0.35665818151079948 0 -0.018800033599468441 -0.34872017065524558 0 -0.02035272268822591 -0.35851385327955759 0 -0.03189754898589111 -0.36382157385325381 0 -0.02035272268822591 -0.35851385327955759 0 -0.02821306657356256 -0.35487499232169317 0 -0.03189754898589111 -0.36382157385325381 0 -0.01389993942185256 -0.36849434805679587 0 -0.01389993942185256 -0.36849434805679587 0 -0.040928727905890569 -0.38063897401196828 0 -0.03189754898589111 -0.36382157385325381 0 -0.02035272268822591 -0.35851385327955759 0 -0.01389993942185256 -0.36849434805679587 0 -0.03189754898589111 -0.36382157385325381 0 -0.01389993942185256 -0.36849434805679587 0 -0.040928727905890569 -0.38063897401196828 0 -0.01389993942185256 -0.36849434805679587 0 0.0029551226172910491 -0.36092099995658328 0 -0.0028400579241715002 -0.35784654174796909 0 -0.01389993942185256 -0.36849434805679587 0 0.0029551226172910491 -0.36092099995658328 0 -0.01389993942185256 -0.36849434805679587 0 0.0029551226172910491 -0.36092099995658328 0 0.0088809091835504086 -0.36962472348447162 0 -0.01389993942185256 -0.36849434805679587 0 0.01275949946975607 -0.37541601939822422 0 -0.0028400579241715002 -0.35784654174796909 0 -0.0089530248603548954 -0.35665818151079948 0 -0.01389993942185256 -0.36849434805679587 0 -0.0089530248603548954 -0.35665818151079948 0 -0.02035272268822591 -0.35851385327955759 0 -0.01389993942185256 -0.36849434805679587 0 -0.01389993942185256 -0.36849434805679587 0 -0.0076172317887358574 -0.38547578003663552 0 -0.022588048445441759 -0.38611769244340782 0 -0.01389993942185256 -0.36849434805679587 0 -0.0076172317887358574 -0.38547578003663552 0 0.002186550478631818 -0.37664663839193951 0 -0.0076172317887358574 -0.38547578003663552 0 0.0024663421228158611 -0.38577551295023971 0 0.002186550478631818 -0.37664663839193951 0 -0.0076172317887358574 -0.38547578003663552 0 0.0024663421228158611 -0.38577551295023971 0 0.0005835934915041272 -0.3961125858119427 0 -0.01672752882726937 -0.40076872455973372 0 -0.001367206077267252 -0.40650877190431511 0 0.0005835934915041272 -0.3961125858119427 0 -0.0076172317887358574 -0.38547578003663552 0 -0.01672752882726937 -0.40076872455973372 0 0.0005835934915041272 -0.3961125858119427 0 -0.01672752882726937 -0.40076872455973372 0 -0.022588048445441759 -0.38611769244340782 0 -0.033766814283460428 -0.39521063555190572 0 -0.0076172317887358574 -0.38547578003663552 0 -0.01672752882726937 -0.40076872455973372 0 -0.022588048445441759 -0.38611769244340782 0 -0.01389993942185256 -0.36849434805679587 0 -0.022588048445441759 -0.38611769244340782 0 -0.040928727905890569 -0.38063897401196828 0 -0.022588048445441759 -0.38611769244340782 0 -0.040928727905890569 -0.38063897401196828 0 -0.033766814283460428 -0.39521063555190572 0 -0.040928727905890569 -0.38063897401196828 0 -0.033766814283460428 -0.39521063555190572 0 -0.048251484993442777 -0.40577856855982608 0 -0.048251484993442777 -0.40577856855982608 0 -0.067957516389928668 -0.39278359996714107 0 -0.065332784143535244 -0.41172300893397479 0 -0.040928727905890569 -0.38063897401196828 0 -0.048251484993442777 -0.40577856855982608 0 -0.067957516389928668 -0.39278359996714107 0 -0.040928727905890569 -0.38063897401196828 0 -0.067957516389928668 -0.39278359996714107 0 -0.053348878278263748 -0.37320544570679759 0 -0.040928727905890569 -0.38063897401196828 0 -0.067957516389928668 -0.39278359996714107 0 -0.033766814283460428 -0.39521063555190572 0 -0.048251484993442777 -0.40577856855982608 0 -0.029750761448358431 -0.42691561591870258 0 -0.048251484993442777 -0.40577856855982608 0 -0.054716503961535337 -0.42867888979675489 0 -0.065332784143535244 -0.41172300893397479 0 -0.048251484993442777 -0.40577856855982608 0 -0.054716503961535337 -0.42867888979675489 0 -0.029750761448358431 -0.42691561591870258 0 -0.054716503961535337 -0.42867888979675489 0 -0.029750761448358431 -0.42691561591870258 0 -0.042773994069447492 -0.45306250727767161 0 -0.029750761448358431 -0.42691561591870258 0 -0.0082866790812689186 -0.43278516735961292 0 -0.019609908789343562 -0.44559425876730152 0 -0.01672752882726937 -0.40076872455973372 0 -0.033766814283460428 -0.39521063555190572 0 -0.029750761448358431 -0.42691561591870258 0 -0.01672752882726937 -0.40076872455973372 0 -0.029750761448358431 -0.42691561591870258 0 -0.01672752882726937 -0.40076872455973372 0 -0.029750761448358431 -0.42691561591870258 0 -0.0018914237909277061 -0.41928909002879139 0 -0.01672752882726937 -0.40076872455973372 0 -0.0018914237909277061 -0.41928909002879139 0 -0.001367206077267252 -0.40650877190431511 0 -0.029750761448358431 -0.42691561591870258 0 -0.0018914237909277061 -0.41928909002879139 0 -0.0082866790812689186 -0.43278516735961292 0 -0.0018914237909277061 -0.41928909002879139 0 -0.0082866790812689186 -0.43278516735961292 0 0.0061512126340387023 -0.43027995724634288 0 -0.0082866790812689186 -0.43278516735961292 0 -0.019609908789343562 -0.44559425876730152 0 0.0030651850402754859 -0.4419511729918677 0 -0.00056832804991988322 -0.45874236693044629 0 -0.019609908789343562 -0.44559425876730152 0 0.0030651850402754859 -0.4419511729918677 0 -0.00056832804991988322 -0.45874236693044629 0 -0.017308223425906891 -0.4628734242143645 0 -0.0045807544369819847 -0.48001459429476379 0 -0.00056832804991988322 -0.45874236693044629 0 -0.017308223425906891 -0.4628734242143645 0 -0.019609908789343562 -0.44559425876730152 0 -0.017308223425906891 -0.4628734242143645 0 -0.019609908789343562 -0.44559425876730152 0 -0.042773994069447492 -0.45306250727767161 0 -0.017308223425906891 -0.4628734242143645 0 -0.030440821094949819 -0.47819289251781411 0 -0.042773994069447492 -0.45306250727767161 0 -0.029750761448358431 -0.42691561591870258 0 -0.019609908789343562 -0.44559425876730152 0 -0.042773994069447492 -0.45306250727767161 0 -0.01182705985915739 -0.5 0 -0.0045807544369819847 -0.48001459429476379 0 -0.030440821094949819 -0.47819289251781411 0 -0.017308223425906891 -0.4628734242143645 0 -0.0045807544369819847 -0.48001459429476379 0 -0.030440821094949819 -0.47819289251781411 0 -0.01182705985915739 -0.5 0 -0.030440821094949819 -0.47819289251781411 0 -0.041049321295367647 -0.5 0 -0.030440821094949819 -0.47819289251781411 0 -0.041049321295367647 -0.5 0 -0.055797226690536543 -0.47920939863664053 0 -0.030440821094949819 -0.47819289251781411 0 -0.055797226690536543 -0.47920939863664053 0 -0.042773994069447492 -0.45306250727767161 0 -0.041049321295367647 -0.5 0 -0.055797226690536543 -0.47920939863664053 0 -0.070271582731578131 -0.5 0 -0.029750761448358431 -0.42691561591870258 0 -0.042773994069447492 -0.45306250727767161 0 -0.055797226690536543 -0.47920939863664053 0 -0.042773994069447492 -0.45306250727767161 0 -0.055797226690536543 -0.47920939863664053 0 -0.042773994069447492 -0.45306250727767161 0 -0.069888439322978571 -0.45110842523423239 0 -0.054716503961535337 -0.42867888979675489 0 -0.042773994069447492 -0.45306250727767161 0 -0.069888439322978571 -0.45110842523423239 0 -0.069888439322978571 -0.45110842523423239 0 -0.086783991628407345 -0.43884184532403919 0 -0.074491484066324332 -0.42520281385673209 0 -0.069888439322978571 -0.45110842523423239 0 -0.083901698021069726 -0.47675002150051599 0 -0.094172822847251425 -0.45482387531205792 0 -0.069888439322978571 -0.45110842523423239 0 -0.086783991628407345 -0.43884184532403919 0 -0.094172822847251425 -0.45482387531205792 0 -0.055797226690536543 -0.47920939863664053 0 -0.070271582731578131 -0.5 0 -0.083901698021069726 -0.47675002150051599 0 -0.055797226690536543 -0.47920939863664053 0 -0.069888439322978571 -0.45110842523423239 0 -0.083901698021069726 -0.47675002150051599 0 -0.070271582731578131 -0.5 0 -0.083901698021069726 -0.47675002150051599 0 -0.099493844167788614 -0.5 0 -0.083901698021069726 -0.47675002150051599 0 -0.099493844167788614 -0.5 0 -0.11378627236628509 -0.47535842982016541 0 -0.083901698021069726 -0.47675002150051599 0 -0.11378627236628509 -0.47535842982016541 0 -0.094172822847251425 -0.45482387531205792 0 -0.12871610560399899 -0.5 0 -0.099493844167788614 -0.5 0 -0.11378627236628509 -0.47535842982016541 0 -0.094172822847251425 -0.45482387531205792 0 -0.1133743382217787 -0.45308008989519583 0 -0.10328879414208671 -0.43443340349753118 0 -0.086783991628407345 -0.43884184532403919 0 -0.094172822847251425 -0.45482387531205792 0 -0.10328879414208671 -0.43443340349753118 0 -0.11378627236628509 -0.47535842982016541 0 -0.094172822847251425 -0.45482387531205792 0 -0.1133743382217787 -0.45308008989519583 0 -0.13468821229704461 -0.45479542492255759 0 -0.11378627236628509 -0.47535842982016541 0 -0.1133743382217787 -0.45308008989519583 0 -0.13468821229704461 -0.45479542492255759 0 -0.1213299483320705 -0.43931237329557188 0 -0.1133743382217787 -0.45308008989519583 0 -0.1213299483320705 -0.43931237329557188 0 -0.1133743382217787 -0.45308008989519583 0 -0.10328879414208671 -0.43443340349753118 0 -0.1213299483320705 -0.43931237329557188 0 -0.10328879414208671 -0.43443340349753118 0 -0.1215569916070609 -0.41782682216274208 0 -0.086783991628407345 -0.43884184532403919 0 -0.10328879414208671 -0.43443340349753118 0 -0.094521483081802596 -0.41884868783824658 0 -0.10328879414208671 -0.43443340349753118 0 -0.094521483081802596 -0.41884868783824658 0 -0.1215569916070609 -0.41782682216274208 0 -0.094521483081802596 -0.41884868783824658 0 -0.1215569916070609 -0.41782682216274208 0 -0.1036415333427783 -0.40315731653448361 0 -0.1215569916070609 -0.41782682216274208 0 -0.1036415333427783 -0.40315731653448361 0 -0.12849527719368559 -0.40215976165868139 0 -0.1215569916070609 -0.41782682216274208 0 -0.1036415333427783 -0.40315731653448361 0 -0.12849527719368559 -0.40215976165868139 0 -0.12465997255891 -0.38276017953189728 0 -0.1036415333427783 -0.40315731653448361 0 -0.12465997255891 -0.38276017953189728 0 -0.10095122347193131 -0.38666774131185899 0 -0.1036415333427783 -0.40315731653448361 0 -0.1028661572726154 -0.37252362127134497 0 -0.12465997255891 -0.38276017953189728 0 -0.10095122347193131 -0.38666774131185899 0 -0.1028661572726154 -0.37252362127134497 0 -0.12465997255891 -0.38276017953189728 0 -0.1028661572726154 -0.37252362127134497 0 -0.10095122347193131 -0.38666774131185899 0 -0.085896755113254841 -0.37572512563582677 0 -0.10095122347193131 -0.38666774131185899 0 -0.1036415333427783 -0.40315731653448361 0 -0.08572607507849575 -0.38848781090622531 0 -0.1036415333427783 -0.40315731653448361 0 -0.08572607507849575 -0.38848781090622531 0 -0.0812469313064451 -0.40617117248942031 0 -0.08572607507849575 -0.38848781090622531 0 -0.067957516389928668 -0.39278359996714107 0 -0.1036415333427783 -0.40315731653448361 0 -0.0812469313064451 -0.40617117248942031 0 -0.08572607507849575 -0.38848781090622531 0 -0.067810616814213173 -0.37381830527796678 0 -0.08572607507849575 -0.38848781090622531 0 -0.085896755113254841 -0.37572512563582677 0 -0.10095122347193131 -0.38666774131185899 0 -0.08572607507849575 -0.38848781090622531 0 -0.085896755113254841 -0.37572512563582677 0 -0.067810616814213173 -0.37381830527796678 0 -0.053348878278263748 -0.37320544570679759 0 -0.067957516389928668 -0.39278359996714107 0 -0.067810616814213173 -0.37381830527796678 0 -0.08572607507849575 -0.38848781090622531 0 -0.067810616814213173 -0.37381830527796678 0 -0.08572607507849575 -0.38848781090622531 0 -0.067957516389928668 -0.39278359996714107 0 -0.0812469313064451 -0.40617117248942031 0 -0.067957516389928668 -0.39278359996714107 0 -0.065332784143535244 -0.41172300893397479 0 -0.054716503961535337 -0.42867888979675489 0 -0.065332784143535244 -0.41172300893397479 0 -0.074491484066324332 -0.42520281385673209 0 -0.0812469313064451 -0.40617117248942031 0 -0.065332784143535244 -0.41172300893397479 0 -0.074491484066324332 -0.42520281385673209 0 -0.054716503961535337 -0.42867888979675489 0 -0.069888439322978571 -0.45110842523423239 0 -0.074491484066324332 -0.42520281385673209 0 -0.086783991628407345 -0.43884184532403919 0 -0.094521483081802596 -0.41884868783824658 0 -0.074491484066324332 -0.42520281385673209 0 -0.094521483081802596 -0.41884868783824658 0 -0.1036415333427783 -0.40315731653448361 0 -0.0812469313064451 -0.40617117248942031 0 -0.094521483081802596 -0.41884868783824658 0 -0.0812469313064451 -0.40617117248942031 0 -0.074491484066324332 -0.42520281385673209 0 -0.092941597712339896 -0.078673635867946221 0 -0.077633610203629119 -0.097959239876917098 0 -0.092941597712339896 -0.078673635867946221 0 -0.075289334224501514 -0.075453014134425983 0 -0.077633610203629119 -0.097959239876917098 0 -0.092941597712339896 -0.078673635867946221 0 -0.077633610203629119 -0.097959239876917098 0 -0.1009120422868619 -0.094394347726965852 0 -0.092941597712339896 -0.078673635867946221 0 -0.094659711062007532 -0.054626520914848278 0 -0.080791250763238232 -0.05686910861525897 0 -0.092941597712339896 -0.078673635867946221 0 -0.075289334224501514 -0.075453014134425983 0 -0.080791250763238232 -0.05686910861525897 0 -0.075289334224501514 -0.075453014134425983 0 -0.067862191526602694 -0.061817240819373363 0 -0.059347391197914837 -0.070639833464531288 0 -0.075289334224501514 -0.075453014134425983 0 -0.080791250763238232 -0.05686910861525897 0 -0.067862191526602694 -0.061817240819373363 0 -0.075289334224501514 -0.075453014134425983 0 -0.063434838827999634 -0.08263531953485731 0 -0.059347391197914837 -0.070639833464531288 0 -0.063434838827999634 -0.08263531953485731 0 -0.077633610203629119 -0.097959239876917098 0 -0.054154531554566072 -0.092930486793401712 0 -0.075289334224501514 -0.075453014134425983 0 -0.063434838827999634 -0.08263531953485731 0 -0.077633610203629119 -0.097959239876917098 0 -0.077633610203629119 -0.097959239876917098 0 -0.070965667365074439 -0.1173043930244804 0 -0.054154531554566072 -0.092930486793401712 0 -0.077633610203629119 -0.097959239876917098 0 -0.070965667365074439 -0.1173043930244804 0 -0.097425521323536782 -0.113010558039779 0 -0.070965667365074439 -0.1173043930244804 0 -0.097425521323536782 -0.113010558039779 0 -0.082333871038512835 -0.1343179275555568 0 -0.077633610203629119 -0.097959239876917098 0 -0.1009120422868619 -0.094394347726965852 0 -0.097425521323536782 -0.113010558039779 0 -0.1009120422868619 -0.094394347726965852 0 -0.097425521323536782 -0.113010558039779 0 -0.1204271970110269 -0.1031177539053135 0 -0.097425521323536782 -0.113010558039779 0 -0.1174342759398118 -0.1212314737839226 0 -0.10558030979801381 -0.1330474094886375 0 -0.097425521323536782 -0.113010558039779 0 -0.1174342759398118 -0.1212314737839226 0 -0.1204271970110269 -0.1031177539053135 0 -0.1174342759398118 -0.1212314737839226 0 -0.1204271970110269 -0.1031177539053135 0 -0.13464975142020449 -0.11779795748306381 0 -0.1204271970110269 -0.1031177539053135 0 -0.11613228518377661 -0.079210550944873379 0 -0.13153467129835861 -0.080136189156815654 0 -0.1009120422868619 -0.094394347726965852 0 -0.1204271970110269 -0.1031177539053135 0 -0.11613228518377661 -0.079210550944873379 0 -0.092941597712339896 -0.078673635867946221 0 -0.1009120422868619 -0.094394347726965852 0 -0.11613228518377661 -0.079210550944873379 0 -0.092941597712339896 -0.078673635867946221 0 -0.11613228518377661 -0.079210550944873379 0 -0.1082495852210507 -0.059388031858975253 0 -0.092941597712339896 -0.078673635867946221 0 -0.1082495852210507 -0.059388031858975253 0 -0.092941597712339896 -0.078673635867946221 0 -0.094659711062007532 -0.054626520914848278 0 -0.1082495852210507 -0.059388031858975253 0 -0.11613228518377661 -0.079210550944873379 0 -0.13153467129835861 -0.080136189156815654 0 -0.12625576057893989 -0.061747420413339339 0 -0.11613228518377661 -0.079210550944873379 0 -0.1082495852210507 -0.059388031858975253 0 -0.12625576057893989 -0.061747420413339339 0 -0.12355757272976151 -0.040102427850004389 0 -0.1082495852210507 -0.059388031858975253 0 -0.12355757272976151 -0.040102427850004389 0 -0.1082495852210507 -0.059388031858975253 0 -0.12625576057893989 -0.061747420413339339 0 -0.12355757272976151 -0.040102427850004389 0 -0.102732701779107 -0.03927861764911713 0 -0.10741057513537321 -0.024211523008536639 0 -0.12355757272976151 -0.040102427850004389 0 -0.102732701779107 -0.03927861764911713 0 -0.1082495852210507 -0.059388031858975253 0 -0.102732701779107 -0.03927861764911713 0 -0.094659711062007532 -0.054626520914848278 0 -0.088583419834301805 -0.038923210582943853 0 -0.102732701779107 -0.03927861764911713 0 -0.094342370661278249 -0.019790940378292439 0 -0.088583419834301805 -0.038923210582943853 0 -0.102732701779107 -0.03927861764911713 0 -0.094659711062007532 -0.054626520914848278 0 -0.1082495852210507 -0.059388031858975253 0 -0.113185123950466 -0.0023048807743676759 0 -0.12152508443855629 -4.6565042202755903e-05 0 -0.1190128475456516 -0.015143404725753861 0 -0.12152508443855629 -4.6565042202755903e-05 0 -0.1190128475456516 -0.015143404725753861 0 -0.13072301095149069 -0.005437812573230668 0 -0.113185123950466 -0.0023048807743676759 0 -0.1190128475456516 -0.015143404725753861 0 -0.10539382048894801 -0.01109668752989507 0 -0.12355757272976151 -0.040102427850004389 0 -0.1190128475456516 -0.015143404725753861 0 -0.10741057513537321 -0.024211523008536639 0 -0.1190128475456516 -0.015143404725753861 0 -0.10741057513537321 -0.024211523008536639 0 -0.10539382048894801 -0.01109668752989507 0 -0.102732701779107 -0.03927861764911713 0 -0.10741057513537321 -0.024211523008536639 0 -0.094342370661278249 -0.019790940378292439 0 -0.10741057513537321 -0.024211523008536639 0 -0.094342370661278249 -0.019790940378292439 0 -0.10539382048894801 -0.01109668752989507 0 -0.094342370661278249 -0.019790940378292439 0 -0.10539382048894801 -0.01109668752989507 0 -0.09385193615150994 -0.0060618757144698344 0 -0.10539382048894801 -0.01109668752989507 0 -0.09385193615150994 -0.0060618757144698344 0 -0.10564944294261031 0.00105739657185959 0 -0.113185123950466 -0.0023048807743676759 0 -0.10539382048894801 -0.01109668752989507 0 -0.10564944294261031 0.00105739657185959 0 -0.09385193615150994 -0.0060618757144698344 0 -0.078600163196295716 -0.0056513456052398056 0 -0.080706650965978968 -0.0214627331115648 0 -0.09385193615150994 -0.0060618757144698344 0 -0.078600163196295716 -0.0056513456052398056 0 -0.09031233222172122 0.0050713261246467774 0 -0.09385193615150994 -0.0060618757144698344 0 -0.080706650965978968 -0.0214627331115648 0 -0.094342370661278249 -0.019790940378292439 0 -0.080706650965978968 -0.0214627331115648 0 -0.088583419834301805 -0.038923210582943853 0 -0.094342370661278249 -0.019790940378292439 0 -0.09385193615150994 -0.0060618757144698344 0 -0.080706650965978968 -0.0214627331115648 0 -0.080706650965978968 -0.0214627331115648 0 -0.067561365780447996 -0.036863590508659748 0 -0.080706650965978968 -0.0214627331115648 0 -0.070586921766953345 -0.025140675176976511 0 -0.067561365780447996 -0.036863590508659748 0 -0.070586921766953345 -0.025140675176976511 0 -0.065161754051967877 -0.029882736584464799 0 -0.067282680112731086 -0.01541702298438403 0 -0.070586921766953345 -0.025140675176976511 0 -0.065161754051967877 -0.029882736584464799 0 -0.067561365780447996 -0.036863590508659748 0 -0.080706650965978968 -0.0214627331115648 0 -0.070586921766953345 -0.025140675176976511 0 -0.067282680112731086 -0.01541702298438403 0 -0.078600163196295716 -0.0056513456052398056 0 -0.080706650965978968 -0.0214627331115648 0 -0.067282680112731086 -0.01541702298438403 0 -0.078600163196295716 -0.0056513456052398056 0 -0.067282680112731086 -0.01541702298438403 0 -0.065042571787998396 -0.0024164373520884279 0 -0.078600163196295716 -0.0056513456052398056 0 -0.065042571787998396 -0.0024164373520884279 0 -0.075425995574936927 0.0068699248734238926 0 -0.094659711062007532 -0.054626520914848278 0 -0.080791250763238232 -0.05686910861525897 0 -0.088583419834301805 -0.038923210582943853 0 -0.080791250763238232 -0.05686910861525897 0 -0.088583419834301805 -0.038923210582943853 0 -0.077389115151030752 -0.040591167311790591 0 -0.080706650965978968 -0.0214627331115648 0 -0.088583419834301805 -0.038923210582943853 0 -0.077389115151030752 -0.040591167311790591 0 -0.080706650965978968 -0.0214627331115648 0 -0.077389115151030752 -0.040591167311790591 0 -0.067561365780447996 -0.036863590508659748 0 -0.077389115151030752 -0.040591167311790591 0 -0.067561365780447996 -0.036863590508659748 0 -0.069302888411186855 -0.0488371937405256 0 -0.065161754051967877 -0.029882736584464799 0 -0.067561365780447996 -0.036863590508659748 0 -0.058113543320318657 -0.036237912389696807 0 -0.067561365780447996 -0.036863590508659748 0 -0.069302888411186855 -0.0488371937405256 0 -0.058813650915706693 -0.044195519168826809 0 -0.069302888411186855 -0.0488371937405256 0 -0.067862191526602694 -0.061817240819373363 0 -0.060569887675864548 -0.053289418573433472 0 -0.080791250763238232 -0.05686910861525897 0 -0.077389115151030752 -0.040591167311790591 0 -0.069302888411186855 -0.0488371937405256 0 -0.069302888411186855 -0.0488371937405256 0 -0.060569887675864548 -0.053289418573433472 0 -0.058813650915706693 -0.044195519168826809 0 -0.080791250763238232 -0.05686910861525897 0 -0.069302888411186855 -0.0488371937405256 0 -0.067862191526602694 -0.061817240819373363 0 -0.067862191526602694 -0.061817240819373363 0 -0.053164477218185263 -0.060615209986296499 0 -0.060569887675864548 -0.053289418573433472 0 -0.053164477218185263 -0.060615209986296499 0 -0.050202168855596571 -0.050415827308185092 0 -0.060569887675864548 -0.053289418573433472 0 -0.053164477218185263 -0.060615209986296499 0 -0.050202168855596571 -0.050415827308185092 0 -0.041470599931449553 -0.059922654889461323 0 -0.050202168855596571 -0.050415827308185092 0 -0.060569887675864548 -0.053289418573433472 0 -0.058813650915706693 -0.044195519168826809 0 -0.058813650915706693 -0.044195519168826809 0 -0.058113543320318657 -0.036237912389696807 0 -0.049262490839258238 -0.038494411700845853 0 -0.067561365780447996 -0.036863590508659748 0 -0.058813650915706693 -0.044195519168826809 0 -0.058113543320318657 -0.036237912389696807 0 -0.065161754051967877 -0.029882736584464799 0 -0.058113543320318657 -0.036237912389696807 0 -0.054747462067038372 -0.027782575851101731 0 -0.058113543320318657 -0.036237912389696807 0 -0.049262490839258238 -0.038494411700845853 0 -0.054747462067038372 -0.027782575851101731 0 -0.050202168855596571 -0.050415827308185092 0 -0.058813650915706693 -0.044195519168826809 0 -0.049262490839258238 -0.038494411700845853 0 -0.039810182837564899 -0.03408311511315136 0 -0.036615390762049317 -0.019779629212070951 0 -0.027573605653594398 -0.040930614381309037 0 -0.049262490839258238 -0.038494411700845853 0 -0.039810182837564899 -0.03408311511315136 0 -0.039980558747888029 -0.047603962578829033 0 -0.050202168855596571 -0.050415827308185092 0 -0.049262490839258238 -0.038494411700845853 0 -0.039980558747888029 -0.047603962578829033 0 -0.049262490839258238 -0.038494411700845853 0 -0.039810182837564899 -0.03408311511315136 0 -0.047667520379807433 -0.025233170741284349 0 -0.039810182837564899 -0.03408311511315136 0 -0.039980558747888029 -0.047603962578829033 0 -0.027573605653594398 -0.040930614381309037 0 -0.031564304369864522 -0.06177715208002154 0 -0.039980558747888029 -0.047603962578829033 0 -0.027573605653594398 -0.040930614381309037 0 -0.031564304369864522 -0.06177715208002154 0 -0.041470599931449553 -0.059922654889461323 0 -0.039980558747888029 -0.047603962578829033 0 -0.050202168855596571 -0.050415827308185092 0 -0.041470599931449553 -0.059922654889461323 0 -0.039980558747888029 -0.047603962578829033 0 -0.065042571787998396 -0.0024164373520884279 0 -0.053532001743839631 -0.0090646478392168665 0 -0.055448025631663143 0.0046361647304281181 0 -0.067282680112731086 -0.01541702298438403 0 -0.065042571787998396 -0.0024164373520884279 0 -0.053532001743839631 -0.0090646478392168665 0 -0.065161754051967877 -0.029882736584464799 0 -0.067282680112731086 -0.01541702298438403 0 -0.053532001743839631 -0.0090646478392168665 0 -0.065161754051967877 -0.029882736584464799 0 -0.053532001743839631 -0.0090646478392168665 0 -0.054747462067038372 -0.027782575851101731 0 -0.053532001743839631 -0.0090646478392168665 0 -0.054747462067038372 -0.027782575851101731 0 -0.047667520379807433 -0.025233170741284349 0 -0.065161754051967877 -0.029882736584464799 0 -0.053532001743839631 -0.0090646478392168665 0 -0.049262490839258238 -0.038494411700845853 0 -0.054747462067038372 -0.027782575851101731 0 -0.047667520379807433 -0.025233170741284349 0 -0.053532001743839631 -0.0090646478392168665 0 -0.047667520379807433 -0.025233170741284349 0 -0.036615390762049317 -0.019779629212070951 0 -0.036615390762049317 -0.019779629212070951 0 -0.027573605653594398 -0.040930614381309037 0 -0.039810182837564899 -0.03408311511315136 0 -0.047667520379807433 -0.025233170741284349 0 -0.036615390762049317 -0.019779629212070951 0 -0.036615390762049317 -0.019779629212070951 0 -0.03079959356037669 -0.0067929839172564252 0 -0.04565717587050426 0.0013713559571671839 0 -0.036615390762049317 -0.019779629212070951 0 -0.04565717587050426 0.0013713559571671839 0 -0.053532001743839631 -0.0090646478392168665 0 -0.036615390762049317 -0.019779629212070951 0 -0.04565717587050426 0.0013713559571671839 0 -0.03079959356037669 -0.0067929839172564252 0 -0.033051866494802067 0.003827832867512487 0 -0.04565717587050426 0.0013713559571671839 0 -0.036615390762049317 -0.019779629212070951 0 -0.03079959356037669 -0.0067929839172564252 0 -0.017584885691495911 -0.018296736658512201 0 -0.0210886489830319 -0.001087742540378641 0 -0.03079959356037669 -0.0067929839172564252 0 -0.017584885691495911 -0.018296736658512201 0 -0.0210886489830319 -0.001087742540378641 0 -0.017584885691495911 -0.018296736658512201 0 -0.0091487766804286413 -0.0045324441906254851 0 -0.0210886489830319 -0.001087742540378641 0 -0.03079959356037669 -0.0067929839172564252 0 -0.033051866494802067 0.003827832867512487 0 -0.036615390762049317 -0.019779629212070951 0 -0.017584885691495911 -0.018296736658512201 0 -0.027573605653594398 -0.040930614381309037 0 -0.0076707263748008424 -0.037220070045335563 0 0.003190367795538461 -0.01235854054012421 0 -0.017584885691495911 -0.018296736658512201 0 -0.0076707263748008424 -0.037220070045335563 0 0.003190367795538461 -0.01235854054012421 0 -0.0091487766804286413 -0.0045324441906254851 0 0.0009626133680662478 0.004694825809427778 0 0.003190367795538461 -0.01235854054012421 0 -0.017584885691495911 -0.018296736658512201 0 -0.0091487766804286413 -0.0045324441906254851 0 0.003190367795538461 -0.01235854054012421 0 -0.031564304369864522 -0.06177715208002154 0 -0.018531820545139788 -0.062081599550547192 0 -0.027573605653594398 -0.040930614381309037 0 -0.018531820545139788 -0.062081599550547192 0 -0.027573605653594398 -0.040930614381309037 0 -0.018531820545139788 -0.062081599550547192 0 -0.027573605653594398 -0.040930614381309037 0 -0.0076707263748008424 -0.037220070045335563 0 -0.017584885691495911 -0.018296736658512201 0 -0.027573605653594398 -0.040930614381309037 0 -0.0076707263748008424 -0.037220070045335563 0 -0.0076707263748008424 -0.037220070045335563 0 -0.0020415661367895162 -0.053431008488494879 0 0.0043878529276636484 -0.036986451752035958 0 -0.018531820545139788 -0.062081599550547192 0 -0.0076707263748008424 -0.037220070045335563 0 -0.018531820545139788 -0.062081599550547192 0 -0.0020415661367895162 -0.053431008488494879 0 -0.0031264906627298181 -0.070164676629234424 0 -0.018531820545139788 -0.062081599550547192 0 -0.0076707263748008424 -0.037220070045335563 0 -0.0020415661367895162 -0.053431008488494879 0 -0.018531820545139788 -0.062081599550547192 0 -0.0031264906627298181 -0.070164676629234424 0 -0.0069547684239616298 -0.089163205094297177 0 -0.018531820545139788 -0.062081599550547192 0 -0.0069547684239616298 -0.089163205094297177 0 -0.018531820545139788 -0.062081599550547192 0 -0.0069547684239616298 -0.089163205094297177 0 -0.018430953300878281 -0.083340229722595374 0 -0.0031264906627298181 -0.070164676629234424 0 -0.0069547684239616298 -0.089163205094297177 0 0.006311249423132298 -0.081515978952543436 0 -0.0069547684239616298 -0.089163205094297177 0 -0.018430953300878281 -0.083340229722595374 0 -0.018464530708326082 -0.095299092586620893 0 -0.018430953300878281 -0.083340229722595374 0 -0.03079884531530604 -0.090161366973750309 0 -0.018464530708326082 -0.095299092586620893 0 -0.018430953300878281 -0.083340229722595374 0 -0.03079884531530604 -0.090161366973750309 0 -0.024665332930223108 -0.076121483262148654 0 -0.03079884531530604 -0.090161366973750309 0 -0.024665332930223108 -0.076121483262148654 0 -0.018531820545139788 -0.062081599550547192 0 -0.018430953300878281 -0.083340229722595374 0 -0.024665332930223108 -0.076121483262148654 0 -0.018531820545139788 -0.062081599550547192 0 -0.024665332930223108 -0.076121483262148654 0 -0.031564304369864522 -0.06177715208002154 0 -0.018531820545139788 -0.062081599550547192 0 -0.024665332930223108 -0.076121483262148654 0 -0.031564304369864522 -0.06177715208002154 0 -0.024665332930223108 -0.076121483262148654 0 -0.043753971700701881 -0.076515089618736667 0 -0.053164477218185263 -0.060615209986296499 0 -0.041470599931449553 -0.059922654889461323 0 -0.043753971700701881 -0.076515089618736667 0 -0.031564304369864522 -0.06177715208002154 0 -0.041470599931449553 -0.059922654889461323 0 -0.043753971700701881 -0.076515089618736667 0 -0.043753971700701881 -0.076515089618736667 0 -0.042491346986817793 -0.090357841391334501 0 -0.054154531554566072 -0.092930486793401712 0 -0.03079884531530604 -0.090161366973750309 0 -0.024665332930223108 -0.076121483262148654 0 -0.043753971700701881 -0.076515089618736667 0 -0.03079884531530604 -0.090161366973750309 0 -0.043753971700701881 -0.076515089618736667 0 -0.042491346986817793 -0.090357841391334501 0 -0.063434838827999634 -0.08263531953485731 0 -0.043753971700701881 -0.076515089618736667 0 -0.054154531554566072 -0.092930486793401712 0 -0.053164477218185263 -0.060615209986296499 0 -0.043753971700701881 -0.076515089618736667 0 -0.059347391197914837 -0.070639833464531288 0 -0.063434838827999634 -0.08263531953485731 0 -0.043753971700701881 -0.076515089618736667 0 -0.059347391197914837 -0.070639833464531288 0 -0.067862191526602694 -0.061817240819373363 0 -0.053164477218185263 -0.060615209986296499 0 -0.059347391197914837 -0.070639833464531288 0 -0.070965667365074439 -0.1173043930244804 0 -0.048919810412421869 -0.11656184694228609 0 -0.060610838484087021 -0.1314003202688139 0 -0.070965667365074439 -0.1173043930244804 0 -0.054154531554566072 -0.092930486793401712 0 -0.048919810412421869 -0.11656184694228609 0 -0.054154531554566072 -0.092930486793401712 0 -0.048919810412421869 -0.11656184694228609 0 -0.041258039376697211 -0.1018244221794494 0 -0.03079884531530604 -0.090161366973750309 0 -0.041258039376697211 -0.1018244221794494 0 -0.02721931185537654 -0.1102446008778267 0 -0.042491346986817793 -0.090357841391334501 0 -0.054154531554566072 -0.092930486793401712 0 -0.041258039376697211 -0.1018244221794494 0 -0.03079884531530604 -0.090161366973750309 0 -0.042491346986817793 -0.090357841391334501 0 -0.041258039376697211 -0.1018244221794494 0 -0.048919810412421869 -0.11656184694228609 0 -0.034710826254036993 -0.1241274308342202 0 -0.02721931185537654 -0.1102446008778267 0 -0.048919810412421869 -0.11656184694228609 0 -0.041258039376697211 -0.1018244221794494 0 -0.02721931185537654 -0.1102446008778267 0 -0.034710826254036993 -0.1241274308342202 0 -0.02721931185537654 -0.1102446008778267 0 -0.021401543869523421 -0.13090672776956999 0 -0.02721931185537654 -0.1102446008778267 0 -0.01472874606824503 -0.1185018977087864 0 -0.021401543869523421 -0.13090672776956999 0 -0.02721931185537654 -0.1102446008778267 0 -0.0088459854321982258 -0.1039253986426602 0 -0.01472874606824503 -0.1185018977087864 0 -0.03079884531530604 -0.090161366973750309 0 -0.02721931185537654 -0.1102446008778267 0 -0.018464530708326082 -0.095299092586620893 0 -0.02721931185537654 -0.1102446008778267 0 -0.018464530708326082 -0.095299092586620893 0 -0.0088459854321982258 -0.1039253986426602 0 -0.0069547684239616298 -0.089163205094297177 0 -0.0088459854321982258 -0.1039253986426602 0 0.0046222836972163346 -0.11624481063804749 0 -0.0069547684239616298 -0.089163205094297177 0 0.0046222836972163346 -0.11624481063804749 0 -0.0069547684239616298 -0.089163205094297177 0 -0.018464530708326082 -0.095299092586620893 0 -0.0088459854321982258 -0.1039253986426602 0 -0.0088459854321982258 -0.1039253986426602 0 -0.001448143115881912 -0.12893086354508901 0 -0.0088459854321982258 -0.1039253986426602 0 -0.01472874606824503 -0.1185018977087864 0 -0.001448143115881912 -0.12893086354508901 0 -0.0088459854321982258 -0.1039253986426602 0 -0.001448143115881912 -0.12893086354508901 0 0.0046222836972163346 -0.11624481063804749 0 -0.001448143115881912 -0.12893086354508901 0 -0.021401543869523421 -0.13090672776956999 0 -0.0040270011763860244 -0.15492426055975811 0 -0.01472874606824503 -0.1185018977087864 0 -0.001448143115881912 -0.12893086354508901 0 -0.021401543869523421 -0.13090672776956999 0 -0.021401543869523421 -0.13090672776956999 0 -0.023935678191415691 -0.15116447598566651 0 -0.041302638878826133 -0.13879654774719821 0 -0.021401543869523421 -0.13090672776956999 0 -0.023935678191415691 -0.15116447598566651 0 -0.0040270011763860244 -0.15492426055975811 0 -0.021401543869523421 -0.13090672776956999 0 -0.0040270011763860244 -0.15492426055975811 0 -0.023935678191415691 -0.15116447598566651 0 -0.0040270011763860244 -0.15492426055975811 0 -0.016216668619656038 -0.16547099925826661 0 -0.0040270011763860244 -0.15492426055975811 0 -0.002026644035102563 -0.1743026528086962 0 -0.016216668619656038 -0.16547099925826661 0 -0.002026644035102563 -0.1743026528086962 0 -0.013928872099773851 -0.18142680311253059 0 0.008872794213139211 -0.19712976163152199 0 -0.002026644035102563 -0.1743026528086962 0 -0.013928872099773851 -0.18142680311253059 0 -0.016216668619656038 -0.16547099925826661 0 -0.013928872099773851 -0.18142680311253059 0 -0.03673053841268685 -0.16572384459353939 0 -0.0354248693902324 -0.1872407023138779 0 -0.013928872099773851 -0.18142680311253059 0 -0.03673053841268685 -0.16572384459353939 0 -0.023935678191415691 -0.15116447598566651 0 -0.016216668619656038 -0.16547099925826661 0 -0.03673053841268685 -0.16572384459353939 0 -0.013928872099773851 -0.18142680311253059 0 -0.016216668619656038 -0.16547099925826661 0 -0.03673053841268685 -0.16572384459353939 0 -0.03673053841268685 -0.16572384459353939 0 -0.0354248693902324 -0.1872407023138779 0 -0.056542705749465787 -0.1743473967071357 0 -0.0354248693902324 -0.1872407023138779 0 -0.056542705749465787 -0.1743473967071357 0 -0.055276631100907123 -0.19583898122559629 0 -0.056542705749465787 -0.1743473967071357 0 -0.055276631100907123 -0.19583898122559629 0 -0.07213573659477765 -0.18464185645429379 0 -0.03673053841268685 -0.16572384459353939 0 -0.059532204725599849 -0.15002088607454811 0 -0.03673053841268685 -0.16572384459353939 0 -0.056542705749465787 -0.1743473967071357 0 -0.059532204725599849 -0.15002088607454811 0 -0.048919810412421869 -0.11656184694228609 0 -0.060610838484087021 -0.1314003202688139 0 -0.041302638878826133 -0.13879654774719821 0 -0.059532204725599849 -0.15002088607454811 0 -0.060610838484087021 -0.1314003202688139 0 -0.041302638878826133 -0.13879654774719821 0 -0.048919810412421869 -0.11656184694228609 0 -0.034710826254036993 -0.1241274308342202 0 -0.041302638878826133 -0.13879654774719821 0 -0.034710826254036993 -0.1241274308342202 0 -0.021401543869523421 -0.13090672776956999 0 -0.041302638878826133 -0.13879654774719821 0 -0.023935678191415691 -0.15116447598566651 0 -0.03673053841268685 -0.16572384459353939 0 -0.041302638878826133 -0.13879654774719821 0 -0.03673053841268685 -0.16572384459353939 0 -0.059532204725599849 -0.15002088607454811 0 -0.041302638878826133 -0.13879654774719821 0 -0.02496809639129045 -0.26055585461843961 0 -0.013591985608380611 -0.2401022274723569 0 -0.029815103905922399 -0.2339250190212912 0 -0.02496809639129045 -0.26055585461843961 0 -0.029815103905922399 -0.2339250190212912 0 -0.02496809639129045 -0.26055585461843961 0 -0.029815103905922399 -0.2339250190212912 0 -0.037341291717499163 -0.24905135370329429 0 -0.0045210631122281813 -0.25968277032720372 0 -0.013591985608380611 -0.2401022274723569 0 0.0018127702096612051 -0.2393031948996299 0 -0.013591985608380611 -0.2401022274723569 0 -0.0017643924418505161 -0.22612608804366419 0 0.0018127702096612051 -0.2393031948996299 0 -0.013591985608380611 -0.2401022274723569 0 -0.0017643924418505161 -0.22612608804366419 0 -0.021628323169546219 -0.22158082517617669 0 -0.0017643924418505161 -0.22612608804366419 0 -0.021628323169546219 -0.22158082517617669 0 -0.0011302105970761101 -0.2104360268166206 0 -0.013591985608380611 -0.2401022274723569 0 -0.021628323169546219 -0.22158082517617669 0 -0.029815103905922399 -0.2339250190212912 0 -0.021628323169546219 -0.22158082517617669 0 -0.029815103905922399 -0.2339250190212912 0 -0.034662111420554337 -0.20729418342414291 0 -0.021628323169546219 -0.22158082517617669 0 -0.018503224257332741 -0.2006539291958496 0 -0.034662111420554337 -0.20729418342414291 0 -0.021628323169546219 -0.22158082517617669 0 -0.0011302105970761101 -0.2104360268166206 0 -0.018503224257332741 -0.2006539291958496 0 -0.021628323169546219 -0.22158082517617669 0 -0.0011302105970761101 -0.2104360268166206 0 -0.0011302105970761101 -0.2104360268166206 0 -0.0061723781852608727 -0.19741163018913069 0 -0.018503224257332741 -0.2006539291958496 0 -0.013928872099773851 -0.18142680311253059 0 -0.0061723781852608727 -0.19741163018913069 0 -0.018503224257332741 -0.2006539291958496 0 -0.013928872099773851 -0.18142680311253059 0 0.008872794213139211 -0.19712976163152199 0 -0.013928872099773851 -0.18142680311253059 0 -0.0061723781852608727 -0.19741163018913069 0 0.008872794213139211 -0.19712976163152199 0 -0.0354248693902324 -0.1872407023138779 0 -0.018503224257332741 -0.2006539291958496 0 -0.034662111420554337 -0.20729418342414291 0 -0.013928872099773851 -0.18142680311253059 0 -0.0354248693902324 -0.1872407023138779 0 -0.018503224257332741 -0.2006539291958496 0 -0.0354248693902324 -0.1872407023138779 0 -0.055276631100907123 -0.19583898122559629 0 -0.034662111420554337 -0.20729418342414291 0 -0.055276631100907123 -0.19583898122559629 0 -0.034662111420554337 -0.20729418342414291 0 -0.05819613662983561 -0.21888778582617691 0 -0.055276631100907123 -0.19583898122559629 0 -0.05819613662983561 -0.21888778582617691 0 -0.073675594713681902 -0.20146618813136349 0 -0.034662111420554337 -0.20729418342414291 0 -0.045883925249727502 -0.22995148511704841 0 -0.05819613662983561 -0.21888778582617691 0 -0.029815103905922399 -0.2339250190212912 0 -0.034662111420554337 -0.20729418342414291 0 -0.045883925249727502 -0.22995148511704841 0 -0.029815103905922399 -0.2339250190212912 0 -0.034662111420554337 -0.20729418342414291 0 -0.045883925249727502 -0.22995148511704841 0 -0.05819613662983561 -0.21888778582617691 0 -0.056025411639023658 -0.24073630712485899 0 -0.049824171052072701 -0.25988622408920969 0 -0.056025411639023658 -0.24073630712485899 0 -0.037341291717499163 -0.24905135370329429 0 -0.049824171052072701 -0.25988622408920969 0 -0.056025411639023658 -0.24073630712485899 0 -0.073993733862166705 -0.24790322582111429 0 -0.045883925249727502 -0.22995148511704841 0 -0.056025411639023658 -0.24073630712485899 0 -0.037341291717499163 -0.24905135370329429 0 -0.029815103905922399 -0.2339250190212912 0 -0.045883925249727502 -0.22995148511704841 0 -0.037341291717499163 -0.24905135370329429 0 -0.092426125034966028 -0.2230752990999639 0 -0.09461907742776908 -0.2483346929327824 0 -0.073993733862166705 -0.24790322582111429 0 -0.074341758442218922 -0.22890548287990159 0 -0.09461907742776908 -0.2483346929327824 0 -0.056025411639023658 -0.24073630712485899 0 -0.073993733862166705 -0.24790322582111429 0 -0.074341758442218922 -0.22890548287990159 0 -0.05819613662983561 -0.21888778582617691 0 -0.056025411639023658 -0.24073630712485899 0 -0.074341758442218922 -0.22890548287990159 0 -0.074341758442218922 -0.22890548287990159 0 -0.092426125034966028 -0.2230752990999639 0 -0.09461907742776908 -0.2483346929327824 0 -0.092426125034966028 -0.2230752990999639 0 -0.090233172642162962 -0.19781590526714549 0 -0.074341758442218922 -0.22890548287990159 0 -0.092426125034966028 -0.2230752990999639 0 -0.073675594713681902 -0.20146618813136349 0 -0.092426125034966028 -0.2230752990999639 0 -0.073675594713681902 -0.20146618813136349 0 -0.090233172642162962 -0.19781590526714549 0 -0.05819613662983561 -0.21888778582617691 0 -0.073675594713681902 -0.20146618813136349 0 -0.05819613662983561 -0.21888778582617691 0 -0.074341758442218922 -0.22890548287990159 0 -0.073675594713681902 -0.20146618813136349 0 -0.055276631100907123 -0.19583898122559629 0 -0.073675594713681902 -0.20146618813136349 0 -0.07213573659477765 -0.18464185645429379 0 -0.073675594713681902 -0.20146618813136349 0 -0.090233172642162962 -0.19781590526714549 0 -0.089155052797528167 -0.18404459043655011 0 -0.073675594713681902 -0.20146618813136349 0 -0.089155052797528167 -0.18404459043655011 0 -0.073675594713681902 -0.20146618813136349 0 -0.07213573659477765 -0.18464185645429379 0 -0.089155052797528167 -0.18404459043655011 0 -0.090233172642162962 -0.19781590526714549 0 -0.11023855300123241 -0.18933182634864409 0 -0.089155052797528167 -0.18404459043655011 0 -0.090233172642162962 -0.19781590526714549 0 -0.11023855300123241 -0.18933182634864409 0 -0.103872158142813 -0.20950759803314181 0 -0.11023855300123241 -0.18933182634864409 0 -0.1203508380757386 -0.20792606086752499 0 -0.103872158142813 -0.20950759803314181 0 -0.1203508380757386 -0.20792606086752499 0 -0.117195281036431 -0.23057071178205549 0 -0.13623400590796689 -0.21767556607224639 0 -0.1203508380757386 -0.20792606086752499 0 -0.103872158142813 -0.20950759803314181 0 -0.117195281036431 -0.23057071178205549 0 -0.092426125034966028 -0.2230752990999639 0 -0.090233172642162962 -0.19781590526714549 0 -0.103872158142813 -0.20950759803314181 0 -0.092426125034966028 -0.2230752990999639 0 -0.117195281036431 -0.23057071178205549 0 -0.09461907742776908 -0.2483346929327824 0 -0.092426125034966028 -0.2230752990999639 0 -0.103872158142813 -0.20950759803314181 0 -0.117195281036431 -0.23057071178205549 0 -0.11634393893025979 -0.25228084384553928 0 -0.117195281036431 -0.23057071178205549 0 -0.09461907742776908 -0.2483346929327824 0 -0.13190502157042211 -0.25072617741863201 0 -0.11634393893025979 -0.25228084384553928 0 -0.117195281036431 -0.23057071178205549 0 -0.082333871038512835 -0.1343179275555568 0 -0.08140437881574332 -0.16366647313137661 0 -0.098813407899773054 -0.14937123959284621 0 -0.059532204725599849 -0.15002088607454811 0 -0.060610838484087021 -0.1314003202688139 0 -0.082333871038512835 -0.1343179275555568 0 -0.070965667365074439 -0.1173043930244804 0 -0.060610838484087021 -0.1314003202688139 0 -0.082333871038512835 -0.1343179275555568 0 -0.059532204725599849 -0.15002088607454811 0 -0.082333871038512835 -0.1343179275555568 0 -0.059532204725599849 -0.15002088607454811 0 -0.082333871038512835 -0.1343179275555568 0 -0.08140437881574332 -0.16366647313137661 0 -0.056542705749465787 -0.1743473967071357 0 -0.059532204725599849 -0.15002088607454811 0 -0.08140437881574332 -0.16366647313137661 0 -0.056542705749465787 -0.1743473967071357 0 -0.07213573659477765 -0.18464185645429379 0 -0.08140437881574332 -0.16366647313137661 0 -0.07213573659477765 -0.18464185645429379 0 -0.089155052797528167 -0.18404459043655011 0 -0.08140437881574332 -0.16366647313137661 0 -0.089155052797528167 -0.18404459043655011 0 -0.08140437881574332 -0.16366647313137661 0 -0.1046345108813745 -0.16662299274173681 0 -0.08140437881574332 -0.16366647313137661 0 -0.1046345108813745 -0.16662299274173681 0 -0.098813407899773054 -0.14937123959284621 0 -0.11023855300123241 -0.18933182634864409 0 -0.089155052797528167 -0.18404459043655011 0 -0.1046345108813745 -0.16662299274173681 0 -0.089155052797528167 -0.18404459043655011 0 -0.1046345108813745 -0.16662299274173681 0 -0.11023855300123241 -0.18933182634864409 0 -0.1046345108813745 -0.16662299274173681 0 -0.12723545111342249 -0.16693242261751531 0 -0.1046345108813745 -0.16662299274173681 0 -0.12011396896522079 -0.14920139504692331 0 -0.1046345108813745 -0.16662299274173681 0 -0.12011396896522079 -0.14920139504692331 0 -0.12723545111342249 -0.16693242261751531 0 -0.1046345108813745 -0.16662299274173681 0 -0.12011396896522079 -0.14920139504692331 0 -0.098813407899773054 -0.14937123959284621 0 -0.12011396896522079 -0.14920139504692331 0 -0.098813407899773054 -0.14937123959284621 0 -0.10558030979801381 -0.1330474094886375 0 -0.082333871038512835 -0.1343179275555568 0 -0.098813407899773054 -0.14937123959284621 0 -0.10558030979801381 -0.1330474094886375 0 -0.097425521323536782 -0.113010558039779 0 -0.082333871038512835 -0.1343179275555568 0 -0.10558030979801381 -0.1330474094886375 0 -0.1174342759398118 -0.1212314737839226 0 -0.10558030979801381 -0.1330474094886375 0 -0.12692856010807471 -0.13607657467343601 0 -0.12011396896522079 -0.14920139504692331 0 -0.10558030979801381 -0.1330474094886375 0 -0.12692856010807471 -0.13607657467343601 0 -0.12692856010807471 -0.13607657467343601 0 -0.15042224429725781 -0.13156026486962469 0 -0.13464975142020449 -0.11779795748306381 0 -0.12692856010807471 -0.13607657467343601 0 -0.15042224429725781 -0.13156026486962469 0 -0.1348807246383148 -0.14879360752465759 0 -0.1174342759398118 -0.1212314737839226 0 -0.12692856010807471 -0.13607657467343601 0 -0.13464975142020449 -0.11779795748306381 0 -0.12692856010807471 -0.13607657467343601 0 -0.15042224429725781 -0.13156026486962469 0 -0.15042224429725781 -0.13156026486962469 0 -0.1348807246383148 -0.14879360752465759 0 -0.14764619765514109 -0.15964251548194419 0 -0.15042224429725781 -0.13156026486962469 0 -0.14764619765514109 -0.15964251548194419 0 -0.16517017523970201 -0.14814535032186141 0 -0.15042224429725781 -0.13156026486962469 0 -0.14764619765514109 -0.15964251548194419 0 -0.12011396896522079 -0.14920139504692331 0 -0.1348807246383148 -0.14879360752465759 0 -0.12723545111342249 -0.16693242261751531 0 -0.12011396896522079 -0.14920139504692331 0 -0.12692856010807471 -0.13607657467343601 0 -0.1348807246383148 -0.14879360752465759 0 -0.11023855300123241 -0.18933182634864409 0 -0.12723545111342249 -0.16693242261751531 0 -0.1448701510130232 -0.18772476609426361 0 -0.1348807246383148 -0.14879360752465759 0 -0.12723545111342249 -0.16693242261751531 0 -0.14764619765514109 -0.15964251548194419 0 -0.12723545111342249 -0.16693242261751531 0 -0.14764619765514109 -0.15964251548194419 0 -0.1448701510130232 -0.18772476609426361 0 -0.14764619765514109 -0.15964251548194419 0 -0.16789073520916559 -0.17201109602779149 0 -0.1448701510130232 -0.18772476609426361 0 -0.14764619765514109 -0.15964251548194419 0 -0.1448701510130232 -0.18772476609426361 0 -0.14764619765514109 -0.15964251548194419 0 -0.16789073520916559 -0.17201109602779149 0 -0.16517017523970201 -0.14814535032186141 0 -0.16789073520916559 -0.17201109602779149 0 -0.16460532204637821 -0.19365769372898581 0 -0.1826781660255751 -0.19102734095606949 0 -0.16789073520916559 -0.17201109602779149 0 -0.1448701510130232 -0.18772476609426361 0 -0.16460532204637821 -0.19365769372898581 0 -0.16789073520916559 -0.17201109602779149 0 -0.1826781660255751 -0.19102734095606949 0 -0.18858983352424749 -0.17333681994431269 0 -0.16789073520916559 -0.17201109602779149 0 -0.1867050954138593 -0.15324605169153249 0 -0.18858983352424749 -0.17333681994431269 0 -0.16789073520916559 -0.17201109602779149 0 -0.1867050954138593 -0.15324605169153249 0 -0.16517017523970201 -0.14814535032186141 0 -0.1867050954138593 -0.15324605169153249 0 -0.17668939490623681 -0.12651079758053249 0 -0.16517017523970201 -0.14814535032186141 0 -0.15042224429725781 -0.13156026486962469 0 -0.17668939490623681 -0.12651079758053249 0 -0.15042224429725781 -0.13156026486962469 0 -0.17668939490623681 -0.12651079758053249 0 -0.16517017523970201 -0.14814535032186141 0 -0.14952075690691799 -0.25482514058981742 0 -0.13940081639796401 -0.23604127279548659 0 -0.159962802380996 -0.2370314089208887 0 -0.13190502157042211 -0.25072617741863201 0 -0.117195281036431 -0.23057071178205549 0 -0.13940081639796401 -0.23604127279548659 0 -0.13190502157042211 -0.25072617741863201 0 -0.14952075690691799 -0.25482514058981742 0 -0.13940081639796401 -0.23604127279548659 0 -0.117195281036431 -0.23057071178205549 0 -0.13940081639796401 -0.23604127279548659 0 -0.13623400590796689 -0.21767556607224639 0 -0.13940081639796401 -0.23604127279548659 0 -0.15600670893055529 -0.21476591803681569 0 -0.13623400590796689 -0.21767556607224639 0 -0.13940081639796401 -0.23604127279548659 0 -0.15600670893055529 -0.21476591803681569 0 -0.159962802380996 -0.2370314089208887 0 -0.11023855300123241 -0.18933182634864409 0 -0.1203508380757386 -0.20792606086752499 0 -0.1448701510130232 -0.18772476609426361 0 -0.15600670893055529 -0.21476591803681569 0 -0.13623400590796689 -0.21767556607224639 0 -0.1448701510130232 -0.18772476609426361 0 -0.1203508380757386 -0.20792606086752499 0 -0.13623400590796689 -0.21767556607224639 0 -0.1448701510130232 -0.18772476609426361 0 -0.15600670893055529 -0.21476591803681569 0 -0.1448701510130232 -0.18772476609426361 0 -0.16460532204637821 -0.19365769372898581 0 -0.16460532204637821 -0.19365769372898581 0 -0.1826781660255751 -0.19102734095606949 0 -0.1735624682457885 -0.20766735819984891 0 -0.1735624682457885 -0.20766735819984891 0 -0.1761433433061636 -0.22685696037701941 0 -0.19225251584544231 -0.21375320505685499 0 -0.1826781660255751 -0.19102734095606949 0 -0.1735624682457885 -0.20766735819984891 0 -0.19225251584544231 -0.21375320505685499 0 -0.15600670893055529 -0.21476591803681569 0 -0.16460532204637821 -0.19365769372898581 0 -0.1735624682457885 -0.20766735819984891 0 -0.15600670893055529 -0.21476591803681569 0 -0.1735624682457885 -0.20766735819984891 0 -0.1761433433061636 -0.22685696037701941 0 -0.15600670893055529 -0.21476591803681569 0 -0.1761433433061636 -0.22685696037701941 0 -0.159962802380996 -0.2370314089208887 0 -0.1761433433061636 -0.22685696037701941 0 -0.19203986928588609 -0.23310343383104631 0 -0.19225251584544231 -0.21375320505685499 0 -0.1761433433061636 -0.22685696037701941 0 -0.1835419718658336 -0.246507750115222 0 -0.159962802380996 -0.2370314089208887 0 -0.1761433433061636 -0.22685696037701941 0 -0.1835419718658336 -0.246507750115222 0 -0.19203986928588609 -0.23310343383104631 0 -0.1670977427993986 -0.25356762789353199 0 -0.14952075690691799 -0.25482514058981742 0 -0.159962802380996 -0.2370314089208887 0 -0.1670977427993986 -0.25356762789353199 0 -0.1835419718658336 -0.246507750115222 0 -0.159962802380996 -0.2370314089208887 0 -0.22553938660679851 -0.25610747318490112 0 -0.20445492338319379 -0.24460995720693859 0 -0.21963282372470541 -0.23658525482100451 0 -0.20445492338319379 -0.24460995720693859 0 -0.2069494739289312 -0.22766342969538281 0 -0.21963282372470541 -0.23658525482100451 0 -0.1835419718658336 -0.246507750115222 0 -0.20445492338319379 -0.24460995720693859 0 -0.19203986928588609 -0.23310343383104631 0 -0.20445492338319379 -0.24460995720693859 0 -0.19203986928588609 -0.23310343383104631 0 -0.2069494739289312 -0.22766342969538281 0 -0.19203986928588609 -0.23310343383104631 0 -0.2069494739289312 -0.22766342969538281 0 -0.19225251584544231 -0.21375320505685499 0 -0.2069494739289312 -0.22766342969538281 0 -0.21082450863623201 -0.21286429363176451 0 -0.22465889542119771 -0.22110586240018409 0 -0.2069494739289312 -0.22766342969538281 0 -0.22465889542119771 -0.22110586240018409 0 -0.21963282372470541 -0.23658525482100451 0 -0.2069494739289312 -0.22766342969538281 0 -0.21082450863623201 -0.21286429363176451 0 -0.19225251584544231 -0.21375320505685499 0 -0.21082450863623201 -0.21286429363176451 0 -0.20431327467038801 -0.19760877065415669 0 -0.2259483833152009 -0.20419020035224411 0 -0.21082450863623201 -0.21286429363176451 0 -0.19225251584544231 -0.21375320505685499 0 -0.20431327467038801 -0.19760877065415669 0 -0.1826781660255751 -0.19102734095606949 0 -0.20431327467038801 -0.19760877065415669 0 -0.1826781660255751 -0.19102734095606949 0 -0.19225251584544231 -0.21375320505685499 0 -0.20431327467038801 -0.19760877065415669 0 -0.1826781660255751 -0.19102734095606949 0 -0.20431327467038801 -0.19760877065415669 0 -0.20839869204333589 -0.1818037423256908 0 -0.20431327467038801 -0.19760877065415669 0 -0.2259483833152009 -0.20419020035224411 0 -0.20839869204333589 -0.1818037423256908 0 -0.20431327467038801 -0.19760877065415669 0 -0.2259483833152009 -0.20419020035224411 0 -0.2259483833152009 -0.20419020035224411 0 -0.20839869204333589 -0.1818037423256908 0 -0.23046192297163401 -0.1805233946765398 0 -0.2410011031893961 -0.1951748177335508 0 -0.2259483833152009 -0.20419020035224411 0 -0.23046192297163401 -0.1805233946765398 0 -0.2410011031893961 -0.1951748177335508 0 -0.24758349196001381 -0.21077163005033109 0 -0.26001061451073582 -0.18521404585508841 0 -0.24758349196001381 -0.21077163005033109 0 -0.2259483833152009 -0.20419020035224411 0 -0.2410011031893961 -0.1951748177335508 0 -0.24758349196001381 -0.21077163005033109 0 -0.2259483833152009 -0.20419020035224411 0 -0.21082450863623201 -0.21286429363176451 0 -0.2259483833152009 -0.20419020035224411 0 -0.22465889542119771 -0.22110586240018409 0 -0.24758349196001381 -0.21077163005033109 0 -0.2259483833152009 -0.20419020035224411 0 -0.22465889542119771 -0.22110586240018409 0 -0.22465889542119771 -0.22110586240018409 0 -0.23656143928340551 -0.2334395516176157 0 -0.21963282372470541 -0.23658525482100451 0 -0.24758349196001381 -0.21077163005033109 0 -0.23656143928340551 -0.2334395516176157 0 -0.24758349196001381 -0.21077163005033109 0 -0.22465889542119771 -0.22110586240018409 0 -0.23656143928340551 -0.2334395516176157 0 -0.24758349196001381 -0.21077163005033109 0 -0.23656143928340551 -0.2334395516176157 0 -0.25546154519320902 -0.22812854792533949 0 -0.23656143928340551 -0.2334395516176157 0 -0.24829792030322589 -0.24782573342597289 0 -0.25546154519320902 -0.22812854792533949 0 -0.22553938660679851 -0.25610747318490112 0 -0.23656143928340551 -0.2334395516176157 0 -0.24829792030322589 -0.24782573342597289 0 -0.22553938660679851 -0.25610747318490112 0 -0.23656143928340551 -0.2334395516176157 0 -0.21963282372470541 -0.23658525482100451 0 -0.22553938660679851 -0.25610747318490112 0 -0.23656143928340551 -0.2334395516176157 0 -0.2065425340883176 -0.1516629958064778 0 -0.22229536177179579 -0.15211415715342519 0 -0.22209321394893949 -0.13379705403357231 0 -0.20354303623097381 -0.13603850785260449 0 -0.22209321394893949 -0.13379705403357231 0 -0.20295654551521569 -0.12146133029144079 0 -0.2065425340883176 -0.1516629958064778 0 -0.20354303623097381 -0.13603850785260449 0 -0.22209321394893949 -0.13379705403357231 0 -0.20354303623097381 -0.13603850785260449 0 -0.20295654551521569 -0.12146133029144079 0 -0.1867050954138593 -0.15324605169153249 0 -0.17668939490623681 -0.12651079758053249 0 -0.20354303623097381 -0.13603850785260449 0 -0.17668939490623681 -0.12651079758053249 0 -0.20354303623097381 -0.13603850785260449 0 -0.20295654551521569 -0.12146133029144079 0 -0.1867050954138593 -0.15324605169153249 0 -0.2065425340883176 -0.1516629958064778 0 -0.20354303623097381 -0.13603850785260449 0 -0.1867050954138593 -0.15324605169153249 0 -0.20185165736146801 -0.16684961605735879 0 -0.18858983352424749 -0.17333681994431269 0 -0.1867050954138593 -0.15324605169153249 0 -0.2065425340883176 -0.1516629958064778 0 -0.20185165736146801 -0.16684961605735879 0 -0.20185165736146801 -0.16684961605735879 0 -0.18858983352424749 -0.17333681994431269 0 -0.20839869204333589 -0.1818037423256908 0 -0.1826781660255751 -0.19102734095606949 0 -0.18858983352424749 -0.17333681994431269 0 -0.20839869204333589 -0.1818037423256908 0 -0.20185165736146801 -0.16684961605735879 0 -0.20839869204333589 -0.1818037423256908 0 -0.21802665873648239 -0.167302994371618 0 -0.2065425340883176 -0.1516629958064778 0 -0.20185165736146801 -0.16684961605735879 0 -0.21802665873648239 -0.167302994371618 0 -0.2065425340883176 -0.1516629958064778 0 -0.21802665873648239 -0.167302994371618 0 -0.22229536177179579 -0.15211415715342519 0 -0.21802665873648239 -0.167302994371618 0 -0.23046192297163401 -0.1805233946765398 0 -0.23627614412310499 -0.1615133026162052 0 -0.21802665873648239 -0.167302994371618 0 -0.23627614412310499 -0.1615133026162052 0 -0.22229536177179579 -0.15211415715342519 0 -0.20839869204333589 -0.1818037423256908 0 -0.21802665873648239 -0.167302994371618 0 -0.23046192297163401 -0.1805233946765398 0 -0.2410011031893961 -0.1951748177335508 0 -0.23046192297163401 -0.1805233946765398 0 -0.26001061451073582 -0.18521404585508841 0 -0.23046192297163401 -0.1805233946765398 0 -0.26001061451073582 -0.18521404585508841 0 -0.25091645840663013 -0.17637603814579611 0 -0.23046192297163401 -0.1805233946765398 0 -0.244449584344379 -0.17162131013761661 0 -0.25091645840663013 -0.17637603814579611 0 -0.23046192297163401 -0.1805233946765398 0 -0.26001061451073582 -0.18521404585508841 0 -0.23627614412310499 -0.1615133026162052 0 -0.244449584344379 -0.17162131013761661 0 -0.25651351907222891 -0.16575695802891849 0 -0.23046192297163401 -0.1805233946765398 0 -0.23627614412310499 -0.1615133026162052 0 -0.244449584344379 -0.17162131013761661 0 -0.23627614412310499 -0.1615133026162052 0 -0.24979743725614659 -0.1480852786081506 0 -0.25651351907222891 -0.16575695802891849 0 -0.24979743725614659 -0.1480852786081506 0 -0.23443965161148081 -0.14531762881191931 0 -0.2417361009574174 -0.13107835164824319 0 -0.23627614412310499 -0.1615133026162052 0 -0.24979743725614659 -0.1480852786081506 0 -0.23443965161148081 -0.14531762881191931 0 -0.23627614412310499 -0.1615133026162052 0 -0.23443965161148081 -0.14531762881191931 0 -0.22229536177179579 -0.15211415715342519 0 -0.23443965161148081 -0.14531762881191931 0 -0.22229536177179579 -0.15211415715342519 0 -0.22209321394893949 -0.13379705403357231 0 -0.23443965161148081 -0.14531762881191931 0 -0.22209321394893949 -0.13379705403357231 0 -0.2417361009574174 -0.13107835164824319 0 -0.22209321394893949 -0.13379705403357231 0 -0.2417361009574174 -0.13107835164824319 0 -0.2290330484928795 -0.1164485121613081 0 -0.2417361009574174 -0.13107835164824319 0 -0.2290330484928795 -0.1164485121613081 0 -0.25510955147054348 -0.1114356940311754 0 -0.2290330484928795 -0.1164485121613081 0 -0.25510955147054348 -0.1114356940311754 0 -0.2290330484928795 -0.1164485121613081 0 -0.23785610355444059 -0.092014800063554239 0 -0.25510955147054348 -0.1114356940311754 0 -0.2290330484928795 -0.1164485121613081 0 -0.23785610355444059 -0.092014800063554239 0 -0.21367923057321331 -0.10690942638472629 0 -0.22917208765230329 -0.067531326958075719 0 -0.25765642400509209 -0.069992013610756909 0 -0.23785610355444059 -0.092014800063554239 0 -0.22917208765230329 -0.067531326958075719 0 -0.25765642400509209 -0.069992013610756909 0 -0.23785610355444059 -0.092014800063554239 0 -0.21458615877991191 -0.080300333839821117 0 -0.21367923057321331 -0.10690942638472629 0 -0.23785610355444059 -0.092014800063554239 0 -0.22917208765230329 -0.067531326958075719 0 -0.21458615877991191 -0.080300333839821117 0 -0.22917208765230329 -0.067531326958075719 0 -0.20068775129951461 -0.065070640305394556 0 -0.22917208765230329 -0.067531326958075719 0 -0.20068775129951461 -0.065070640305394556 0 -0.21619927366059241 -0.056883930176080379 0 -0.22917208765230329 -0.067531326958075719 0 -0.21458615877991191 -0.080300333839821117 0 -0.20068775129951461 -0.065070640305394556 0 -0.21458615877991191 -0.080300333839821117 0 -0.2018221484073649 -0.093265985298417731 0 -0.21367923057321331 -0.10690942638472629 0 -0.21458615877991191 -0.080300333839821117 0 -0.2018221484073649 -0.093265985298417731 0 -0.20068775129951461 -0.065070640305394556 0 -0.2018221484073649 -0.093265985298417731 0 -0.190941051431324 -0.080120052354576421 0 -0.17895836696600739 -0.099716613486967254 0 -0.2018221484073649 -0.093265985298417731 0 -0.20068775129951461 -0.065070640305394556 0 -0.2018221484073649 -0.093265985298417731 0 -0.190941051431324 -0.080120052354576421 0 -0.20068775129951461 -0.065070640305394556 0 -0.190941051431324 -0.080120052354576421 0 -0.19109421900410381 -0.064241880365931467 0 -0.20068775129951461 -0.065070640305394556 0 -0.1803998751816098 -0.069046295682096387 0 -0.2003907679051368 -0.057689142941022953 0 -0.19109421900410381 -0.064241880365931467 0 -0.1803998751816098 -0.069046295682096387 0 -0.2003907679051368 -0.057689142941022953 0 -0.19109421900410381 -0.064241880365931467 0 -0.20068775129951461 -0.065070640305394556 0 -0.2290330484928795 -0.1164485121613081 0 -0.21367923057321331 -0.10690942638472629 0 -0.20295654551521569 -0.12146133029144079 0 -0.22209321394893949 -0.13379705403357231 0 -0.2290330484928795 -0.1164485121613081 0 -0.20295654551521569 -0.12146133029144079 0 -0.2290330484928795 -0.1164485121613081 0 -0.20295654551521569 -0.12146133029144079 0 -0.2018221484073649 -0.093265985298417731 0 -0.21367923057321331 -0.10690942638472629 0 -0.20295654551521569 -0.12146133029144079 0 -0.2018221484073649 -0.093265985298417731 0 -0.1877991083860808 -0.11345800615956191 0 -0.17895836696600739 -0.099716613486967254 0 -0.2018221484073649 -0.093265985298417731 0 -0.20295654551521569 -0.12146133029144079 0 -0.17668939490623681 -0.12651079758053249 0 -0.1877991083860808 -0.11345800615956191 0 -0.20295654551521569 -0.12146133029144079 0 -0.2018221484073649 -0.093265985298417731 0 -0.1877991083860808 -0.11345800615956191 0 -0.20295654551521569 -0.12146133029144079 0 -0.17668939490623681 -0.12651079758053249 0 -0.20295654551521569 -0.12146133029144079 0 -0.17668939490623681 -0.12651079758053249 0 -0.1877991083860808 -0.11345800615956191 0 -0.17895836696600739 -0.099716613486967254 0 -0.17668939490623681 -0.12651079758053249 0 -0.17895836696600739 -0.099716613486967254 0 -0.1526273212614612 -0.10925389472847651 0 -0.15042224429725781 -0.13156026486962469 0 -0.17668939490623681 -0.12651079758053249 0 -0.1526273212614612 -0.10925389472847651 0 -0.16599193985991589 -0.090809110396063805 0 -0.1548323982256633 -0.086947524587328129 0 -0.1526273212614612 -0.10925389472847651 0 -0.17895836696600739 -0.099716613486967254 0 -0.16599193985991589 -0.090809110396063805 0 -0.1526273212614612 -0.10925389472847651 0 -0.190941051431324 -0.080120052354576421 0 -0.17895836696600739 -0.099716613486967254 0 -0.175686984612868 -0.08418473463183182 0 -0.17895836696600739 -0.099716613486967254 0 -0.175686984612868 -0.08418473463183182 0 -0.16599193985991589 -0.090809110396063805 0 -0.190941051431324 -0.080120052354576421 0 -0.19109421900410381 -0.064241880365931467 0 -0.1803998751816098 -0.069046295682096387 0 -0.175686984612868 -0.08418473463183182 0 -0.1803998751816098 -0.069046295682096387 0 -0.16040898245808219 -0.080403448423168766 0 -0.190941051431324 -0.080120052354576421 0 -0.175686984612868 -0.08418473463183182 0 -0.1803998751816098 -0.069046295682096387 0 -0.1803998751816098 -0.069046295682096387 0 -0.16863531226060441 -0.068236305777929912 0 -0.1732320012061925 -0.058391568732209943 0 -0.1803998751816098 -0.069046295682096387 0 -0.16863531226060441 -0.068236305777929912 0 -0.16040898245808219 -0.080403448423168766 0 -0.1803998751816098 -0.069046295682096387 0 -0.16040898245808219 -0.080403448423168766 0 -0.16863531226060441 -0.068236305777929912 0 -0.16187238702213591 -0.06148476349085201 0 -0.1732320012061925 -0.058391568732209943 0 -0.16863531226060441 -0.068236305777929912 0 -0.16195371188401439 -0.070288371346511516 0 -0.16187238702213591 -0.06148476349085201 0 -0.16195371188401439 -0.070288371346511516 0 -0.16040898245808219 -0.080403448423168766 0 -0.15424336401974181 -0.070245427086689904 0 -0.16863531226060441 -0.068236305777929912 0 -0.16195371188401439 -0.070288371346511516 0 -0.16040898245808219 -0.080403448423168766 0 -0.16195371188401439 -0.070288371346511516 0 -0.15424336401974181 -0.070245427086689904 0 -0.16187238702213591 -0.06148476349085201 0 -0.175686984612868 -0.08418473463183182 0 -0.16599193985991589 -0.090809110396063805 0 -0.16040898245808219 -0.080403448423168766 0 -0.16599193985991589 -0.090809110396063805 0 -0.16040898245808219 -0.080403448423168766 0 -0.1548323982256633 -0.086947524587328129 0 -0.16040898245808219 -0.080403448423168766 0 -0.14577240694808891 -0.078005099622249455 0 -0.14041808973455461 -0.091760601164241132 0 -0.16040898245808219 -0.080403448423168766 0 -0.14041808973455461 -0.091760601164241132 0 -0.16040898245808219 -0.080403448423168766 0 -0.1548323982256633 -0.086947524587328129 0 -0.14041808973455461 -0.091760601164241132 0 -0.15424336401974181 -0.070245427086689904 0 -0.1502024381125068 -0.05917000328786326 0 -0.16187238702213591 -0.06148476349085201 0 -0.16040898245808219 -0.080403448423168766 0 -0.15424336401974181 -0.070245427086689904 0 -0.14577240694808891 -0.078005099622249455 0 -0.15424336401974181 -0.070245427086689904 0 -0.14577240694808891 -0.078005099622249455 0 -0.140202288333765 -0.066975708890877172 0 -0.15424336401974181 -0.070245427086689904 0 -0.140202288333765 -0.066975708890877172 0 -0.1502024381125068 -0.05917000328786326 0 -0.140202288333765 -0.066975708890877172 0 -0.13153467129835861 -0.080136189156815654 0 -0.12625576057893989 -0.061747420413339339 0 -0.14577240694808891 -0.078005099622249455 0 -0.140202288333765 -0.066975708890877172 0 -0.13153467129835861 -0.080136189156815654 0 -0.1204271970110269 -0.1031177539053135 0 -0.14041808973455461 -0.091760601164241132 0 -0.13153467129835861 -0.080136189156815654 0 -0.14577240694808891 -0.078005099622249455 0 -0.14041808973455461 -0.091760601164241132 0 -0.13153467129835861 -0.080136189156815654 0 -0.1204271970110269 -0.1031177539053135 0 -0.1370305898568118 -0.1054825518202737 0 -0.13464975142020449 -0.11779795748306381 0 -0.1204271970110269 -0.1031177539053135 0 -0.14041808973455461 -0.091760601164241132 0 -0.1204271970110269 -0.1031177539053135 0 -0.14041808973455461 -0.091760601164241132 0 -0.1370305898568118 -0.1054825518202737 0 -0.15042224429725781 -0.13156026486962469 0 -0.1526273212614612 -0.10925389472847651 0 -0.1370305898568118 -0.1054825518202737 0 -0.13464975142020449 -0.11779795748306381 0 -0.1526273212614612 -0.10925389472847651 0 -0.15042224429725781 -0.13156026486962469 0 -0.13464975142020449 -0.11779795748306381 0 -0.1526273212614612 -0.10925389472847651 0 -0.1548323982256633 -0.086947524587328129 0 -0.14041808973455461 -0.091760601164241132 0 -0.1526273212614612 -0.10925389472847651 0 -0.1548323982256633 -0.086947524587328129 0 -0.1526273212614612 -0.10925389472847651 0 -0.14041808973455461 -0.091760601164241132 0 -0.1370305898568118 -0.1054825518202737 0 -0.1526273212614612 -0.10925389472847651 0 -0.15611443532734939 -0.030705145050076429 0 -0.13886556023847221 -0.020816823841033592 0 -0.1622406895765654 -0.0080810254460947795 0 -0.14346822796634109 -0.00072879923856594079 0 -0.13886556023847221 -0.020816823841033592 0 -0.1622406895765654 -0.0080810254460947795 0 -0.14346822796634109 -0.00072879923856594079 0 -0.13072301095149069 -0.005437812573230668 0 -0.13886556023847221 -0.020816823841033592 0 -0.1190128475456516 -0.015143404725753861 0 -0.13072301095149069 -0.005437812573230668 0 -0.13886556023847221 -0.020816823841033592 0 -0.12355757272976151 -0.040102427850004389 0 -0.1190128475456516 -0.015143404725753861 0 -0.13886556023847221 -0.020816823841033592 0 -0.12355757272976151 -0.040102427850004389 0 -0.13886556023847221 -0.020816823841033592 0 -0.12355757272976151 -0.040102427850004389 0 -0.13886556023847221 -0.020816823841033592 0 -0.13919395099957679 -0.048653710766588858 0 -0.140202288333765 -0.066975708890877172 0 -0.13919395099957679 -0.048653710766588858 0 -0.12625576057893989 -0.061747420413339339 0 -0.12355757272976151 -0.040102427850004389 0 -0.13919395099957679 -0.048653710766588858 0 -0.12625576057893989 -0.061747420413339339 0 -0.140202288333765 -0.066975708890877172 0 -0.13919395099957679 -0.048653710766588858 0 -0.1502024381125068 -0.05917000328786326 0 -0.13919395099957679 -0.048653710766588858 0 -0.15550020018731439 -0.048490406204308348 0 -0.1502024381125068 -0.05917000328786326 0 -0.15550020018731439 -0.048490406204308348 0 -0.1502024381125068 -0.05917000328786326 0 -0.16187238702213591 -0.06148476349085201 0 -0.15611443532734939 -0.030705145050076429 0 -0.13886556023847221 -0.020816823841033592 0 -0.13919395099957679 -0.048653710766588858 0 -0.15611443532734939 -0.030705145050076429 0 -0.13919395099957679 -0.048653710766588858 0 -0.15550020018731439 -0.048490406204308348 0 -0.15611443532734939 -0.030705145050076429 0 -0.17028190314916719 -0.043581030183336589 0 -0.17557108451450651 -0.02596509085961235 0 -0.15611443532734939 -0.030705145050076429 0 -0.15550020018731439 -0.048490406204308348 0 -0.17028190314916719 -0.043581030183336589 0 -0.15550020018731439 -0.048490406204308348 0 -0.16187238702213591 -0.06148476349085201 0 -0.1653517200342666 -0.052888855099095883 0 -0.15550020018731439 -0.048490406204308348 0 -0.17028190314916719 -0.043581030183336589 0 -0.1653517200342666 -0.052888855099095883 0 -0.17028190314916719 -0.043581030183336589 0 -0.1653517200342666 -0.052888855099095883 0 -0.1732320012061925 -0.058391568732209943 0 -0.16187238702213591 -0.06148476349085201 0 -0.1653517200342666 -0.052888855099095883 0 -0.1732320012061925 -0.058391568732209943 0 -0.1803998751816098 -0.069046295682096387 0 -0.1732320012061925 -0.058391568732209943 0 -0.18135424147131499 -0.051614077070536862 0 -0.1803998751816098 -0.069046295682096387 0 -0.18135424147131499 -0.051614077070536862 0 -0.1913709798523168 -0.05180147635962791 0 -0.17028190314916719 -0.043581030183336589 0 -0.1732320012061925 -0.058391568732209943 0 -0.18135424147131499 -0.051614077070536862 0 -0.18135424147131499 -0.051614077070536862 0 -0.18554012794348559 -0.040564661807980573 0 -0.1913709798523168 -0.05180147635962791 0 -0.18554012794348559 -0.040564661807980573 0 -0.17557108451450651 -0.02596509085961235 0 -0.19288469192577129 -0.027385970016539089 0 -0.17028190314916719 -0.043581030183336589 0 -0.18554012794348559 -0.040564661807980573 0 -0.17557108451450651 -0.02596509085961235 0 -0.17028190314916719 -0.043581030183336589 0 -0.18135424147131499 -0.051614077070536862 0 -0.18554012794348559 -0.040564661807980573 0 -0.17557108451450651 -0.02596509085961235 0 -0.18701109662081961 -0.010325168466654461 0 -0.19288469192577129 -0.027385970016539089 0 -0.15611443532734939 -0.030705145050076429 0 -0.17557108451450651 -0.02596509085961235 0 -0.1622406895765654 -0.0080810254460947795 0 -0.17557108451450651 -0.02596509085961235 0 -0.1622406895765654 -0.0080810254460947795 0 -0.18701109662081961 -0.010325168466654461 0 -0.1622406895765654 -0.0080810254460947795 0 -0.18701109662081961 -0.010325168466654461 0 -0.17798670521398249 0.01035253212461292 0 -0.18701109662081961 -0.010325168466654461 0 -0.20362176907401769 -0.01480843455015322 0 -0.20691340487803511 0.002975467710678561 0 -0.18701109662081961 -0.010325168466654461 0 -0.19288469192577129 -0.027385970016539089 0 -0.20362176907401769 -0.01480843455015322 0 -0.19288469192577129 -0.027385970016539089 0 -0.2089970088199874 -0.029214278871118961 0 -0.20362176907401769 -0.01480843455015322 0 -0.2089970088199874 -0.029214278871118961 0 -0.20362176907401769 -0.01480843455015322 0 -0.22145944420988151 -0.017959813382455361 0 -0.20362176907401769 -0.01480843455015322 0 -0.22145944420988151 -0.017959813382455361 0 -0.20691340487803511 0.002975467710678561 0 -0.20362176907401769 -0.01480843455015322 0 -0.20691340487803511 0.002975467710678561 0 -0.1803998751816098 -0.069046295682096387 0 -0.2003907679051368 -0.057689142941022953 0 -0.1913709798523168 -0.05180147635962791 0 -0.19109421900410381 -0.064241880365931467 0 -0.20068775129951461 -0.065070640305394556 0 -0.2003907679051368 -0.057689142941022953 0 -0.20068775129951461 -0.065070640305394556 0 -0.2003907679051368 -0.057689142941022953 0 -0.2003907679051368 -0.057689142941022953 0 -0.1913709798523168 -0.05180147635962791 0 -0.19983259832357339 -0.04381588479552747 0 -0.2003907679051368 -0.057689142941022953 0 -0.19983259832357339 -0.04381588479552747 0 -0.19288469192577129 -0.027385970016539089 0 -0.2089970088199874 -0.029214278871118961 0 -0.19983259832357339 -0.04381588479552747 0 -0.18554012794348559 -0.040564661807980573 0 -0.19288469192577129 -0.027385970016539089 0 -0.19983259832357339 -0.04381588479552747 0 -0.18554012794348559 -0.040564661807980573 0 -0.1913709798523168 -0.05180147635962791 0 -0.19983259832357339 -0.04381588479552747 0 -0.2089970088199874 -0.029214278871118961 0 -0.19983259832357339 -0.04381588479552747 0 -0.22648235569734321 -0.042866085666326652 0 -0.2003907679051368 -0.057689142941022953 0 -0.22648235569734321 -0.042866085666326652 0 -0.2003907679051368 -0.057689142941022953 0 -0.21619927366059241 -0.056883930176080379 0 -0.22648235569734321 -0.042866085666326652 0 -0.2003907679051368 -0.057689142941022953 0 -0.19983259832357339 -0.04381588479552747 0 -0.22648235569734321 -0.042866085666326652 0 -0.20068775129951461 -0.065070640305394556 0 -0.2003907679051368 -0.057689142941022953 0 -0.21619927366059241 -0.056883930176080379 0 -0.22917208765230329 -0.067531326958075719 0 -0.21619927366059241 -0.056883930176080379 0 -0.22648235569734321 -0.042866085666326652 0 -0.22648235569734321 -0.042866085666326652 0 -0.23932329073706721 -0.026411523131329721 0 -0.25388588928690081 -0.045058880800337188 0 -0.22917208765230329 -0.067531326958075719 0 -0.22648235569734321 -0.042866085666326652 0 -0.25388588928690081 -0.045058880800337188 0 -0.22917208765230329 -0.067531326958075719 0 -0.25388588928690081 -0.045058880800337188 0 -0.25765642400509209 -0.069992013610756909 0 -0.23578128998160799 -0.0043865974532140608 0 -0.20691340487803511 0.002975467710678561 0 -0.22145944420988151 -0.017959813382455361 0 -0.23578128998160799 -0.0043865974532140608 0 -0.20691340487803511 0.002975467710678561 0 -0.22648235569734321 -0.042866085666326652 0 -0.22145944420988151 -0.017959813382455361 0 -0.23932329073706721 -0.026411523131329721 0 -0.2089970088199874 -0.029214278871118961 0 -0.22648235569734321 -0.042866085666326652 0 -0.22145944420988151 -0.017959813382455361 0 -0.22145944420988151 -0.017959813382455361 0 -0.23932329073706721 -0.026411523131329721 0 -0.23578128998160799 -0.0043865974532140608 0 -0.23932329073706721 -0.026411523131329721 0 -0.23578128998160799 -0.0043865974532140608 0 -0.25900747450960282 -0.021786238354315309 0 -0.23578128998160799 -0.0043865974532140608 0 -0.25900747450960282 -0.021786238354315309 0 -0.25440382098127251 0.00065316407925673781 0 -0.25900747450960282 -0.021786238354315309 0 -0.27240378417376582 -0.003003043958320204 0 -0.25440382098127251 0.00065316407925673781 0 -0.23932329073706721 -0.026411523131329721 0 -0.25900747450960282 -0.021786238354315309 0 -0.25388588928690081 -0.045058880800337188 0 -0.25900747450960282 -0.021786238354315309 0 -0.27448151213116628 -0.019863449650200309 0 -0.27743407085693939 -0.036003245137224353 0 -0.27448151213116628 -0.019863449650200309 0 -0.28908071898435739 -0.01866127115094136 0 -0.27743407085693939 -0.036003245137224353 0 -0.25900747450960282 -0.021786238354315309 0 -0.27448151213116628 -0.019863449650200309 0 -0.27240378417376582 -0.003003043958320204 0 -0.27448151213116628 -0.019863449650200309 0 -0.27240378417376582 -0.003003043958320204 0 -0.28908071898435739 -0.01866127115094136 0 -0.29276646731868922 -0.0013987410529109081 0 -0.28908071898435739 -0.01866127115094136 0 -0.30125682179293012 -0.01626612804378598 0 -0.27240378417376582 -0.003003043958320204 0 -0.29276646731868922 -0.0013987410529109081 0 -0.28908071898435739 -0.01866127115094136 0 -0.28908071898435739 -0.01866127115094136 0 -0.30125682179293012 -0.01626612804378598 0 -0.29697139940341177 -0.034456552897005957 0 -0.28908071898435739 -0.01866127115094136 0 -0.29697139940341177 -0.034456552897005957 0 -0.27743407085693939 -0.036003245137224353 0 -0.30125682179293012 -0.01626612804378598 0 -0.3122687049375778 -0.024091360851427188 0 -0.29697139940341177 -0.034456552897005957 0 -0.3122687049375778 -0.024091360851427188 0 -0.30737101450398863 -0.0043330092588996019 0 -0.30125682179293012 -0.01626612804378598 0 -0.3122687049375778 -0.024091360851427188 0 -0.30737101450398863 -0.0043330092588996019 0 -0.29276646731868922 -0.0013987410529109081 0 -0.30125682179293012 -0.01626612804378598 0 -0.30737101450398863 -0.0043330092588996019 0 -0.30553135590384223 -0.072466478758290542 0 -0.31353693143861472 -0.044857678453813013 0 -0.29779332840307399 -0.055033103785140723 0 -0.30553135590384223 -0.072466478758290542 0 -0.31353693143861472 -0.044857678453813013 0 -0.3122687049375778 -0.024091360851427188 0 -0.29697139940341177 -0.034456552897005957 0 -0.31353693143861472 -0.044857678453813013 0 -0.29779332840307399 -0.055033103785140723 0 -0.29697139940341177 -0.034456552897005957 0 -0.31353693143861472 -0.044857678453813013 0 -0.29779332840307399 -0.055033103785140723 0 -0.29697139940341177 -0.034456552897005957 0 -0.28579884361525942 -0.046618560980095598 0 -0.29697139940341177 -0.034456552897005957 0 -0.28579884361525942 -0.046618560980095598 0 -0.27743407085693939 -0.036003245137224353 0 -0.29779332840307399 -0.055033103785140723 0 -0.28579884361525942 -0.046618560980095598 0 -0.28785212937693039 -0.061855340410438997 0 -0.29779332840307399 -0.055033103785140723 0 -0.28785212937693039 -0.061855340410438997 0 -0.29603677281539909 -0.068225607875615615 0 -0.28579884361525942 -0.046618560980095598 0 -0.28785212937693039 -0.061855340410438997 0 -0.27671571701783571 -0.055767616000114761 0 -0.27671571701783571 -0.055767616000114761 0 -0.27743407085693939 -0.036003245137224353 0 -0.25388588928690081 -0.045058880800337188 0 -0.28579884361525942 -0.046618560980095598 0 -0.27671571701783571 -0.055767616000114761 0 -0.27743407085693939 -0.036003245137224353 0 -0.25900747450960282 -0.021786238354315309 0 -0.27743407085693939 -0.036003245137224353 0 -0.25388588928690081 -0.045058880800337188 0 -0.27671571701783571 -0.055767616000114761 0 -0.25388588928690081 -0.045058880800337188 0 -0.25765642400509209 -0.069992013610756909 0 -0.23785610355444059 -0.092014800063554239 0 -0.25765642400509209 -0.069992013610756909 0 -0.26493997850700329 -0.091045998968474554 0 -0.25765642400509209 -0.069992013610756909 0 -0.26493997850700329 -0.091045998968474554 0 -0.27558678456986141 -0.081458188908350049 0 -0.26493997850700329 -0.091045998968474554 0 -0.27558678456986141 -0.081458188908350049 0 -0.28440579691331469 -0.090743484941712152 0 -0.27558678456986141 -0.081458188908350049 0 -0.28370504409196717 -0.080268403782863124 0 -0.28440579691331469 -0.090743484941712152 0 -0.27671571701783571 -0.055767616000114761 0 -0.25765642400509209 -0.069992013610756909 0 -0.28614076035788089 -0.0724527002634381 0 -0.25765642400509209 -0.069992013610756909 0 -0.28614076035788089 -0.0724527002634381 0 -0.25765642400509209 -0.069992013610756909 0 -0.27558678456986141 -0.081458188908350049 0 -0.28614076035788089 -0.0724527002634381 0 -0.25510955147054348 -0.1114356940311754 0 -0.27443259859187469 -0.11696764363190409 0 -0.26239997571054502 -0.13313794113371141 0 -0.23785610355444059 -0.092014800063554239 0 -0.26493997850700329 -0.091045998968474554 0 -0.25510955147054348 -0.1114356940311754 0 -0.26493997850700329 -0.091045998968474554 0 -0.25510955147054348 -0.1114356940311754 0 -0.27365947825357112 -0.1030048811840789 0 -0.27365947825357112 -0.1030048811840789 0 -0.27443259859187469 -0.11696764363190409 0 -0.28940946578511928 -0.10483158434712821 0 -0.26493997850700329 -0.091045998968474554 0 -0.27365947825357112 -0.1030048811840789 0 -0.28440579691331469 -0.090743484941712152 0 -0.25510955147054348 -0.1114356940311754 0 -0.27365947825357112 -0.1030048811840789 0 -0.27443259859187469 -0.11696764363190409 0 -0.28940946578511928 -0.10483158434712821 0 -0.29948807541511741 -0.1138159121037627 0 -0.29013209704342657 -0.13324392767630419 0 -0.28940946578511928 -0.10483158434712821 0 -0.29013209704342657 -0.13324392767630419 0 -0.27443259859187469 -0.11696764363190409 0 -0.28940946578511928 -0.10483158434712821 0 -0.29013209704342657 -0.13324392767630419 0 -0.28940946578511928 -0.10483158434712821 0 -0.29752578036906963 -0.1000752790627681 0 -0.28868683452681188 -0.076419241017952222 0 -0.27365947825357112 -0.1030048811840789 0 -0.28940946578511928 -0.10483158434712821 0 -0.28440579691331469 -0.090743484941712152 0 -0.28940946578511928 -0.10483158434712821 0 -0.29752578036906963 -0.1000752790627681 0 -0.29948807541511741 -0.1138159121037627 0 -0.29752578036906963 -0.1000752790627681 0 -0.30839747515922927 -0.10625178233707711 0 -0.30035781515576349 -0.090308450614076413 0 -0.30035781515576349 -0.090308450614076413 0 -0.31920701414489627 -0.09898729205926575 0 -0.30839747515922927 -0.10625178233707711 0 -0.30035781515576349 -0.090308450614076413 0 -0.31920701414489627 -0.09898729205926575 0 -0.29752578036906963 -0.1000752790627681 0 -0.30035781515576349 -0.090308450614076413 0 -0.29752578036906963 -0.1000752790627681 0 -0.30839747515922927 -0.10625178233707711 0 -0.29948807541511741 -0.1138159121037627 0 -0.31197555871874222 -0.1246769870955361 0 -0.29948807541511741 -0.1138159121037627 0 -0.29013209704342657 -0.13324392767630419 0 -0.30839747515922927 -0.10625178233707711 0 -0.31197555871874222 -0.1246769870955361 0 -0.29948807541511741 -0.1138159121037627 0 -0.28785212937693039 -0.061855340410438997 0 -0.27671571701783571 -0.055767616000114761 0 -0.28614076035788089 -0.0724527002634381 0 -0.29139270464436928 -0.071881958599821646 0 -0.28868683452681188 -0.076419241017952222 0 -0.29690058794877278 -0.078044966455667691 0 -0.29139270464436928 -0.071881958599821646 0 -0.29603677281539909 -0.068225607875615615 0 -0.29690058794877278 -0.078044966455667691 0 -0.28785212937693039 -0.061855340410438997 0 -0.29139270464436928 -0.071881958599821646 0 -0.29603677281539909 -0.068225607875615615 0 -0.28785212937693039 -0.061855340410438997 0 -0.29139270464436928 -0.071881958599821646 0 -0.28614076035788089 -0.0724527002634381 0 -0.27558678456986141 -0.081458188908350049 0 -0.28614076035788089 -0.0724527002634381 0 -0.28370504409196717 -0.080268403782863124 0 -0.28614076035788089 -0.0724527002634381 0 -0.28868683452681188 -0.076419241017952222 0 -0.28370504409196717 -0.080268403782863124 0 -0.29139270464436928 -0.071881958599821646 0 -0.28614076035788089 -0.0724527002634381 0 -0.28868683452681188 -0.076419241017952222 0 -0.29752578036906963 -0.1000752790627681 0 -0.28868683452681188 -0.076419241017952222 0 -0.29690058794877278 -0.078044966455667691 0 -0.28868683452681188 -0.076419241017952222 0 -0.28370504409196717 -0.080268403782863124 0 -0.28440579691331469 -0.090743484941712152 0 -0.28940946578511928 -0.10483158434712821 0 -0.28868683452681188 -0.076419241017952222 0 -0.28440579691331469 -0.090743484941712152 0 -0.28940946578511928 -0.10483158434712821 0 -0.28868683452681188 -0.076419241017952222 0 -0.30035781515576349 -0.090308450614076413 0 -0.30553135590384223 -0.072466478758290542 0 -0.31408137714229162 -0.085995436480834284 0 -0.29752578036906963 -0.1000752790627681 0 -0.30035781515576349 -0.090308450614076413 0 -0.29690058794877278 -0.078044966455667691 0 -0.30035781515576349 -0.090308450614076413 0 -0.30553135590384223 -0.072466478758290542 0 -0.30035781515576349 -0.090308450614076413 0 -0.30553135590384223 -0.072466478758290542 0 -0.29690058794877278 -0.078044966455667691 0 -0.30035781515576349 -0.090308450614076413 0 -0.31408137714229162 -0.085995436480834284 0 -0.31920701414489627 -0.09898729205926575 0 -0.29779332840307399 -0.055033103785140723 0 -0.29603677281539909 -0.068225607875615615 0 -0.30553135590384223 -0.072466478758290542 0 -0.29603677281539909 -0.068225607875615615 0 -0.30553135590384223 -0.072466478758290542 0 -0.29690058794877278 -0.078044966455667691 0 -0.30553135590384223 -0.072466478758290542 0 -0.32194944371834427 -0.062501567545088843 0 -0.32227902223300031 -0.077030368950773698 0 -0.32194944371834427 -0.062501567545088843 0 -0.32227902223300031 -0.077030368950773698 0 -0.33415125653598821 -0.068560016685151146 0 -0.30553135590384223 -0.072466478758290542 0 -0.32227902223300031 -0.077030368950773698 0 -0.31408137714229162 -0.085995436480834284 0 -0.32227902223300031 -0.077030368950773698 0 -0.31408137714229162 -0.085995436480834284 0 -0.32427572554130563 -0.088189745873117981 0 -0.31408137714229162 -0.085995436480834284 0 -0.32427572554130563 -0.088189745873117981 0 -0.31920701414489627 -0.09898729205926575 0 -0.32227902223300031 -0.077030368950773698 0 -0.32427572554130563 -0.088189745873117981 0 -0.33374328086813448 -0.084059975030391643 0 -0.32427572554130563 -0.088189745873117981 0 -0.33374328086813448 -0.084059975030391643 0 -0.332067933318205 -0.094875656844324474 0 -0.33374328086813448 -0.084059975030391643 0 -0.34528133990093118 -0.080763376461902361 0 -0.3450933002825749 -0.09352552301500347 0 -0.33374328086813448 -0.084059975030391643 0 -0.332067933318205 -0.094875656844324474 0 -0.3450933002825749 -0.09352552301500347 0 -0.33415125653598821 -0.068560016685151146 0 -0.34528133990093118 -0.080763376461902361 0 -0.34827619167673241 -0.055153848520419067 0 -0.33374328086813448 -0.084059975030391643 0 -0.33415125653598821 -0.068560016685151146 0 -0.34528133990093118 -0.080763376461902361 0 -0.32227902223300031 -0.077030368950773698 0 -0.33374328086813448 -0.084059975030391643 0 -0.33415125653598821 -0.068560016685151146 0 -0.31197555871874222 -0.1246769870955361 0 -0.32267064030218379 -0.1126400900047403 0 -0.33302846690082011 -0.116517695728242 0 -0.30839747515922927 -0.10625178233707711 0 -0.31197555871874222 -0.1246769870955361 0 -0.32267064030218379 -0.1126400900047403 0 -0.32267064030218379 -0.1126400900047403 0 -0.32815747674712559 -0.10892870477048371 0 -0.33302846690082011 -0.116517695728242 0 -0.32267064030218379 -0.1126400900047403 0 -0.33302846690082011 -0.116517695728242 0 -0.32267064030218379 -0.1126400900047403 0 -0.31920701414489627 -0.09898729205926575 0 -0.32815747674712559 -0.10892870477048371 0 -0.30839747515922927 -0.10625178233707711 0 -0.32267064030218379 -0.1126400900047403 0 -0.31920701414489627 -0.09898729205926575 0 -0.32427572554130563 -0.088189745873117981 0 -0.31920701414489627 -0.09898729205926575 0 -0.332067933318205 -0.094875656844324474 0 -0.31920701414489627 -0.09898729205926575 0 -0.33772378564060029 -0.10756974128968561 0 -0.32815747674712559 -0.10892870477048371 0 -0.31920701414489627 -0.09898729205926575 0 -0.332067933318205 -0.094875656844324474 0 -0.33772378564060029 -0.10756974128968561 0 -0.31920701414489627 -0.09898729205926575 0 -0.33772378564060029 -0.10756974128968561 0 -0.332067933318205 -0.094875656844324474 0 -0.33772378564060029 -0.10756974128968561 0 -0.3450933002825749 -0.09352552301500347 0 -0.33772378564060029 -0.10756974128968561 0 -0.3450933002825749 -0.09352552301500347 0 -0.33302846690082011 -0.116517695728242 0 -0.35439246048661499 -0.12451562299765891 0 -0.33772378564060029 -0.10756974128968561 0 -0.33302846690082011 -0.116517695728242 0 -0.35585752130570908 -0.1159746549507823 0 -0.33302846690082011 -0.116517695728242 0 -0.35439246048661499 -0.12451562299765891 0 -0.34002231122023863 -0.13347939898964339 0 -0.33772378564060029 -0.10756974128968561 0 -0.33302846690082011 -0.116517695728242 0 -0.33772378564060029 -0.10756974128968561 0 -0.32815747674712559 -0.10892870477048371 0 -0.33302846690082011 -0.116517695728242 0 -0.33302846690082011 -0.116517695728242 0 -0.35585752130570908 -0.1159746549507823 0 -0.35439246048661499 -0.12451562299765891 0 -0.33772378564060029 -0.10756974128968561 0 -0.35585752130570908 -0.1159746549507823 0 -0.35585752130570908 -0.1159746549507823 0 -0.35238879220120117 -0.1035603214189104 0 -0.36941498139749829 -0.1032922115518254 0 -0.33772378564060029 -0.10756974128968561 0 -0.35585752130570908 -0.1159746549507823 0 -0.35238879220120117 -0.1035603214189104 0 -0.33772378564060029 -0.10756974128968561 0 -0.35238879220120117 -0.1035603214189104 0 -0.3450933002825749 -0.09352552301500347 0 -0.35238879220120117 -0.1035603214189104 0 -0.35755390387979891 -0.093851694021335544 0 -0.3450933002825749 -0.09352552301500347 0 -0.35238879220120117 -0.1035603214189104 0 -0.35755390387979891 -0.093851694021335544 0 -0.36941498139749829 -0.1032922115518254 0 -0.35585752130570908 -0.1159746549507823 0 -0.36941498139749829 -0.1032922115518254 0 -0.3739912569708187 -0.1243795686118775 0 -0.35585752130570908 -0.1159746549507823 0 -0.3739912569708187 -0.1243795686118775 0 -0.36941498139749829 -0.1032922115518254 0 -0.3739912569708187 -0.1243795686118775 0 -0.38015779294788898 -0.1126213161533491 0 -0.35585752130570908 -0.1159746549507823 0 -0.35439246048661499 -0.12451562299765891 0 -0.3739912569708187 -0.1243795686118775 0 -0.36941498139749829 -0.1032922115518254 0 -0.3739912569708187 -0.1243795686118775 0 -0.35774039456930601 -0.070079110435945308 0 -0.34528133990093118 -0.080763376461902361 0 -0.36483870582417521 -0.08220485449177399 0 -0.34528133990093118 -0.080763376461902361 0 -0.34827619167673241 -0.055153848520419067 0 -0.35774039456930601 -0.070079110435945308 0 -0.34528133990093118 -0.080763376461902361 0 -0.34827619167673241 -0.055153848520419067 0 -0.35755390387979891 -0.093851694021335544 0 -0.34528133990093118 -0.080763376461902361 0 -0.36483870582417521 -0.08220485449177399 0 -0.35755390387979891 -0.093851694021335544 0 -0.34528133990093118 -0.080763376461902361 0 -0.3450933002825749 -0.09352552301500347 0 -0.36941498139749829 -0.1032922115518254 0 -0.36483870582417521 -0.08220485449177399 0 -0.36941498139749829 -0.1032922115518254 0 -0.36483870582417521 -0.08220485449177399 0 -0.38210270571931482 -0.083490593739675559 0 -0.35755390387979891 -0.093851694021335544 0 -0.36941498139749829 -0.1032922115518254 0 -0.36483870582417521 -0.08220485449177399 0 -0.35774039456930601 -0.070079110435945308 0 -0.36483870582417521 -0.08220485449177399 0 -0.37256534087538529 -0.062194362269685839 0 -0.36483870582417521 -0.08220485449177399 0 -0.37256534087538529 -0.062194362269685839 0 -0.38210270571931482 -0.083490593739675559 0 -0.35774039456930601 -0.070079110435945308 0 -0.37256534087538529 -0.062194362269685839 0 -0.34827619167673241 -0.055153848520419067 0 -0.37256534087538529 -0.062194362269685839 0 -0.34827619167673241 -0.055153848520419067 0 -0.36782868189174639 -0.042254469611562033 0 -0.34827619167673241 -0.055153848520419067 0 -0.35127104345253363 -0.029544320578935749 0 -0.34827619167673241 -0.055153848520419067 0 -0.36782868189174639 -0.042254469611562033 0 -0.35127104345253363 -0.029544320578935749 0 -0.36782868189174639 -0.042254469611562033 0 -0.35127104345253363 -0.029544320578935749 0 -0.37810958769244252 -0.025069686016307331 0 -0.35426589522833479 -0.0039347926374523889 0 -0.35127104345253363 -0.029544320578935749 0 -0.37810958769244252 -0.025069686016307331 0 -0.35426589522833479 -0.0039347926374523889 0 -0.37978125087613779 -0.0020942699323121378 0 -0.37810958769244252 -0.025069686016307331 0 -0.35426589522833479 -0.0039347926374523889 0 -0.3378008196820424 -0.010337744317943751 0 -0.34279599242091202 0.01035116478988357 0 -0.35426589522833479 -0.0039347926374523889 0 -0.35127104345253363 -0.029544320578935749 0 -0.3378008196820424 -0.010337744317943751 0 -0.35426589522833479 -0.0039347926374523889 0 -0.35127104345253363 -0.029544320578935749 0 -0.35127104345253363 -0.029544320578935749 0 -0.33332454603800488 -0.022386649293767311 0 -0.33155878551074858 -0.03511831166021083 0 -0.33332454603800488 -0.022386649293767311 0 -0.32154250697338732 -0.01724887814933548 0 -0.33155878551074858 -0.03511831166021083 0 -0.33332454603800488 -0.022386649293767311 0 -0.3378008196820424 -0.010337744317943751 0 -0.32154250697338732 -0.01724887814933548 0 -0.35127104345253363 -0.029544320578935749 0 -0.33332454603800488 -0.022386649293767311 0 -0.3378008196820424 -0.010337744317943751 0 -0.3378008196820424 -0.010337744317943751 0 -0.3200740018433208 -0.0046276192937831457 0 -0.3286331089770298 0.0047635663336856454 0 -0.3122687049375778 -0.024091360851427188 0 -0.30737101450398863 -0.0043330092588996019 0 -0.32154250697338732 -0.01724887814933548 0 -0.3378008196820424 -0.010337744317943751 0 -0.3200740018433208 -0.0046276192937831457 0 -0.32154250697338732 -0.01724887814933548 0 -0.30737101450398863 -0.0043330092588996019 0 -0.3200740018433208 -0.0046276192937831457 0 -0.32154250697338732 -0.01724887814933548 0 -0.30737101450398863 -0.0043330092588996019 0 -0.3200740018433208 -0.0046276192937831457 0 -0.31495711888873212 0.008631866307555195 0 -0.3122687049375778 -0.024091360851427188 0 -0.32154250697338732 -0.01724887814933548 0 -0.31353693143861472 -0.044857678453813013 0 -0.32154250697338732 -0.01724887814933548 0 -0.31353693143861472 -0.044857678453813013 0 -0.31353693143861472 -0.044857678453813013 0 -0.33111817222146872 -0.052249795312845349 0 -0.33155878551074858 -0.03511831166021083 0 -0.32154250697338732 -0.01724887814933548 0 -0.31353693143861472 -0.044857678453813013 0 -0.33155878551074858 -0.03511831166021083 0 -0.30553135590384223 -0.072466478758290542 0 -0.32194944371834427 -0.062501567545088843 0 -0.31353693143861472 -0.044857678453813013 0 -0.32194944371834427 -0.062501567545088843 0 -0.31353693143861472 -0.044857678453813013 0 -0.33111817222146872 -0.052249795312845349 0 -0.34827619167673241 -0.055153848520419067 0 -0.33111817222146872 -0.052249795312845349 0 -0.33155878551074858 -0.03511831166021083 0 -0.32194944371834427 -0.062501567545088843 0 -0.33415125653598821 -0.068560016685151146 0 -0.33111817222146872 -0.052249795312845349 0 -0.33415125653598821 -0.068560016685151146 0 -0.34827619167673241 -0.055153848520419067 0 -0.33111817222146872 -0.052249795312845349 0 -0.34827619167673241 -0.055153848520419067 0 -0.35127104345253363 -0.029544320578935749 0 -0.33155878551074858 -0.03511831166021083 0 -0.29849798421377383 -0.23770053747384359 0 -0.32296158902636862 -0.2429857857952496 0 -0.29849798421377383 -0.23770053747384359 0 -0.31163932664942717 -0.23235221995903069 0 -0.32296158902636862 -0.2429857857952496 0 -0.29849798421377383 -0.23770053747384359 0 -0.30954081865794197 -0.24672666549110259 0 -0.32296158902636862 -0.2429857857952496 0 -0.29849798421377383 -0.23770053747384359 0 -0.29734260713052812 -0.24800537893864891 0 -0.30954081865794197 -0.24672666549110259 0 -0.31163932664942717 -0.23235221995903069 0 -0.3051534896264817 -0.22329495734419061 0 -0.31536821525987019 -0.22481605273290339 0 -0.31163932664942717 -0.23235221995903069 0 -0.3051534896264817 -0.22329495734419061 0 -0.30276213199168012 -0.2296935033221793 0 -0.3051534896264817 -0.22329495734419061 0 -0.30276213199168012 -0.2296935033221793 0 -0.29575772747703788 -0.22542629851165241 0 -0.3051534896264817 -0.22329495734419061 0 -0.29575772747703788 -0.22542629851165241 0 -0.29851531872112402 -0.21540605615408651 0 -0.29849798421377383 -0.23770053747384359 0 -0.30276213199168012 -0.2296935033221793 0 -0.29575772747703788 -0.22542629851165241 0 -0.29849798421377383 -0.23770053747384359 0 -0.31163932664942717 -0.23235221995903069 0 -0.30276213199168012 -0.2296935033221793 0 -0.29849798421377383 -0.23770053747384359 0 -0.29575772747703788 -0.22542629851165241 0 -0.27403437940117897 -0.2324152891524375 0 -0.29575772747703788 -0.22542629851165241 0 -0.27167060971852569 -0.21809896428099179 0 -0.29575772747703788 -0.22542629851165241 0 -0.27167060971852569 -0.21809896428099179 0 -0.28885403070025301 -0.21329252173164651 0 -0.29849798421377383 -0.23770053747384359 0 -0.28611677131090107 -0.24304642465028761 0 -0.27403437940117897 -0.2324152891524375 0 -0.27459211449812371 -0.25406449303622042 0 -0.29734260713052812 -0.24800537893864891 0 -0.28611677131090107 -0.24304642465028761 0 -0.29849798421377383 -0.23770053747384359 0 -0.27403437940117897 -0.2324152891524375 0 -0.29849798421377383 -0.23770053747384359 0 -0.29734260713052812 -0.24800537893864891 0 -0.28611677131090107 -0.24304642465028761 0 -0.27459211449812371 -0.25406449303622042 0 -0.28611677131090107 -0.24304642465028761 0 -0.27403437940117897 -0.2324152891524375 0 -0.27459211449812371 -0.25406449303622042 0 -0.26309648984893441 -0.2406085158849926 0 -0.27403437940117897 -0.2324152891524375 0 -0.27459211449812371 -0.25406449303622042 0 -0.24829792030322589 -0.24782573342597289 0 -0.26309648984893441 -0.2406085158849926 0 -0.24829792030322589 -0.24782573342597289 0 -0.26309648984893441 -0.2406085158849926 0 -0.25546154519320902 -0.22812854792533949 0 -0.24758349196001381 -0.21077163005033109 0 -0.25546154519320902 -0.22812854792533949 0 -0.27167060971852569 -0.21809896428099179 0 -0.26309648984893441 -0.2406085158849926 0 -0.25546154519320902 -0.22812854792533949 0 -0.27403437940117897 -0.2324152891524375 0 -0.29575772747703788 -0.22542629851165241 0 -0.27403437940117897 -0.2324152891524375 0 -0.27167060971852569 -0.21809896428099179 0 -0.25546154519320902 -0.22812854792533949 0 -0.27403437940117897 -0.2324152891524375 0 -0.27167060971852569 -0.21809896428099179 0 -0.27167060971852569 -0.21809896428099179 0 -0.26944085345660468 -0.20113151427180989 0 -0.28341200996895272 -0.20246699214981009 0 -0.24758349196001381 -0.21077163005033109 0 -0.27167060971852569 -0.21809896428099179 0 -0.24758349196001381 -0.21077163005033109 0 -0.27167060971852569 -0.21809896428099179 0 -0.26944085345660468 -0.20113151427180989 0 -0.24758349196001381 -0.21077163005033109 0 -0.26944085345660468 -0.20113151427180989 0 -0.26001061451073582 -0.18521404585508841 0 -0.24758349196001381 -0.21077163005033109 0 -0.26001061451073582 -0.18521404585508841 0 -0.26944085345660468 -0.20113151427180989 0 -0.2845275411247955 -0.18910593902282791 0 -0.26001061451073582 -0.18521404585508841 0 -0.26944085345660468 -0.20113151427180989 0 -0.2845275411247955 -0.18910593902282791 0 -0.28341200996895272 -0.20246699214981009 0 -0.2845275411247955 -0.18910593902282791 0 -0.2948256851418844 -0.20427178594681539 0 -0.3090444677388553 -0.1929978321905666 0 -0.2845275411247955 -0.18910593902282791 0 -0.3090444677388553 -0.1929978321905666 0 -0.2845275411247955 -0.18910593902282791 0 -0.28341200996895272 -0.20246699214981009 0 -0.2948256851418844 -0.20427178594681539 0 -0.28341200996895272 -0.20246699214981009 0 -0.28885403070025301 -0.21329252173164651 0 -0.2948256851418844 -0.20427178594681539 0 -0.27167060971852569 -0.21809896428099179 0 -0.28341200996895272 -0.20246699214981009 0 -0.28885403070025301 -0.21329252173164651 0 -0.28885403070025301 -0.21329252173164651 0 -0.2948256851418844 -0.20427178594681539 0 -0.29851531872112402 -0.21540605615408651 0 -0.29575772747703788 -0.22542629851165241 0 -0.28885403070025301 -0.21329252173164651 0 -0.29851531872112402 -0.21540605615408651 0 -0.2948256851418844 -0.20427178594681539 0 -0.29851531872112402 -0.21540605615408651 0 -0.30607321637757262 -0.20919748014280809 0 -0.30607321637757262 -0.20919748014280809 0 -0.3090444677388553 -0.1929978321905666 0 -0.31935744198969801 -0.21009234135124691 0 -0.3051534896264817 -0.22329495734419061 0 -0.29851531872112402 -0.21540605615408651 0 -0.30607321637757262 -0.20919748014280809 0 -0.3051534896264817 -0.22329495734419061 0 -0.30607321637757262 -0.20919748014280809 0 -0.31935744198969801 -0.21009234135124691 0 -0.3051534896264817 -0.22329495734419061 0 -0.31935744198969801 -0.21009234135124691 0 -0.2948256851418844 -0.20427178594681539 0 -0.30607321637757262 -0.20919748014280809 0 -0.3090444677388553 -0.1929978321905666 0 -0.3090444677388553 -0.1929978321905666 0 -0.30064727630013471 -0.178227120416801 0 -0.31437334305635012 -0.1762764417618593 0 -0.2845275411247955 -0.18910593902282791 0 -0.3090444677388553 -0.1929978321905666 0 -0.30064727630013471 -0.178227120416801 0 -0.30064727630013471 -0.178227120416801 0 -0.3114410065003636 -0.1576573121872816 0 -0.30064727630013471 -0.178227120416801 0 -0.3114410065003636 -0.1576573121872816 0 -0.31437334305635012 -0.1762764417618593 0 -0.30064727630013471 -0.178227120416801 0 -0.3114410065003636 -0.1576573121872816 0 -0.29085472830173392 -0.16165627100548011 0 -0.29085472830173392 -0.16165627100548011 0 -0.28598897914018129 -0.17592668450119481 0 -0.27758337757672258 -0.1688526056196008 0 -0.30064727630013471 -0.178227120416801 0 -0.29085472830173392 -0.16165627100548011 0 -0.28598897914018129 -0.17592668450119481 0 -0.2845275411247955 -0.18910593902282791 0 -0.30064727630013471 -0.178227120416801 0 -0.28598897914018129 -0.17592668450119481 0 -0.2845275411247955 -0.18910593902282791 0 -0.28598897914018129 -0.17592668450119481 0 -0.27455966899941081 -0.18051223789202969 0 -0.2845275411247955 -0.18910593902282791 0 -0.27455966899941081 -0.18051223789202969 0 -0.26001061451073582 -0.18521404585508841 0 -0.2845275411247955 -0.18910593902282791 0 -0.26001061451073582 -0.18521404585508841 0 -0.28598897914018129 -0.17592668450119481 0 -0.27455966899941081 -0.18051223789202969 0 -0.27758337757672258 -0.1688526056196008 0 -0.27455966899941081 -0.18051223789202969 0 -0.26314665113417229 -0.17876448203081671 0 -0.26657682705876318 -0.16953911340847749 0 -0.27455966899941081 -0.18051223789202969 0 -0.26657682705876318 -0.16953911340847749 0 -0.27758337757672258 -0.1688526056196008 0 -0.27455966899941081 -0.18051223789202969 0 -0.26001061451073582 -0.18521404585508841 0 -0.26314665113417229 -0.17876448203081671 0 -0.26001061451073582 -0.18521404585508841 0 -0.26314665113417229 -0.17876448203081671 0 -0.25091645840663013 -0.17637603814579611 0 -0.26001061451073582 -0.18521404585508841 0 -0.26314665113417229 -0.17876448203081671 0 -0.26314665113417229 -0.17876448203081671 0 -0.25091645840663013 -0.17637603814579611 0 -0.25651351907222891 -0.16575695802891849 0 -0.24979743725614659 -0.1480852786081506 0 -0.25651351907222891 -0.16575695802891849 0 -0.26854390075456858 -0.15510749670654631 0 -0.244449584344379 -0.17162131013761661 0 -0.25091645840663013 -0.17637603814579611 0 -0.25651351907222891 -0.16575695802891849 0 -0.26314665113417229 -0.17876448203081671 0 -0.25651351907222891 -0.16575695802891849 0 -0.26657682705876318 -0.16953911340847749 0 -0.25651351907222891 -0.16575695802891849 0 -0.26657682705876318 -0.16953911340847749 0 -0.26854390075456858 -0.15510749670654631 0 -0.29085472830173392 -0.16165627100548011 0 -0.27758337757672258 -0.1688526056196008 0 -0.26854390075456858 -0.15510749670654631 0 -0.26657682705876318 -0.16953911340847749 0 -0.27758337757672258 -0.1688526056196008 0 -0.26854390075456858 -0.15510749670654631 0 -0.24979743725614659 -0.1480852786081506 0 -0.26854390075456858 -0.15510749670654631 0 -0.26239997571054502 -0.13313794113371141 0 -0.24979743725614659 -0.1480852786081506 0 -0.2417361009574174 -0.13107835164824319 0 -0.26239997571054502 -0.13313794113371141 0 -0.2417361009574174 -0.13107835164824319 0 -0.25510955147054348 -0.1114356940311754 0 -0.26239997571054502 -0.13313794113371141 0 -0.26854390075456858 -0.15510749670654631 0 -0.26239997571054502 -0.13313794113371141 0 -0.29013209704342657 -0.13324392767630419 0 -0.27443259859187469 -0.11696764363190409 0 -0.26239997571054502 -0.13313794113371141 0 -0.29013209704342657 -0.13324392767630419 0 -0.29085472830173392 -0.16165627100548011 0 -0.29013209704342657 -0.13324392767630419 0 -0.29085472830173392 -0.16165627100548011 0 -0.26854390075456858 -0.15510749670654631 0 -0.29013209704342657 -0.13324392767630419 0 -0.29085472830173392 -0.16165627100548011 0 -0.29013209704342657 -0.13324392767630419 0 -0.30532762545297182 -0.14286440038447279 0 -0.3114410065003636 -0.1576573121872816 0 -0.29085472830173392 -0.16165627100548011 0 -0.30532762545297182 -0.14286440038447279 0 -0.31197555871874222 -0.1246769870955361 0 -0.29013209704342657 -0.13324392767630419 0 -0.30532762545297182 -0.14286440038447279 0 -0.33302846690082011 -0.116517695728242 0 -0.32223473670059261 -0.13708750395776209 0 -0.31197555871874222 -0.1246769870955361 0 -0.30532762545297182 -0.14286440038447279 0 -0.32223473670059261 -0.13708750395776209 0 -0.31197555871874222 -0.1246769870955361 0 -0.33302846690082011 -0.116517695728242 0 -0.32223473670059261 -0.13708750395776209 0 -0.3114410065003636 -0.1576573121872816 0 -0.32223473670059261 -0.13708750395776209 0 -0.3280290044982237 -0.15754495849710509 0 -0.3114410065003636 -0.1576573121872816 0 -0.32223473670059261 -0.13708750395776209 0 -0.3114410065003636 -0.1576573121872816 0 -0.30532762545297182 -0.14286440038447279 0 -0.32223473670059261 -0.13708750395776209 0 -0.32223473670059261 -0.13708750395776209 0 -0.34350490032530479 -0.15206547543657281 0 -0.3280290044982237 -0.15754495849710509 0 -0.32223473670059261 -0.13708750395776209 0 -0.34350490032530479 -0.15206547543657281 0 -0.34002231122023863 -0.13347939898964339 0 -0.33302846690082011 -0.116517695728242 0 -0.32223473670059261 -0.13708750395776209 0 -0.34002231122023863 -0.13347939898964339 0 -0.35439246048661499 -0.12451562299765891 0 -0.34002231122023863 -0.13347939898964339 0 -0.35049156351979299 -0.13930515729527521 0 -0.35439246048661499 -0.12451562299765891 0 -0.35049156351979299 -0.13930515729527521 0 -0.36404658204701351 -0.14716013175722559 0 -0.35439246048661499 -0.12451562299765891 0 -0.37575645407240971 -0.1325135502670762 0 -0.35439246048661499 -0.12451562299765891 0 -0.36404658204701351 -0.14716013175722559 0 -0.37575645407240971 -0.1325135502670762 0 -0.35439246048661499 -0.12451562299765891 0 -0.3739912569708187 -0.1243795686118775 0 -0.37575645407240971 -0.1325135502670762 0 -0.3739912569708187 -0.1243795686118775 0 -0.37575645407240971 -0.1325135502670762 0 -0.36404658204701351 -0.14716013175722559 0 -0.36717011672577671 -0.16565031789228951 0 -0.38077423244393482 -0.1556353405686432 0 -0.36404658204701351 -0.14716013175722559 0 -0.38077423244393482 -0.1556353405686432 0 -0.37575645407240971 -0.1325135502670762 0 -0.34350490032530479 -0.15206547543657281 0 -0.34002231122023863 -0.13347939898964339 0 -0.35049156351979299 -0.13930515729527521 0 -0.34350490032530479 -0.15206547543657281 0 -0.35049156351979299 -0.13930515729527521 0 -0.36404658204701351 -0.14716013175722559 0 -0.34350490032530479 -0.15206547543657281 0 -0.36404658204701351 -0.14716013175722559 0 -0.35211009739108878 -0.16530668270166091 0 -0.35211009739108878 -0.16530668270166091 0 -0.36717011672577671 -0.16565031789228951 0 -0.35036575553934551 -0.1812700216252964 0 -0.34350490032530479 -0.15206547543657281 0 -0.35211009739108878 -0.16530668270166091 0 -0.33957867403676018 -0.16868290735565081 0 -0.35211009739108878 -0.16530668270166091 0 -0.35036575553934551 -0.1812700216252964 0 -0.33957867403676018 -0.16868290735565081 0 -0.36404658204701351 -0.14716013175722559 0 -0.35211009739108878 -0.16530668270166091 0 -0.36717011672577671 -0.16565031789228951 0 -0.36630070741635051 -0.1815642549291209 0 -0.37196082915391743 -0.19581332290899181 0 -0.38579201081546027 -0.17875713087021011 0 -0.36717011672577671 -0.16565031789228951 0 -0.36630070741635051 -0.1815642549291209 0 -0.38579201081546027 -0.17875713087021011 0 -0.36717011672577671 -0.16565031789228951 0 -0.36630070741635051 -0.1815642549291209 0 -0.35036575553934551 -0.1812700216252964 0 -0.36630070741635051 -0.1815642549291209 0 -0.35036575553934551 -0.1812700216252964 0 -0.35830138768953668 -0.19308616722047681 0 -0.36717011672577671 -0.16565031789228951 0 -0.35036575553934551 -0.1812700216252964 0 -0.35036575553934551 -0.1812700216252964 0 -0.33539161033459852 -0.18177702122782621 0 -0.33356139435291521 -0.1968897253583044 0 -0.33539161033459852 -0.18177702122782621 0 -0.32445242987036232 -0.18485309869519079 0 -0.32807067613199981 -0.17413328464544331 0 -0.33539161033459852 -0.18177702122782621 0 -0.33957867403676018 -0.16868290735565081 0 -0.32807067613199981 -0.17413328464544331 0 -0.35036575553934551 -0.1812700216252964 0 -0.33539161033459852 -0.18177702122782621 0 -0.33957867403676018 -0.16868290735565081 0 -0.33957867403676018 -0.16868290735565081 0 -0.3280290044982237 -0.15754495849710509 0 -0.32807067613199981 -0.17413328464544331 0 -0.34350490032530479 -0.15206547543657281 0 -0.33957867403676018 -0.16868290735565081 0 -0.3280290044982237 -0.15754495849710509 0 -0.3114410065003636 -0.1576573121872816 0 -0.31437334305635012 -0.1762764417618593 0 -0.32807067613199981 -0.17413328464544331 0 -0.3114410065003636 -0.1576573121872816 0 -0.3280290044982237 -0.15754495849710509 0 -0.32807067613199981 -0.17413328464544331 0 -0.3090444677388553 -0.1929978321905666 0 -0.31437334305635012 -0.1762764417618593 0 -0.32445242987036232 -0.18485309869519079 0 -0.31437334305635012 -0.1762764417618593 0 -0.32445242987036232 -0.18485309869519079 0 -0.32807067613199981 -0.17413328464544331 0 -0.3090444677388553 -0.1929978321905666 0 -0.31935744198969801 -0.21009234135124691 0 -0.33356139435291521 -0.1968897253583044 0 -0.3090444677388553 -0.1929978321905666 0 -0.32445242987036232 -0.18485309869519079 0 -0.33356139435291521 -0.1968897253583044 0 -0.3090444677388553 -0.1929978321905666 0 -0.33356139435291521 -0.1968897253583044 0 -0.31935744198969801 -0.21009234135124691 0 -0.33539660633712243 -0.21037351895153961 0 -0.32550071368156741 -0.22761636284529291 0 -0.31935744198969801 -0.21009234135124691 0 -0.33356139435291521 -0.1968897253583044 0 -0.31935744198969801 -0.21009234135124691 0 -0.33539660633712243 -0.21037351895153961 0 -0.33356139435291521 -0.1968897253583044 0 -0.33539660633712243 -0.21037351895153961 0 -0.34585726175858328 -0.2131466195117466 0 -0.33996784299639338 -0.2225102185773514 0 -0.33539660633712243 -0.21037351895153961 0 -0.34398505493425741 -0.1985444096520573 0 -0.34585726175858328 -0.2131466195117466 0 -0.33356139435291521 -0.1968897253583044 0 -0.34398505493425741 -0.1985444096520573 0 -0.33539660633712243 -0.21037351895153961 0 -0.33356139435291521 -0.1968897253583044 0 -0.34398505493425741 -0.1985444096520573 0 -0.35036575553934551 -0.1812700216252964 0 -0.33356139435291521 -0.1968897253583044 0 -0.34398505493425741 -0.1985444096520573 0 -0.35036575553934551 -0.1812700216252964 0 -0.33356139435291521 -0.1968897253583044 0 -0.33539161033459852 -0.18177702122782621 0 -0.32445242987036232 -0.18485309869519079 0 -0.33356139435291521 -0.1968897253583044 0 -0.35036575553934551 -0.1812700216252964 0 -0.34398505493425741 -0.1985444096520573 0 -0.35830138768953668 -0.19308616722047681 0 -0.34398505493425741 -0.1985444096520573 0 -0.35830138768953668 -0.19308616722047681 0 -0.35889459140381302 -0.20823882698691759 0 -0.36630070741635051 -0.1815642549291209 0 -0.35830138768953668 -0.19308616722047681 0 -0.37196082915391743 -0.19581332290899181 0 -0.35830138768953668 -0.19308616722047681 0 -0.37196082915391743 -0.19581332290899181 0 -0.35889459140381302 -0.20823882698691759 0 -0.35889459140381302 -0.20823882698691759 0 -0.36463703033003142 -0.22209799320525511 0 -0.37629006016151928 -0.21424038020273439 0 -0.37196082915391743 -0.19581332290899181 0 -0.35889459140381302 -0.20823882698691759 0 -0.37629006016151928 -0.21424038020273439 0 -0.35889459140381302 -0.20823882698691759 0 -0.34585726175858328 -0.2131466195117466 0 -0.35104221312133038 -0.22606612339086729 0 -0.34398505493425741 -0.1985444096520573 0 -0.35889459140381302 -0.20823882698691759 0 -0.34585726175858328 -0.2131466195117466 0 -0.34585726175858328 -0.2131466195117466 0 -0.35104221312133038 -0.22606612339086729 0 -0.33996784299639338 -0.2225102185773514 0 -0.35104221312133038 -0.22606612339086729 0 -0.36463703033003142 -0.22209799320525511 0 -0.36218140191793569 -0.23922904877417231 0 -0.35889459140381302 -0.20823882698691759 0 -0.35104221312133038 -0.22606612339086729 0 -0.36463703033003142 -0.22209799320525511 0 -0.36463703033003142 -0.22209799320525511 0 -0.37561055333585702 -0.23241250547012091 0 -0.37629006016151928 -0.21424038020273439 0 -0.36463703033003142 -0.22209799320525511 0 -0.36218140191793569 -0.23922904877417231 0 -0.37561055333585702 -0.23241250547012091 0 -0.37188879865155833 -0.25355628243806172 0 -0.36218140191793569 -0.23922904877417231 0 -0.34742519383896342 -0.2482710341166556 0 -0.37188879865155833 -0.25355628243806172 0 -0.36218140191793569 -0.23922904877417231 0 -0.37561055333585702 -0.23241250547012091 0 -0.35104221312133038 -0.22606612339086729 0 -0.36218140191793569 -0.23922904877417231 0 -0.34742519383896342 -0.2482710341166556 0 -0.35104221312133038 -0.22606612339086729 0 -0.34742519383896342 -0.2482710341166556 0 -0.3376909443808388 -0.2340994802115873 0 -0.34742519383896342 -0.2482710341166556 0 -0.3376909443808388 -0.2340994802115873 0 -0.32296158902636862 -0.2429857857952496 0 -0.33318887221925242 -0.25470940155190791 0 -0.34742519383896342 -0.2482710341166556 0 -0.32296158902636862 -0.2429857857952496 0 -0.34742519383896342 -0.2482710341166556 0 -0.32296158902636862 -0.2429857857952496 0 -0.3376909443808388 -0.2340994802115873 0 -0.32550071368156741 -0.22761636284529291 0 -0.32296158902636862 -0.2429857857952496 0 -0.33539660633712243 -0.21037351895153961 0 -0.33996784299639338 -0.2225102185773514 0 -0.32550071368156741 -0.22761636284529291 0 -0.35104221312133038 -0.22606612339086729 0 -0.3376909443808388 -0.2340994802115873 0 -0.33996784299639338 -0.2225102185773514 0 -0.3376909443808388 -0.2340994802115873 0 -0.33996784299639338 -0.2225102185773514 0 -0.32550071368156741 -0.22761636284529291 0 -0.31935744198969801 -0.21009234135124691 0 -0.32550071368156741 -0.22761636284529291 0 -0.31536821525987019 -0.22481605273290339 0 -0.3051534896264817 -0.22329495734419061 0 -0.31935744198969801 -0.21009234135124691 0 -0.31536821525987019 -0.22481605273290339 0 -0.31163932664942717 -0.23235221995903069 0 -0.32550071368156741 -0.22761636284529291 0 -0.31536821525987019 -0.22481605273290339 0 -0.31163932664942717 -0.23235221995903069 0 -0.32550071368156741 -0.22761636284529291 0 -0.32296158902636862 -0.2429857857952496 0 -0.31791543562562691 -0.25779809850038998 0 -0.30954081865794197 -0.24672666549110259 0 -0.32296158902636862 -0.2429857857952496 0 -0.42833458773741268 -0.24897925504711041 0 -0.43347790079981591 -0.2251389595977441 0 -0.41366543004747852 -0.23845648130630359 0 -0.42833458773741268 -0.24897925504711041 0 -0.43347790079981591 -0.2251389595977441 0 -0.44852487711113981 -0.2487252104022116 0 -0.43347790079981591 -0.2251389595977441 0 -0.41366543004747852 -0.23845648130630359 0 -0.41159263266127832 -0.21347081508955509 0 -0.41366543004747852 -0.23845648130630359 0 -0.3958275675585114 -0.22500071147334411 0 -0.41159263266127832 -0.21347081508955509 0 -0.408217828962744 -0.25609878341776537 0 -0.41366543004747852 -0.23845648130630359 0 -0.40024772215640941 -0.24409137686402119 0 -0.41854359540397512 -0.25437636802851898 0 -0.42833458773741268 -0.24897925504711041 0 -0.41366543004747852 -0.23845648130630359 0 -0.408217828962744 -0.25609878341776537 0 -0.41854359540397512 -0.25437636802851898 0 -0.41366543004747852 -0.23845648130630359 0 -0.40024772215640941 -0.24409137686402119 0 -0.38717538074916041 -0.24205937736322519 0 -0.3958275675585114 -0.22500071147334411 0 -0.41366543004747852 -0.23845648130630359 0 -0.40024772215640941 -0.24409137686402119 0 -0.3958275675585114 -0.22500071147334411 0 -0.39635240346415312 -0.2588415307594677 0 -0.40024772215640941 -0.24409137686402119 0 -0.38717538074916041 -0.24205937736322519 0 -0.37188879865155833 -0.25355628243806172 0 -0.38717538074916041 -0.24205937736322519 0 -0.37561055333585702 -0.23241250547012091 0 -0.38717538074916041 -0.24205937736322519 0 -0.37561055333585702 -0.23241250547012091 0 -0.3958275675585114 -0.22500071147334411 0 -0.37561055333585702 -0.23241250547012091 0 -0.3958275675585114 -0.22500071147334411 0 -0.37629006016151928 -0.21424038020273439 0 -0.3958275675585114 -0.22500071147334411 0 -0.39080978918698578 -0.20187892117177711 0 -0.41159263266127832 -0.21347081508955509 0 -0.3958275675585114 -0.22500071147334411 0 -0.39080978918698578 -0.20187892117177711 0 -0.37196082915391743 -0.19581332290899181 0 -0.37629006016151928 -0.21424038020273439 0 -0.39080978918698578 -0.20187892117177711 0 -0.3958275675585114 -0.22500071147334411 0 -0.37629006016151928 -0.21424038020273439 0 -0.39080978918698578 -0.20187892117177711 0 -0.37196082915391743 -0.19581332290899181 0 -0.39080978918698578 -0.20187892117177711 0 -0.38579201081546027 -0.17875713087021011 0 -0.39080978918698578 -0.20187892117177711 0 -0.38579201081546027 -0.17875713087021011 0 -0.39080978918698578 -0.20187892117177711 0 -0.40696893459959532 -0.19313667495808359 0 -0.41159263266127832 -0.21347081508955509 0 -0.39080978918698578 -0.20187892117177711 0 -0.40696893459959532 -0.19313667495808359 0 -0.38579201081546027 -0.17875713087021011 0 -0.40696893459959532 -0.19313667495808359 0 -0.42860206123633798 -0.2012355765720901 0 -0.4231409757129545 -0.18065167820747419 0 -0.40696893459959532 -0.19313667495808359 0 -0.41159263266127832 -0.21347081508955509 0 -0.42860206123633798 -0.2012355765720901 0 -0.43347790079981591 -0.2251389595977441 0 -0.42860206123633798 -0.2012355765720901 0 -0.44828499772239389 -0.20859204432940481 0 -0.43347790079981591 -0.2251389595977441 0 -0.41159263266127832 -0.21347081508955509 0 -0.42860206123633798 -0.2012355765720901 0 -0.42860206123633798 -0.2012355765720901 0 -0.4231409757129545 -0.18065167820747419 0 -0.44876065047530328 -0.18516583038405959 0 -0.4231409757129545 -0.18065167820747419 0 -0.44011645622655959 -0.1655455434204906 0 -0.44876065047530328 -0.18516583038405959 0 -0.4231409757129545 -0.18065167820747419 0 -0.44876065047530328 -0.18516583038405959 0 -0.4231409757129545 -0.18065167820747419 0 -0.41694614581370348 -0.15690599912631481 0 -0.44011645622655959 -0.1655455434204906 0 -0.41694614581370348 -0.15690599912631481 0 -0.40541119141163501 -0.17558297628797159 0 -0.39875393432258471 -0.15929543178925329 0 -0.4231409757129545 -0.18065167820747419 0 -0.41694614581370348 -0.15690599912631481 0 -0.40541119141163501 -0.17558297628797159 0 -0.40696893459959532 -0.19313667495808359 0 -0.4231409757129545 -0.18065167820747419 0 -0.40541119141163501 -0.17558297628797159 0 -0.40696893459959532 -0.19313667495808359 0 -0.40541119141163501 -0.17558297628797159 0 -0.38579201081546027 -0.17875713087021011 0 -0.36717011672577671 -0.16565031789228951 0 -0.38579201081546027 -0.17875713087021011 0 -0.38077423244393482 -0.1556353405686432 0 -0.38579201081546027 -0.17875713087021011 0 -0.39875393432258471 -0.15929543178925329 0 -0.38077423244393482 -0.1556353405686432 0 -0.38579201081546027 -0.17875713087021011 0 -0.38077423244393482 -0.1556353405686432 0 -0.40541119141163501 -0.17558297628797159 0 -0.38579201081546027 -0.17875713087021011 0 -0.39875393432258471 -0.15929543178925329 0 -0.39875393432258471 -0.15929543178925329 0 -0.39266814496537478 -0.14946836012289549 0 -0.38077423244393482 -0.1556353405686432 0 -0.39875393432258471 -0.15929543178925329 0 -0.40070319585873337 -0.14817280483568571 0 -0.40923093721433862 -0.14851279218208691 0 -0.40538184413213812 -0.1414565619809276 0 -0.40070319585873337 -0.14817280483568571 0 -0.40923093721433862 -0.14851279218208691 0 -0.40538184413213812 -0.1414565619809276 0 -0.40070319585873337 -0.14817280483568571 0 -0.39829881828533559 -0.1409526180252488 0 -0.39829881828533559 -0.1409526180252488 0 -0.39266814496537478 -0.14946836012289549 0 -0.38481108333666503 -0.14265392077149339 0 -0.40070319585873337 -0.14817280483568571 0 -0.39829881828533559 -0.1409526180252488 0 -0.39266814496537478 -0.14946836012289549 0 -0.39875393432258471 -0.15929543178925329 0 -0.40070319585873337 -0.14817280483568571 0 -0.39266814496537478 -0.14946836012289549 0 -0.38077423244393482 -0.1556353405686432 0 -0.37575645407240971 -0.1325135502670762 0 -0.38481108333666503 -0.14265392077149339 0 -0.38077423244393482 -0.1556353405686432 0 -0.37575645407240971 -0.1325135502670762 0 -0.39266814496537478 -0.14946836012289549 0 -0.38481108333666503 -0.14265392077149339 0 -0.38077423244393482 -0.1556353405686432 0 -0.39829881828533559 -0.1409526180252488 0 -0.37575645407240971 -0.1325135502670762 0 -0.39664287223915301 -0.1348785013266123 0 -0.39829881828533559 -0.1409526180252488 0 -0.38481108333666503 -0.14265392077149339 0 -0.37575645407240971 -0.1325135502670762 0 -0.39829881828533559 -0.1409526180252488 0 -0.37575645407240971 -0.1325135502670762 0 -0.3739912569708187 -0.1243795686118775 0 -0.37575645407240971 -0.1325135502670762 0 -0.39664287223915301 -0.1348785013266123 0 -0.3739912569708187 -0.1243795686118775 0 -0.39664287223915301 -0.1348785013266123 0 -0.38724244880964509 -0.12178349074753279 0 -0.3739912569708187 -0.1243795686118775 0 -0.39664287223915301 -0.1348785013266123 0 -0.39664287223915301 -0.1348785013266123 0 -0.38724244880964509 -0.12178349074753279 0 -0.39629701838819797 -0.12265781388132151 0 -0.40538184413213812 -0.1414565619809276 0 -0.39829881828533559 -0.1409526180252488 0 -0.40212530752759912 -0.1367032263972881 0 -0.39829881828533559 -0.1409526180252488 0 -0.39664287223915301 -0.1348785013266123 0 -0.40212530752759912 -0.1367032263972881 0 -0.39664287223915301 -0.1348785013266123 0 -0.40212530752759912 -0.1367032263972881 0 -0.40328190617092402 -0.1299749966182735 0 -0.40212530752759912 -0.1367032263972881 0 -0.40328190617092402 -0.1299749966182735 0 -0.40783879643654969 -0.13507519395736181 0 -0.40538184413213812 -0.1414565619809276 0 -0.40212530752759912 -0.1367032263972881 0 -0.40783879643654969 -0.13507519395736181 0 -0.39664287223915301 -0.1348785013266123 0 -0.40328190617092402 -0.1299749966182735 0 -0.39629701838819797 -0.12265781388132151 0 -0.41107163900062982 -0.12823648704067181 0 -0.41777699867985119 -0.1323796280938758 0 -0.40783879643654969 -0.13507519395736181 0 -0.40328190617092402 -0.1299749966182735 0 -0.41107163900062982 -0.12823648704067181 0 -0.40587191182719362 -0.122312780132297 0 -0.40328190617092402 -0.1299749966182735 0 -0.41107163900062982 -0.12823648704067181 0 -0.40783879643654969 -0.13507519395736181 0 -0.41777699867985119 -0.1323796280938758 0 -0.41619927298833048 -0.1219732414036446 0 -0.42672272971874342 -0.1247380180757096 0 -0.41107163900062982 -0.12823648704067181 0 -0.41777699867985119 -0.1323796280938758 0 -0.41619927298833048 -0.1219732414036446 0 -0.41777699867985119 -0.1323796280938758 0 -0.42032473273508358 -0.1441132741702755 0 -0.42705623278115462 -0.135267414822479 0 -0.41777699867985119 -0.1323796280938758 0 -0.41337121514422281 -0.1396816117025485 0 -0.42032473273508358 -0.1441132741702755 0 -0.41777699867985119 -0.1323796280938758 0 -0.41337121514422281 -0.1396816117025485 0 -0.40783879643654969 -0.13507519395736181 0 -0.40538184413213812 -0.1414565619809276 0 -0.41337121514422281 -0.1396816117025485 0 -0.40783879643654969 -0.13507519395736181 0 -0.40538184413213812 -0.1414565619809276 0 -0.41337121514422281 -0.1396816117025485 0 -0.40923093721433862 -0.14851279218208691 0 -0.41694614581370348 -0.15690599912631481 0 -0.39875393432258471 -0.15929543178925329 0 -0.40923093721433862 -0.14851279218208691 0 -0.41694614581370348 -0.15690599912631481 0 -0.40923093721433862 -0.14851279218208691 0 -0.42032473273508358 -0.1441132741702755 0 -0.41337121514422281 -0.1396816117025485 0 -0.40923093721433862 -0.14851279218208691 0 -0.42032473273508358 -0.1441132741702755 0 -0.41694614581370348 -0.15690599912631481 0 -0.43349522808280783 -0.1454674955236577 0 -0.44011645622655959 -0.1655455434204906 0 -0.41694614581370348 -0.15690599912631481 0 -0.42032473273508358 -0.1441132741702755 0 -0.43349522808280783 -0.1454674955236577 0 -0.42032473273508358 -0.1441132741702755 0 -0.43349522808280783 -0.1454674955236577 0 -0.42705623278115462 -0.135267414822479 0 -0.43349522808280783 -0.1454674955236577 0 -0.43696147468928698 -0.12963865824887649 0 -0.42705623278115462 -0.135267414822479 0 -0.43696147468928698 -0.12963865824887649 0 -0.42705623278115462 -0.135267414822479 0 -0.42672272971874342 -0.1247380180757096 0 -0.41777699867985119 -0.1323796280938758 0 -0.42705623278115462 -0.135267414822479 0 -0.42672272971874342 -0.1247380180757096 0 -0.43349522808280783 -0.1454674955236577 0 -0.43696147468928698 -0.12963865824887649 0 -0.45144107161191932 -0.13640651406842391 0 -0.43696147468928698 -0.12963865824887649 0 -0.45144107161191932 -0.13640651406842391 0 -0.44765781704265412 -0.1202993624052747 0 -0.43349522808280783 -0.1454674955236577 0 -0.45144107161191932 -0.13640651406842391 0 -0.4561276570266603 -0.15371965446543229 0 -0.43349522808280783 -0.1454674955236577 0 -0.4561276570266603 -0.15371965446543229 0 -0.44011645622655959 -0.1655455434204906 0 -0.4561276570266603 -0.15371965446543229 0 -0.46723734347837692 -0.13988119977490199 0 -0.479145712933707 -0.15544151415553531 0 -0.45144107161191932 -0.13640651406842391 0 -0.4561276570266603 -0.15371965446543229 0 -0.46723734347837692 -0.13988119977490199 0 -0.46055086447481308 -0.1258766313127726 0 -0.46723734347837692 -0.13988119977490199 0 -0.47233828860242277 -0.12000117715973239 0 -0.45144107161191932 -0.13640651406842391 0 -0.46055086447481308 -0.1258766313127726 0 -0.44765781704265412 -0.1202993624052747 0 -0.45144107161191932 -0.13640651406842391 0 -0.46055086447481308 -0.1258766313127726 0 -0.46723734347837692 -0.13988119977490199 0 -0.46723734347837692 -0.13988119977490199 0 -0.48038209996372799 -0.1323922832433265 0 -0.47233828860242277 -0.12000117715973239 0 -0.48038209996372799 -0.1323922832433265 0 -0.5 -0.13647721432007451 0 -0.49200460939636009 -0.121441657513913 0 -0.5 -0.13647721432007451 0 -0.479145712933707 -0.15544151415553531 0 -0.5 -0.16533567452865269 0 -0.48038209996372799 -0.1323922832433265 0 -0.5 -0.13647721432007451 0 -0.479145712933707 -0.15544151415553531 0 -0.46723734347837692 -0.13988119977490199 0 -0.48038209996372799 -0.1323922832433265 0 -0.479145712933707 -0.15544151415553531 0 -0.479145712933707 -0.15544151415553531 0 -0.48398512410123018 -0.1751539295411374 0 -0.4663995823347919 -0.17111834172362311 0 -0.479145712933707 -0.15544151415553531 0 -0.5 -0.16533567452865269 0 -0.48398512410123018 -0.1751539295411374 0 -0.48398512410123018 -0.1751539295411374 0 -0.47438032523765211 -0.18967998256064511 0 -0.50000000000000089 -0.19419413473723079 0 -0.5 -0.16533567452865269 0 -0.48398512410123018 -0.1751539295411374 0 -0.50000000000000089 -0.19419413473723079 0 -0.48398512410123018 -0.1751539295411374 0 -0.4663995823347919 -0.17111834172362311 0 -0.47438032523765211 -0.18967998256064511 0 -0.4663995823347919 -0.17111834172362311 0 -0.44876065047530328 -0.18516583038405959 0 -0.47438032523765211 -0.18967998256064511 0 -0.44876065047530328 -0.18516583038405959 0 -0.47438032523765211 -0.18967998256064511 0 -0.4561276570266603 -0.15371965446543229 0 -0.479145712933707 -0.15544151415553531 0 -0.4663995823347919 -0.17111834172362311 0 -0.4561276570266603 -0.15371965446543229 0 -0.4663995823347919 -0.17111834172362311 0 -0.44011645622655959 -0.1655455434204906 0 -0.4663995823347919 -0.17111834172362311 0 -0.44011645622655959 -0.1655455434204906 0 -0.44876065047530328 -0.18516583038405959 0 -0.42860206123633798 -0.2012355765720901 0 -0.44876065047530328 -0.18516583038405959 0 -0.44828499772239389 -0.20859204432940481 0 -0.44828499772239389 -0.20859204432940481 0 -0.47438032523765211 -0.18967998256064511 0 -0.47006011985516988 -0.21694792255861181 0 -0.44828499772239389 -0.20859204432940481 0 -0.47006011985516988 -0.21694792255861181 0 -0.45355037504871498 -0.22847044109951201 0 -0.44876065047530328 -0.18516583038405959 0 -0.44828499772239389 -0.20859204432940481 0 -0.47438032523765211 -0.18967998256064511 0 -0.47438032523765211 -0.18967998256064511 0 -0.50000000000000089 -0.19419413473723079 0 -0.48748950831260651 -0.2079605667670815 0 -0.47438032523765211 -0.18967998256064511 0 -0.50000000000000089 -0.19419413473723079 0 -0.49999999999999978 -0.20184013331649081 0 -0.50000000000000089 -0.19419413473723079 0 -0.48748950831260651 -0.2079605667670815 0 -0.48748950831260651 -0.2079605667670815 0 -0.48369144250987722 -0.2206529808375185 0 -0.49575540415782759 -0.22359934090851249 0 -0.49999999999999978 -0.20184013331649081 0 -0.49575540415782759 -0.22359934090851249 0 -0.49999999999999978 -0.20184013331649081 0 -0.5 -0.23024555482603529 0 -0.49575540415782759 -0.22359934090851249 0 -0.49999999999999978 -0.20184013331649081 0 -0.48748950831260651 -0.2079605667670815 0 -0.49575540415782759 -0.22359934090851249 0 -0.47438032523765211 -0.18967998256064511 0 -0.48748950831260651 -0.2079605667670815 0 -0.47006011985516988 -0.21694792255861181 0 -0.48748950831260651 -0.2079605667670815 0 -0.47006011985516988 -0.21694792255861181 0 -0.48369144250987722 -0.2206529808375185 0 -0.47006011985516988 -0.21694792255861181 0 -0.48146073771390502 -0.23410409311586819 0 -0.46740397975505588 -0.2429480686095877 0 -0.47006011985516988 -0.21694792255861181 0 -0.48146073771390502 -0.23410409311586819 0 -0.48369144250987722 -0.2206529808375185 0 -0.48146073771390502 -0.23410409311586819 0 -0.48369144250987722 -0.2206529808375185 0 -0.49575540415782759 -0.22359934090851249 0 -0.48146073771390502 -0.23410409311586819 0 -0.49575540415782759 -0.22359934090851249 0 -0.49151080831565569 -0.24535854850053429 0 -0.5 -0.23024555482603529 0 -0.49575540415782759 -0.22359934090851249 0 -0.49151080831565569 -0.24535854850053429 0 -0.5 -0.25865097633557982 0 -0.5 -0.23024555482603529 0 -0.49151080831565569 -0.24535854850053429 0 -0.49575540415782759 -0.22359934090851249 0 -0.49151080831565569 -0.24535854850053429 0 -0.47841705307217702 -0.25438532903871602 0 -0.48146073771390502 -0.23410409311586819 0 -0.46740397975505588 -0.2429480686095877 0 -0.47841705307217702 -0.25438532903871602 0 -0.48146073771390502 -0.23410409311586819 0 -0.49151080831565569 -0.24535854850053429 0 -0.46740397975505588 -0.2429480686095877 0 -0.45355037504871498 -0.22847044109951201 0 -0.44852487711113981 -0.2487252104022116 0 -0.47006011985516988 -0.21694792255861181 0 -0.46740397975505588 -0.2429480686095877 0 -0.45355037504871498 -0.22847044109951201 0 -0.43347790079981591 -0.2251389595977441 0 -0.45355037504871498 -0.22847044109951201 0 -0.44852487711113981 -0.2487252104022116 0 -0.43347790079981591 -0.2251389595977441 0 -0.44828499772239389 -0.20859204432940481 0 -0.45355037504871498 -0.22847044109951201 0 -0.42837811314968782 -0.045967060103154683 0 -0.41727702572863362 -0.026446241624173781 0 -0.39570947482307378 -0.046173111608600638 0 -0.42837811314968782 -0.045967060103154683 0 -0.39570947482307378 -0.046173111608600638 0 -0.41285820329439371 -0.063280336135353027 0 -0.42837811314968782 -0.045967060103154683 0 -0.41285820329439371 -0.063280336135353027 0 -0.4406657366714728 -0.06205669905121828 0 -0.42837811314968782 -0.045967060103154683 0 -0.41727702572863362 -0.026446241624173781 0 -0.44112709277215162 -0.031613507450532818 0 -0.41727702572863362 -0.026446241624173781 0 -0.44112709277215162 -0.031613507450532818 0 -0.44141630127035969 -0.01336694823038213 0 -0.41929943937428749 -0.0015561529808880089 0 -0.41727702572863362 -0.026446241624173781 0 -0.44141630127035969 -0.01336694823038213 0 -0.41929943937428749 -0.0015561529808880089 0 -0.44141630127035969 -0.01336694823038213 0 -0.44452819621460998 0.012267109071806261 0 -0.41929943937428749 -0.0015561529808880089 0 -0.41727702572863362 -0.026446241624173781 0 -0.40065493480299758 -0.011346487014277319 0 -0.39846911657878709 -0.027753251846940271 0 -0.40065493480299758 -0.011346487014277319 0 -0.37810958769244252 -0.025069686016307331 0 -0.41727702572863362 -0.026446241624173781 0 -0.39846911657878709 -0.027753251846940271 0 -0.40065493480299758 -0.011346487014277319 0 -0.40065493480299758 -0.011346487014277319 0 -0.37978125087613779 -0.0020942699323121378 0 -0.37810958769244252 -0.025069686016307331 0 -0.36782868189174639 -0.042254469611562033 0 -0.37810958769244252 -0.025069686016307331 0 -0.39570947482307378 -0.046173111608600638 0 -0.39846911657878709 -0.027753251846940271 0 -0.37810958769244252 -0.025069686016307331 0 -0.39570947482307378 -0.046173111608600638 0 -0.41727702572863362 -0.026446241624173781 0 -0.39846911657878709 -0.027753251846940271 0 -0.39570947482307378 -0.046173111608600638 0 -0.39570947482307378 -0.046173111608600638 0 -0.39389284629170901 -0.067510496972957398 0 -0.41285820329439371 -0.063280336135353027 0 -0.37256534087538529 -0.062194362269685839 0 -0.36782868189174639 -0.042254469611562033 0 -0.39570947482307378 -0.046173111608600638 0 -0.37256534087538529 -0.062194362269685839 0 -0.39570947482307378 -0.046173111608600638 0 -0.39389284629170901 -0.067510496972957398 0 -0.37256534087538529 -0.062194362269685839 0 -0.38210270571931482 -0.083490593739675559 0 -0.39389284629170901 -0.067510496972957398 0 -0.38210270571931482 -0.083490593739675559 0 -0.40429086056662628 -0.08493980702190787 0 -0.39389284629170901 -0.067510496972957398 0 -0.38210270571931482 -0.083490593739675559 0 -0.40429086056662628 -0.08493980702190787 0 -0.38761349936049511 -0.1008018301299029 0 -0.40429086056662628 -0.08493980702190787 0 -0.39389284629170901 -0.067510496972957398 0 -0.41285820329439371 -0.063280336135353027 0 -0.3739912569708187 -0.1243795686118775 0 -0.38724244880964509 -0.12178349074753279 0 -0.38015779294788898 -0.1126213161533491 0 -0.38724244880964509 -0.12178349074753279 0 -0.38015779294788898 -0.1126213161533491 0 -0.38912330350216762 -0.1143802537645018 0 -0.36941498139749829 -0.1032922115518254 0 -0.38210270571931482 -0.083490593739675559 0 -0.38761349936049511 -0.1008018301299029 0 -0.36941498139749829 -0.1032922115518254 0 -0.38015779294788898 -0.1126213161533491 0 -0.38761349936049511 -0.1008018301299029 0 -0.38015779294788898 -0.1126213161533491 0 -0.38912330350216762 -0.1143802537645018 0 -0.38761349936049511 -0.1008018301299029 0 -0.40429086056662628 -0.08493980702190787 0 -0.38761349936049511 -0.1008018301299029 0 -0.4034127136173189 -0.10151420370618761 0 -0.38761349936049511 -0.1008018301299029 0 -0.4034127136173189 -0.10151420370618761 0 -0.40099310021137891 -0.113603576684596 0 -0.4034127136173189 -0.10151420370618761 0 -0.40099310021137891 -0.113603576684596 0 -0.41228665076042031 -0.1116072854751278 0 -0.38912330350216762 -0.1143802537645018 0 -0.40099310021137891 -0.113603576684596 0 -0.39629701838819797 -0.12265781388132151 0 -0.38912330350216762 -0.1143802537645018 0 -0.38761349936049511 -0.1008018301299029 0 -0.40099310021137891 -0.113603576684596 0 -0.40328190617092402 -0.1299749966182735 0 -0.40587191182719362 -0.122312780132297 0 -0.39629701838819797 -0.12265781388132151 0 -0.40099310021137891 -0.113603576684596 0 -0.40587191182719362 -0.122312780132297 0 -0.39629701838819797 -0.12265781388132151 0 -0.38724244880964509 -0.12178349074753279 0 -0.38912330350216762 -0.1143802537645018 0 -0.39629701838819797 -0.12265781388132151 0 -0.41107163900062982 -0.12823648704067181 0 -0.40587191182719362 -0.122312780132297 0 -0.41619927298833048 -0.1219732414036446 0 -0.40587191182719362 -0.122312780132297 0 -0.41619927298833048 -0.1219732414036446 0 -0.41228665076042031 -0.1116072854751278 0 -0.40099310021137891 -0.113603576684596 0 -0.40587191182719362 -0.122312780132297 0 -0.41228665076042031 -0.1116072854751278 0 -0.41619927298833048 -0.1219732414036446 0 -0.41228665076042031 -0.1116072854751278 0 -0.42507045783663983 -0.1129731566671428 0 -0.40429086056662628 -0.08493980702190787 0 -0.4034127136173189 -0.10151420370618761 0 -0.42217244808166032 -0.097266754256898902 0 -0.4034127136173189 -0.10151420370618761 0 -0.41228665076042031 -0.1116072854751278 0 -0.42217244808166032 -0.097266754256898902 0 -0.41228665076042031 -0.1116072854751278 0 -0.42217244808166032 -0.097266754256898902 0 -0.42507045783663983 -0.1129731566671428 0 -0.42217244808166032 -0.097266754256898902 0 -0.43962585887151101 -0.092136440097682765 0 -0.4406479341133861 -0.106162632262749 0 -0.42217244808166032 -0.097266754256898902 0 -0.42507045783663983 -0.1129731566671428 0 -0.4406479341133861 -0.106162632262749 0 -0.42507045783663983 -0.1129731566671428 0 -0.43541208268014209 -0.11876236553195051 0 -0.4406479341133861 -0.106162632262749 0 -0.43696147468928698 -0.12963865824887649 0 -0.43541208268014209 -0.11876236553195051 0 -0.42672272971874342 -0.1247380180757096 0 -0.42507045783663983 -0.1129731566671428 0 -0.43541208268014209 -0.11876236553195051 0 -0.42672272971874342 -0.1247380180757096 0 -0.41619927298833048 -0.1219732414036446 0 -0.42507045783663983 -0.1129731566671428 0 -0.42672272971874342 -0.1247380180757096 0 -0.40429086056662628 -0.08493980702190787 0 -0.41285820329439371 -0.063280336135353027 0 -0.42956283827605152 -0.079037315985910656 0 -0.40429086056662628 -0.08493980702190787 0 -0.42217244808166032 -0.097266754256898902 0 -0.42956283827605152 -0.079037315985910656 0 -0.42217244808166032 -0.097266754256898902 0 -0.42956283827605152 -0.079037315985910656 0 -0.43962585887151101 -0.092136440097682765 0 -0.41285820329439371 -0.063280336135353027 0 -0.42956283827605152 -0.079037315985910656 0 -0.4406657366714728 -0.06205669905121828 0 -0.42956283827605152 -0.079037315985910656 0 -0.45280984567727151 -0.080825640502637616 0 -0.4406657366714728 -0.06205669905121828 0 -0.45280984567727151 -0.080825640502637616 0 -0.46404274814094698 -0.062026050979292778 0 -0.4406657366714728 -0.06205669905121828 0 -0.45280984567727151 -0.080825640502637616 0 -0.43962585887151101 -0.092136440097682765 0 -0.45293622820918489 -0.097389857480217668 0 -0.42956283827605152 -0.079037315985910656 0 -0.45280984567727151 -0.080825640502637616 0 -0.43962585887151101 -0.092136440097682765 0 -0.45280984567727151 -0.080825640502637616 0 -0.45293622820918489 -0.097389857480217668 0 -0.46641523873838819 -0.095040508212674513 0 -0.45280984567727151 -0.080825640502637616 0 -0.46641523873838819 -0.095040508212674513 0 -0.47532977466876408 -0.081755236575326212 0 -0.45280984567727151 -0.080825640502637616 0 -0.47532977466876408 -0.081755236575326212 0 -0.46404274814094698 -0.062026050979292778 0 -0.44765781704265412 -0.1202993624052747 0 -0.4406479341133861 -0.106162632262749 0 -0.45931470129159452 -0.1101697761763438 0 -0.43696147468928698 -0.12963865824887649 0 -0.43541208268014209 -0.11876236553195051 0 -0.44765781704265412 -0.1202993624052747 0 -0.43541208268014209 -0.11876236553195051 0 -0.44765781704265412 -0.1202993624052747 0 -0.4406479341133861 -0.106162632262749 0 -0.4406479341133861 -0.106162632262749 0 -0.45293622820918489 -0.097389857480217668 0 -0.45931470129159452 -0.1101697761763438 0 -0.43962585887151101 -0.092136440097682765 0 -0.4406479341133861 -0.106162632262749 0 -0.45293622820918489 -0.097389857480217668 0 -0.45293622820918489 -0.097389857480217668 0 -0.46641523873838819 -0.095040508212674513 0 -0.45931470129159452 -0.1101697761763438 0 -0.46641523873838819 -0.095040508212674513 0 -0.45931470129159452 -0.1101697761763438 0 -0.47465653786031259 -0.10641826440098601 0 -0.46055086447481308 -0.1258766313127726 0 -0.45931470129159452 -0.1101697761763438 0 -0.47233828860242277 -0.12000117715973239 0 -0.46055086447481308 -0.1258766313127726 0 -0.44765781704265412 -0.1202993624052747 0 -0.45931470129159452 -0.1101697761763438 0 -0.47233828860242277 -0.12000117715973239 0 -0.47465653786031259 -0.10641826440098601 0 -0.49019104998186391 -0.1055762885731225 0 -0.48038209996372799 -0.1323922832433265 0 -0.47233828860242277 -0.12000117715973239 0 -0.49019104998186391 -0.1055762885731225 0 -0.45931470129159452 -0.1101697761763438 0 -0.47233828860242277 -0.12000117715973239 0 -0.47465653786031259 -0.10641826440098601 0 -0.47465653786031259 -0.10641826440098601 0 -0.48174721015935329 -0.093991654663594826 0 -0.49019104998186391 -0.1055762885731225 0 -0.46641523873838819 -0.095040508212674513 0 -0.47465653786031259 -0.10641826440098601 0 -0.48174721015935329 -0.093991654663594826 0 -0.5 -0.1076187541114966 0 -0.49019104998186391 -0.1055762885731225 0 -0.49999999999999989 -0.078760293902918624 0 -0.5 -0.1076187541114966 0 -0.49019104998186391 -0.1055762885731225 0 -0.49200460939636009 -0.121441657513913 0 -0.5 -0.13647721432007451 0 -0.5 -0.1076187541114966 0 -0.49200460939636009 -0.121441657513913 0 -0.48038209996372799 -0.1323922832433265 0 -0.49019104998186391 -0.1055762885731225 0 -0.49200460939636009 -0.121441657513913 0 -0.48038209996372799 -0.1323922832433265 0 -0.49019104998186391 -0.1055762885731225 0 -0.4836602963147445 -0.064028817077896719 0 -0.47532977466876408 -0.081755236575326212 0 -0.46404274814094698 -0.062026050979292778 0 -0.46641523873838819 -0.095040508212674513 0 -0.48174721015935329 -0.093991654663594826 0 -0.47532977466876408 -0.081755236575326212 0 -0.48174721015935329 -0.093991654663594826 0 -0.49019104998186391 -0.1055762885731225 0 -0.49999999999999989 -0.078760293902918624 0 -0.48174721015935329 -0.093991654663594826 0 -0.47532977466876408 -0.081755236575326212 0 -0.49999999999999989 -0.078760293902918624 0 -0.49019104998186391 -0.1055762885731225 0 -0.49999999999999989 -0.078760293902918624 0 -0.4836602963147445 -0.064028817077896719 0 -0.49999999999999989 -0.078760293902918624 0 -0.5 -0.051311779895148568 0 -0.4836602963147445 -0.064028817077896719 0 -0.47532977466876408 -0.081755236575326212 0 -0.49999999999999989 -0.078760293902918624 0 -0.47892895876401109 -0.046290724036797473 0 -0.46580402527698761 -0.02660201617057285 0 -0.5 -0.023863265887378641 0 -0.4836602963147445 -0.064028817077896719 0 -0.5 -0.051311779895148568 0 -0.47892895876401109 -0.046290724036797473 0 -0.5 -0.051311779895148568 0 -0.47892895876401109 -0.046290724036797473 0 -0.5 -0.023863265887378641 0 -0.4836602963147445 -0.064028817077896719 0 -0.47892895876401109 -0.046290724036797473 0 -0.46404274814094698 -0.062026050979292778 0 -0.47892895876401109 -0.046290724036797473 0 -0.46404274814094698 -0.062026050979292778 0 -0.45275999843508941 -0.045685271124380679 0 -0.45275999843508941 -0.045685271124380679 0 -0.44112709277215162 -0.031613507450532818 0 -0.46580402527698761 -0.02660201617057285 0 -0.47892895876401109 -0.046290724036797473 0 -0.45275999843508941 -0.045685271124380679 0 -0.46580402527698761 -0.02660201617057285 0 -0.42837811314968782 -0.045967060103154683 0 -0.45275999843508941 -0.045685271124380679 0 -0.44112709277215162 -0.031613507450532818 0 -0.42837811314968782 -0.045967060103154683 0 -0.45275999843508941 -0.045685271124380679 0 -0.4406657366714728 -0.06205669905121828 0 -0.46404274814094698 -0.062026050979292778 0 -0.45275999843508941 -0.045685271124380679 0 -0.4406657366714728 -0.06205669905121828 0 -0.44141630127035969 -0.01336694823038213 0 -0.46132279601450688 -0.0051415088080673009 0 -0.44452819621460998 0.012267109071806261 0 -0.44112709277215162 -0.031613507450532818 0 -0.44141630127035969 -0.01336694823038213 0 -0.46580402527698761 -0.02660201617057285 0 -0.44141630127035969 -0.01336694823038213 0 -0.46580402527698761 -0.02660201617057285 0 -0.46132279601450688 -0.0051415088080673009 0 -0.46580402527698761 -0.02660201617057285 0 -0.48146118186546538 -0.0090362719606215218 0 -0.5 -0.023863265887378641 0 -0.46580402527698761 -0.02660201617057285 0 -0.46132279601450688 -0.0051415088080673009 0 -0.48146118186546538 -0.0090362719606215218 0 -0.46132279601450688 -0.0051415088080673009 0 -0.48146118186546538 -0.0090362719606215218 0 -0.47162143002650059 0.012133320172305831 0 -0.48146118186546538 -0.0090362719606215218 0 -0.5 -0.023863265887378641 0 -0.5 0.003585248120391404 0 -0.5 0.003585248120391404 0 -0.5 0.03103376212816145 0 -0.48135060688786208 0.02778717887832307 0 -0.48135060688786208 0.02778717887832307 0 -0.47162143002650059 0.012133320172305831 0 -0.45510291699101663 0.029129439503900109 0 -0.5 0.003585248120391404 0 -0.48135060688786208 0.02778717887832307 0 -0.47162143002650059 0.012133320172305831 0 -0.48146118186546538 -0.0090362719606215218 0 -0.5 0.003585248120391404 0 -0.47162143002650059 0.012133320172305831 0 -0.5 0.058482276135931488 0 -0.4911538889985072 0.042403706744986031 0 -0.48376301353007772 0.057959669289569998 0 -0.5 0.03103376212816145 0 -0.5 0.058482276135931488 0 -0.4911538889985072 0.042403706744986031 0 -0.5 0.03103376212816145 0 -0.48135060688786208 0.02778717887832307 0 -0.4911538889985072 0.042403706744986031 0 -0.4911538889985072 0.042403706744986031 0 -0.46311240504136159 0.048032065789100097 0 -0.48135060688786208 0.02778717887832307 0 -0.4911538889985072 0.042403706744986031 0 -0.46311240504136159 0.048032065789100097 0 -0.4911538889985072 0.042403706744986031 0 -0.48376301353007772 0.057959669289569998 0 -0.46311240504136159 0.048032065789100097 0 -0.48376301353007772 0.057959669289569998 0 -0.46311240504136159 0.048032065789100097 0 -0.47338612135590841 0.068673764638015861 0 -0.46311240504136159 0.048032065789100097 0 -0.45701929801263003 0.066257821726193322 0 -0.47338612135590841 0.068673764638015861 0 -0.48135060688786208 0.02778717887832307 0 -0.46311240504136159 0.048032065789100097 0 -0.45510291699101663 0.029129439503900109 0 -0.46311240504136159 0.048032065789100097 0 -0.45510291699101663 0.029129439503900109 0 -0.43507092108421602 0.053660424833214142 0 -0.45510291699101663 0.029129439503900109 0 -0.4333786733384542 0.03095373234968329 0 -0.43507092108421602 0.053660424833214142 0 -0.46311240504136159 0.048032065789100097 0 -0.43507092108421602 0.053660424833214142 0 -0.46311240504136159 0.048032065789100097 0 -0.43507092108421602 0.053660424833214142 0 -0.45701929801263003 0.066257821726193322 0 -0.46132279601450688 -0.0051415088080673009 0 -0.47162143002650059 0.012133320172305831 0 -0.44452819621460998 0.012267109071806261 0 -0.47162143002650059 0.012133320172305831 0 -0.45510291699101663 0.029129439503900109 0 -0.44452819621460998 0.012267109071806261 0 -0.45510291699101663 0.029129439503900109 0 -0.44452819621460998 0.012267109071806261 0 -0.4333786733384542 0.03095373234968329 0 -0.41929943937428749 -0.0015561529808880089 0 -0.44452819621460998 0.012267109071806261 0 -0.41868542712653561 0.019109026570272639 0 -0.41929943937428749 -0.0015561529808880089 0 -0.40065493480299758 -0.011346487014277319 0 -0.39934772136755431 0.014231930332185869 0 -0.41929943937428749 -0.0015561529808880089 0 -0.41868542712653561 0.019109026570272639 0 -0.39934772136755431 0.014231930332185869 0 -0.41868542712653561 0.019109026570272639 0 -0.4333786733384542 0.03095373234968329 0 -0.41157966918592409 0.037396873266866963 0 -0.41868542712653561 0.019109026570272639 0 -0.41157966918592409 0.037396873266866963 0 -0.39934772136755431 0.014231930332185869 0 -0.44452819621460998 0.012267109071806261 0 -0.41868542712653561 0.019109026570272639 0 -0.4333786733384542 0.03095373234968329 0 -0.4333786733384542 0.03095373234968329 0 -0.43507092108421602 0.053660424833214142 0 -0.41157966918592409 0.037396873266866963 0 -0.43507092108421602 0.053660424833214142 0 -0.40702943712707051 0.059288783877328187 0 -0.42544945112491173 0.069965464234501243 0 -0.43507092108421602 0.053660424833214142 0 -0.40702943712707051 0.059288783877328187 0 -0.41157966918592409 0.037396873266866963 0 -0.43507092108421602 0.053660424833214142 0 -0.40702943712707051 0.059288783877328187 0 -0.40702943712707051 0.059288783877328187 0 -0.41157966918592409 0.037396873266866963 0 -0.3881703305004876 0.040251079225752003 0 -0.40702943712707051 0.059288783877328187 0 -0.3789879531699249 0.064917142921442239 0 -0.40702943712707051 0.059288783877328187 0 -0.3881703305004876 0.040251079225752003 0 -0.3789879531699249 0.064917142921442239 0 -0.3881703305004876 0.040251079225752003 0 -0.3789879531699249 0.064917142921442239 0 -0.36026358073383941 0.04735251840028866 0 -0.3881703305004876 0.040251079225752003 0 -0.37938183371844991 0.01666791152100406 0 -0.39934772136755431 0.014231930332185869 0 -0.3881703305004876 0.040251079225752003 0 -0.37938183371844991 0.01666791152100406 0 -0.37126912298922737 0.03148656111276902 0 -0.37978125087613779 -0.0020942699323121378 0 -0.37938183371844991 0.01666791152100406 0 -0.39934772136755431 0.014231930332185869 0 -0.37978125087613779 -0.0020942699323121378 0 -0.37938183371844991 0.01666791152100406 0 -0.36671908423792321 0.0078954618654100157 0 -0.40065493480299758 -0.011346487014277319 0 -0.37978125087613779 -0.0020942699323121378 0 -0.39934772136755431 0.014231930332185869 0 -0.41157966918592409 0.037396873266866963 0 -0.3881703305004876 0.040251079225752003 0 -0.39934772136755431 0.014231930332185869 0 -0.39917529978560651 0.1117698010917199 0 -0.39228124823864918 0.084742967616103421 0 -0.41237550154761121 0.097547583070086222 0 -0.39917529978560651 0.1117698010917199 0 -0.38818711833353492 0.12028534050425969 0 -0.39703409423189068 0.12927456218209341 0 -0.39917529978560651 0.1117698010917199 0 -0.41010664653338519 0.12698145367527419 0 -0.39703409423189068 0.12927456218209341 0 -0.38818711833353492 0.12028534050425969 0 -0.3764080014033851 0.11982670789268041 0 -0.37418481420438637 0.10031217511242969 0 -0.39917529978560651 0.1117698010917199 0 -0.38818711833353492 0.12028534050425969 0 -0.37418481420438637 0.10031217511242969 0 -0.38818711833353492 0.12028534050425969 0 -0.3764080014033851 0.11982670789268041 0 -0.37921364210791342 0.13063004216970839 0 -0.39917529978560651 0.1117698010917199 0 -0.37418481420438637 0.10031217511242969 0 -0.39917529978560651 0.1117698010917199 0 -0.39228124823864918 0.084742967616103421 0 -0.37418481420438637 0.10031217511242969 0 -0.39228124823864918 0.084742967616103421 0 -0.36956174000020592 0.082627895495934967 0 -0.37418481420438637 0.10031217511242969 0 -0.3789879531699249 0.064917142921442239 0 -0.39228124823864918 0.084742967616103421 0 -0.36956174000020592 0.082627895495934967 0 -0.40702943712707051 0.059288783877328187 0 -0.39228124823864918 0.084742967616103421 0 -0.41320154161449291 0.078762085676596927 0 -0.40702943712707051 0.059288783877328187 0 -0.3789879531699249 0.064917142921442239 0 -0.39228124823864918 0.084742967616103421 0 -0.39228124823864918 0.084742967616103421 0 -0.41320154161449291 0.078762085676596927 0 -0.41237550154761121 0.097547583070086222 0 -0.41320154161449291 0.078762085676596927 0 -0.42963301290257883 0.084501406001875112 0 -0.41237550154761121 0.097547583070086222 0 -0.40702943712707051 0.059288783877328187 0 -0.41320154161449291 0.078762085676596927 0 -0.42544945112491173 0.069965464234501243 0 -0.42544945112491173 0.069965464234501243 0 -0.42963301290257883 0.084501406001875112 0 -0.44383422863291488 0.078086173617310975 0 -0.41320154161449291 0.078762085676596927 0 -0.42544945112491173 0.069965464234501243 0 -0.42963301290257883 0.084501406001875112 0 -0.43507092108421602 0.053660424833214142 0 -0.42544945112491173 0.069965464234501243 0 -0.44383422863291488 0.078086173617310975 0 -0.42963301290257883 0.084501406001875112 0 -0.44383422863291488 0.078086173617310975 0 -0.43766588340799523 0.092856037396337396 0 -0.42963301290257883 0.084501406001875112 0 -0.42929997477159632 0.099323098462430509 0 -0.43766588340799523 0.092856037396337396 0 -0.42963301290257883 0.084501406001875112 0 -0.42929997477159632 0.099323098462430509 0 -0.41237550154761121 0.097547583070086222 0 -0.42929997477159632 0.099323098462430509 0 -0.4396283449807834 0.10314783967123101 0 -0.43766588340799523 0.092856037396337396 0 -0.43127542992560369 0.1080913257264796 0 -0.43970277086943171 0.1141550219588984 0 -0.4396283449807834 0.10314783967123101 0 -0.43127542992560369 0.1080913257264796 0 -0.42929997477159632 0.099323098462430509 0 -0.4396283449807834 0.10314783967123101 0 -0.43127542992560369 0.1080913257264796 0 -0.42929997477159632 0.099323098462430509 0 -0.42069939240861393 0.1057451062468979 0 -0.42929997477159632 0.099323098462430509 0 -0.42069939240861393 0.1057451062468979 0 -0.41237550154761121 0.097547583070086222 0 -0.42069939240861393 0.1057451062468979 0 -0.41237550154761121 0.097547583070086222 0 -0.4115526373260382 0.10966631757793049 0 -0.39917529978560651 0.1117698010917199 0 -0.41237550154761121 0.097547583070086222 0 -0.4115526373260382 0.10966631757793049 0 -0.39917529978560651 0.1117698010917199 0 -0.4241657853668267 0.1232274270710098 0 -0.39917529978560651 0.1117698010917199 0 -0.4115526373260382 0.10966631757793049 0 -0.4241657853668267 0.1232274270710098 0 -0.39917529978560651 0.1117698010917199 0 -0.4241657853668267 0.1232274270710098 0 -0.41010664653338519 0.12698145367527419 0 -0.42069939240861393 0.1057451062468979 0 -0.4115526373260382 0.10966631757793049 0 -0.42032944292336261 0.11440425788057471 0 -0.4115526373260382 0.10966631757793049 0 -0.42032944292336261 0.11440425788057471 0 -0.4241657853668267 0.1232274270710098 0 -0.4241657853668267 0.1232274270710098 0 -0.44162094209116348 0.11856660655411499 0 -0.43127542992560369 0.1080913257264796 0 -0.42032944292336261 0.11440425788057471 0 -0.43970277086943171 0.1141550219588984 0 -0.42032944292336261 0.11440425788057471 0 -0.43970277086943171 0.1141550219588984 0 -0.4241657853668267 0.1232274270710098 0 -0.44162094209116348 0.11856660655411499 0 -0.43970277086943171 0.1141550219588984 0 -0.42032944292336261 0.11440425788057471 0 -0.4241657853668267 0.1232274270710098 0 -0.43970277086943171 0.1141550219588984 0 -0.43127542992560369 0.1080913257264796 0 -0.42069939240861393 0.1057451062468979 0 -0.42032944292336261 0.11440425788057471 0 -0.44162094209116348 0.11856660655411499 0 -0.43970277086943171 0.1141550219588984 0 -0.4590760988155006 0.1139057860372213 0 -0.43970277086943171 0.1141550219588984 0 -0.44975061409553663 0.1048396728477646 0 -0.4590760988155006 0.1139057860372213 0 -0.44162094209116348 0.11856660655411499 0 -0.45143228336521662 0.12350749422614 0 -0.4590760988155006 0.1139057860372213 0 -0.43970277086943171 0.1141550219588984 0 -0.4590760988155006 0.1139057860372213 0 -0.44162094209116348 0.11856660655411499 0 -0.4590760988155006 0.1139057860372213 0 -0.43970277086943171 0.1141550219588984 0 -0.4396283449807834 0.10314783967123101 0 -0.44975061409553663 0.1048396728477646 0 -0.4396283449807834 0.10314783967123101 0 -0.44910161846836832 0.094469860339811973 0 -0.43766588340799523 0.092856037396337396 0 -0.4396283449807834 0.10314783967123101 0 -0.44910161846836832 0.094469860339811973 0 -0.44975061409553663 0.1048396728477646 0 -0.4590760988155006 0.1139057860372213 0 -0.47486635738248439 0.1096895213391525 0 -0.47123316617220679 0.1018122916036676 0 -0.44975061409553663 0.1048396728477646 0 -0.46124423734359932 0.098519856231660555 0 -0.4590760988155006 0.1139057860372213 0 -0.44910161846836832 0.094469860339811973 0 -0.44975061409553663 0.1048396728477646 0 -0.46124423734359932 0.098519856231660555 0 -0.46124423734359932 0.098519856231660555 0 -0.4590760988155006 0.1139057860372213 0 -0.47123316617220679 0.1018122916036676 0 -0.4590760988155006 0.1139057860372213 0 -0.47486635738248439 0.1096895213391525 0 -0.4590760988155006 0.1139057860372213 0 -0.46946798898866809 0.1223819590546872 0 -0.45905051662177337 0.12832806392830709 0 -0.45143228336521662 0.12350749422614 0 -0.4590760988155006 0.1139057860372213 0 -0.45905051662177337 0.12832806392830709 0 -0.43507092108421602 0.053660424833214142 0 -0.44383422863291488 0.078086173617310975 0 -0.45701929801263003 0.066257821726193322 0 -0.44910161846836832 0.094469860339811973 0 -0.44383422863291488 0.078086173617310975 0 -0.43766588340799523 0.092856037396337396 0 -0.44910161846836832 0.094469860339811973 0 -0.44383422863291488 0.078086173617310975 0 -0.45997789134108452 0.083779184044953853 0 -0.46124423734359932 0.098519856231660555 0 -0.45997789134108452 0.083779184044953853 0 -0.47787740579854598 0.088725577691488922 0 -0.44910161846836832 0.094469860339811973 0 -0.46124423734359932 0.098519856231660555 0 -0.45997789134108452 0.083779184044953853 0 -0.44383422863291488 0.078086173617310975 0 -0.45997789134108452 0.083779184044953853 0 -0.45701929801263003 0.066257821726193322 0 -0.45997789134108452 0.083779184044953853 0 -0.45701929801263003 0.066257821726193322 0 -0.47338612135590841 0.068673764638015861 0 -0.47338612135590841 0.068673764638015861 0 -0.47787740579854598 0.088725577691488922 0 -0.4870053081369064 0.07195441557974154 0 -0.48376301353007772 0.057959669289569998 0 -0.47338612135590841 0.068673764638015861 0 -0.4870053081369064 0.07195441557974154 0 -0.45997789134108452 0.083779184044953853 0 -0.47338612135590841 0.068673764638015861 0 -0.47787740579854598 0.088725577691488922 0 -0.47787740579854598 0.088725577691488922 0 -0.5 0.085930790143701474 0 -0.4870053081369064 0.07195441557974154 0 -0.47787740579854598 0.088725577691488922 0 -0.5 0.085930790143701474 0 -0.48310173152090391 0.098220716718814785 0 -0.5 0.058482276135931488 0 -0.48376301353007772 0.057959669289569998 0 -0.4870053081369064 0.07195441557974154 0 -0.5 0.058482276135931488 0 -0.5 0.085930790143701474 0 -0.4870053081369064 0.07195441557974154 0 -0.4590760988155006 0.1139057860372213 0 -0.47953804940775169 0.11364254509434681 0 -0.47486635738248439 0.1096895213391525 0 -0.4590760988155006 0.1139057860372213 0 -0.47953804940775169 0.11364254509434681 0 -0.4590760988155006 0.1139057860372213 0 -0.47953804940775169 0.11364254509434681 0 -0.46946798898866809 0.1223819590546872 0 -0.47953804940775169 0.11364254509434681 0 -0.47486635738248439 0.1096895213391525 0 -0.49065661594946852 0.1054732566410844 0 -0.47953804940775169 0.11364254509434681 0 -0.47888971647342182 0.12423596726562711 0 -0.48918238700200511 0.1216373576475417 0 -0.47953804940775169 0.11364254509434681 0 -0.47888971647342182 0.12423596726562711 0 -0.46946798898866809 0.1223819590546872 0 -0.46124423734359932 0.098519856231660555 0 -0.47787740579854598 0.088725577691488922 0 -0.47123316617220679 0.1018122916036676 0 -0.47486635738248439 0.1096895213391525 0 -0.49065661594946852 0.1054732566410844 0 -0.47486635738248439 0.1096895213391525 0 -0.47123316617220679 0.1018122916036676 0 -0.48310173152090391 0.098220716718814785 0 -0.47486635738248439 0.1096895213391525 0 -0.48310173152090391 0.098220716718814785 0 -0.49065661594946852 0.1054732566410844 0 -0.47787740579854598 0.088725577691488922 0 -0.47123316617220679 0.1018122916036676 0 -0.48310173152090391 0.098220716718814785 0 -0.5 0.085930790143701474 0 -0.48310173152090391 0.098220716718814785 0 -0.49065661594946852 0.1054732566410844 0 -0.5 0.085930790143701474 0 -0.49065661594946852 0.1054732566410844 0 -0.50000000000000289 0.1133793041514716 0 -0.47953804940775169 0.11364254509434681 0 -0.49065661594946852 0.1054732566410844 0 -0.50000000000000289 0.1133793041514716 0 -0.47953804940775169 0.11364254509434681 0 -0.50000000000000289 0.1133793041514716 0 -0.48918238700200511 0.1216373576475417 0 -0.47953804940775169 0.11364254509434681 0 -0.50000000000000289 0.1133793041514716 0 -0.50000000000000289 0.1133793041514716 0 -0.48918238700200511 0.1216373576475417 0 -0.5 0.14017673848237339 0 -0.5 0.14017673848237339 0 -0.48436163360261908 0.13196799255825081 0 -0.48117370306901269 0.14431853070057121 0 -0.48918238700200511 0.1216373576475417 0 -0.5 0.14017673848237339 0 -0.48436163360261908 0.13196799255825081 0 -0.47888971647342182 0.12423596726562711 0 -0.48918238700200511 0.1216373576475417 0 -0.48436163360261908 0.13196799255825081 0 -0.47888971647342182 0.12423596726562711 0 -0.48436163360261908 0.13196799255825081 0 -0.47192055349234119 0.1333563321730174 0 -0.48436163360261908 0.13196799255825081 0 -0.47192055349234119 0.1333563321730174 0 -0.48117370306901269 0.14431853070057121 0 -0.47888971647342182 0.12423596726562711 0 -0.46946798898866809 0.1223819590546872 0 -0.47192055349234119 0.1333563321730174 0 -0.47227156686576938 0.1537448310336656 0 -0.47023389264484089 0.14477404885491951 0 -0.46441402155712203 0.15429631130238969 0 -0.47227156686576938 0.1537448310336656 0 -0.47023389264484089 0.14477404885491951 0 -0.48117370306901269 0.14431853070057121 0 -0.47192055349234119 0.1333563321730174 0 -0.47023389264484089 0.14477404885491951 0 -0.48117370306901269 0.14431853070057121 0 -0.47227156686576938 0.1537448310336656 0 -0.48117370306901269 0.14431853070057121 0 -0.47930702725321722 0.1598414716856128 0 -0.5 0.14017673848237339 0 -0.48117370306901269 0.14431853070057121 0 -0.5 0.16697417281327531 0 -0.48117370306901269 0.14431853070057121 0 -0.5 0.16697417281327531 0 -0.47930702725321722 0.1598414716856128 0 -0.5 0.16697417281327531 0 -0.48465184467921629 0.1675680698282844 0 -0.47930702725321722 0.1598414716856128 0 -0.5 0.16697417281327531 0 -0.48465184467921629 0.1675680698282844 0 -0.48222796816777957 0.17623986677655029 0 -0.5 0.16697417281327531 0 -0.4879325177972384 0.18616588362887451 0 -0.48222796816777957 0.17623986677655029 0 -0.5 0.16697417281327531 0 -0.4879325177972384 0.18616588362887451 0 -0.5 0.1937716071441771 0 -0.48222796816777957 0.17623986677655029 0 -0.45584411131787728 0.18262627408468471 0 -0.48222796816777957 0.17623986677655029 0 -0.46801114279101358 0.17026479159887881 0 -0.46562273810859017 0.1752815389623229 0 -0.47696227928808138 0.18289150367538379 0 -0.48222796816777957 0.17623986677655029 0 -0.45584411131787728 0.18262627408468471 0 -0.4879325177972384 0.18616588362887451 0 -0.47696227928808138 0.18289150367538379 0 -0.47893338733185892 0.19259102580618689 0 -0.4879325177972384 0.18616588362887451 0 -0.47696227928808138 0.18289150367538379 0 -0.48222796816777957 0.17623986677655029 0 -0.48465184467921629 0.1675680698282844 0 -0.48222796816777957 0.17623986677655029 0 -0.47707238329586882 0.1672167680376993 0 -0.48465184467921629 0.1675680698282844 0 -0.47930702725321722 0.1598414716856128 0 -0.47707238329586882 0.1672167680376993 0 -0.47707238329586882 0.1672167680376993 0 -0.47025466624628082 0.16156884247514711 0 -0.46801114279101358 0.17026479159887881 0 -0.48222796816777957 0.17623986677655029 0 -0.47707238329586882 0.1672167680376993 0 -0.46801114279101358 0.17026479159887881 0 -0.47227156686576938 0.1537448310336656 0 -0.47930702725321722 0.1598414716856128 0 -0.47025466624628082 0.16156884247514711 0 -0.47930702725321722 0.1598414716856128 0 -0.47707238329586882 0.1672167680376993 0 -0.47025466624628082 0.16156884247514711 0 -0.47227156686576938 0.1537448310336656 0 -0.47025466624628082 0.16156884247514711 0 -0.46441402155712203 0.15429631130238969 0 -0.47025466624628082 0.16156884247514711 0 -0.46045185571469371 0.1640488811926368 0 -0.46441402155712203 0.15429631130238969 0 -0.46801114279101358 0.17026479159887881 0 -0.46045185571469371 0.1640488811926368 0 -0.45640773015769043 0.17199522338917789 0 -0.47025466624628082 0.16156884247514711 0 -0.46801114279101358 0.17026479159887881 0 -0.46045185571469371 0.1640488811926368 0 -0.46045185571469371 0.1640488811926368 0 -0.45640773015769043 0.17199522338917789 0 -0.44896310482265711 0.16687655090607079 0 -0.45345668289804592 0.15717468951817901 0 -0.46045185571469371 0.1640488811926368 0 -0.44896310482265711 0.16687655090607079 0 -0.45345668289804592 0.15717468951817901 0 -0.46045185571469371 0.1640488811926368 0 -0.46441402155712203 0.15429631130238969 0 -0.47696227928808138 0.18289150367538379 0 -0.45584411131787728 0.18262627408468471 0 -0.45424193148661862 0.1894340458536817 0 -0.48222796816777957 0.17623986677655029 0 -0.46562273810859017 0.1752815389623229 0 -0.45584411131787728 0.18262627408468471 0 -0.47696227928808138 0.18289150367538379 0 -0.45424193148661862 0.1894340458536817 0 -0.46801114279101358 0.17026479159887881 0 -0.46562273810859017 0.1752815389623229 0 -0.45640773015769043 0.17199522338917789 0 -0.46562273810859017 0.1752815389623229 0 -0.45640773015769043 0.17199522338917789 0 -0.45584411131787728 0.18262627408468471 0 -0.45640773015769043 0.17199522338917789 0 -0.45584411131787728 0.18262627408468471 0 -0.44871191328716847 0.17605729167109199 0 -0.45584411131787728 0.18262627408468471 0 -0.44421560096394991 0.18415156248882111 0 -0.42946025446797498 0.18901268139281921 0 -0.45584411131787728 0.18262627408468471 0 -0.44276697023940681 0.18926239734079131 0 -0.42946025446797498 0.18901268139281921 0 -0.45584411131787728 0.18262627408468471 0 -0.42946025446797498 0.18901268139281921 0 -0.45584411131787728 0.18262627408468471 0 -0.44871191328716847 0.17605729167109199 0 -0.44421560096394991 0.18415156248882111 0 -0.45584411131787728 0.18262627408468471 0 -0.45424193148661862 0.1894340458536817 0 -0.44276697023940681 0.18926239734079131 0 -0.44871191328716847 0.17605729167109199 0 -0.44421560096394991 0.18415156248882111 0 -0.43835461547807331 0.16938984511619909 0 -0.45345668289804592 0.15717468951817901 0 -0.44896310482265711 0.16687655090607079 0 -0.43943037001951468 0.15691627210674769 0 -0.44871191328716847 0.17605729167109199 0 -0.44896310482265711 0.16687655090607079 0 -0.43835461547807331 0.16938984511619909 0 -0.45640773015769043 0.17199522338917789 0 -0.44871191328716847 0.17605729167109199 0 -0.44896310482265711 0.16687655090607079 0 -0.44896310482265711 0.16687655090607079 0 -0.43835461547807331 0.16938984511619909 0 -0.43943037001951468 0.15691627210674769 0 -0.43943037001951468 0.15691627210674769 0 -0.44726175790202721 0.14833464546090719 0 -0.43732858393527901 0.1451604981661298 0 -0.45345668289804592 0.15717468951817901 0 -0.43943037001951468 0.15691627210674769 0 -0.44726175790202721 0.14833464546090719 0 -0.44726175790202721 0.14833464546090719 0 -0.4459815759324286 0.1332295203849167 0 -0.45875441810716439 0.142773258728214 0 -0.44726175790202721 0.14833464546090719 0 -0.4459815759324286 0.1332295203849167 0 -0.43732858393527901 0.1451604981661298 0 -0.4459815759324286 0.1332295203849167 0 -0.43092335212315158 0.1367470138504287 0 -0.43732858393527901 0.1451604981661298 0 -0.44162094209116348 0.11856660655411499 0 -0.45143228336521662 0.12350749422614 0 -0.4459815759324286 0.1332295203849167 0 -0.45143228336521662 0.12350749422614 0 -0.4459815759324286 0.1332295203849167 0 -0.45905051662177337 0.12832806392830709 0 -0.4459815759324286 0.1332295203849167 0 -0.45905051662177337 0.12832806392830709 0 -0.45875441810716439 0.142773258728214 0 -0.46946798898866809 0.1223819590546872 0 -0.47192055349234119 0.1333563321730174 0 -0.45905051662177337 0.12832806392830709 0 -0.47192055349234119 0.1333563321730174 0 -0.47023389264484089 0.14477404885491951 0 -0.45875441810716439 0.142773258728214 0 -0.47192055349234119 0.1333563321730174 0 -0.45905051662177337 0.12832806392830709 0 -0.45875441810716439 0.142773258728214 0 -0.47023389264484089 0.14477404885491951 0 -0.46441402155712203 0.15429631130238969 0 -0.45875441810716439 0.142773258728214 0 -0.45345668289804592 0.15717468951817901 0 -0.44726175790202721 0.14833464546090719 0 -0.45875441810716439 0.142773258728214 0 -0.45345668289804592 0.15717468951817901 0 -0.46441402155712203 0.15429631130238969 0 -0.45875441810716439 0.142773258728214 0 -0.47938485524443469 0.24736044176889169 0 -0.45876971048887399 0.24735440773180231 0 -0.47938485524443469 0.24736044176889169 0 -0.4771780204241628 0.23211287266187491 0 -0.46606817213537349 0.23861167729182239 0 -0.47938485524443469 0.24736044176889169 0 -0.48834820221686681 0.23428230944130871 0 -0.4771780204241628 0.23211287266187491 0 -0.47938485524443469 0.24736044176889169 0 -0.49999999999999539 0.24736647580598109 0 -0.47938485524443469 0.24736044176889169 0 -0.49999999999999539 0.24736647580598109 0 -0.48834820221686681 0.23428230944130871 0 -0.49999999999999539 0.24736647580598109 0 -0.48834820221686681 0.23428230944130871 0 -0.5 0.22056904147507919 0 -0.48834820221686681 0.23428230944130871 0 -0.5 0.22056904147507919 0 -0.48517813541573651 0.22400271549471651 0 -0.48517813541573651 0.22400271549471651 0 -0.4771780204241628 0.23211287266187491 0 -0.47556845162478489 0.2194054801335559 0 -0.48834820221686681 0.23428230944130871 0 -0.48517813541573651 0.22400271549471651 0 -0.4771780204241628 0.23211287266187491 0 -0.4771780204241628 0.23211287266187491 0 -0.46899142896986012 0.22714943189591799 0 -0.46606817213537349 0.23861167729182239 0 -0.46899142896986012 0.22714943189591799 0 -0.47556845162478489 0.2194054801335559 0 -0.46711802913255379 0.21701776302499609 0 -0.4771780204241628 0.23211287266187491 0 -0.46899142896986012 0.22714943189591799 0 -0.47556845162478489 0.2194054801335559 0 -0.47556845162478489 0.2194054801335559 0 -0.47325119284087003 0.2103214855041444 0 -0.46711802913255379 0.21701776302499609 0 -0.47325119284087003 0.2103214855041444 0 -0.47500219439699509 0.20186894932824639 0 -0.46575933037586492 0.2050135266326617 0 -0.47325119284087003 0.2103214855041444 0 -0.48472023440535622 0.20941516362713539 0 -0.47500219439699509 0.20186894932824639 0 -0.48517813541573651 0.22400271549471651 0 -0.47556845162478489 0.2194054801335559 0 -0.48472023440535622 0.20941516362713539 0 -0.47556845162478489 0.2194054801335559 0 -0.47325119284087003 0.2103214855041444 0 -0.48472023440535622 0.20941516362713539 0 -0.5 0.22056904147507919 0 -0.48472023440535622 0.20941516362713539 0 -0.5 0.1937716071441771 0 -0.5 0.22056904147507919 0 -0.48517813541573651 0.22400271549471651 0 -0.48472023440535622 0.20941516362713539 0 -0.48472023440535622 0.20941516362713539 0 -0.48456707132296623 0.19658953148493349 0 -0.5 0.1937716071441771 0 -0.4879325177972384 0.18616588362887451 0 -0.48456707132296623 0.19658953148493349 0 -0.5 0.1937716071441771 0 -0.4879325177972384 0.18616588362887451 0 -0.48456707132296623 0.19658953148493349 0 -0.47893338733185892 0.19259102580618689 0 -0.48472023440535622 0.20941516362713539 0 -0.48456707132296623 0.19658953148493349 0 -0.47500219439699509 0.20186894932824639 0 -0.48456707132296623 0.19658953148493349 0 -0.47893338733185892 0.19259102580618689 0 -0.47500219439699509 0.20186894932824639 0 -0.47893338733185892 0.19259102580618689 0 -0.47020287385401299 0.19543926091349639 0 -0.47500219439699509 0.20186894932824639 0 -0.47020287385401299 0.19543926091349639 0 -0.47500219439699509 0.20186894932824639 0 -0.46575933037586492 0.2050135266326617 0 -0.47696227928808138 0.18289150367538379 0 -0.47020287385401299 0.19543926091349639 0 -0.46234992656508528 0.19474921308952059 0 -0.47696227928808138 0.18289150367538379 0 -0.47893338733185892 0.19259102580618689 0 -0.47020287385401299 0.19543926091349639 0 -0.47696227928808138 0.18289150367538379 0 -0.46234992656508528 0.19474921308952059 0 -0.45424193148661862 0.1894340458536817 0 -0.46234992656508528 0.19474921308952059 0 -0.45645566530173037 0.20203834335193621 0 -0.46575933037586492 0.2050135266326617 0 -0.47020287385401299 0.19543926091349639 0 -0.46234992656508528 0.19474921308952059 0 -0.46575933037586492 0.2050135266326617 0 -0.46234992656508528 0.19474921308952059 0 -0.45645566530173037 0.20203834335193621 0 -0.45509952345242027 0.1962144220730215 0 -0.46234992656508528 0.19474921308952059 0 -0.45509952345242027 0.1962144220730215 0 -0.45424193148661862 0.1894340458536817 0 -0.45424193148661862 0.1894340458536817 0 -0.44735057045624682 0.19863608599694749 0 -0.43152158368515581 0.19597658803197959 0 -0.45509952345242027 0.1962144220730215 0 -0.45424193148661862 0.1894340458536817 0 -0.44735057045624682 0.19863608599694749 0 -0.44735057045624682 0.19863608599694749 0 -0.43927201698748353 0.20358489946028871 0 -0.43152158368515581 0.19597658803197959 0 -0.45424193148661862 0.1894340458536817 0 -0.43152158368515581 0.19597658803197959 0 -0.45424193148661862 0.1894340458536817 0 -0.44276697023940681 0.18926239734079131 0 -0.43152158368515581 0.19597658803197959 0 -0.45645566530173037 0.20203834335193621 0 -0.45509952345242027 0.1962144220730215 0 -0.44735057045624682 0.19863608599694749 0 -0.45645566530173037 0.20203834335193621 0 -0.44735057045624682 0.19863608599694749 0 -0.44819820250369491 0.20720612846540151 0 -0.44020816275455499 0.21239067409349879 0 -0.44697919338481329 0.2265808282646414 0 -0.42789021463425309 0.2145499792374605 0 -0.44735057045624682 0.19863608599694749 0 -0.44819820250369491 0.20720612846540151 0 -0.43927201698748353 0.20358489946028871 0 -0.44819820250369491 0.20720612846540151 0 -0.43927201698748353 0.20358489946028871 0 -0.44020816275455499 0.21239067409349879 0 -0.44819820250369491 0.20720612846540151 0 -0.45062091996783898 0.2166984354466106 0 -0.45827196227900008 0.2139378361931617 0 -0.44020816275455499 0.21239067409349879 0 -0.45062091996783898 0.2166984354466106 0 -0.44697919338481329 0.2265808282646414 0 -0.44819820250369491 0.20720612846540151 0 -0.44020816275455499 0.21239067409349879 0 -0.45062091996783898 0.2166984354466106 0 -0.45062091996783898 0.2166984354466106 0 -0.45827196227900008 0.2139378361931617 0 -0.45944707891713182 0.22337671021634939 0 -0.45645566530173037 0.20203834335193621 0 -0.45827196227900008 0.2139378361931617 0 -0.46575933037586492 0.2050135266326617 0 -0.45645566530173037 0.20203834335193621 0 -0.44819820250369491 0.20720612846540151 0 -0.45827196227900008 0.2139378361931617 0 -0.47325119284087003 0.2103214855041444 0 -0.46575933037586492 0.2050135266326617 0 -0.46711802913255379 0.21701776302499609 0 -0.45827196227900008 0.2139378361931617 0 -0.46575933037586492 0.2050135266326617 0 -0.46711802913255379 0.21701776302499609 0 -0.45827196227900008 0.2139378361931617 0 -0.46711802913255379 0.21701776302499609 0 -0.45944707891713182 0.22337671021634939 0 -0.45944707891713182 0.22337671021634939 0 -0.44697919338481329 0.2265808282646414 0 -0.46606817213537349 0.23861167729182239 0 -0.44697919338481329 0.2265808282646414 0 -0.46606817213537349 0.23861167729182239 0 -0.46899142896986012 0.22714943189591799 0 -0.46711802913255379 0.21701776302499609 0 -0.45944707891713182 0.22337671021634939 0 -0.46899142896986012 0.22714943189591799 0 -0.45944707891713182 0.22337671021634939 0 -0.46606817213537349 0.23861167729182239 0 -0.45062091996783898 0.2166984354466106 0 -0.45944707891713182 0.22337671021634939 0 -0.44697919338481329 0.2265808282646414 0 -0.44697919338481329 0.2265808282646414 0 -0.44846444480730369 0.2394706177615539 0 -0.43065210994476771 0.23040648575507841 0 -0.44846444480730369 0.2394706177615539 0 -0.43815456573331341 0.24734837369471299 0 -0.43065210994476771 0.23040648575507841 0 -0.44846444480730369 0.2394706177615539 0 -0.43815456573331341 0.24734837369471299 0 -0.45876971048887399 0.24735440773180231 0 -0.43815456573331341 0.24734837369471299 0 -0.45876971048887399 0.24735440773180231 0 -0.47938485524443469 0.24736044176889169 0 -0.45876971048887399 0.24735440773180231 0 -0.46606817213537349 0.23861167729182239 0 -0.44697919338481329 0.2265808282646414 0 -0.44846444480730369 0.2394706177615539 0 -0.46606817213537349 0.23861167729182239 0 -0.44846444480730369 0.2394706177615539 0 -0.45876971048887399 0.24735440773180231 0 -0.46606817213537349 0.23861167729182239 0 -0.41659169976103583 0.24640880725911149 0 -0.43065210994476771 0.23040648575507841 0 -0.4163858695220124 0.2286728156466464 0 -0.41659169976103583 0.24640880725911149 0 -0.4163858695220124 0.2286728156466464 0 -0.39712451166790241 0.22922822127083101 0 -0.41659169976103583 0.24640880725911149 0 -0.43065210994476771 0.23040648575507841 0 -0.43815456573331341 0.24734837369471299 0 -0.41659169976103583 0.24640880725911149 0 -0.43065210994476771 0.23040648575507841 0 -0.44697919338481329 0.2265808282646414 0 -0.42789021463425309 0.2145499792374605 0 -0.44697919338481329 0.2265808282646414 0 -0.43065210994476771 0.23040648575507841 0 -0.42789021463425309 0.2145499792374605 0 -0.43065210994476771 0.23040648575507841 0 -0.4163858695220124 0.2286728156466464 0 -0.42789021463425309 0.2145499792374605 0 -0.4163858695220124 0.2286728156466464 0 -0.41027064823890569 0.21654382645331841 0 -0.42789021463425309 0.2145499792374605 0 -0.4163858695220124 0.2286728156466464 0 -0.41027064823890569 0.21654382645331841 0 -0.39712451166790241 0.22922822127083101 0 -0.42789021463425309 0.2145499792374605 0 -0.40880123588369333 0.2025191302102787 0 -0.41027064823890569 0.21654382645331841 0 -0.42789021463425309 0.2145499792374605 0 -0.40880123588369333 0.2025191302102787 0 -0.41027064823890569 0.21654382645331841 0 -0.40880123588369333 0.2025191302102787 0 -0.40145132780507009 0.2046356067726586 0 -0.42789021463425309 0.2145499792374605 0 -0.4296556614158954 0.2054594845056438 0 -0.40880123588369333 0.2025191302102787 0 -0.44020816275455499 0.21239067409349879 0 -0.42789021463425309 0.2145499792374605 0 -0.4296556614158954 0.2054594845056438 0 -0.43927201698748353 0.20358489946028871 0 -0.44020816275455499 0.21239067409349879 0 -0.4296556614158954 0.2054594845056438 0 -0.4296556614158954 0.2054594845056438 0 -0.43152158368515581 0.19597658803197959 0 -0.40880123588369333 0.2025191302102787 0 -0.43927201698748353 0.20358489946028871 0 -0.4296556614158954 0.2054594845056438 0 -0.43152158368515581 0.19597658803197959 0 -0.44276697023940681 0.18926239734079131 0 -0.43152158368515581 0.19597658803197959 0 -0.42946025446797498 0.18901268139281921 0 -0.43152158368515581 0.19597658803197959 0 -0.42946025446797498 0.18901268139281921 0 -0.41605084107720358 0.19613919482101971 0 -0.43152158368515581 0.19597658803197959 0 -0.41605084107720358 0.19613919482101971 0 -0.40880123588369333 0.2025191302102787 0 -0.42946025446797498 0.18901268139281921 0 -0.41605084107720358 0.19613919482101971 0 -0.4030763976180729 0.1953990887009546 0 -0.42946025446797498 0.18901268139281921 0 -0.4030763976180729 0.1953990887009546 0 -0.41652830243604871 0.1830210197370761 0 -0.42946025446797498 0.18901268139281921 0 -0.4030763976180729 0.1953990887009546 0 -0.43152158368515581 0.19597658803197959 0 -0.40880123588369333 0.2025191302102787 0 -0.41605084107720358 0.19613919482101971 0 -0.40880123588369333 0.2025191302102787 0 -0.40761216411610579 0.198154475755878 0 -0.41605084107720358 0.19613919482101971 0 -0.40761216411610579 0.198154475755878 0 -0.4030763976180729 0.1953990887009546 0 -0.40880123588369333 0.2025191302102787 0 -0.40761216411610579 0.198154475755878 0 -0.40252018188545541 0.19856048929125869 0 -0.4030763976180729 0.1953990887009546 0 -0.41652830243604871 0.1830210197370761 0 -0.40472592334367491 0.18602356892186561 0 -0.39941840483933561 0.1962845328552392 0 -0.39141661766712732 0.20285658666543771 0 -0.38147194991732808 0.20062860474438821 0 -0.39941840483933561 0.1962845328552392 0 -0.39567911971075981 0.18957543160949061 0 -0.38147194991732808 0.20062860474438821 0 -0.4030763976180729 0.1953990887009546 0 -0.40472592334367491 0.18602356892186561 0 -0.4030763976180729 0.1953990887009546 0 -0.39567911971075981 0.18957543160949061 0 -0.40472592334367491 0.18602356892186561 0 -0.4030763976180729 0.1953990887009546 0 -0.39941840483933561 0.1962845328552392 0 -0.39567911971075981 0.18957543160949061 0 -0.40761216411610579 0.198154475755878 0 -0.40252018188545541 0.19856048929125869 0 -0.4030763976180729 0.1953990887009546 0 -0.40252018188545541 0.19856048929125869 0 -0.4030763976180729 0.1953990887009546 0 -0.40880123588369333 0.2025191302102787 0 -0.40252018188545541 0.19856048929125869 0 -0.40880123588369333 0.2025191302102787 0 -0.40252018188545541 0.19856048929125869 0 -0.40145132780507009 0.2046356067726586 0 -0.40252018188545541 0.19856048929125869 0 -0.39885054717550122 0.20104644067277119 0 -0.40145132780507009 0.2046356067726586 0 -0.40252018188545541 0.19856048929125869 0 -0.40145132780507009 0.2046356067726586 0 -0.40252018188545541 0.19856048929125869 0 -0.39885054717550122 0.20104644067277119 0 -0.39941840483933561 0.1962845328552392 0 -0.4030763976180729 0.1953990887009546 0 -0.39941840483933561 0.1962845328552392 0 -0.40252018188545541 0.19856048929125869 0 -0.4030763976180729 0.1953990887009546 0 -0.39941840483933561 0.1962845328552392 0 -0.40252018188545541 0.19856048929125869 0 -0.39941840483933561 0.1962845328552392 0 -0.39885054717550122 0.20104644067277119 0 -0.39941840483933561 0.1962845328552392 0 -0.39141661766712732 0.20285658666543771 0 -0.39885054717550122 0.20104644067277119 0 -0.39141661766712732 0.20285658666543771 0 -0.40145132780507009 0.2046356067726586 0 -0.39567911971075981 0.18957543160949061 0 -0.38843775585270363 0.1878095920114434 0 -0.38147194991732808 0.20062860474438821 0 -0.38843775585270363 0.1878095920114434 0 -0.37992640120883259 0.18906635376057579 0 -0.38147194991732808 0.20062860474438821 0 -0.39941840483933561 0.1962845328552392 0 -0.38147194991732808 0.20062860474438821 0 -0.37992640120883259 0.18906635376057579 0 -0.37348043130877812 0.1831144448797524 0 -0.37190947556069809 0.1940057694855678 0 -0.37992640120883259 0.18906635376057579 0 -0.38147194991732808 0.20062860474438821 0 -0.37190947556069809 0.1940057694855678 0 -0.39141661766712732 0.20285658666543771 0 -0.37877509363707029 0.21116544600688039 0 -0.40145132780507009 0.2046356067726586 0 -0.37877509363707029 0.21116544600688039 0 -0.40145132780507009 0.2046356067726586 0 -0.37877509363707029 0.21116544600688039 0 -0.39062906670647668 0.21662596176497931 0 -0.40145132780507009 0.2046356067726586 0 -0.39141661766712732 0.20285658666543771 0 -0.38147194991732808 0.20062860474438821 0 -0.37877509363707029 0.21116544600688039 0 -0.37877509363707029 0.21116544600688039 0 -0.38239096510898363 0.22293442493893731 0 -0.37237880706425752 0.2197632947265008 0 -0.37877509363707029 0.21116544600688039 0 -0.39062906670647668 0.21662596176497931 0 -0.38239096510898363 0.22293442493893731 0 -0.41027064823890569 0.21654382645331841 0 -0.40145132780507009 0.2046356067726586 0 -0.39712451166790241 0.22922822127083101 0 -0.39062906670647668 0.21662596176497931 0 -0.40145132780507009 0.2046356067726586 0 -0.39712451166790241 0.22922822127083101 0 -0.40145132780507009 0.2046356067726586 0 -0.39712451166790241 0.22922822127083101 0 -0.40880123588369333 0.2025191302102787 0 -0.40145132780507009 0.2046356067726586 0 -0.39712451166790241 0.22922822127083101 0 -0.38239096510898363 0.22293442493893731 0 -0.38057471247023261 0.23237742138141931 0 -0.39062906670647668 0.21662596176497931 0 -0.39712451166790241 0.22922822127083101 0 -0.38239096510898363 0.22293442493893731 0 -0.38239096510898363 0.22293442493893731 0 -0.37158473276555049 0.2288343176620575 0 -0.37237880706425752 0.2197632947265008 0 -0.38239096510898363 0.22293442493893731 0 -0.38057471247023261 0.23237742138141931 0 -0.37158473276555049 0.2288343176620575 0 -0.39712451166790241 0.22922822127083101 0 -0.38071427544245973 0.2427464974365349 0 -0.39279769553073562 0.25382083576900361 0 -0.39712451166790241 0.22922822127083101 0 -0.38057471247023261 0.23237742138141931 0 -0.38071427544245973 0.2427464974365349 0 -0.38057471247023261 0.23237742138141931 0 -0.38071427544245973 0.2427464974365349 0 -0.3710590773662667 0.23814364559873599 0 -0.41659169976103583 0.24640880725911149 0 -0.39712451166790241 0.22922822127083101 0 -0.39279769553073562 0.25382083576900361 0 -0.39712451166790241 0.22922822127083101 0 -0.39279769553073562 0.25382083576900361 0 -0.41610956349134431 0.1490023570976195 0 -0.40482680429473078 0.1605384338175605 0 -0.40404198192733909 0.14131284739494701 0 -0.41610956349134431 0.1490023570976195 0 -0.41930089808229248 0.13589582542926551 0 -0.42744685851345082 0.14743423285190199 0 -0.41610956349134431 0.1490023570976195 0 -0.41930089808229248 0.13589582542926551 0 -0.40404198192733909 0.14131284739494701 0 -0.41010664653338519 0.12698145367527419 0 -0.41930089808229248 0.13589582542926551 0 -0.40404198192733909 0.14131284739494701 0 -0.4241657853668267 0.1232274270710098 0 -0.41010664653338519 0.12698145367527419 0 -0.4241657853668267 0.1232274270710098 0 -0.41010664653338519 0.12698145367527419 0 -0.41930089808229248 0.13589582542926551 0 -0.4241657853668267 0.1232274270710098 0 -0.4459815759324286 0.1332295203849167 0 -0.41930089808229248 0.13589582542926551 0 -0.43092335212315158 0.1367470138504287 0 -0.42744685851345082 0.14743423285190199 0 -0.4241657853668267 0.1232274270710098 0 -0.44162094209116348 0.11856660655411499 0 -0.4459815759324286 0.1332295203849167 0 -0.4241657853668267 0.1232274270710098 0 -0.4459815759324286 0.1332295203849167 0 -0.43092335212315158 0.1367470138504287 0 -0.4241657853668267 0.1232274270710098 0 -0.41930089808229248 0.13589582542926551 0 -0.43092335212315158 0.1367470138504287 0 -0.43092335212315158 0.1367470138504287 0 -0.43732858393527901 0.1451604981661298 0 -0.42744685851345082 0.14743423285190199 0 -0.41610956349134431 0.1490023570976195 0 -0.42744685851345082 0.14743423285190199 0 -0.42493127463890812 0.15983044599442259 0 -0.43943037001951468 0.15691627210674769 0 -0.43732858393527901 0.1451604981661298 0 -0.42744685851345082 0.14743423285190199 0 -0.43943037001951468 0.15691627210674769 0 -0.42744685851345082 0.14743423285190199 0 -0.42493127463890812 0.15983044599442259 0 -0.43835461547807331 0.16938984511619909 0 -0.43943037001951468 0.15691627210674769 0 -0.42493127463890812 0.15983044599442259 0 -0.43835461547807331 0.16938984511619909 0 -0.42493127463890812 0.15983044599442259 0 -0.42452120262934029 0.17234499815319079 0 -0.44421560096394991 0.18415156248882111 0 -0.42452120262934029 0.17234499815319079 0 -0.42868134012432851 0.18213256544297679 0 -0.44421560096394991 0.18415156248882111 0 -0.43835461547807331 0.16938984511619909 0 -0.42452120262934029 0.17234499815319079 0 -0.44421560096394991 0.18415156248882111 0 -0.42452120262934029 0.17234499815319079 0 -0.44421560096394991 0.18415156248882111 0 -0.42946025446797498 0.18901268139281921 0 -0.42868134012432851 0.18213256544297679 0 -0.42452120262934029 0.17234499815319079 0 -0.42868134012432851 0.18213256544297679 0 -0.41652830243604871 0.1830210197370761 0 -0.42946025446797498 0.18901268139281921 0 -0.42868134012432851 0.18213256544297679 0 -0.41652830243604871 0.1830210197370761 0 -0.42452120262934029 0.17234499815319079 0 -0.41652830243604871 0.1830210197370761 0 -0.40928809357415818 0.1752074458597824 0 -0.41652830243604871 0.1830210197370761 0 -0.40928809357415818 0.1752074458597824 0 -0.40472592334367491 0.18602356892186561 0 -0.42452120262934029 0.17234499815319079 0 -0.40928809357415818 0.1752074458597824 0 -0.40482680429473078 0.1605384338175605 0 -0.41610956349134431 0.1490023570976195 0 -0.42493127463890812 0.15983044599442259 0 -0.40482680429473078 0.1605384338175605 0 -0.42452120262934029 0.17234499815319079 0 -0.40482680429473078 0.1605384338175605 0 -0.42493127463890812 0.15983044599442259 0 -0.42452120262934029 0.17234499815319079 0 -0.40482680429473078 0.1605384338175605 0 -0.40482680429473078 0.1605384338175605 0 -0.39665919989697579 0.17792962870339979 0 -0.3892156570744445 0.16896574267246409 0 -0.40482680429473078 0.1605384338175605 0 -0.38604507119586162 0.16024989878697379 0 -0.3892156570744445 0.16896574267246409 0 -0.40482680429473078 0.1605384338175605 0 -0.38604507119586162 0.16024989878697379 0 -0.38513240596012061 0.14873186948193151 0 -0.40928809357415818 0.1752074458597824 0 -0.40482680429473078 0.1605384338175605 0 -0.39665919989697579 0.17792962870339979 0 -0.39567911971075981 0.18957543160949061 0 -0.40472592334367491 0.18602356892186561 0 -0.39665919989697579 0.17792962870339979 0 -0.40928809357415818 0.1752074458597824 0 -0.40472592334367491 0.18602356892186561 0 -0.39665919989697579 0.17792962870339979 0 -0.39567911971075981 0.18957543160949061 0 -0.38843775585270363 0.1878095920114434 0 -0.39665919989697579 0.17792962870339979 0 -0.38843775585270363 0.1878095920114434 0 -0.37992640120883259 0.18906635376057579 0 -0.38433239340465519 0.1797733576817272 0 -0.38843775585270363 0.1878095920114434 0 -0.39665919989697579 0.17792962870339979 0 -0.38433239340465519 0.1797733576817272 0 -0.38433239340465519 0.1797733576817272 0 -0.3892156570744445 0.16896574267246409 0 -0.37926355610311058 0.17091244727351959 0 -0.39665919989697579 0.17792962870339979 0 -0.38433239340465519 0.1797733576817272 0 -0.3892156570744445 0.16896574267246409 0 -0.38433239340465519 0.1797733576817272 0 -0.37926355610311058 0.17091244727351959 0 -0.37348043130877812 0.1831144448797524 0 -0.37992640120883259 0.18906635376057579 0 -0.38433239340465519 0.1797733576817272 0 -0.37348043130877812 0.1831144448797524 0 -0.38604507119586162 0.16024989878697379 0 -0.3892156570744445 0.16896574267246409 0 -0.37926355610311058 0.17091244727351959 0 -0.38604507119586162 0.16024989878697379 0 -0.37926355610311058 0.17091244727351959 0 -0.37535318022308489 0.16159078985107689 0 -0.38604507119586162 0.16024989878697379 0 -0.37535318022308489 0.16159078985107689 0 -0.38513240596012061 0.14873186948193151 0 -0.38513240596012061 0.14873186948193151 0 -0.38249809021268788 0.13885024554412739 0 -0.36261523479171048 0.13523308543484119 0 -0.38731376770951609 0.14323382810415991 0 -0.38513240596012061 0.14873186948193151 0 -0.38249809021268788 0.13885024554412739 0 -0.38996196595429072 0.1464866460495923 0 -0.38731376770951609 0.14323382810415991 0 -0.38513240596012061 0.14873186948193151 0 -0.38996196595429072 0.1464866460495923 0 -0.38513240596012061 0.14873186948193151 0 -0.38996196595429072 0.1464866460495923 0 -0.38731376770951609 0.14323382810415991 0 -0.39166260871096548 0.1388665513409886 0 -0.40482680429473078 0.1605384338175605 0 -0.38513240596012061 0.14873186948193151 0 -0.40482680429473078 0.1605384338175605 0 -0.38996196595429072 0.1464866460495923 0 -0.40404198192733909 0.14131284739494701 0 -0.40482680429473078 0.1605384338175605 0 -0.38996196595429072 0.1464866460495923 0 -0.38513240596012061 0.14873186948193151 0 -0.38996196595429072 0.1464866460495923 0 -0.40404198192733909 0.14131284739494701 0 -0.39166260871096548 0.1388665513409886 0 -0.41010664653338519 0.12698145367527419 0 -0.40404198192733909 0.14131284739494701 0 -0.39703409423189068 0.12927456218209341 0 -0.39166260871096548 0.1388665513409886 0 -0.39703409423189068 0.12927456218209341 0 -0.38771911071939852 0.13158134834823551 0 -0.40404198192733909 0.14131284739494701 0 -0.39166260871096548 0.1388665513409886 0 -0.39703409423189068 0.12927456218209341 0 -0.38818711833353492 0.12028534050425969 0 -0.39703409423189068 0.12927456218209341 0 -0.38771911071939852 0.13158134834823551 0 -0.38818711833353492 0.12028534050425969 0 -0.38771911071939852 0.13158134834823551 0 -0.37921364210791342 0.13063004216970839 0 -0.39166260871096548 0.1388665513409886 0 -0.38771911071939852 0.13158134834823551 0 -0.38249809021268788 0.13885024554412739 0 -0.38731376770951609 0.14323382810415991 0 -0.39166260871096548 0.1388665513409886 0 -0.38249809021268788 0.13885024554412739 0 -0.38771911071939852 0.13158134834823551 0 -0.38249809021268788 0.13885024554412739 0 -0.37921364210791342 0.13063004216970839 0 -0.3764080014033851 0.11982670789268041 0 -0.37921364210791342 0.13063004216970839 0 -0.36980941732460793 0.1264429815483126 0 -0.37921364210791342 0.13063004216970839 0 -0.36980941732460793 0.1264429815483126 0 -0.36261523479171048 0.13523308543484119 0 -0.38249809021268788 0.13885024554412739 0 -0.37921364210791342 0.13063004216970839 0 -0.36261523479171048 0.13523308543484119 0 -0.36261523479171048 0.13523308543484119 0 -0.35399323396578908 0.1295811750523686 0 -0.36205342399503448 0.1243971346714505 0 -0.36980941732460793 0.1264429815483126 0 -0.36261523479171048 0.13523308543484119 0 -0.36205342399503448 0.1243971346714505 0 -0.36261523479171048 0.13523308543484119 0 -0.35399323396578908 0.1295811750523686 0 -0.35219470683963439 0.13915650663672779 0 -0.36261523479171048 0.13523308543484119 0 -0.35219470683963439 0.13915650663672779 0 -0.35912125460303979 0.14613997691501179 0 -0.35399323396578908 0.1295811750523686 0 -0.35219470683963439 0.13915650663672779 0 -0.33886829202793262 0.13513192314932879 0 -0.35219470683963439 0.13915650663672779 0 -0.3463755188097003 0.14969637263208871 0 -0.33886829202793262 0.13513192314932879 0 -0.35219470683963439 0.13915650663672779 0 -0.3463755188097003 0.14969637263208871 0 -0.35912125460303979 0.14613997691501179 0 -0.3463755188097003 0.14969637263208871 0 -0.35912125460303979 0.14613997691501179 0 -0.36188216171322118 0.15954072023724711 0 -0.38513240596012061 0.14873186948193151 0 -0.36261523479171048 0.13523308543484119 0 -0.38513240596012061 0.14873186948193151 0 -0.37048502152756602 0.14763529503494771 0 -0.36188216171322118 0.15954072023724711 0 -0.38513240596012061 0.14873186948193151 0 -0.36188216171322118 0.15954072023724711 0 -0.38513240596012061 0.14873186948193151 0 -0.36261523479171048 0.13523308543484119 0 -0.37048502152756602 0.14763529503494771 0 -0.35912125460303979 0.14613997691501179 0 -0.37048502152756602 0.14763529503494771 0 -0.36188216171322118 0.15954072023724711 0 -0.36261523479171048 0.13523308543484119 0 -0.35912125460303979 0.14613997691501179 0 -0.37048502152756602 0.14763529503494771 0 -0.36715460341183942 0.17178044976912299 0 -0.36188216171322118 0.15954072023724711 0 -0.35263350375716529 0.17624291809871731 0 -0.37535318022308489 0.16159078985107689 0 -0.38513240596012061 0.14873186948193151 0 -0.36188216171322118 0.15954072023724711 0 -0.37535318022308489 0.16159078985107689 0 -0.36715460341183942 0.17178044976912299 0 -0.36188216171322118 0.15954072023724711 0 -0.37926355610311058 0.17091244727351959 0 -0.37535318022308489 0.16159078985107689 0 -0.36715460341183942 0.17178044976912299 0 -0.36715460341183942 0.17178044976912299 0 -0.35270882896383982 0.1914340433001912 0 -0.36715460341183942 0.17178044976912299 0 -0.36502416829234791 0.1892385656444914 0 -0.35270882896383982 0.1914340433001912 0 -0.36715460341183942 0.17178044976912299 0 -0.37348043130877812 0.1831144448797524 0 -0.36502416829234791 0.1892385656444914 0 -0.37926355610311058 0.17091244727351959 0 -0.36715460341183942 0.17178044976912299 0 -0.37348043130877812 0.1831144448797524 0 -0.36715460341183942 0.17178044976912299 0 -0.35263350375716529 0.17624291809871731 0 -0.35270882896383982 0.1914340433001912 0 -0.35263350375716529 0.17624291809871731 0 -0.33863191746632071 0.1703495709925604 0 -0.34250646118456562 0.18388888239834131 0 -0.35263350375716529 0.17624291809871731 0 -0.34250646118456562 0.18388888239834131 0 -0.35270882896383982 0.1914340433001912 0 -0.36188216171322118 0.15954072023724711 0 -0.33863191746632071 0.1703495709925604 0 -0.36188216171322118 0.15954072023724711 0 -0.35263350375716529 0.17624291809871731 0 -0.33863191746632071 0.1703495709925604 0 -0.3463755188097003 0.14969637263208871 0 -0.36188216171322118 0.15954072023724711 0 -0.33863191746632071 0.1703495709925604 0 -0.33863191746632071 0.1703495709925604 0 -0.32345589195455199 0.16811586971415529 0 -0.32779740170334348 0.15005705407099471 0 -0.3463755188097003 0.14969637263208871 0 -0.33863191746632071 0.1703495709925604 0 -0.32779740170334348 0.15005705407099471 0 -0.33863191746632071 0.1703495709925604 0 -0.33288253740055102 0.18193382650795989 0 -0.31538167321942018 0.18115842174787369 0 -0.34250646118456562 0.18388888239834131 0 -0.33288253740055102 0.18193382650795989 0 -0.33257855051186919 0.19129762531633679 0 -0.33863191746632071 0.1703495709925604 0 -0.34250646118456562 0.18388888239834131 0 -0.33288253740055102 0.18193382650795989 0 -0.33288253740055102 0.18193382650795989 0 -0.32407341648084897 0.18627451091909741 0 -0.33257855051186919 0.19129762531633679 0 -0.33863191746632071 0.1703495709925604 0 -0.31538167321942018 0.18115842174787369 0 -0.33863191746632071 0.1703495709925604 0 -0.31538167321942018 0.18115842174787369 0 -0.32345589195455199 0.16811586971415529 0 -0.33288253740055102 0.18193382650795989 0 -0.32407341648084897 0.18627451091909741 0 -0.31538167321942018 0.18115842174787369 0 -0.32407341648084897 0.18627451091909741 0 -0.31538167321942018 0.18115842174787369 0 -0.32318829756725492 0.19409589633449009 0 -0.31538167321942018 0.18115842174787369 0 -0.32345589195455199 0.16811586971415529 0 -0.31041188603412179 0.17618773946550689 0 -0.32345589195455199 0.16811586971415529 0 -0.30519629345656302 0.14688777634237529 0 -0.31041188603412179 0.17618773946550689 0 -0.32779740170334348 0.15005705407099471 0 -0.32109016926520251 0.1322618198354257 0 -0.30519629345656302 0.14688777634237529 0 -0.32345589195455199 0.16811586971415529 0 -0.32779740170334348 0.15005705407099471 0 -0.30519629345656302 0.14688777634237529 0 -0.32779740170334348 0.15005705407099471 0 -0.32109016926520251 0.1322618198354257 0 -0.33886829202793262 0.13513192314932879 0 -0.32109016926520251 0.1322618198354257 0 -0.33886829202793262 0.13513192314932879 0 -0.33360815825916912 0.111644532395186 0 -0.35399323396578908 0.1295811750523686 0 -0.33886829202793262 0.13513192314932879 0 -0.33360815825916912 0.111644532395186 0 -0.3463755188097003 0.14969637263208871 0 -0.32779740170334348 0.15005705407099471 0 -0.33886829202793262 0.13513192314932879 0 -0.35364027290512279 0.24275260996615611 0 -0.34329172676424913 0.24335930576628789 0 -0.35145338992010933 0.25362928199555479 0 -0.35364027290512279 0.24275260996615611 0 -0.346477315000352 0.23288321910592 0 -0.34329172676424913 0.24335930576628789 0 -0.35364027290512279 0.24275260996615611 0 -0.3647464168940881 0.24641932805505659 0 -0.35835592108634318 0.2327849001753238 0 -0.35364027290512279 0.24275260996615611 0 -0.35835592108634318 0.2327849001753238 0 -0.346477315000352 0.23288321910592 0 -0.35364027290512279 0.24275260996615611 0 -0.3647464168940881 0.24641932805505659 0 -0.35145338992010933 0.25362928199555479 0 -0.38071427544245973 0.2427464974365349 0 -0.3647464168940881 0.24641932805505659 0 -0.37784715853102169 0.25516297643002489 0 -0.38071427544245973 0.2427464974365349 0 -0.3647464168940881 0.24641932805505659 0 -0.3710590773662667 0.23814364559873599 0 -0.3647464168940881 0.24641932805505659 0 -0.3710590773662667 0.23814364559873599 0 -0.35835592108634318 0.2327849001753238 0 -0.3710590773662667 0.23814364559873599 0 -0.37158473276555049 0.2288343176620575 0 -0.35835592108634318 0.2327849001753238 0 -0.37158473276555049 0.2288343176620575 0 -0.36460458009630531 0.2247694494512455 0 -0.35835592108634318 0.2327849001753238 0 -0.37237880706425752 0.2197632947265008 0 -0.36460458009630531 0.2247694494512455 0 -0.35609885946906977 0.2176952852410998 0 -0.38057471247023261 0.23237742138141931 0 -0.3710590773662667 0.23814364559873599 0 -0.37158473276555049 0.2288343176620575 0 -0.37158473276555049 0.2288343176620575 0 -0.37237880706425752 0.2197632947265008 0 -0.36460458009630531 0.2247694494512455 0 -0.36460458009630531 0.2247694494512455 0 -0.35835592108634318 0.2327849001753238 0 -0.35609885946906977 0.2176952852410998 0 -0.35609885946906977 0.2176952852410998 0 -0.33342262530106931 0.2242251244753192 0 -0.346477315000352 0.23288321910592 0 -0.35609885946906977 0.2176952852410998 0 -0.33342262530106931 0.2242251244753192 0 -0.35835592108634318 0.2327849001753238 0 -0.346477315000352 0.23288321910592 0 -0.35609885946906977 0.2176952852410998 0 -0.35609885946906977 0.2176952852410998 0 -0.35986750221658348 0.2058581207878227 0 -0.33826305451583899 0.21108763683125839 0 -0.35986750221658348 0.2058581207878227 0 -0.33826305451583899 0.21108763683125839 0 -0.38147194991732808 0.20062860474438821 0 -0.35986750221658348 0.2058581207878227 0 -0.38147194991732808 0.20062860474438821 0 -0.37877509363707029 0.21116544600688039 0 -0.35986750221658348 0.2058581207878227 0 -0.37877509363707029 0.21116544600688039 0 -0.35609885946906977 0.2176952852410998 0 -0.35986750221658348 0.2058581207878227 0 -0.37877509363707029 0.21116544600688039 0 -0.37237880706425752 0.2197632947265008 0 -0.35609885946906977 0.2176952852410998 0 -0.37877509363707029 0.21116544600688039 0 -0.35609885946906977 0.2176952852410998 0 -0.35986750221658348 0.2058581207878227 0 -0.37190947556069809 0.1940057694855678 0 -0.36502416829234791 0.1892385656444914 0 -0.38147194991732808 0.20062860474438821 0 -0.35986750221658348 0.2058581207878227 0 -0.37190947556069809 0.1940057694855678 0 -0.37348043130877812 0.1831144448797524 0 -0.37190947556069809 0.1940057694855678 0 -0.36502416829234791 0.1892385656444914 0 -0.35270882896383982 0.1914340433001912 0 -0.33826305451583899 0.21108763683125839 0 -0.35986750221658348 0.2058581207878227 0 -0.36502416829234791 0.1892385656444914 0 -0.35270882896383982 0.1914340433001912 0 -0.35986750221658348 0.2058581207878227 0 -0.35270882896383982 0.1914340433001912 0 -0.33826305451583899 0.21108763683125839 0 -0.34250646118456562 0.18388888239834131 0 -0.35270882896383982 0.1914340433001912 0 -0.33930574338162561 0.19596674089477001 0 -0.35270882896383982 0.1914340433001912 0 -0.33930574338162561 0.19596674089477001 0 -0.33826305451583899 0.21108763683125839 0 -0.34250646118456562 0.18388888239834131 0 -0.33930574338162561 0.19596674089477001 0 -0.33257855051186919 0.19129762531633679 0 -0.33930574338162561 0.19596674089477001 0 -0.33047182173201478 0.20212551662772241 0 -0.33826305451583899 0.21108763683125839 0 -0.33930574338162561 0.19596674089477001 0 -0.33047182173201478 0.20212551662772241 0 -0.33257855051186919 0.19129762531633679 0 -0.33047182173201478 0.20212551662772241 0 -0.33257855051186919 0.19129762531633679 0 -0.32318829756725492 0.19409589633449009 0 -0.31538167321942018 0.18115842174787369 0 -0.32318829756725492 0.19409589633449009 0 -0.31562747861168072 0.20548770258863849 0 -0.31562747861168072 0.20548770258863849 0 -0.31041188603412179 0.17618773946550689 0 -0.31538167321942018 0.18115842174787369 0 -0.31562747861168072 0.20548770258863849 0 -0.31041188603412179 0.17618773946550689 0 -0.32407341648084897 0.18627451091909741 0 -0.33257855051186919 0.19129762531633679 0 -0.32318829756725492 0.19409589633449009 0 -0.33047182173201478 0.20212551662772241 0 -0.32318829756725492 0.19409589633449009 0 -0.31562747861168072 0.20548770258863849 0 -0.31562747861168072 0.20548770258863849 0 -0.3292665044255772 0.21326531819040459 0 -0.32084307118924138 0.23478766571176971 0 -0.33047182173201478 0.20212551662772241 0 -0.31562747861168072 0.20548770258863849 0 -0.3292665044255772 0.21326531819040459 0 -0.35609885946906977 0.2176952852410998 0 -0.33826305451583899 0.21108763683125839 0 -0.33342262530106931 0.2242251244753192 0 -0.3292665044255772 0.21326531819040459 0 -0.33826305451583899 0.21108763683125839 0 -0.33047182173201478 0.20212551662772241 0 -0.3292665044255772 0.21326531819040459 0 -0.33826305451583899 0.21108763683125839 0 -0.33826305451583899 0.21108763683125839 0 -0.32084307118924138 0.23478766571176971 0 -0.3292665044255772 0.21326531819040459 0 -0.33826305451583899 0.21108763683125839 0 -0.32084307118924138 0.23478766571176971 0 -0.33826305451583899 0.21108763683125839 0 -0.33342262530106931 0.2242251244753192 0 -0.32084307118924138 0.23478766571176971 0 -0.346477315000352 0.23288321910592 0 -0.33342262530106931 0.2242251244753192 0 -0.33386079592152212 0.23875284843684849 0 -0.33342262530106931 0.2242251244753192 0 -0.32084307118924138 0.23478766571176971 0 -0.33386079592152212 0.23875284843684849 0 -0.31562747861168072 0.20548770258863849 0 -0.32084307118924138 0.23478766571176971 0 -0.32084307118924138 0.23478766571176971 0 -0.32367731706940328 0.25070978741429673 0 -0.32084307118924138 0.23478766571176971 0 -0.3065795590668664 0.25419328986766071 0 -0.32084307118924138 0.23478766571176971 0 -0.32367731706940328 0.25070978741429673 0 -0.3065795590668664 0.25419328986766071 0 -0.32084307118924138 0.23478766571176971 0 -0.33386079592152212 0.23875284843684849 0 -0.32367731706940328 0.25070978741429673 0 -0.33386079592152212 0.23875284843684849 0 -0.33632480984135271 0.25252799294456663 0 -0.32367731706940328 0.25070978741429673 0 -0.346477315000352 0.23288321910592 0 -0.33386079592152212 0.23875284843684849 0 -0.34329172676424913 0.24335930576628789 0 -0.33386079592152212 0.23875284843684849 0 -0.34329172676424913 0.24335930576628789 0 -0.33632480984135271 0.25252799294456663 0 -0.34329172676424913 0.24335930576628789 0 -0.35145338992010933 0.25362928199555479 0 -0.33632480984135271 0.25252799294456663 0 -0.2921040364502262 0.23935641012805051 0 -0.3065795590668664 0.25419328986766071 0 -0.28743946519297292 0.25607360513546729 0 -0.2921040364502262 0.23935641012805051 0 -0.27402586863852069 0.24422816852138379 0 -0.28743946519297292 0.25607360513546729 0 -0.2921040364502262 0.23935641012805051 0 -0.2812999643011736 0.2256972098976768 0 -0.27402586863852069 0.24422816852138379 0 -0.2921040364502262 0.23935641012805051 0 -0.30474508535172951 0.23707797846898029 0 -0.3065795590668664 0.25419328986766071 0 -0.32084307118924138 0.23478766571176971 0 -0.30474508535172951 0.23707797846898029 0 -0.3065795590668664 0.25419328986766071 0 -0.31562747861168072 0.20548770258863849 0 -0.32084307118924138 0.23478766571176971 0 -0.29945367470058398 0.21997454816844031 0 -0.32084307118924138 0.23478766571176971 0 -0.30474508535172951 0.23707797846898029 0 -0.29945367470058398 0.21997454816844031 0 -0.2921040364502262 0.23935641012805051 0 -0.30474508535172951 0.23707797846898029 0 -0.29945367470058398 0.21997454816844031 0 -0.2921040364502262 0.23935641012805051 0 -0.29945367470058398 0.21997454816844031 0 -0.2812999643011736 0.2256972098976768 0 -0.29945367470058398 0.21997454816844031 0 -0.27726743585877728 0.20601649955787499 0 -0.29945367470058398 0.21997454816844031 0 -0.30187845513900841 0.20640966342643241 0 -0.27726743585877728 0.20601649955787499 0 -0.29945367470058398 0.21997454816844031 0 -0.2812999643011736 0.2256972098976768 0 -0.27726743585877728 0.20601649955787499 0 -0.31562747861168072 0.20548770258863849 0 -0.29945367470058398 0.21997454816844031 0 -0.30187845513900841 0.20640966342643241 0 -0.31562747861168072 0.20548770258863849 0 -0.29474174273226211 0.19438641379123059 0 -0.30167039336394819 0.18365831416882589 0 -0.31562747861168072 0.20548770258863849 0 -0.30187845513900841 0.20640966342643241 0 -0.29474174273226211 0.19438641379123059 0 -0.31562747861168072 0.20548770258863849 0 -0.31041188603412179 0.17618773946550689 0 -0.30167039336394819 0.18365831416882589 0 -0.29474174273226211 0.19438641379123059 0 -0.27726743585877728 0.20601649955787499 0 -0.27550411419829168 0.18340033594111449 0 -0.30187845513900841 0.20640966342643241 0 -0.29474174273226211 0.19438641379123059 0 -0.27726743585877728 0.20601649955787499 0 -0.25508119701697057 0.19205845094730969 0 -0.27726743585877728 0.20601649955787499 0 -0.25508119701697057 0.19205845094730969 0 -0.27726743585877728 0.20601649955787499 0 -0.27550411419829168 0.18340033594111449 0 -0.25508119701697057 0.19205845094730969 0 -0.27726743585877728 0.20601649955787499 0 -0.26076456779167362 0.22086102137108299 0 -0.25508119701697057 0.19205845094730969 0 -0.26076456779167362 0.22086102137108299 0 -0.2418524378781827 0.20624867095867719 0 -0.2812999643011736 0.2256972098976768 0 -0.27726743585877728 0.20601649955787499 0 -0.26076456779167362 0.22086102137108299 0 -0.2812999643011736 0.2256972098976768 0 -0.26076456779167362 0.22086102137108299 0 -0.27402586863852069 0.24422816852138379 0 -0.26076456779167362 0.22086102137108299 0 -0.2498521202164147 0.24664314714166921 0 -0.24291454888764341 0.22641203327300219 0 -0.26076456779167362 0.22086102137108299 0 -0.27402586863852069 0.24422816852138379 0 -0.2498521202164147 0.24664314714166921 0 -0.2828927339413489 0.13311423673239881 0 -0.30519629345656302 0.14688777634237529 0 -0.2932356360209088 0.15926414280488099 0 -0.2828927339413489 0.13311423673239881 0 -0.2932356360209088 0.15926414280488099 0 -0.2777934536419121 0.16160873987673979 0 -0.2828927339413489 0.13311423673239881 0 -0.30519629345656302 0.14688777634237529 0 -0.29998070087900408 0.11758781321924371 0 -0.32109016926520251 0.1322618198354257 0 -0.30519629345656302 0.14688777634237529 0 -0.29998070087900408 0.11758781321924371 0 -0.30519629345656302 0.14688777634237529 0 -0.29998070087900408 0.11758781321924371 0 -0.30519629345656302 0.14688777634237529 0 -0.30050614602657438 0.16843390665869851 0 -0.2932356360209088 0.15926414280488099 0 -0.30519629345656302 0.14688777634237529 0 -0.31041188603412179 0.17618773946550689 0 -0.30519629345656302 0.14688777634237529 0 -0.30050614602657438 0.16843390665869851 0 -0.31041188603412179 0.17618773946550689 0 -0.30050614602657438 0.16843390665869851 0 -0.30167039336394819 0.18365831416882589 0 -0.29201652125733008 0.1761715605119035 0 -0.30050614602657438 0.16843390665869851 0 -0.31041188603412179 0.17618773946550689 0 -0.30167039336394819 0.18365831416882589 0 -0.29474174273226211 0.19438641379123059 0 -0.30167039336394819 0.18365831416882589 0 -0.29201652125733008 0.1761715605119035 0 -0.29201652125733008 0.1761715605119035 0 -0.2777934536419121 0.16160873987673979 0 -0.27550411419829168 0.18340033594111449 0 -0.29474174273226211 0.19438641379123059 0 -0.29201652125733008 0.1761715605119035 0 -0.27550411419829168 0.18340033594111449 0 -0.30050614602657438 0.16843390665869851 0 -0.29201652125733008 0.1761715605119035 0 -0.2932356360209088 0.15926414280488099 0 -0.29201652125733008 0.1761715605119035 0 -0.2932356360209088 0.15926414280488099 0 -0.2777934536419121 0.16160873987673979 0 -0.2777934536419121 0.16160873987673979 0 -0.27550411419829168 0.18340033594111449 0 -0.25612433468249851 0.1701603509616286 0 -0.25508119701697057 0.19205845094730969 0 -0.27550411419829168 0.18340033594111449 0 -0.25612433468249851 0.1701603509616286 0 -0.2777934536419121 0.16160873987673979 0 -0.25612433468249851 0.1701603509616286 0 -0.26218428132652249 0.14345971158502821 0 -0.25612433468249851 0.1701603509616286 0 -0.26218428132652249 0.14345971158502821 0 -0.2427016249851594 0.15282697900020459 0 -0.26218428132652249 0.14345971158502821 0 -0.24674899311506121 0.12645216703654991 0 -0.2427016249851594 0.15282697900020459 0 -0.2828927339413489 0.13311423673239881 0 -0.2777934536419121 0.16160873987673979 0 -0.26218428132652249 0.14345971158502821 0 -0.2828927339413489 0.13311423673239881 0 -0.26218428132652249 0.14345971158502821 0 -0.26684454759315512 0.1165957959026474 0 -0.26218428132652249 0.14345971158502821 0 -0.26684454759315512 0.1165957959026474 0 -0.24674899311506121 0.12645216703654991 0 -0.2507963612449623 0.1000773550728951 0 -0.26684454759315512 0.1165957959026474 0 -0.24674899311506121 0.12645216703654991 0 -0.2507963612449623 0.1000773550728951 0 -0.2621046385035396 0.097513526946488224 0 -0.26684454759315512 0.1165957959026474 0 -0.2507963612449623 0.1000773550728951 0 -0.26684454759315512 0.1165957959026474 0 -0.2507963612449623 0.1000773550728951 0 -0.2524414654835232 0.089356977395346426 0 -0.25592957919815768 0.094976826138118572 0 -0.2507963612449623 0.1000773550728951 0 -0.2524414654835232 0.089356977395346426 0 -0.25592957919815768 0.094976826138118572 0 -0.2507963612449623 0.1000773550728951 0 -0.2621046385035396 0.097513526946488224 0 -0.25592957919815768 0.094976826138118572 0 -0.2621046385035396 0.097513526946488224 0 -0.26390762975146309 0.089240890693280145 0 -0.27517850724437531 0.095947448857309769 0 -0.26684454759315512 0.1165957959026474 0 -0.28361216020677882 0.1104267449893877 0 -0.2621046385035396 0.097513526946488224 0 -0.27517850724437531 0.095947448857309769 0 -0.26684454759315512 0.1165957959026474 0 -0.2621046385035396 0.097513526946488224 0 -0.27517850724437531 0.095947448857309769 0 -0.26390762975146309 0.089240890693280145 0 -0.2828927339413489 0.13311423673239881 0 -0.26684454759315512 0.1165957959026474 0 -0.2828927339413489 0.13311423673239881 0 -0.26684454759315512 0.1165957959026474 0 -0.28361216020677882 0.1104267449893877 0 -0.2828927339413489 0.13311423673239881 0 -0.28361216020677882 0.1104267449893877 0 -0.29998070087900408 0.11758781321924371 0 -0.28361216020677882 0.1104267449893877 0 -0.29357262255741601 0.095488539806864642 0 -0.29998070087900408 0.11758781321924371 0 -0.27517850724437531 0.095947448857309769 0 -0.28361216020677882 0.1104267449893877 0 -0.29357262255741601 0.095488539806864642 0 -0.29357262255741601 0.095488539806864642 0 -0.29998070087900408 0.11758781321924371 0 -0.31322308255254933 0.093707889738003453 0 -0.29283800684592942 0.075771247080820864 0 -0.31322308255254933 0.093707889738003453 0 -0.29357262255741601 0.095488539806864642 0 -0.29283800684592942 0.075771247080820864 0 -0.31322308255254933 0.093707889738003453 0 -0.30616746072214968 0.066098375726851774 0 -0.29283800684592942 0.075771247080820864 0 -0.31322308255254933 0.093707889738003453 0 -0.27517850724437531 0.095947448857309769 0 -0.29357262255741601 0.095488539806864642 0 -0.28293590101933402 0.084866052184098414 0 -0.29357262255741601 0.095488539806864642 0 -0.28293590101933402 0.084866052184098414 0 -0.29283800684592942 0.075771247080820864 0 -0.28293590101933402 0.084866052184098414 0 -0.29283800684592942 0.075771247080820864 0 -0.27990909213896448 0.074153889021256303 0 -0.30616746072214968 0.066098375726851774 0 -0.29283800684592942 0.075771247080820864 0 -0.28988410386293362 0.066814353345032121 0 -0.30616746072214968 0.066098375726851774 0 -0.28988410386293362 0.066814353345032121 0 -0.29198992201938467 0.057717673059394382 0 -0.29283800684592942 0.075771247080820864 0 -0.28988410386293362 0.066814353345032121 0 -0.27990909213896448 0.074153889021256303 0 -0.28988410386293362 0.066814353345032121 0 -0.27990909213896448 0.074153889021256303 0 -0.27851603758823978 0.060330581836837281 0 -0.26547875153588169 0.074843779616092065 0 -0.26079546638720358 0.061795843062908751 0 -0.27851603758823978 0.060330581836837281 0 -0.27990909213896448 0.074153889021256303 0 -0.26547875153588169 0.074843779616092065 0 -0.27851603758823978 0.060330581836837281 0 -0.27990909213896448 0.074153889021256303 0 -0.27318127630998479 0.082969136154240453 0 -0.26547875153588169 0.074843779616092065 0 -0.26547875153588169 0.074843779616092065 0 -0.27851603758823978 0.060330581836837281 0 -0.27517850724437531 0.095947448857309769 0 -0.28293590101933402 0.084866052184098414 0 -0.27318127630998479 0.082969136154240453 0 -0.28293590101933402 0.084866052184098414 0 -0.27990909213896448 0.074153889021256303 0 -0.27318127630998479 0.082969136154240453 0 -0.27318127630998479 0.082969136154240453 0 -0.26390762975146309 0.089240890693280145 0 -0.26547875153588169 0.074843779616092065 0 -0.27517850724437531 0.095947448857309769 0 -0.27318127630998479 0.082969136154240453 0 -0.26390762975146309 0.089240890693280145 0 -0.2524414654835232 0.089356977395346426 0 -0.26547875153588169 0.074843779616092065 0 -0.26390762975146309 0.089240890693280145 0 -0.2524414654835232 0.089356977395346426 0 -0.26547875153588169 0.074843779616092065 0 -0.2524414654835232 0.089356977395346426 0 -0.25463713592647902 0.075048816336487523 0 -0.2453540382212071 0.082717383994226748 0 -0.2524414654835232 0.089356977395346426 0 -0.25463713592647902 0.075048816336487523 0 -0.2524414654835232 0.089356977395346426 0 -0.26547875153588169 0.074843779616092065 0 -0.25463713592647902 0.075048816336487523 0 -0.25592957919815768 0.094976826138118572 0 -0.26390762975146309 0.089240890693280145 0 -0.2524414654835232 0.089356977395346426 0 -0.26547875153588169 0.074843779616092065 0 -0.25463713592647902 0.075048816336487523 0 -0.26079546638720358 0.061795843062908751 0 -0.25463713592647902 0.075048816336487523 0 -0.26079546638720358 0.061795843062908751 0 -0.24568172363412241 0.062469702665654013 0 -0.26079546638720358 0.061795843062908751 0 -0.25175468998927231 0.045554675848431037 0 -0.24568172363412241 0.062469702665654013 0 -0.26079546638720358 0.061795843062908751 0 -0.25175468998927231 0.045554675848431037 0 -0.2694383596252658 0.051729665955151632 0 -0.25175468998927231 0.045554675848431037 0 -0.27466516181304168 0.040369184887294039 0 -0.24794929732059029 0.030806793726077451 0 -0.25175468998927231 0.045554675848431037 0 -0.27466516181304168 0.040369184887294039 0 -0.2694383596252658 0.051729665955151632 0 -0.25175468998927231 0.045554675848431037 0 -0.27466516181304168 0.040369184887294039 0 -0.27466516181304168 0.040369184887294039 0 -0.2694383596252658 0.051729665955151632 0 -0.28331911530280052 0.049051844061464678 0 -0.26079546638720358 0.061795843062908751 0 -0.27851603758823978 0.060330581836837281 0 -0.2694383596252658 0.051729665955151632 0 -0.27851603758823978 0.060330581836837281 0 -0.2694383596252658 0.051729665955151632 0 -0.28331911530280052 0.049051844061464678 0 -0.25440382098127251 0.00065316407925673781 0 -0.26169731721211992 0.01730014321422807 0 -0.2431292390292662 0.015141556947905199 0 -0.27240378417376582 -0.003003043958320204 0 -0.25440382098127251 0.00065316407925673781 0 -0.26169731721211992 0.01730014321422807 0 -0.26169731721211992 0.01730014321422807 0 -0.24794929732059029 0.030806793726077451 0 -0.2431292390292662 0.015141556947905199 0 -0.27466516181304168 0.040369184887294039 0 -0.26169731721211992 0.01730014321422807 0 -0.24794929732059029 0.030806793726077451 0 -0.27466516181304168 0.040369184887294039 0 -0.26169731721211992 0.01730014321422807 0 -0.28238276459156358 0.01811018563746725 0 -0.27240378417376582 -0.003003043958320204 0 -0.26169731721211992 0.01730014321422807 0 -0.28238276459156358 0.01811018563746725 0 -0.29276646731868922 -0.0013987410529109081 0 -0.28238276459156358 0.01811018563746725 0 -0.30247332407039951 0.015425342333627971 0 -0.27240378417376582 -0.003003043958320204 0 -0.29276646731868922 -0.0013987410529109081 0 -0.28238276459156358 0.01811018563746725 0 -0.28238276459156358 0.01811018563746725 0 -0.30247332407039951 0.015425342333627971 0 -0.29757563363681089 0.035183693926155703 0 -0.27466516181304168 0.040369184887294039 0 -0.28238276459156358 0.01811018563746725 0 -0.29757563363681089 0.035183693926155703 0 -0.30247332407039951 0.015425342333627971 0 -0.29757563363681089 0.035183693926155703 0 -0.30247332407039951 0.015425342333627971 0 -0.31495711888873212 0.008631866307555195 0 -0.31747067142591862 0.030680707718781671 0 -0.30247332407039951 0.015425342333627971 0 -0.29757563363681089 0.035183693926155703 0 -0.31747067142591862 0.030680707718781671 0 -0.29276646731868922 -0.0013987410529109081 0 -0.30737101450398863 -0.0043330092588996019 0 -0.30247332407039951 0.015425342333627971 0 -0.30737101450398863 -0.0043330092588996019 0 -0.30247332407039951 0.015425342333627971 0 -0.31495711888873212 0.008631866307555195 0 -0.30737101450398863 -0.0043330092588996019 0 -0.30247332407039951 0.015425342333627971 0 -0.29198992201938467 0.057717673059394382 0 -0.28331911530280052 0.049051844061464678 0 -0.29757563363681089 0.035183693926155703 0 -0.27851603758823978 0.060330581836837281 0 -0.29198992201938467 0.057717673059394382 0 -0.28331911530280052 0.049051844061464678 0 -0.28988410386293362 0.066814353345032121 0 -0.27851603758823978 0.060330581836837281 0 -0.29198992201938467 0.057717673059394382 0 -0.27466516181304168 0.040369184887294039 0 -0.29757563363681089 0.035183693926155703 0 -0.27466516181304168 0.040369184887294039 0 -0.28331911530280052 0.049051844061464678 0 -0.29757563363681089 0.035183693926155703 0 -0.29198992201938467 0.057717673059394382 0 -0.29757563363681089 0.035183693926155703 0 -0.29757563363681089 0.035183693926155703 0 -0.30803228644408809 0.049734965144228149 0 -0.31747067142591862 0.030680707718781671 0 -0.29757563363681089 0.035183693926155703 0 -0.31747067142591862 0.030680707718781671 0 -0.29198992201938467 0.057717673059394382 0 -0.29757563363681089 0.035183693926155703 0 -0.30803228644408809 0.049734965144228149 0 -0.30616746072214968 0.066098375726851774 0 -0.29198992201938467 0.057717673059394382 0 -0.30803228644408809 0.049734965144228149 0 -0.30803228644408809 0.049734965144228149 0 -0.32434027696326823 0.060327880703971187 0 -0.32454759217111462 0.043539839132314177 0 -0.30616746072214968 0.066098375726851774 0 -0.30803228644408809 0.049734965144228149 0 -0.32434027696326823 0.060327880703971187 0 -0.32454759217111462 0.043539839132314177 0 -0.31747067142591862 0.030680707718781671 0 -0.33736570921502568 0.026177721511406359 0 -0.30803228644408809 0.049734965144228149 0 -0.32454759217111462 0.043539839132314177 0 -0.31747067142591862 0.030680707718781671 0 -0.32454759217111462 0.043539839132314177 0 -0.33893873523848861 0.047444670435209002 0 -0.33736570921502568 0.026177721511406359 0 -0.32434027696326823 0.060327880703971187 0 -0.32454759217111462 0.043539839132314177 0 -0.33893873523848861 0.047444670435209002 0 -0.32434027696326823 0.060327880703971187 0 -0.33893873523848861 0.047444670435209002 0 -0.35094646921277911 0.07054550196555634 0 -0.3200740018433208 -0.0046276192937831457 0 -0.31495711888873212 0.008631866307555195 0 -0.3286331089770298 0.0047635663336856454 0 -0.31495711888873212 0.008631866307555195 0 -0.32736655611809018 0.01683932085812188 0 -0.3286331089770298 0.0047635663336856454 0 -0.31747067142591862 0.030680707718781671 0 -0.33736570921502568 0.026177721511406359 0 -0.31747067142591862 0.030680707718781671 0 -0.32736655611809018 0.01683932085812188 0 -0.33736570921502568 0.026177721511406359 0 -0.31495711888873212 0.008631866307555195 0 -0.31747067142591862 0.030680707718781671 0 -0.32736655611809018 0.01683932085812188 0 -0.32736655611809018 0.01683932085812188 0 -0.33736570921502568 0.026177721511406359 0 -0.34279599242091202 0.01035116478988357 0 -0.3378008196820424 -0.010337744317943751 0 -0.34279599242091202 0.01035116478988357 0 -0.3286331089770298 0.0047635663336856454 0 -0.32736655611809018 0.01683932085812188 0 -0.34279599242091202 0.01035116478988357 0 -0.3286331089770298 0.0047635663336856454 0 -0.35426589522833479 -0.0039347926374523889 0 -0.35726074700413302 0.02167473530403136 0 -0.35426589522833479 -0.0039347926374523889 0 -0.34279599242091202 0.01035116478988357 0 -0.35726074700413302 0.02167473530403136 0 -0.33736570921502568 0.026177721511406359 0 -0.34279599242091202 0.01035116478988357 0 -0.35726074700413302 0.02167473530403136 0 -0.33736570921502568 0.026177721511406359 0 -0.35726074700413302 0.02167473530403136 0 -0.37938183371844991 0.01666791152100406 0 -0.35726074700413302 0.02167473530403136 0 -0.37126912298922737 0.03148656111276902 0 -0.37938183371844991 0.01666791152100406 0 -0.35726074700413302 0.02167473530403136 0 -0.35426589522833479 -0.0039347926374523889 0 -0.35726074700413302 0.02167473530403136 0 -0.36671908423792321 0.0078954618654100157 0 -0.37938183371844991 0.01666791152100406 0 -0.35726074700413302 0.02167473530403136 0 -0.36671908423792321 0.0078954618654100157 0 -0.35426589522833479 -0.0039347926374523889 0 -0.37978125087613779 -0.0020942699323121378 0 -0.36671908423792321 0.0078954618654100157 0 -0.33893873523848861 0.047444670435209002 0 -0.36026358073383941 0.04735251840028866 0 -0.35094646921277911 0.07054550196555634 0 -0.35726074700413302 0.02167473530403136 0 -0.36026358073383941 0.04735251840028866 0 -0.33893873523848861 0.047444670435209002 0 -0.33736570921502568 0.026177721511406359 0 -0.36026358073383941 0.04735251840028866 0 -0.33736570921502568 0.026177721511406359 0 -0.35726074700413302 0.02167473530403136 0 -0.36026358073383941 0.04735251840028866 0 -0.35726074700413302 0.02167473530403136 0 -0.37126912298922737 0.03148656111276902 0 -0.36026358073383941 0.04735251840028866 0 -0.3881703305004876 0.040251079225752003 0 -0.37126912298922737 0.03148656111276902 0 -0.36026358073383941 0.04735251840028866 0 -0.3789879531699249 0.064917142921442239 0 -0.36026358073383941 0.04735251840028866 0 -0.35094646921277911 0.07054550196555634 0 -0.3789879531699249 0.064917142921442239 0 -0.35094646921277911 0.07054550196555634 0 -0.36956174000020592 0.082627895495934967 0 -0.3789879531699249 0.064917142921442239 0 -0.35094646921277911 0.07054550196555634 0 -0.35094646921277911 0.07054550196555634 0 -0.35140821517528981 0.092621689864143181 0 -0.36956174000020592 0.082627895495934967 0 -0.35094646921277911 0.07054550196555634 0 -0.35140821517528981 0.092621689864143181 0 -0.33010546709491168 0.081888035645658566 0 -0.35140821517528981 0.092621689864143181 0 -0.36956174000020592 0.082627895495934967 0 -0.37418481420438637 0.10031217511242969 0 -0.35140821517528981 0.092621689864143181 0 -0.37418481420438637 0.10031217511242969 0 -0.35670769404848351 0.11293319569096789 0 -0.37418481420438637 0.10031217511242969 0 -0.36714153984458148 0.117795235630762 0 -0.35670769404848351 0.11293319569096789 0 -0.3764080014033851 0.11982670789268041 0 -0.37418481420438637 0.10031217511242969 0 -0.36714153984458148 0.117795235630762 0 -0.3764080014033851 0.11982670789268041 0 -0.36980941732460793 0.1264429815483126 0 -0.36714153984458148 0.117795235630762 0 -0.36714153984458148 0.117795235630762 0 -0.36205342399503448 0.1243971346714505 0 -0.35670769404848351 0.11293319569096789 0 -0.36980941732460793 0.1264429815483126 0 -0.36714153984458148 0.117795235630762 0 -0.36205342399503448 0.1243971346714505 0 -0.35399323396578908 0.1295811750523686 0 -0.33360815825916912 0.111644532395186 0 -0.35399323396578908 0.1295811750523686 0 -0.35670769404848351 0.11293319569096789 0 -0.33360815825916912 0.111644532395186 0 -0.35399323396578908 0.1295811750523686 0 -0.36205342399503448 0.1243971346714505 0 -0.35670769404848351 0.11293319569096789 0 -0.35140821517528981 0.092621689864143181 0 -0.35670769404848351 0.11293319569096789 0 -0.33360815825916912 0.111644532395186 0 -0.32109016926520251 0.1322618198354257 0 -0.29998070087900408 0.11758781321924371 0 -0.33360815825916912 0.111644532395186 0 -0.29998070087900408 0.11758781321924371 0 -0.33360815825916912 0.111644532395186 0 -0.31322308255254933 0.093707889738003453 0 -0.35140821517528981 0.092621689864143181 0 -0.33360815825916912 0.111644532395186 0 -0.33010546709491168 0.081888035645658566 0 -0.33360815825916912 0.111644532395186 0 -0.31322308255254933 0.093707889738003453 0 -0.33360815825916912 0.111644532395186 0 -0.31322308255254933 0.093707889738003453 0 -0.33010546709491168 0.081888035645658566 0 -0.30616746072214968 0.066098375726851774 0 -0.31322308255254933 0.093707889738003453 0 -0.33010546709491168 0.081888035645658566 0 -0.30616746072214968 0.066098375726851774 0 -0.32434027696326823 0.060327880703971187 0 -0.33010546709491168 0.081888035645658566 0 -0.32434027696326823 0.060327880703971187 0 -0.35094646921277911 0.07054550196555634 0 -0.33010546709491168 0.081888035645658566 0 -0.39227706888138708 0.48077530252521788 0 -0.41035481552643671 0.4721982253420256 0 -0.41502356562598919 0.499999999999999 0 -0.39227706888138708 0.48077530252521788 0 -0.39107052145973109 0.46395433171519113 0 -0.41035481552643671 0.4721982253420256 0 -0.39227706888138708 0.48077530252521788 0 -0.38787688520105151 0.5 0 -0.41502356562598919 0.499999999999999 0 -0.39227706888138708 0.48077530252521788 0 -0.38787688520105151 0.5 0 -0.36807790769688781 0.48336625549826751 0 -0.39227706888138708 0.48077530252521788 0 -0.37462302209290838 0.46732637768348528 0 -0.36807790769688781 0.48336625549826751 0 -0.39227706888138708 0.48077530252521788 0 -0.39107052145973109 0.46395433171519113 0 -0.37462302209290838 0.46732637768348528 0 -0.38438363364687439 0.45430120485422981 0 -0.37462302209290838 0.46732637768348528 0 -0.36794188151749818 0.45356385133716282 0 -0.38438363364687439 0.45430120485422981 0 -0.39107052145973109 0.46395433171519113 0 -0.37462302209290838 0.46732637768348528 0 -0.38438363364687439 0.45430120485422981 0 -0.39487010069572792 0.45017935328304198 0 -0.39107052145973109 0.46395433171519113 0 -0.3804235055036993 0.4401558411045346 0 -0.39189664367992311 0.43913038250348091 0 -0.36794188151749818 0.45356385133716282 0 -0.39189664367992311 0.43913038250348091 0 -0.36794188151749818 0.45356385133716282 0 -0.38438363364687439 0.45430120485422981 0 -0.39189664367992311 0.43913038250348091 0 -0.36794188151749818 0.45356385133716282 0 -0.38438363364687439 0.45430120485422981 0 -0.39189664367992311 0.43913038250348091 0 -0.39487010069572792 0.45017935328304198 0 -0.3804235055036993 0.4401558411045346 0 -0.39189664367992311 0.43913038250348091 0 -0.3860200209034596 0.43538596426685772 0 -0.3804235055036993 0.4401558411045346 0 -0.39189664367992311 0.43913038250348091 0 -0.39583698599636391 0.438778198309629 0 -0.41208331923994213 0.4373261158972751 0 -0.39583698599636391 0.438778198309629 0 -0.40568606542688418 0.44439645068405209 0 -0.41572933960897263 0.44831785207929259 0 -0.39583698599636391 0.438778198309629 0 -0.41572933960897263 0.44831785207929259 0 -0.39583698599636391 0.438778198309629 0 -0.39189664367992311 0.43913038250348091 0 -0.39487010069572792 0.45017935328304198 0 -0.39583698599636391 0.438778198309629 0 -0.39396839504937708 0.43788208963296987 0 -0.39583698599636391 0.438778198309629 0 -0.39189664367992311 0.43913038250348091 0 -0.39396839504937708 0.43788208963296987 0 -0.39189664367992311 0.43913038250348091 0 -0.39583698599636391 0.438778198309629 0 -0.39396839504937708 0.43788208963296987 0 -0.39189664367992311 0.43913038250348091 0 -0.39396839504937708 0.43788208963296987 0 -0.39189664367992311 0.43913038250348091 0 -0.39123527357416582 0.43657138336403117 0 -0.39583698599636391 0.438778198309629 0 -0.39487010069572792 0.45017935328304198 0 -0.40568606542688418 0.44439645068405209 0 -0.39487010069572792 0.45017935328304198 0 -0.40568606542688418 0.44439645068405209 0 -0.41035481552643671 0.4721982253420256 0 -0.39487010069572792 0.45017935328304198 0 -0.39107052145973109 0.46395433171519113 0 -0.41035481552643671 0.4721982253420256 0 -0.40568606542688418 0.44439645068405209 0 -0.41035481552643671 0.4721982253420256 0 -0.41572933960897263 0.44831785207929259 0 -0.42445670137282199 0.46776797163618622 0 -0.41035481552643671 0.4721982253420256 0 -0.40568606542688418 0.44439645068405209 0 -0.41572933960897263 0.44831785207929259 0 -0.41035481552643671 0.4721982253420256 0 -0.42052848025208089 0.44109905576629937 0 -0.4283296524835199 0.4358740334849176 0 -0.41208331923994213 0.4373261158972751 0 -0.39583698599636391 0.438778198309629 0 -0.41572933960897263 0.44831785207929259 0 -0.41208331923994213 0.4373261158972751 0 -0.41572933960897263 0.44831785207929259 0 -0.42052848025208089 0.44109905576629937 0 -0.41208331923994213 0.4373261158972751 0 -0.41572933960897263 0.44831785207929259 0 -0.42052848025208089 0.44109905576629937 0 -0.42754966760724372 0.4431126529547233 0 -0.41572933960897263 0.44831785207929259 0 -0.42754966760724372 0.4431126529547233 0 -0.43366783066046988 0.44856701060648579 0 -0.41572933960897263 0.44831785207929259 0 -0.43562169322157979 0.45785750584895929 0 -0.41572933960897263 0.44831785207929259 0 -0.43366783066046988 0.44856701060648579 0 -0.43562169322157979 0.45785750584895929 0 -0.42754966760724372 0.4431126529547233 0 -0.4283296524835199 0.4358740334849176 0 -0.42052848025208089 0.44109905576629937 0 -0.42754966760724372 0.4431126529547233 0 -0.4283296524835199 0.4358740334849176 0 -0.43366783066046988 0.44856701060648579 0 -0.43562169322157979 0.45785750584895929 0 -0.44289181012718931 0.45194615970109531 0 -0.42754966760724372 0.4431126529547233 0 -0.43644870854774859 0.44099763061608149 0 -0.4283296524835199 0.4358740334849176 0 -0.42754966760724372 0.4431126529547233 0 -0.43366783066046988 0.44856701060648579 0 -0.43644870854774859 0.44099763061608149 0 -0.42445670137282199 0.46776797163618622 0 -0.43562169322157979 0.45785750584895929 0 -0.43855190880722028 0.47593504996891139 0 -0.41572933960897263 0.44831785207929259 0 -0.42445670137282199 0.46776797163618622 0 -0.43562169322157979 0.45785750584895929 0 -0.42445670137282199 0.46776797163618622 0 -0.42438861127750488 0.4835662424043724 0 -0.43855190880722028 0.47593504996891139 0 -0.42445670137282199 0.46776797163618622 0 -0.42438861127750488 0.4835662424043724 0 -0.41035481552643671 0.4721982253420256 0 -0.42438861127750488 0.4835662424043724 0 -0.41035481552643671 0.4721982253420256 0 -0.41502356562598919 0.499999999999999 0 -0.41035481552643671 0.4721982253420256 0 -0.41502356562598919 0.499999999999999 0 -0.42438861127750488 0.4835662424043724 0 -0.43828178821026548 0.5 0 -0.43855190880722028 0.47593504996891139 0 -0.42438861127750488 0.4835662424043724 0 -0.41502356562598919 0.499999999999999 0 -0.43828178821026548 0.5 0 -0.43828178821026548 0.5 0 -0.45852702881436508 0.48369857980931202 0 -0.46154001079454199 0.49999999999999878 0 -0.43828178821026548 0.5 0 -0.43855190880722028 0.47593504996891139 0 -0.45852702881436508 0.48369857980931202 0 -0.43855190880722028 0.47593504996891139 0 -0.45852702881436508 0.48369857980931202 0 -0.45551404683418739 0.46739715961862532 0 -0.46081794960953609 0.46994071967643319 0 -0.45852702881436508 0.48369857980931202 0 -0.45551404683418739 0.46739715961862532 0 -0.45852702881436508 0.48369857980931202 0 -0.45551404683418739 0.46739715961862532 0 -0.46081794960953609 0.46994071967643319 0 -0.45852702881436508 0.48369857980931202 0 -0.47409719741699591 0.47922161223355358 0 -0.46081794960953609 0.46994071967643319 0 -0.47409719741699591 0.47922161223355358 0 -0.46892304684740899 0.46591629586352129 0 -0.45852702881436508 0.48369857980931202 0 -0.46154001079454199 0.49999999999999878 0 -0.47409719741699591 0.47922161223355358 0 -0.45852702881436508 0.48369857980931202 0 -0.46154001079454199 0.49999999999999878 0 -0.46154001079454199 0.49999999999999878 0 -0.5 0.5 0 -0.47409719741699591 0.47922161223355358 0 -0.5 0.5 0 -0.47409719741699591 0.47922161223355358 0 -0.5 0.45957372943656488 0 -0.47409719741699591 0.47922161223355358 0 -0.47761761397886848 0.46340769253540032 0 -0.46892304684740899 0.46591629586352129 0 -0.5 0.45957372943656488 0 -0.48315970477012438 0.4466108790052169 0 -0.50000000000000711 0.42946820334738001 0 -0.5 0.45957372943656488 0 -0.47761761397886848 0.46340769253540032 0 -0.48315970477012438 0.4466108790052169 0 -0.47409719741699591 0.47922161223355358 0 -0.5 0.45957372943656488 0 -0.47761761397886848 0.46340769253540032 0 -0.47761761397886848 0.46340769253540032 0 -0.46892304684740899 0.46591629586352129 0 -0.46454022823351998 0.45870206482011122 0 -0.47761761397886848 0.46340769253540032 0 -0.46351063574092383 0.44887261861847461 0 -0.47761761397886848 0.46340769253540032 0 -0.48315970477012438 0.4466108790052169 0 -0.46351063574092383 0.44887261861847461 0 -0.48315970477012438 0.4466108790052169 0 -0.46351063574092383 0.44887261861847461 0 -0.47467027413083013 0.4317321510882649 0 -0.46351063574092383 0.44887261861847461 0 -0.44909368284378559 0.43401816343450672 0 -0.47467027413083013 0.4317321510882649 0 -0.46351063574092383 0.44887261861847461 0 -0.45245885216858289 0.45086735216008728 0 -0.44909368284378559 0.43401816343450672 0 -0.46351063574092383 0.44887261861847461 0 -0.46454022823351998 0.45870206482011122 0 -0.45245885216858289 0.45086735216008728 0 -0.46351063574092383 0.44887261861847461 0 -0.44909368284378559 0.43401816343450672 0 -0.45551404683418739 0.46739715961862532 0 -0.45245885216858289 0.45086735216008728 0 -0.46045082473864718 0.46256471842775571 0 -0.45551404683418739 0.46739715961862532 0 -0.45245885216858289 0.45086735216008728 0 -0.46081794960953609 0.46994071967643319 0 -0.46892304684740899 0.46591629586352129 0 -0.46045082473864718 0.46256471842775571 0 -0.46892304684740899 0.46591629586352129 0 -0.46454022823351998 0.45870206482011122 0 -0.46045082473864718 0.46256471842775571 0 -0.47761761397886848 0.46340769253540032 0 -0.46351063574092383 0.44887261861847461 0 -0.46454022823351998 0.45870206482011122 0 -0.46454022823351998 0.45870206482011122 0 -0.46045082473864718 0.46256471842775571 0 -0.45245885216858289 0.45086735216008728 0 -0.46081794960953609 0.46994071967643319 0 -0.46045082473864718 0.46256471842775571 0 -0.45551404683418739 0.46739715961862532 0 -0.46081794960953609 0.46994071967643319 0 -0.45551404683418739 0.46739715961862532 0 -0.43562169322157979 0.45785750584895929 0 -0.45551404683418739 0.46739715961862532 0 -0.43562169322157979 0.45785750584895929 0 -0.43855190880722028 0.47593504996891139 0 -0.45551404683418739 0.46739715961862532 0 -0.45551404683418739 0.46739715961862532 0 -0.45245885216858289 0.45086735216008728 0 -0.44289181012718931 0.45194615970109531 0 -0.43562169322157979 0.45785750584895929 0 -0.45551404683418739 0.46739715961862532 0 -0.44289181012718931 0.45194615970109531 0 -0.45245885216858289 0.45086735216008728 0 -0.44360270914372429 0.44341629259977339 0 -0.44909368284378559 0.43401816343450672 0 -0.45245885216858289 0.45086735216008728 0 -0.44909368284378559 0.43401816343450672 0 -0.45245885216858289 0.45086735216008728 0 -0.44289181012718931 0.45194615970109531 0 -0.44360270914372429 0.44341629259977339 0 -0.43366783066046988 0.44856701060648579 0 -0.44289181012718931 0.45194615970109531 0 -0.44360270914372429 0.44341629259977339 0 -0.43366783066046988 0.44856701060648579 0 -0.43644870854774859 0.44099763061608149 0 -0.44360270914372429 0.44341629259977339 0 -0.43644870854774859 0.44099763061608149 0 -0.44360270914372429 0.44341629259977339 0 -0.44909368284378559 0.43401816343450672 0 -0.44909368284378559 0.43401816343450672 0 -0.43058456928533417 0.41494736533933452 0 -0.44909368284378559 0.43401816343450672 0 -0.4283296524835199 0.4358740334849176 0 -0.44909368284378559 0.43401816343450672 0 -0.44611910563867718 0.41656682438847192 0 -0.46283452916362788 0.42012489001245212 0 -0.44909368284378559 0.43401816343450672 0 -0.44611910563867718 0.41656682438847192 0 -0.43644870854774859 0.44099763061608149 0 -0.44909368284378559 0.43401816343450672 0 -0.4283296524835199 0.4358740334849176 0 -0.44611910563867718 0.41656682438847192 0 -0.4428976630157016 0.39913754994779738 0 -0.44611910563867718 0.41656682438847192 0 -0.43869326081361348 0.40609766221372873 0 -0.4428976630157016 0.39913754994779738 0 -0.44909368284378559 0.43401816343450672 0 -0.44611910563867718 0.41656682438847192 0 -0.43058456928533417 0.41494736533933452 0 -0.44611910563867718 0.41656682438847192 0 -0.43869326081361348 0.40609766221372873 0 -0.43058456928533417 0.41494736533933452 0 -0.44611910563867718 0.41656682438847192 0 -0.46419139621484651 0.40504918254141881 0 -0.45333744222054823 0.40009710814713562 0 -0.44611910563867718 0.41656682438847192 0 -0.46283452916362788 0.42012489001245212 0 -0.46419139621484651 0.40504918254141881 0 -0.44909368284378559 0.43401816343450672 0 -0.47467027413083013 0.4317321510882649 0 -0.44909368284378559 0.43401816343450672 0 -0.46283452916362788 0.42012489001245212 0 -0.47467027413083013 0.4317321510882649 0 -0.46283452916362788 0.42012489001245212 0 -0.47467027413083013 0.4317321510882649 0 -0.47985132157213278 0.41328019321495529 0 -0.46283452916362788 0.42012489001245212 0 -0.47985132157213278 0.41328019321495529 0 -0.46419139621484651 0.40504918254141881 0 -0.47985132157213278 0.41328019321495529 0 -0.5 0.40742231964276521 0 -0.50000000000000711 0.42946820334738001 0 -0.47467027413083013 0.4317321510882649 0 -0.50000000000000711 0.42946820334738001 0 -0.48315970477012438 0.4466108790052169 0 -0.47467027413083013 0.4317321510882649 0 -0.50000000000000711 0.42946820334738001 0 -0.47467027413083013 0.4317321510882649 0 -0.47985132157213278 0.41328019321495529 0 -0.50000000000000711 0.42946820334738001 0 -0.5 0.38537643593815019 0 -0.4812206557778364 0.39416363165748608 0 -0.48175657835970898 0.37335443362329679 0 -0.47985132157213278 0.41328019321495529 0 -0.5 0.40742231964276521 0 -0.4812206557778364 0.39416363165748608 0 -0.5 0.40742231964276521 0 -0.5 0.38537643593815019 0 -0.4812206557778364 0.39416363165748608 0 -0.4812206557778364 0.39416363165748608 0 -0.46351315671941962 0.38337831501305891 0 -0.46419139621484651 0.40504918254141881 0 -0.47985132157213278 0.41328019321495529 0 -0.4812206557778364 0.39416363165748608 0 -0.46419139621484651 0.40504918254141881 0 -0.46351315671941962 0.38337831501305891 0 -0.48175657835970898 0.37335443362329679 0 -0.4812206557778364 0.39416363165748608 0 -0.46351315671941962 0.38337831501305891 0 -0.48175657835970898 0.37335443362329679 0 -0.46351315671941962 0.38337831501305891 0 -0.4452697350791302 0.39340219640282098 0 -0.46351315671941962 0.38337831501305891 0 -0.44850160054439309 0.383966682313301 0 -0.45159147587071952 0.37318423334928219 0 -0.46351315671941962 0.38337831501305891 0 -0.45333744222054823 0.40009710814713562 0 -0.4452697350791302 0.39340219640282098 0 -0.46351315671941962 0.38337831501305891 0 -0.46419139621484651 0.40504918254141881 0 -0.45333744222054823 0.40009710814713562 0 -0.44611910563867718 0.41656682438847192 0 -0.45333744222054823 0.40009710814713562 0 -0.4428976630157016 0.39913754994779738 0 -0.45333744222054823 0.40009710814713562 0 -0.4452697350791302 0.39340219640282098 0 -0.4428976630157016 0.39913754994779738 0 -0.43948455477369602 0.39478494396430169 0 -0.44139172569786178 0.38926042176642389 0 -0.43301325209637431 0.39240806846743193 0 -0.4452697350791302 0.39340219640282098 0 -0.43948455477369602 0.39478494396430169 0 -0.44139172569786178 0.38926042176642389 0 -0.4452697350791302 0.39340219640282098 0 -0.43948455477369602 0.39478494396430169 0 -0.4428976630157016 0.39913754994779738 0 -0.43948455477369602 0.39478494396430169 0 -0.43869326081361348 0.40609766221372873 0 -0.4428976630157016 0.39913754994779738 0 -0.46351315671941962 0.38337831501305891 0 -0.4452697350791302 0.39340219640282098 0 -0.44850160054439309 0.383966682313301 0 -0.44850160054439309 0.383966682313301 0 -0.44068948599571528 0.38174021768426442 0 -0.45159147587071952 0.37318423334928219 0 -0.44850160054439309 0.383966682313301 0 -0.44139172569786178 0.38926042176642389 0 -0.44068948599571528 0.38174021768426442 0 -0.44139172569786178 0.38926042176642389 0 -0.44068948599571528 0.38174021768426442 0 -0.43301325209637431 0.39240806846743193 0 -0.4452697350791302 0.39340219640282098 0 -0.44850160054439309 0.383966682313301 0 -0.44139172569786178 0.38926042176642389 0 -0.44068948599571528 0.38174021768426442 0 -0.43301325209637431 0.39240806846743193 0 -0.43544193490741723 0.3698687715955295 0 -0.42131029772405898 0.38034997183051078 0 -0.43301325209637431 0.39240806846743193 0 -0.43544193490741723 0.3698687715955295 0 -0.43301325209637431 0.39240806846743193 0 -0.43544193490741723 0.3698687715955295 0 -0.42131029772405898 0.38034997183051078 0 -0.43544193490741723 0.3698687715955295 0 -0.42131029772405898 0.38034997183051078 0 -0.41757607939677421 0.38022956704979272 0 -0.42586242526106183 0.36795024234797769 0 -0.42131029772405898 0.38034997183051078 0 -0.41757607939677421 0.38022956704979272 0 -0.40717866054070029 0.39083117206549128 0 -0.42131029772405898 0.38034997183051078 0 -0.40717866054070029 0.39083117206549128 0 -0.41757607939677421 0.38022956704979272 0 -0.41027362905413112 0.37998154063598899 0 -0.40717866054070029 0.39083117206549128 0 -0.41027362905413112 0.37998154063598899 0 -0.40717866054070029 0.39083117206549128 0 -0.40426514155647242 0.37757438208842647 0 -0.41027362905413112 0.37998154063598899 0 -0.40426514155647242 0.37757438208842647 0 -0.41109613290372737 0.37273425749363098 0 -0.41757607939677421 0.38022956704979272 0 -0.41027362905413112 0.37998154063598899 0 -0.41109613290372737 0.37273425749363098 0 -0.42131029772405898 0.38034997183051078 0 -0.40717866054070029 0.39083117206549128 0 -0.41888161491301601 0.40288926870241409 0 -0.40717866054070029 0.39083117206549128 0 -0.41888161491301601 0.40288926870241409 0 -0.40375811410309748 0.4101726824747024 0 -0.40717866054070029 0.39083117206549128 0 -0.41888161491301601 0.40288926870241409 0 -0.43869326081361348 0.40609766221372873 0 -0.43301325209637431 0.39240806846743193 0 -0.43058456928533417 0.41494736533933452 0 -0.41888161491301601 0.40288926870241409 0 -0.43301325209637431 0.39240806846743193 0 -0.43058456928533417 0.41494736533933452 0 -0.43301325209637431 0.39240806846743193 0 -0.43058456928533417 0.41494736533933452 0 -0.42131029772405898 0.38034997183051078 0 -0.41888161491301601 0.40288926870241409 0 -0.43301325209637431 0.39240806846743193 0 -0.43948455477369602 0.39478494396430169 0 -0.43869326081361348 0.40609766221372873 0 -0.43301325209637431 0.39240806846743193 0 -0.41888161491301601 0.40288926870241409 0 -0.43058456928533417 0.41494736533933452 0 -0.44909368284378559 0.43401816343450672 0 -0.43058456928533417 0.41494736533933452 0 -0.4283296524835199 0.4358740334849176 0 -0.43058456928533417 0.41494736533933452 0 -0.4283296524835199 0.4358740334849176 0 -0.43058456928533417 0.41494736533933452 0 -0.4283296524835199 0.4358740334849176 0 -0.41884325199304429 0.4269857954775601 0 -0.4283296524835199 0.4358740334849176 0 -0.41884325199304429 0.4269857954775601 0 -0.41208331923994213 0.4373261158972751 0 -0.4283296524835199 0.4358740334849176 0 -0.41208331923994213 0.4373261158972751 0 -0.41884325199304429 0.4269857954775601 0 -0.4099222783260274 0.42765107034344219 0 -0.41402656818589773 0.4176193529147848 0 -0.4099222783260274 0.42765107034344219 0 -0.41402656818589773 0.4176193529147848 0 -0.4030771167939422 0.42302890415146238 0 -0.4099222783260274 0.42765107034344219 0 -0.41208331923994213 0.4373261158972751 0 -0.40158113541731072 0.4332951832761287 0 -0.41884325199304429 0.4269857954775601 0 -0.4099222783260274 0.42765107034344219 0 -0.41208331923994213 0.4373261158972751 0 -0.41888161491301601 0.40288926870241409 0 -0.43058456928533417 0.41494736533933452 0 -0.41402656818589773 0.4176193529147848 0 -0.43058456928533417 0.41494736533933452 0 -0.41884325199304429 0.4269857954775601 0 -0.41402656818589773 0.4176193529147848 0 -0.41402656818589773 0.4176193529147848 0 -0.40375811410309748 0.4101726824747024 0 -0.4030771167939422 0.42302890415146238 0 -0.41888161491301601 0.40288926870241409 0 -0.41402656818589773 0.4176193529147848 0 -0.40375811410309748 0.4101726824747024 0 -0.40375811410309748 0.4101726824747024 0 -0.39254612074755002 0.42075034292912461 0 -0.38683860343747911 0.40591705408493789 0 -0.40375811410309748 0.4101726824747024 0 -0.39254612074755002 0.42075034292912461 0 -0.4030771167939422 0.42302890415146238 0 -0.39583698599636391 0.438778198309629 0 -0.41208331923994213 0.4373261158972751 0 -0.40158113541731072 0.4332951832761287 0 -0.40158113541731072 0.4332951832761287 0 -0.4030771167939422 0.42302890415146238 0 -0.39612359233859568 0.42830273118228163 0 -0.4099222783260274 0.42765107034344219 0 -0.40158113541731072 0.4332951832761287 0 -0.4030771167939422 0.42302890415146238 0 -0.39254612074755002 0.42075034292912461 0 -0.4030771167939422 0.42302890415146238 0 -0.39612359233859568 0.42830273118228163 0 -0.39254612074755002 0.42075034292912461 0 -0.39612359233859568 0.42830273118228163 0 -0.38981185999419499 0.43063716681277903 0 -0.40158113541731072 0.4332951832761287 0 -0.39612359233859568 0.42830273118228163 0 -0.39445213650426658 0.43336843446868512 0 -0.39612359233859568 0.42830273118228163 0 -0.39445213650426658 0.43336843446868512 0 -0.38981185999419499 0.43063716681277903 0 -0.39445213650426658 0.43336843446868512 0 -0.39123527357416582 0.43657138336403117 0 -0.38981185999419499 0.43063716681277903 0 -0.39396839504937708 0.43788208963296987 0 -0.39445213650426658 0.43336843446868512 0 -0.39123527357416582 0.43657138336403117 0 -0.39396839504937708 0.43788208963296987 0 -0.39123527357416582 0.43657138336403117 0 -0.39583698599636391 0.438778198309629 0 -0.39396839504937708 0.43788208963296987 0 -0.40158113541731072 0.4332951832761287 0 -0.39396839504937708 0.43788208963296987 0 -0.40158113541731072 0.4332951832761287 0 -0.39396839504937708 0.43788208963296987 0 -0.40158113541731072 0.4332951832761287 0 -0.39445213650426658 0.43336843446868512 0 -0.3804235055036993 0.4401558411045346 0 -0.38153556631197177 0.42786881453112707 0 -0.36404659543697337 0.43742407143792272 0 -0.3860200209034596 0.43538596426685772 0 -0.38981185999419499 0.43063716681277903 0 -0.38153556631197177 0.42786881453112707 0 -0.39189664367992311 0.43913038250348091 0 -0.39123527357416582 0.43657138336403117 0 -0.3860200209034596 0.43538596426685772 0 -0.39123527357416582 0.43657138336403117 0 -0.3860200209034596 0.43538596426685772 0 -0.38981185999419499 0.43063716681277903 0 -0.39254612074755002 0.42075034292912461 0 -0.38981185999419499 0.43063716681277903 0 -0.38153556631197177 0.42786881453112707 0 -0.3804235055036993 0.4401558411045346 0 -0.3860200209034596 0.43538596426685772 0 -0.38153556631197177 0.42786881453112707 0 -0.38153556631197177 0.42786881453112707 0 -0.38683860343747911 0.40591705408493789 0 -0.36649854633425821 0.42100293610438511 0 -0.39254612074755002 0.42075034292912461 0 -0.38153556631197177 0.42786881453112707 0 -0.38683860343747911 0.40591705408493789 0 -0.38683860343747911 0.40591705408493789 0 -0.36649854633425821 0.42100293610438511 0 -0.38683860343747911 0.40591705408493789 0 -0.38898449514801908 0.38915950349357908 0 -0.37064961076277242 0.39305837976689562 0 -0.38898449514801908 0.38915950349357908 0 -0.390888468557469 0.37404663177604752 0 -0.37193073854527031 0.37242375593596277 0 -0.38898449514801908 0.38915950349357908 0 -0.37193073854527031 0.37242375593596277 0 -0.37064961076277242 0.39305837976689562 0 -0.40717866054070029 0.39083117206549128 0 -0.40426514155647242 0.37757438208842647 0 -0.390888468557469 0.37404663177604752 0 -0.40717866054070029 0.39083117206549128 0 -0.390888468557469 0.37404663177604752 0 -0.40717866054070029 0.39083117206549128 0 -0.38898449514801908 0.38915950349357908 0 -0.390888468557469 0.37404663177604752 0 -0.40717866054070029 0.39083117206549128 0 -0.38683860343747911 0.40591705408493789 0 -0.38898449514801908 0.38915950349357908 0 -0.40717866054070029 0.39083117206549128 0 -0.40375811410309748 0.4101726824747024 0 -0.38683860343747911 0.40591705408493789 0 -0.40717866054070029 0.39083117206549128 0 -0.38683860343747911 0.40591705408493789 0 -0.39616389190444862 0.3593443234676803 0 -0.4055902997503828 0.34547633675242001 0 -0.40506128624209392 0.36326474968081729 0 -0.39616389190444862 0.3593443234676803 0 -0.4055902997503828 0.34547633675242001 0 -0.38707055319658901 0.35635414697172701 0 -0.4055902997503828 0.34547633675242001 0 -0.37602190945387942 0.3491704939964701 0 -0.39616389190444862 0.3593443234676803 0 -0.390888468557469 0.37404663177604752 0 -0.38707055319658901 0.35635414697172701 0 -0.40426514155647242 0.37757438208842647 0 -0.40506128624209392 0.36326474968081729 0 -0.390888468557469 0.37404663177604752 0 -0.39616389190444862 0.3593443234676803 0 -0.40506128624209392 0.36326474968081729 0 -0.390888468557469 0.37404663177604752 0 -0.390888468557469 0.37404663177604752 0 -0.37459827657424383 0.35726209148659771 0 -0.37193073854527031 0.37242375593596277 0 -0.390888468557469 0.37404663177604752 0 -0.37459827657424383 0.35726209148659771 0 -0.390888468557469 0.37404663177604752 0 -0.38707055319658901 0.35635414697172701 0 -0.37459827657424383 0.35726209148659771 0 -0.38707055319658901 0.35635414697172701 0 -0.37602190945387942 0.3491704939964701 0 -0.37459827657424383 0.35726209148659771 0 -0.4055902997503828 0.34547633675242001 0 -0.38707055319658901 0.35635414697172701 0 -0.37602190945387942 0.3491704939964701 0 -0.37602190945387942 0.3491704939964701 0 -0.37459827657424383 0.35726209148659771 0 -0.4055902997503828 0.34547633675242001 0 -0.37602190945387942 0.3491704939964701 0 -0.38965685334309919 0.3364953171579198 0 -0.37602190945387942 0.3491704939964701 0 -0.38075850863932192 0.32224876815761322 0 -0.37602190945387942 0.3491704939964701 0 -0.38075850863932192 0.32224876815761322 0 -0.36874583341778983 0.33708993244623131 0 -0.38965685334309919 0.3364953171579198 0 -0.38075850863932192 0.32224876815761322 0 -0.39808331277608933 0.32579564623218071 0 -0.37602190945387942 0.3491704939964701 0 -0.38965685334309919 0.3364953171579198 0 -0.38075850863932192 0.32224876815761322 0 -0.38075850863932192 0.32224876815761322 0 -0.39808331277608933 0.32579564623218071 0 -0.39497501839183119 0.31053796890603952 0 -0.39808331277608933 0.32579564623218071 0 -0.41054561301564219 0.31356548040022503 0 -0.39497501839183119 0.31053796890603952 0 -0.4055902997503828 0.34547633675242001 0 -0.39808331277608933 0.32579564623218071 0 -0.41084791432519802 0.32949182816197792 0 -0.4055902997503828 0.34547633675242001 0 -0.38965685334309919 0.3364953171579198 0 -0.39808331277608933 0.32579564623218071 0 -0.4055902997503828 0.34547633675242001 0 -0.41084791432519802 0.32949182816197792 0 -0.41733959924296621 0.33966082746794207 0 -0.41084791432519802 0.32949182816197792 0 -0.41733959924296621 0.33966082746794207 0 -0.4196536762835088 0.3251936477104061 0 -0.39808331277608933 0.32579564623218071 0 -0.41084791432519802 0.32949182816197792 0 -0.41054561301564219 0.31356548040022503 0 -0.41084791432519802 0.32949182816197792 0 -0.41054561301564219 0.31356548040022503 0 -0.4196536762835088 0.3251936477104061 0 -0.41054561301564219 0.31356548040022503 0 -0.4196536762835088 0.3251936477104061 0 -0.42295468832839012 0.31669221303955147 0 -0.41054561301564219 0.31356548040022503 0 -0.42295468832839012 0.31669221303955147 0 -0.42273449005145669 0.3081815841916653 0 -0.43713179088865101 0.32058412454915652 0 -0.42993419600096983 0.32979151333027551 0 -0.43611325430306752 0.30457248647051688 0 -0.42993419600096983 0.32979151333027551 0 -0.43611325430306752 0.30457248647051688 0 -0.42295468832839012 0.31669221303955147 0 -0.42993419600096983 0.32979151333027551 0 -0.43009025027089293 0.3106299296583368 0 -0.42993419600096983 0.32979151333027551 0 -0.43009025027089293 0.3106299296583368 0 -0.43611325430306752 0.30457248647051688 0 -0.4196536762835088 0.3251936477104061 0 -0.42295468832839012 0.31669221303955147 0 -0.42993419600096983 0.32979151333027551 0 -0.43713179088865101 0.32058412454915652 0 -0.42993419600096983 0.32979151333027551 0 -0.44124848568328012 0.33106316063400498 0 -0.43122867657818592 0.35429236107402001 0 -0.44124848568328012 0.33106316063400498 0 -0.42993419600096983 0.32979151333027551 0 -0.42375513769887202 0.35501054019003409 0 -0.41733959924296621 0.33966082746794207 0 -0.42993419600096983 0.32979151333027551 0 -0.42375513769887202 0.35501054019003409 0 -0.42993419600096983 0.32979151333027551 0 -0.43122867657818592 0.35429236107402001 0 -0.44124848568328012 0.33106316063400498 0 -0.41733959924296621 0.33966082746794207 0 -0.4196536762835088 0.3251936477104061 0 -0.42993419600096983 0.32979151333027551 0 -0.42993419600096983 0.32979151333027551 0 -0.43122867657818592 0.35429236107402001 0 -0.42375513769887202 0.35501054019003409 0 -0.43122867657818592 0.35429236107402001 0 -0.43754740154187899 0.35032906994641172 0 -0.44141683151327082 0.34108395444544087 0 -0.43122867657818592 0.35429236107402001 0 -0.43544193490741723 0.3698687715955295 0 -0.43754740154187899 0.35032906994641172 0 -0.43122867657818592 0.35429236107402001 0 -0.42375513769887202 0.35501054019003409 0 -0.42586242526106183 0.36795024234797769 0 -0.41733959924296621 0.33966082746794207 0 -0.42375513769887202 0.35501054019003409 0 -0.4131636784716064 0.35367904620671481 0 -0.4055902997503828 0.34547633675242001 0 -0.40506128624209392 0.36326474968081729 0 -0.4131636784716064 0.35367904620671481 0 -0.42375513769887202 0.35501054019003409 0 -0.4131636784716064 0.35367904620671481 0 -0.41407206942371771 0.36498277694236059 0 -0.4055902997503828 0.34547633675242001 0 -0.41733959924296621 0.33966082746794207 0 -0.4131636784716064 0.35367904620671481 0 -0.41757607939677421 0.38022956704979272 0 -0.42375513769887202 0.35501054019003409 0 -0.41407206942371771 0.36498277694236059 0 -0.41757607939677421 0.38022956704979272 0 -0.42375513769887202 0.35501054019003409 0 -0.40426514155647242 0.37757438208842647 0 -0.40506128624209392 0.36326474968081729 0 -0.41109613290372737 0.37273425749363098 0 -0.40506128624209392 0.36326474968081729 0 -0.41109613290372737 0.37273425749363098 0 -0.41407206942371771 0.36498277694236059 0 -0.40506128624209392 0.36326474968081729 0 -0.4131636784716064 0.35367904620671481 0 -0.41407206942371771 0.36498277694236059 0 -0.41757607939677421 0.38022956704979272 0 -0.41109613290372737 0.37273425749363098 0 -0.41407206942371771 0.36498277694236059 0 -0.41757607939677421 0.38022956704979272 0 -0.42375513769887202 0.35501054019003409 0 -0.42586242526106183 0.36795024234797769 0 -0.42131029772405898 0.38034997183051078 0 -0.42586242526106183 0.36795024234797769 0 -0.43544193490741723 0.3698687715955295 0 -0.43544193490741723 0.3698687715955295 0 -0.43754740154187899 0.35032906994641172 0 -0.43122867657818592 0.35429236107402001 0 -0.42586242526106183 0.36795024234797769 0 -0.43544193490741723 0.3698687715955295 0 -0.43544193490741723 0.3698687715955295 0 -0.44958393798091889 0.35937988315225761 0 -0.45159147587071952 0.37318423334928219 0 -0.44068948599571528 0.38174021768426442 0 -0.43544193490741723 0.3698687715955295 0 -0.45159147587071952 0.37318423334928219 0 -0.43544193490741723 0.3698687715955295 0 -0.44958393798091889 0.35937988315225761 0 -0.43754740154187899 0.35032906994641172 0 -0.43544193490741723 0.3698687715955295 0 -0.44958393798091889 0.35937988315225761 0 -0.43754740154187899 0.35032906994641172 0 -0.44802133999525112 0.34910491513231762 0 -0.44141683151327082 0.34108395444544087 0 -0.44958393798091889 0.35937988315225761 0 -0.43754740154187899 0.35032906994641172 0 -0.44802133999525112 0.34910491513231762 0 -0.44958393798091889 0.35937988315225761 0 -0.44802133999525112 0.34910491513231762 0 -0.45742280466127322 0.3505534172917612 0 -0.44802133999525112 0.34910491513231762 0 -0.45254115632031322 0.34267665053301399 0 -0.44141683151327082 0.34108395444544087 0 -0.44802133999525112 0.34910491513231762 0 -0.45742280466127322 0.3505534172917612 0 -0.45254115632031322 0.34267665053301399 0 -0.46810058484791411 0.35912424747803318 0 -0.45742280466127322 0.3505534172917612 0 -0.46567786824476948 0.33947818957777848 0 -0.44958393798091889 0.35937988315225761 0 -0.46810058484791411 0.35912424747803318 0 -0.45742280466127322 0.3505534172917612 0 -0.45742280466127322 0.3505534172917612 0 -0.46567786824476948 0.33947818957777848 0 -0.45254115632031322 0.34267665053301399 0 -0.46351315671941962 0.38337831501305891 0 -0.45159147587071952 0.37318423334928219 0 -0.46810058484791411 0.35912424747803318 0 -0.44958393798091889 0.35937988315225761 0 -0.45159147587071952 0.37318423334928219 0 -0.46810058484791411 0.35912424747803318 0 -0.46810058484791411 0.35912424747803318 0 -0.48175657835970898 0.37335443362329679 0 -0.48343154642407549 0.34923730861997571 0 -0.46351315671941962 0.38337831501305891 0 -0.46810058484791411 0.35912424747803318 0 -0.48175657835970898 0.37335443362329679 0 -0.46810058484791411 0.35912424747803318 0 -0.48343154642407549 0.34923730861997571 0 -0.46567786824476948 0.33947818957777848 0 -0.48343154642407549 0.34923730861997571 0 -0.49999999999999861 0.36333055223353539 0 -0.5 0.33436292125626621 0 -0.48175657835970898 0.37335443362329679 0 -0.48343154642407549 0.34923730861997571 0 -0.49999999999999861 0.36333055223353539 0 -0.48175657835970898 0.37335443362329679 0 -0.49999999999999861 0.36333055223353539 0 -0.5 0.38537643593815019 0 -0.48175657835970898 0.37335443362329679 0 -0.49999999999999861 0.36333055223353539 0 -0.48670426105835901 0.31999280709030581 0 -0.5 0.33436292125626621 0 -0.49999999999999939 0.30539529027899681 0 -0.48670426105835901 0.31999280709030581 0 -0.5 0.33436292125626621 0 -0.48163724089615018 0.33352928688681799 0 -0.48343154642407549 0.34923730861997571 0 -0.5 0.33436292125626621 0 -0.48163724089615018 0.33352928688681799 0 -0.48163724089615018 0.33352928688681799 0 -0.47067591315217377 0.3260832589945285 0 -0.46567786824476948 0.33947818957777848 0 -0.48343154642407549 0.34923730861997571 0 -0.48163724089615018 0.33352928688681799 0 -0.46567786824476948 0.33947818957777848 0 -0.48670426105835901 0.31999280709030581 0 -0.47070184067464221 0.31311688363431411 0 -0.48369108944507733 0.30601552261210191 0 -0.48670426105835901 0.31999280709030581 0 -0.47067591315217377 0.3260832589945285 0 -0.47070184067464221 0.31311688363431411 0 -0.48670426105835901 0.31999280709030581 0 -0.48163724089615018 0.33352928688681799 0 -0.47067591315217377 0.3260832589945285 0 -0.47070184067464221 0.31311688363431411 0 -0.46457308547343001 0.31972041345957292 0 -0.45694860768221268 0.31668640963408329 0 -0.47067591315217377 0.3260832589945285 0 -0.47070184067464221 0.31311688363431411 0 -0.46457308547343001 0.31972041345957292 0 -0.47070184067464221 0.31311688363431411 0 -0.45694860768221268 0.31668640963408329 0 -0.45126829478837632 0.3078339601939909 0 -0.47067591315217377 0.3260832589945285 0 -0.46457308547343001 0.31972041345957292 0 -0.45783353874850902 0.32582076721151182 0 -0.46457308547343001 0.31972041345957292 0 -0.45783353874850902 0.32582076721151182 0 -0.45694860768221268 0.31668640963408329 0 -0.47067591315217377 0.3260832589945285 0 -0.45783353874850902 0.32582076721151182 0 -0.46567786824476948 0.33947818957777848 0 -0.45783353874850902 0.32582076721151182 0 -0.46567786824476948 0.33947818957777848 0 -0.4515849931039827 0.33438510214417089 0 -0.46567786824476948 0.33947818957777848 0 -0.45254115632031322 0.34267665053301399 0 -0.4515849931039827 0.33438510214417089 0 -0.45783353874850902 0.32582076721151182 0 -0.4515849931039827 0.33438510214417089 0 -0.44124848568328012 0.33106316063400498 0 -0.43122867657818592 0.35429236107402001 0 -0.44124848568328012 0.33106316063400498 0 -0.44141683151327082 0.34108395444544087 0 -0.45254115632031322 0.34267665053301399 0 -0.4515849931039827 0.33438510214417089 0 -0.44141683151327082 0.34108395444544087 0 -0.4515849931039827 0.33438510214417089 0 -0.44124848568328012 0.33106316063400498 0 -0.44141683151327082 0.34108395444544087 0 -0.45694860768221268 0.31668640963408329 0 -0.44124848568328012 0.33106316063400498 0 -0.45126829478837632 0.3078339601939909 0 -0.45783353874850902 0.32582076721151182 0 -0.45694860768221268 0.31668640963408329 0 -0.44124848568328012 0.33106316063400498 0 -0.44124848568328012 0.33106316063400498 0 -0.45126829478837632 0.3078339601939909 0 -0.43713179088865101 0.32058412454915652 0 -0.44123122756728622 0.31690933776182861 0 -0.43611325430306752 0.30457248647051688 0 -0.44124848568328012 0.33106316063400498 0 -0.44123122756728622 0.31690933776182861 0 -0.45126829478837632 0.3078339601939909 0 -0.43713179088865101 0.32058412454915652 0 -0.44124848568328012 0.33106316063400498 0 -0.44123122756728622 0.31690933776182861 0 -0.45126829478837632 0.3078339601939909 0 -0.43611325430306752 0.30457248647051688 0 -0.43449344768886872 0.30327379225199708 0 -0.45126829478837632 0.3078339601939909 0 -0.43449344768886872 0.30327379225199708 0 -0.45126829478837632 0.3078339601939909 0 -0.43564767695069262 0.30059791064632591 0 -0.43449344768886872 0.30327379225199708 0 -0.44123122756728622 0.31690933776182861 0 -0.45126829478837632 0.3078339601939909 0 -0.43611325430306752 0.30457248647051688 0 -0.45357675331202402 0.30248219698264828 0 -0.43564767695069262 0.30059791064632591 0 -0.45126829478837632 0.3078339601939909 0 -0.45357675331202402 0.30248219698264828 0 -0.43564767695069262 0.30059791064632591 0 -0.45126829478837632 0.3078339601939909 0 -0.45357675331202402 0.30248219698264828 0 -0.44627833903432262 0.28568680364339027 0 -0.45357675331202402 0.30248219698264828 0 -0.43564767695069262 0.30059791064632591 0 -0.44627833903432262 0.28568680364339027 0 -0.45357675331202402 0.30248219698264828 0 -0.46350321039134318 0.27946941712464779 0 -0.45357675331202402 0.30248219698264828 0 -0.46350321039134318 0.27946941712464779 0 -0.46416899909735598 0.29421880274671602 0 -0.45357675331202402 0.30248219698264828 0 -0.46350321039134318 0.27946941712464779 0 -0.46416899909735598 0.29421880274671602 0 -0.46901126689696321 0.30410431306212532 0 -0.47058476578909358 0.29081928381744249 0 -0.46416899909735598 0.29421880274671602 0 -0.47058476578909358 0.29081928381744249 0 -0.46350321039134318 0.27946941712464779 0 -0.47070184067464221 0.31311688363431411 0 -0.45126829478837632 0.3078339601939909 0 -0.46901126689696321 0.30410431306212532 0 -0.45126829478837632 0.3078339601939909 0 -0.45357675331202402 0.30248219698264828 0 -0.46901126689696321 0.30410431306212532 0 -0.47070184067464221 0.31311688363431411 0 -0.45126829478837632 0.3078339601939909 0 -0.45357675331202402 0.30248219698264828 0 -0.46901126689696321 0.30410431306212532 0 -0.46416899909735598 0.29421880274671602 0 -0.45357675331202402 0.30248219698264828 0 -0.46901126689696321 0.30410431306212532 0 -0.47070184067464221 0.31311688363431411 0 -0.48369108944507733 0.30601552261210191 0 -0.46901126689696321 0.30410431306212532 0 -0.46901126689696321 0.30410431306212532 0 -0.47058476578909358 0.29081928381744249 0 -0.4760850083359523 0.29585714686340581 0 -0.48369108944507733 0.30601552261210191 0 -0.46901126689696321 0.30410431306212532 0 -0.4760850083359523 0.29585714686340581 0 -0.47058476578909358 0.29081928381744249 0 -0.4760850083359523 0.29585714686340581 0 -0.48105291121267513 0.28248946796195351 0 -0.48369108944507733 0.30601552261210191 0 -0.4760850083359523 0.29585714686340581 0 -0.48105291121267513 0.28248946796195351 0 -0.47058476578909358 0.29081928381744249 0 -0.48105291121267513 0.28248946796195351 0 -0.46350321039134318 0.27946941712464779 0 -0.48105291121267513 0.28248946796195351 0 -0.49999999999999939 0.30539529027899681 0 -0.48105291121267513 0.28248946796195351 0 -0.49999999999999939 0.30539529027899681 0 -0.5 0.27638088304248898 0 -0.48670426105835901 0.31999280709030581 0 -0.48369108944507733 0.30601552261210191 0 -0.49999999999999939 0.30539529027899681 0 -0.48369108944507733 0.30601552261210191 0 -0.48105291121267513 0.28248946796195351 0 -0.49999999999999939 0.30539529027899681 0 -0.47938485524443469 0.24736044176889169 0 -0.49999999999999539 0.24736647580598109 0 -0.48840359308806391 0.25717915994725898 0 -0.49999999999999539 0.24736647580598109 0 -0.48840359308806391 0.25717915994725898 0 -0.5 0.27638088304248898 0 -0.48840359308806391 0.25717915994725898 0 -0.5 0.27638088304248898 0 -0.4788917183159383 0.26498797355945553 0 -0.48105291121267513 0.28248946796195351 0 -0.5 0.27638088304248898 0 -0.4788917183159383 0.26498797355945553 0 -0.48105291121267513 0.28248946796195351 0 -0.46210582242535131 0.25958364564490988 0 -0.46350321039134318 0.27946941712464779 0 -0.48105291121267513 0.28248946796195351 0 -0.46210582242535131 0.25958364564490988 0 -0.48105291121267513 0.28248946796195351 0 -0.4788917183159383 0.26498797355945553 0 -0.46210582242535131 0.25958364564490988 0 -0.47938485524443469 0.24736044176889169 0 -0.48840359308806391 0.25717915994725898 0 -0.47252599614824459 0.25598922631049958 0 -0.4788917183159383 0.26498797355945553 0 -0.47252599614824459 0.25598922631049958 0 -0.46210582242535131 0.25958364564490988 0 -0.48840359308806391 0.25717915994725898 0 -0.4788917183159383 0.26498797355945553 0 -0.47252599614824459 0.25598922631049958 0 -0.47938485524443469 0.24736044176889169 0 -0.45876971048887399 0.24735440773180231 0 -0.47252599614824459 0.25598922631049958 0 -0.45876971048887399 0.24735440773180231 0 -0.47252599614824459 0.25598922631049958 0 -0.46210582242535131 0.25958364564490988 0 -0.45876971048887399 0.24735440773180231 0 -0.46210582242535131 0.25958364564490988 0 -0.45054718556558321 0.25589131290802603 0 -0.46210582242535131 0.25958364564490988 0 -0.46350321039134318 0.27946941712464779 0 -0.44482614827370709 0.26568857135559959 0 -0.44627833903432262 0.28568680364339027 0 -0.46350321039134318 0.27946941712464779 0 -0.44482614827370709 0.26568857135559959 0 -0.44627833903432262 0.28568680364339027 0 -0.44482614827370709 0.26568857135559959 0 -0.42803435117422117 0.27306989657765562 0 -0.46210582242535131 0.25958364564490988 0 -0.44482614827370709 0.26568857135559959 0 -0.45054718556558321 0.25589131290802603 0 -0.43815456573331341 0.24734837369471299 0 -0.45876971048887399 0.24735440773180231 0 -0.45054718556558321 0.25589131290802603 0 -0.43815456573331341 0.24734837369471299 0 -0.44482614827370709 0.26568857135559959 0 -0.45054718556558321 0.25589131290802603 0 -0.43815456573331341 0.24734837369471299 0 -0.41659169976103583 0.24640880725911149 0 -0.42767343044885092 0.25958998607848682 0 -0.43815456573331341 0.24734837369471299 0 -0.44482614827370709 0.26568857135559959 0 -0.42767343044885092 0.25958998607848682 0 -0.41659169976103583 0.24640880725911149 0 -0.41549471155326001 0.26770488479775167 0 -0.40253128957730389 0.2624111287631446 0 -0.41659169976103583 0.24640880725911149 0 -0.40253128957730389 0.2624111287631446 0 -0.41659169976103583 0.24640880725911149 0 -0.42767343044885092 0.25958998607848682 0 -0.41549471155326001 0.26770488479775167 0 -0.41549471155326001 0.26770488479775167 0 -0.417822773466616 0.28382654550697978 0 -0.40396510204789471 0.27885787366660503 0 -0.41549471155326001 0.26770488479775167 0 -0.40253128957730389 0.2624111287631446 0 -0.40396510204789471 0.27885787366660503 0 -0.41549471155326001 0.26770488479775167 0 -0.42803435117422117 0.27306989657765562 0 -0.417822773466616 0.28382654550697978 0 -0.44482614827370709 0.26568857135559959 0 -0.42767343044885092 0.25958998607848682 0 -0.42803435117422117 0.27306989657765562 0 -0.42767343044885092 0.25958998607848682 0 -0.41549471155326001 0.26770488479775167 0 -0.42803435117422117 0.27306989657765562 0 -0.44627833903432262 0.28568680364339027 0 -0.42803435117422117 0.27306989657765562 0 -0.42910034824304272 0.28837895613687092 0 -0.44627833903432262 0.28568680364339027 0 -0.42910034824304272 0.28837895613687092 0 -0.43564767695069262 0.30059791064632591 0 -0.42910034824304272 0.28837895613687092 0 -0.43564767695069262 0.30059791064632591 0 -0.41771860058936122 0.2987136243100032 0 -0.42803435117422117 0.27306989657765562 0 -0.42910034824304272 0.28837895613687092 0 -0.417822773466616 0.28382654550697978 0 -0.43449344768886872 0.30327379225199708 0 -0.42273449005145669 0.3081815841916653 0 -0.41771860058936122 0.2987136243100032 0 -0.43564767695069262 0.30059791064632591 0 -0.41771860058936122 0.2987136243100032 0 -0.43449344768886872 0.30327379225199708 0 -0.41771860058936122 0.2987136243100032 0 -0.43564767695069262 0.30059791064632591 0 -0.43449344768886872 0.30327379225199708 0 -0.41771860058936122 0.2987136243100032 0 -0.43009025027089293 0.3106299296583368 0 -0.43611325430306752 0.30457248647051688 0 -0.43449344768886872 0.30327379225199708 0 -0.42295468832839012 0.31669221303955147 0 -0.43009025027089293 0.3106299296583368 0 -0.42273449005145669 0.3081815841916653 0 -0.43009025027089293 0.3106299296583368 0 -0.43449344768886872 0.30327379225199708 0 -0.42273449005145669 0.3081815841916653 0 -0.41771860058936122 0.2987136243100032 0 -0.40160685420706271 0.2970203333143816 0 -0.41054561301564219 0.31356548040022503 0 -0.41771860058936122 0.2987136243100032 0 -0.40160685420706271 0.2970203333143816 0 -0.41054561301564219 0.31356548040022503 0 -0.42273449005145669 0.3081815841916653 0 -0.41771860058936122 0.2987136243100032 0 -0.417822773466616 0.28382654550697978 0 -0.40205796078032929 0.29445634868867337 0 -0.40396510204789471 0.27885787366660503 0 -0.41771860058936122 0.2987136243100032 0 -0.40205796078032929 0.29445634868867337 0 -0.41771860058936122 0.2987136243100032 0 -0.417822773466616 0.28382654550697978 0 -0.40205796078032929 0.29445634868867337 0 -0.41771860058936122 0.2987136243100032 0 -0.40205796078032929 0.29445634868867337 0 -0.40160685420706271 0.2970203333143816 0 -0.42910034824304272 0.28837895613687092 0 -0.41771860058936122 0.2987136243100032 0 -0.417822773466616 0.28382654550697978 0 -0.40205796078032929 0.29445634868867337 0 -0.39599860942445808 0.28581309847788722 0 -0.38639732097129742 0.29019907306734383 0 -0.40205796078032929 0.29445634868867337 0 -0.39599860942445808 0.28581309847788722 0 -0.40396510204789471 0.27885787366660503 0 -0.40205796078032929 0.29445634868867337 0 -0.40160685420706271 0.2970203333143816 0 -0.38549510782476459 0.29532704231875612 0 -0.40205796078032929 0.29445634868867337 0 -0.38639732097129742 0.29019907306734383 0 -0.40205796078032929 0.29445634868867337 0 -0.38549510782476459 0.29532704231875612 0 -0.38639732097129742 0.29019907306734383 0 -0.40160685420706271 0.2970203333143816 0 -0.38549510782476459 0.29532704231875612 0 -0.41054561301564219 0.31356548040022503 0 -0.40160685420706271 0.2970203333143816 0 -0.39497501839183119 0.31053796890603952 0 -0.40160685420706271 0.2970203333143816 0 -0.39497501839183119 0.31053796890603952 0 -0.38549510782476459 0.29532704231875612 0 -0.38075850863932192 0.32224876815761322 0 -0.38549510782476459 0.29532704231875612 0 -0.38075850863932192 0.32224876815761322 0 -0.39497501839183119 0.31053796890603952 0 -0.38549510782476459 0.29532704231875612 0 -0.38075850863932192 0.32224876815761322 0 -0.38549510782476459 0.29532704231875612 0 -0.36863812422899189 0.31275911477311319 0 -0.39599860942445808 0.28581309847788722 0 -0.38639732097129742 0.29019907306734383 0 -0.3884708793935705 0.27841345026717629 0 -0.37971223960340861 0.28838176328427262 0 -0.3884708793935705 0.27841345026717629 0 -0.38639732097129742 0.29019907306734383 0 -0.3884708793935705 0.27841345026717629 0 -0.38639732097129742 0.29019907306734383 0 -0.37971223960340861 0.28838176328427262 0 -0.3884708793935705 0.27841345026717629 0 -0.38549510782476459 0.29532704231875612 0 -0.38639732097129742 0.29019907306734383 0 -0.38639732097129742 0.29019907306734383 0 -0.37971223960340861 0.28838176328427262 0 -0.38549510782476459 0.29532704231875612 0 -0.38639732097129742 0.29019907306734383 0 -0.38155479919482038 0.29202285206306772 0 -0.38549510782476459 0.29532704231875612 0 -0.37461452837980919 0.29418352958189631 0 -0.38549510782476459 0.29532704231875612 0 -0.37461452837980919 0.29418352958189631 0 -0.36989494458996303 0.29955494451101139 0 -0.38639732097129742 0.29019907306734383 0 -0.38155479919482038 0.29202285206306772 0 -0.37971223960340861 0.28838176328427262 0 -0.38549510782476459 0.29532704231875612 0 -0.38155479919482038 0.29202285206306772 0 -0.37461452837980919 0.29418352958189631 0 -0.38155479919482038 0.29202285206306772 0 -0.37971223960340861 0.28838176328427262 0 -0.37461452837980919 0.29418352958189631 0 -0.37971223960340861 0.28838176328427262 0 -0.37461452837980919 0.29418352958189631 0 -0.37971223960340861 0.28838176328427262 0 -0.3798968017655126 0.27971189065433771 0 -0.37178896183686422 0.27745251252664249 0 -0.37971223960340861 0.28838176328427262 0 -0.3798968017655126 0.27971189065433771 0 -0.3884708793935705 0.27841345026717629 0 -0.3798968017655126 0.27971189065433771 0 -0.3789219789783646 0.27328958319545399 0 -0.37178896183686422 0.27745251252664249 0 -0.3798968017655126 0.27971189065433771 0 -0.3884708793935705 0.27841345026717629 0 -0.3789219789783646 0.27328958319545399 0 -0.3884708793935705 0.27841345026717629 0 -0.38284329185367749 0.26495380451170653 0 -0.39279769553073562 0.25382083576900361 0 -0.3884708793935705 0.27841345026717629 0 -0.3789219789783646 0.27328958319545399 0 -0.38284329185367749 0.26495380451170653 0 -0.3789219789783646 0.27328958319545399 0 -0.38284329185367749 0.26495380451170653 0 -0.37160996004219671 0.26591625801740582 0 -0.37784715853102169 0.25516297643002489 0 -0.38284329185367749 0.26495380451170653 0 -0.37160996004219671 0.26591625801740582 0 -0.38071427544245973 0.2427464974365349 0 -0.37784715853102169 0.25516297643002489 0 -0.39279769553073562 0.25382083576900361 0 -0.37784715853102169 0.25516297643002489 0 -0.38284329185367749 0.26495380451170653 0 -0.39279769553073562 0.25382083576900361 0 -0.3884708793935705 0.27841345026717629 0 -0.40253128957730389 0.2624111287631446 0 -0.39279769553073562 0.25382083576900361 0 -0.41659169976103583 0.24640880725911149 0 -0.40253128957730389 0.2624111287631446 0 -0.39279769553073562 0.25382083576900361 0 -0.3884708793935705 0.27841345026717629 0 -0.40253128957730389 0.2624111287631446 0 -0.40396510204789471 0.27885787366660503 0 -0.3884708793935705 0.27841345026717629 0 -0.39279769553073562 0.25382083576900361 0 -0.3884708793935705 0.27841345026717629 0 -0.40253128957730389 0.2624111287631446 0 -0.39599860942445808 0.28581309847788722 0 -0.3884708793935705 0.27841345026717629 0 -0.40396510204789471 0.27885787366660503 0 -0.35912281431585452 0.2827846191443924 0 -0.33853338902830038 0.27718747500451268 0 -0.35277338397092611 0.2743735062541906 0 -0.35912281431585452 0.2827846191443924 0 -0.33853338902830038 0.27718747500451268 0 -0.35329662529476752 0.2661901450367482 0 -0.35277338397092611 0.2743735062541906 0 -0.36257173489977113 0.27244662364982469 0 -0.35277338397092611 0.2743735062541906 0 -0.36257173489977113 0.27244662364982469 0 -0.35912281431585452 0.2827846191443924 0 -0.35277338397092611 0.2743735062541906 0 -0.34665105701187149 0.27076668245276131 0 -0.33853338902830038 0.27718747500451268 0 -0.35329662529476752 0.2661901450367482 0 -0.34665105701187149 0.27076668245276131 0 -0.34015518010146001 0.26406961052423689 0 -0.35329662529476752 0.2661901450367482 0 -0.35277338397092611 0.2743735062541906 0 -0.34665105701187149 0.27076668245276131 0 -0.35329662529476752 0.2661901450367482 0 -0.35145338992010933 0.25362928199555479 0 -0.34015518010146001 0.26406961052423689 0 -0.35329662529476752 0.2661901450367482 0 -0.35145338992010933 0.25362928199555479 0 -0.36316024968869082 0.25876946024677611 0 -0.3647464168940881 0.24641932805505659 0 -0.35145338992010933 0.25362928199555479 0 -0.36316024968869082 0.25876946024677611 0 -0.3647464168940881 0.24641932805505659 0 -0.37784715853102169 0.25516297643002489 0 -0.36316024968869082 0.25876946024677611 0 -0.37784715853102169 0.25516297643002489 0 -0.36316024968869082 0.25876946024677611 0 -0.37160996004219671 0.26591625801740582 0 -0.37160996004219671 0.26591625801740582 0 -0.36257173489977113 0.27244662364982469 0 -0.37178896183686422 0.27745251252664249 0 -0.3789219789783646 0.27328958319545399 0 -0.37160996004219671 0.26591625801740582 0 -0.37178896183686422 0.27745251252664249 0 -0.35329662529476752 0.2661901450367482 0 -0.36316024968869082 0.25876946024677611 0 -0.36257173489977113 0.27244662364982469 0 -0.36316024968869082 0.25876946024677611 0 -0.37160996004219671 0.26591625801740582 0 -0.36257173489977113 0.27244662364982469 0 -0.36257173489977113 0.27244662364982469 0 -0.37178896183686422 0.27745251252664249 0 -0.35912281431585452 0.2827846191443924 0 -0.37971223960340861 0.28838176328427262 0 -0.35912281431585452 0.2827846191443924 0 -0.37971223960340861 0.28838176328427262 0 -0.37461452837980919 0.29418352958189631 0 -0.3638337698042392 0.29305050768663737 0 -0.37971223960340861 0.28838176328427262 0 -0.37178896183686422 0.27745251252664249 0 -0.35912281431585452 0.2827846191443924 0 -0.37971223960340861 0.28838176328427262 0 -0.3638337698042392 0.29305050768663737 0 -0.35912281431585452 0.2827846191443924 0 -0.37461452837980919 0.29418352958189631 0 -0.3638337698042392 0.29305050768663737 0 -0.36989494458996303 0.29955494451101139 0 -0.37461452837980919 0.29418352958189631 0 -0.3638337698042392 0.29305050768663737 0 -0.37461452837980919 0.29418352958189631 0 -0.36989494458996303 0.29955494451101139 0 -0.3638337698042392 0.29305050768663737 0 -0.35960399514614177 0.29985272419231812 0 -0.35597885106720561 0.29063324782060018 0 -0.3638337698042392 0.29305050768663737 0 -0.35912281431585452 0.2827846191443924 0 -0.35597885106720561 0.29063324782060018 0 -0.35960399514614177 0.29985272419231812 0 -0.35013800581267052 0.30973114760283732 0 -0.36863812422899189 0.31275911477311319 0 -0.38549510782476459 0.29532704231875612 0 -0.36989494458996303 0.29955494451101139 0 -0.36863812422899189 0.31275911477311319 0 -0.3638337698042392 0.29305050768663737 0 -0.36989494458996303 0.29955494451101139 0 -0.35960399514614177 0.29985272419231812 0 -0.36989494458996303 0.29955494451101139 0 -0.35960399514614177 0.29985272419231812 0 -0.36863812422899189 0.31275911477311319 0 -0.35013800581267052 0.30973114760283732 0 -0.34888904460952441 0.29369469455497937 0 -0.3344381332587465 0.28983063593756081 0 -0.35960399514614177 0.29985272419231812 0 -0.35013800581267052 0.30973114760283732 0 -0.34888904460952441 0.29369469455497937 0 -0.35912281431585452 0.2827846191443924 0 -0.34625389919595367 0.28646345237943288 0 -0.33853338902830038 0.27718747500451268 0 -0.35912281431585452 0.2827846191443924 0 -0.35597885106720561 0.29063324782060018 0 -0.34625389919595367 0.28646345237943288 0 -0.35960399514614177 0.29985272419231812 0 -0.35597885106720561 0.29063324782060018 0 -0.34888904460952441 0.29369469455497937 0 -0.35597885106720561 0.29063324782060018 0 -0.34888904460952441 0.29369469455497937 0 -0.34625389919595367 0.28646345237943288 0 -0.34625389919595367 0.28646345237943288 0 -0.3344381332587465 0.28983063593756081 0 -0.33853338902830038 0.27718747500451268 0 -0.34888904460952441 0.29369469455497937 0 -0.34625389919595367 0.28646345237943288 0 -0.3344381332587465 0.28983063593756081 0 -0.35013800581267052 0.30973114760283732 0 -0.3344381332587465 0.28983063593756081 0 -0.32872108641603298 0.31559166135088462 0 -0.3344381332587465 0.28983063593756081 0 -0.32872108641603298 0.31559166135088462 0 -0.3344381332587465 0.28983063593756081 0 -0.31977580649477533 0.28775697543076179 0 -0.32872108641603298 0.31559166135088462 0 -0.31977580649477533 0.28775697543076179 0 -0.30899645809149562 0.30165290278503343 0 -0.32872108641603298 0.31559166135088462 0 -0.3344381332587465 0.28983063593756081 0 -0.31977580649477533 0.28775697543076179 0 -0.32818825771726479 0.27606759379886803 0 -0.31977580649477533 0.28775697543076179 0 -0.3194246507680048 0.27467092745743138 0 -0.30493683203415489 0.28300802661657448 0 -0.3194246507680048 0.27467092745743138 0 -0.32714751796333708 0.26400981964434889 0 -0.31234698730770938 0.26669846083731052 0 -0.3194246507680048 0.27467092745743138 0 -0.32818825771726479 0.27606759379886803 0 -0.32714751796333708 0.26400981964434889 0 -0.31977580649477533 0.28775697543076179 0 -0.3194246507680048 0.27467092745743138 0 -0.32818825771726479 0.27606759379886803 0 -0.3344381332587465 0.28983063593756081 0 -0.33853338902830038 0.27718747500451268 0 -0.34015518010146001 0.26406961052423689 0 -0.3344381332587465 0.28983063593756081 0 -0.34015518010146001 0.26406961052423689 0 -0.3344381332587465 0.28983063593756081 0 -0.32818825771726479 0.27606759379886803 0 -0.34015518010146001 0.26406961052423689 0 -0.32818825771726479 0.27606759379886803 0 -0.34015518010146001 0.26406961052423689 0 -0.32714751796333708 0.26400981964434889 0 -0.34665105701187149 0.27076668245276131 0 -0.33853338902830038 0.27718747500451268 0 -0.34015518010146001 0.26406961052423689 0 -0.35145338992010933 0.25362928199555479 0 -0.33632480984135271 0.25252799294456663 0 -0.34015518010146001 0.26406961052423689 0 -0.33632480984135271 0.25252799294456663 0 -0.34015518010146001 0.26406961052423689 0 -0.32714751796333708 0.26400981964434889 0 -0.33632480984135271 0.25252799294456663 0 -0.32367731706940328 0.25070978741429673 0 -0.32714751796333708 0.26400981964434889 0 -0.32367731706940328 0.25070978741429673 0 -0.32714751796333708 0.26400981964434889 0 -0.31234698730770938 0.26669846083731052 0 -0.32367731706940328 0.25070978741429673 0 -0.3065795590668664 0.25419328986766071 0 -0.31234698730770938 0.26669846083731052 0 -0.3065795590668664 0.25419328986766071 0 -0.31234698730770938 0.26669846083731052 0 -0.29231604694449043 0.27359891402355091 0 -0.3065795590668664 0.25419328986766071 0 -0.29231604694449043 0.27359891402355091 0 -0.31234698730770938 0.26669846083731052 0 -0.29231604694449043 0.27359891402355091 0 -0.30493683203415489 0.28300802661657448 0 -0.3194246507680048 0.27467092745743138 0 -0.31234698730770938 0.26669846083731052 0 -0.30493683203415489 0.28300802661657448 0 -0.29231604694449043 0.27359891402355091 0 -0.28743946519297292 0.25607360513546729 0 -0.26829313679589162 0.26814807036796989 0 -0.3065795590668664 0.25419328986766071 0 -0.29231604694449043 0.27359891402355091 0 -0.28743946519297292 0.25607360513546729 0 -0.27402586863852069 0.24422816852138379 0 -0.28743946519297292 0.25607360513546729 0 -0.26829313679589162 0.26814807036796989 0 -0.29231604694449043 0.27359891402355091 0 -0.26829313679589162 0.26814807036796989 0 -0.27805253482211428 0.29300453817944111 0 -0.26829313679589162 0.26814807036796989 0 -0.24859791685371649 0.2880020299304798 0 -0.24484340631482909 0.26800778059861019 0 -0.27402586863852069 0.24422816852138379 0 -0.26829313679589162 0.26814807036796989 0 -0.2498521202164147 0.24664314714166921 0 -0.26829313679589162 0.26814807036796989 0 -0.24484340631482909 0.26800778059861019 0 -0.2498521202164147 0.24664314714166921 0 -0.25646132123655913 0.30730868465492878 0 -0.27805253482211428 0.29300453817944111 0 -0.24859791685371649 0.2880020299304798 0 -0.26829313679589162 0.26814807036796989 0 -0.27805253482211428 0.29300453817944111 0 -0.24859791685371649 0.2880020299304798 0 -0.25646132123655913 0.30730868465492878 0 -0.27805253482211428 0.29300453817944111 0 -0.27556195089851998 0.31716717055599303 0 -0.27805253482211428 0.29300453817944111 0 -0.29328795583654738 0.30352532556077932 0 -0.27556195089851998 0.31716717055599303 0 -0.27805253482211428 0.29300453817944111 0 -0.29328795583654738 0.30352532556077932 0 -0.30493683203415489 0.28300802661657448 0 -0.29231604694449043 0.27359891402355091 0 -0.27805253482211428 0.29300453817944111 0 -0.29231604694449043 0.27359891402355091 0 -0.27805253482211428 0.29300453817944111 0 -0.30493683203415489 0.28300802661657448 0 -0.31977580649477533 0.28775697543076179 0 -0.30493683203415489 0.28300802661657448 0 -0.30899645809149562 0.30165290278503343 0 -0.29328795583654738 0.30352532556077932 0 -0.30493683203415489 0.28300802661657448 0 -0.30899645809149562 0.30165290278503343 0 -0.29328795583654738 0.30352532556077932 0 -0.30899645809149562 0.30165290278503343 0 -0.29784151518383423 0.32501040336017328 0 -0.29784151518383423 0.32501040336017328 0 -0.30810571611221321 0.33740412354455612 0 -0.32872108641603298 0.31559166135088462 0 -0.30899645809149562 0.30165290278503343 0 -0.29784151518383423 0.32501040336017328 0 -0.32872108641603298 0.31559166135088462 0 -0.29784151518383423 0.32501040336017328 0 -0.30810571611221321 0.33740412354455612 0 -0.29616209854808162 0.35438200337672082 0 -0.29784151518383423 0.32501040336017328 0 -0.27503720436556101 0.34165029457590917 0 -0.29616209854808162 0.35438200337672082 0 -0.29784151518383423 0.32501040336017328 0 -0.27556195089851998 0.31716717055599303 0 -0.27503720436556101 0.34165029457590917 0 -0.29328795583654738 0.30352532556077932 0 -0.29784151518383423 0.32501040336017328 0 -0.27556195089851998 0.31716717055599303 0 -0.27556195089851998 0.31716717055599303 0 -0.27503720436556101 0.34165029457590917 0 -0.25391231018304028 0.32891858577509753 0 -0.27503720436556101 0.34165029457590917 0 -0.25391231018304028 0.32891858577509753 0 -0.27503720436556101 0.34165029457590917 0 -0.25391231018304028 0.32891858577509753 0 -0.25555285531660432 0.34950511563052261 0 -0.25646132123655913 0.30730868465492878 0 -0.27556195089851998 0.31716717055599303 0 -0.25391231018304028 0.32891858577509753 0 -0.25388726156416042 0.36855600570744479 0 -0.25555285531660432 0.34950511563052261 0 -0.2723448300965004 0.36221893130954169 0 -0.25388726156416042 0.36855600570744479 0 -0.2723448300965004 0.36221893130954169 0 -0.26812931041450588 0.38090258278187988 0 -0.27503720436556101 0.34165029457590917 0 -0.2723448300965004 0.36221893130954169 0 -0.29616209854808162 0.35438200337672082 0 -0.27503720436556101 0.34165029457590917 0 -0.25555285531660432 0.34950511563052261 0 -0.2723448300965004 0.36221893130954169 0 -0.2723448300965004 0.36221893130954169 0 -0.28334534416272261 0.37300124569309812 0 -0.26812931041450588 0.38090258278187988 0 -0.2723448300965004 0.36221893130954169 0 -0.28334534416272261 0.37300124569309812 0 -0.29616209854808162 0.35438200337672082 0 -0.28334534416272261 0.37300124569309812 0 -0.29616209854808162 0.35438200337672082 0 -0.2987438919906496 0.37398963596052642 0 -0.27503720436556101 0.34165029457590917 0 -0.29616209854808162 0.35438200337672082 0 -0.29616209854808162 0.35438200337672082 0 -0.31177096296344348 0.35237466658650662 0 -0.31728699273060279 0.36711371217753141 0 -0.30810571611221321 0.33740412354455612 0 -0.29616209854808162 0.35438200337672082 0 -0.31177096296344348 0.35237466658650662 0 -0.29616209854808162 0.35438200337672082 0 -0.31728699273060279 0.36711371217753141 0 -0.29616209854808162 0.35438200337672082 0 -0.2987438919906496 0.37398963596052642 0 -0.31728699273060279 0.36711371217753141 0 -0.31728699273060279 0.36711371217753141 0 -0.3325803176743799 0.36443707825094068 0 -0.3340392482075355 0.37721008646685739 0 -0.31728699273060279 0.36711371217753141 0 -0.3340392482075355 0.37721008646685739 0 -0.31728699273060279 0.36711371217753141 0 -0.31975499985375522 0.35599286675350178 0 -0.31728699273060279 0.36711371217753141 0 -0.3325803176743799 0.36443707825094068 0 -0.31975499985375522 0.35599286675350178 0 -0.3325803176743799 0.36443707825094068 0 -0.34704460986182811 0.36916849325601281 0 -0.34405057020662327 0.35316486613840581 0 -0.3325803176743799 0.36443707825094068 0 -0.34704460986182811 0.36916849325601281 0 -0.3340392482075355 0.37721008646685739 0 -0.31975499985375522 0.35599286675350178 0 -0.34405057020662327 0.35316486613840581 0 -0.33174000010207821 0.34675136289345582 0 -0.33955248352951511 0.33636234062638648 0 -0.34405057020662327 0.35316486613840581 0 -0.33174000010207821 0.34675136289345582 0 -0.31975499985375522 0.35599286675350178 0 -0.34405057020662327 0.35316486613840581 0 -0.3325803176743799 0.36443707825094068 0 -0.31975499985375522 0.35599286675350178 0 -0.34405057020662327 0.35316486613840581 0 -0.31975499985375522 0.35599286675350178 0 -0.32300403957331958 0.34135268676420838 0 -0.33174000010207821 0.34675136289345582 0 -0.31975499985375522 0.35599286675350178 0 -0.32300403957331958 0.34135268676420838 0 -0.31177096296344348 0.35237466658650662 0 -0.31728699273060279 0.36711371217753141 0 -0.31975499985375522 0.35599286675350178 0 -0.31177096296344348 0.35237466658650662 0 -0.31975499985375522 0.35599286675350178 0 -0.32300403957331958 0.34135268676420838 0 -0.30810571611221321 0.33740412354455612 0 -0.31177096296344348 0.35237466658650662 0 -0.32300403957331958 0.34135268676420838 0 -0.30810571611221321 0.33740412354455612 0 -0.32300403957331958 0.34135268676420838 0 -0.32872108641603298 0.31559166135088462 0 -0.32300403957331958 0.34135268676420838 0 -0.32872108641603298 0.31559166135088462 0 -0.35013800581267052 0.30973114760283732 0 -0.32872108641603298 0.31559166135088462 0 -0.34798352269951582 0.32445161392661698 0 -0.32872108641603298 0.31559166135088462 0 -0.33955248352951511 0.33636234062638648 0 -0.34798352269951582 0.32445161392661698 0 -0.33174000010207821 0.34675136289345582 0 -0.32300403957331958 0.34135268676420838 0 -0.33955248352951511 0.33636234062638648 0 -0.32300403957331958 0.34135268676420838 0 -0.32872108641603298 0.31559166135088462 0 -0.33955248352951511 0.33636234062638648 0 -0.35779448092426908 0.33994836151994551 0 -0.34798352269951582 0.32445161392661698 0 -0.36164995513661768 0.32400635907018932 0 -0.33955248352951511 0.33636234062638648 0 -0.35779448092426908 0.33994836151994551 0 -0.34798352269951582 0.32445161392661698 0 -0.33955248352951511 0.33636234062638648 0 -0.35779448092426908 0.33994836151994551 0 -0.34405057020662327 0.35316486613840581 0 -0.35013800581267052 0.30973114760283732 0 -0.34798352269951582 0.32445161392661698 0 -0.36164995513661768 0.32400635907018932 0 -0.38075850863932192 0.32224876815761322 0 -0.36164995513661768 0.32400635907018932 0 -0.36863812422899189 0.31275911477311319 0 -0.35013800581267052 0.30973114760283732 0 -0.36164995513661768 0.32400635907018932 0 -0.36863812422899189 0.31275911477311319 0 -0.38075850863932192 0.32224876815761322 0 -0.36164995513661768 0.32400635907018932 0 -0.36874583341778983 0.33708993244623131 0 -0.35779448092426908 0.33994836151994551 0 -0.36164995513661768 0.32400635907018932 0 -0.36874583341778983 0.33708993244623131 0 -0.35779448092426908 0.33994836151994551 0 -0.36874583341778983 0.33708993244623131 0 -0.36774823331439149 0.35020417423198857 0 -0.37602190945387942 0.3491704939964701 0 -0.36774823331439149 0.35020417423198857 0 -0.37602190945387942 0.3491704939964701 0 -0.36874583341778983 0.33708993244623131 0 -0.36774823331439149 0.35020417423198857 0 -0.35779448092426908 0.33994836151994551 0 -0.36774823331439149 0.35020417423198857 0 -0.37602190945387942 0.3491704939964701 0 -0.36774823331439149 0.35020417423198857 0 -0.37459827657424383 0.35726209148659771 0 -0.36774823331439149 0.35020417423198857 0 -0.37459827657424383 0.35726209148659771 0 -0.36071057953408409 0.36296699016480211 0 -0.36774823331439149 0.35020417423198857 0 -0.37459827657424383 0.35726209148659771 0 -0.37459827657424383 0.35726209148659771 0 -0.37193073854527031 0.37242375593596277 0 -0.37459827657424383 0.35726209148659771 0 -0.37193073854527031 0.37242375593596277 0 -0.36071057953408409 0.36296699016480211 0 -0.37193073854527031 0.37242375593596277 0 -0.36071057953408409 0.36296699016480211 0 -0.35876378843569051 0.37617588476876967 0 -0.36071057953408409 0.36296699016480211 0 -0.34704460986182811 0.36916849325601281 0 -0.34405057020662327 0.35316486613840581 0 -0.36071057953408409 0.36296699016480211 0 -0.34704460986182811 0.36916849325601281 0 -0.35876378843569051 0.37617588476876967 0 -0.36774823331439149 0.35020417423198857 0 -0.36071057953408409 0.36296699016480211 0 -0.34405057020662327 0.35316486613840581 0 -0.36774823331439149 0.35020417423198857 0 -0.34405057020662327 0.35316486613840581 0 -0.35779448092426908 0.33994836151994551 0 -0.36774823331439149 0.35020417423198857 0 -0.34405057020662327 0.35316486613840581 0 -0.35079150368446871 0.38730646075618252 0 -0.35131072788356371 0.40757345711559839 0 -0.33361436191491112 0.39521907254606548 0 -0.35079150368446871 0.38730646075618252 0 -0.37064961076277242 0.39305837976689562 0 -0.35131072788356371 0.40757345711559839 0 -0.34704460986182811 0.36916849325601281 0 -0.35079150368446871 0.38730646075618252 0 -0.3340392482075355 0.37721008646685739 0 -0.34704460986182811 0.36916849325601281 0 -0.35079150368446871 0.38730646075618252 0 -0.35876378843569051 0.37617588476876967 0 -0.37193073854527031 0.37242375593596277 0 -0.35876378843569051 0.37617588476876967 0 -0.37064961076277242 0.39305837976689562 0 -0.35079150368446871 0.38730646075618252 0 -0.35876378843569051 0.37617588476876967 0 -0.37064961076277242 0.39305837976689562 0 -0.38683860343747911 0.40591705408493789 0 -0.37064961076277242 0.39305837976689562 0 -0.36649854633425821 0.42100293610438511 0 -0.37064961076277242 0.39305837976689562 0 -0.36649854633425821 0.42100293610438511 0 -0.35131072788356371 0.40757345711559839 0 -0.38153556631197177 0.42786881453112707 0 -0.36649854633425821 0.42100293610438511 0 -0.36404659543697337 0.43742407143792272 0 -0.36649854633425821 0.42100293610438511 0 -0.36404659543697337 0.43742407143792272 0 -0.34615848923103731 0.43608881812383221 0 -0.36649854633425821 0.42100293610438511 0 -0.34615848923103731 0.43608881812383221 0 -0.36649854633425821 0.42100293610438511 0 -0.34615848923103731 0.43608881812383221 0 -0.35131072788356371 0.40757345711559839 0 -0.34615848923103731 0.43608881812383221 0 -0.35131072788356371 0.40757345711559839 0 -0.33128857542830209 0.41075687450258758 0 -0.34615848923103731 0.43608881812383221 0 -0.32415192154657863 0.42691202075257018 0 -0.32778183569271918 0.44098721396009888 0 -0.34615848923103731 0.43608881812383221 0 -0.33128857542830209 0.41075687450258758 0 -0.32415192154657863 0.42691202075257018 0 -0.32415192154657863 0.42691202075257018 0 -0.31571276072974269 0.43566100469432112 0 -0.3077990714796523 0.42743984374790889 0 -0.32415192154657863 0.42691202075257018 0 -0.3114159864618623 0.41547440475445202 0 -0.3077990714796523 0.42743984374790889 0 -0.32415192154657863 0.42691202075257018 0 -0.31571276072974269 0.43566100469432112 0 -0.32778183569271918 0.44098721396009888 0 -0.33128857542830209 0.41075687450258758 0 -0.3177136592125252 0.40269396999622981 0 -0.3114159864618623 0.41547440475445202 0 -0.33128857542830209 0.41075687450258758 0 -0.32415192154657863 0.42691202075257018 0 -0.3114159864618623 0.41547440475445202 0 -0.3177136592125252 0.40269396999622981 0 -0.33361436191491112 0.39521907254606548 0 -0.31263754668885108 0.38806412607735619 0 -0.33128857542830209 0.41075687450258758 0 -0.3177136592125252 0.40269396999622981 0 -0.33361436191491112 0.39521907254606548 0 -0.35131072788356371 0.40757345711559839 0 -0.33128857542830209 0.41075687450258758 0 -0.33361436191491112 0.39521907254606548 0 -0.35079150368446871 0.38730646075618252 0 -0.33361436191491112 0.39521907254606548 0 -0.3340392482075355 0.37721008646685739 0 -0.35079150368446871 0.38730646075618252 0 -0.3340392482075355 0.37721008646685739 0 -0.31728699273060279 0.36711371217753141 0 -0.31263754668885108 0.38806412607735619 0 -0.33361436191491112 0.39521907254606548 0 -0.3340392482075355 0.37721008646685739 0 -0.31263754668885108 0.38806412607735619 0 -0.31728699273060279 0.36711371217753141 0 -0.3340392482075355 0.37721008646685739 0 -0.31263754668885108 0.38806412607735619 0 -0.2987438919906496 0.37398963596052642 0 -0.31728699273060279 0.36711371217753141 0 -0.31263754668885108 0.38806412607735619 0 -0.2987438919906496 0.37398963596052642 0 -0.31263754668885108 0.38806412607735619 0 -0.2989606459913341 0.40151986115434152 0 -0.3177136592125252 0.40269396999622981 0 -0.31263754668885108 0.38806412607735619 0 -0.2989606459913341 0.40151986115434152 0 -0.2989606459913341 0.40151986115434152 0 -0.28198717010599178 0.40441937541042938 0 -0.28202447626546329 0.38837484314222093 0 -0.2987438919906496 0.37398963596052642 0 -0.2989606459913341 0.40151986115434152 0 -0.28202447626546329 0.38837484314222093 0 -0.28334534416272261 0.37300124569309812 0 -0.2987438919906496 0.37398963596052642 0 -0.28202447626546329 0.38837484314222093 0 -0.28202447626546329 0.38837484314222093 0 -0.26812931041450588 0.38090258278187988 0 -0.26674532783723992 0.39930985244471978 0 -0.28334534416272261 0.37300124569309812 0 -0.28202447626546329 0.38837484314222093 0 -0.26812931041450588 0.38090258278187988 0 -0.28198717010599178 0.40441937541042938 0 -0.28202447626546329 0.38837484314222093 0 -0.26674532783723992 0.39930985244471978 0 -0.25406446795309762 0.39959820971143162 0 -0.2585706408991808 0.41661745634763608 0 -0.23848739152810641 0.39723196554850421 0 -0.26674532783723992 0.39930985244471978 0 -0.25406446795309762 0.39959820971143162 0 -0.2585706408991808 0.41661745634763608 0 -0.26674532783723992 0.39930985244471978 0 -0.25406446795309762 0.39959820971143162 0 -0.25245451154786352 0.38523356450486601 0 -0.25388726156416042 0.36855600570744479 0 -0.26812931041450588 0.38090258278187988 0 -0.25245451154786352 0.38523356450486601 0 -0.26812931041450588 0.38090258278187988 0 -0.26674532783723992 0.39930985244471978 0 -0.25245451154786352 0.38523356450486601 0 -0.25238344478234498 0.43354098405421049 0 -0.2585706408991808 0.41661745634763608 0 -0.2479034750772163 0.42330646490623342 0 -0.26406605535294292 0.43649097427503208 0 -0.25238344478234498 0.43354098405421049 0 -0.2585706408991808 0.41661745634763608 0 -0.26674532783723992 0.39930985244471978 0 -0.2585706408991808 0.41661745634763608 0 -0.27379000683386229 0.41694832662004688 0 -0.28198717010599178 0.40441937541042938 0 -0.26674532783723992 0.39930985244471978 0 -0.27379000683386229 0.41694832662004688 0 -0.2585706408991808 0.41661745634763608 0 -0.27379000683386229 0.41694832662004688 0 -0.27379000683386229 0.41694832662004688 0 -0.27618575912296123 0.43362056704667351 0 -0.28735981451622961 0.4288775491811454 0 -0.2585706408991808 0.41661745634763608 0 -0.27379000683386229 0.41694832662004688 0 -0.27618575912296123 0.43362056704667351 0 -0.2585706408991808 0.41661745634763608 0 -0.27618575912296123 0.43362056704667351 0 -0.26406605535294292 0.43649097427503208 0 -0.2585706408991808 0.41661745634763608 0 -0.27618575912296123 0.43362056704667351 0 -0.28735981451622961 0.4288775491811454 0 -0.28900937276854388 0.41727919689245802 0 -0.29873223144865008 0.42060273320649683 0 -0.28735981451622961 0.4288775491811454 0 -0.29873223144865008 0.42060273320649683 0 -0.29784849747427877 0.43302554350867523 0 -0.2989606459913341 0.40151986115434152 0 -0.28198717010599178 0.40441937541042938 0 -0.28900937276854388 0.41727919689245802 0 -0.2989606459913341 0.40151986115434152 0 -0.28900937276854388 0.41727919689245802 0 -0.29873223144865008 0.42060273320649683 0 -0.28198717010599178 0.40441937541042938 0 -0.27379000683386229 0.41694832662004688 0 -0.28900937276854388 0.41727919689245802 0 -0.27379000683386229 0.41694832662004688 0 -0.28735981451622961 0.4288775491811454 0 -0.28900937276854388 0.41727919689245802 0 -0.27379000683386229 0.41694832662004688 0 -0.28900937276854388 0.41727919689245802 0 -0.2989606459913341 0.40151986115434152 0 -0.29873223144865008 0.42060273320649683 0 -0.3114159864618623 0.41547440475445202 0 -0.3177136592125252 0.40269396999622981 0 -0.2989606459913341 0.40151986115434152 0 -0.3114159864618623 0.41547440475445202 0 -0.29873223144865008 0.42060273320649683 0 -0.3114159864618623 0.41547440475445202 0 -0.3077990714796523 0.42743984374790889 0 -0.3037903017576038 0.43668751742415413 0 -0.29784849747427877 0.43302554350867523 0 -0.3077990714796523 0.42743984374790889 0 -0.29873223144865008 0.42060273320649683 0 -0.29784849747427877 0.43302554350867523 0 -0.3077990714796523 0.42743984374790889 0 -0.31571276072974269 0.43566100469432112 0 -0.3037903017576038 0.43668751742415413 0 -0.3077990714796523 0.42743984374790889 0 -0.30118987071759612 0.45775595302441968 0 -0.29380087734674132 0.4506236777457111 0 -0.31636815832426513 0.4446827721949706 0 -0.31571276072974269 0.43566100469432112 0 -0.29380087734674132 0.4506236777457111 0 -0.31571276072974269 0.43566100469432112 0 -0.29380087734674132 0.4506236777457111 0 -0.31636815832426513 0.4446827721949706 0 -0.3037903017576038 0.43668751742415413 0 -0.29784849747427877 0.43302554350867523 0 -0.29380087734674132 0.4506236777457111 0 -0.31571276072974269 0.43566100469432112 0 -0.3037903017576038 0.43668751742415413 0 -0.29380087734674132 0.4506236777457111 0 -0.30118987071759612 0.45775595302441968 0 -0.31636815832426513 0.4446827721949706 0 -0.30920249159951468 0.465490188929849 0 -0.30118987071759612 0.45775595302441968 0 -0.30118987071759612 0.45775595302441968 0 -0.31364296931230218 0.45820183306721268 0 -0.31636815832426513 0.4446827721949706 0 -0.30920249159951468 0.465490188929849 0 -0.30118987071759612 0.45775595302441968 0 -0.31364296931230218 0.45820183306721268 0 -0.30118987071759612 0.45775595302441968 0 -0.29380087734674132 0.4506236777457111 0 -0.30920249159951468 0.465490188929849 0 -0.30118987071759612 0.45775595302441968 0 -0.29731474549003212 0.46978818990928212 0 -0.30118987071759612 0.45775595302441968 0 -0.29380087734674132 0.4506236777457111 0 -0.28484107483718552 0.47183730201628099 0 -0.29380087734674132 0.4506236777457111 0 -0.26933381259844358 0.46733117312422268 0 -0.28484107483718552 0.47183730201628099 0 -0.30118987071759612 0.45775595302441968 0 -0.28484107483718552 0.47183730201628099 0 -0.29731474549003212 0.46978818990928212 0 -0.29380087734674132 0.4506236777457111 0 -0.26933381259844358 0.46733117312422268 0 -0.30118987071759612 0.45775595302441968 0 -0.28484107483718552 0.47183730201628099 0 -0.28735981451622961 0.4288775491811454 0 -0.29784849747427877 0.43302554350867523 0 -0.29380087734674132 0.4506236777457111 0 -0.27618575912296123 0.43362056704667351 0 -0.29380087734674132 0.4506236777457111 0 -0.27618575912296123 0.43362056704667351 0 -0.28735981451622961 0.4288775491811454 0 -0.29380087734674132 0.4506236777457111 0 -0.27618575912296123 0.43362056704667351 0 -0.29380087734674132 0.4506236777457111 0 -0.27504035042158098 0.45065549763010898 0 -0.26406605535294292 0.43649097427503208 0 -0.27504035042158098 0.45065549763010898 0 -0.25815008153864683 0.44802036629653152 0 -0.26406605535294292 0.43649097427503208 0 -0.27618575912296123 0.43362056704667351 0 -0.27504035042158098 0.45065549763010898 0 -0.29380087734674132 0.4506236777457111 0 -0.27504035042158098 0.45065549763010898 0 -0.26933381259844358 0.46733117312422268 0 -0.27504035042158098 0.45065549763010898 0 -0.26933381259844358 0.46733117312422268 0 -0.26353632438375812 0.45751679820847241 0 -0.25162105297636073 0.4640601557830264 0 -0.26353632438375812 0.45751679820847241 0 -0.25815008153864683 0.44802036629653152 0 -0.25162105297636073 0.4640601557830264 0 -0.25815008153864683 0.44802036629653152 0 -0.2439277080015006 0.45329424780325722 0 -0.26933381259844358 0.46733117312422268 0 -0.25162105297636073 0.4640601557830264 0 -0.26353632438375812 0.45751679820847241 0 -0.27504035042158098 0.45065549763010898 0 -0.26353632438375812 0.45751679820847241 0 -0.25815008153864683 0.44802036629653152 0 -0.25815008153864683 0.44802036629653152 0 -0.24833902215036341 0.44346703360991241 0 -0.2439277080015006 0.45329424780325722 0 -0.25238344478234498 0.43354098405421049 0 -0.25815008153864683 0.44802036629653152 0 -0.24833902215036341 0.44346703360991241 0 -0.26406605535294292 0.43649097427503208 0 -0.25238344478234498 0.43354098405421049 0 -0.25815008153864683 0.44802036629653152 0 -0.25214348307636342 0.50000000000000244 0 -0.26849227895677502 0.48591865100814252 0 -0.25214348307636342 0.50000000000000244 0 -0.26849227895677502 0.48591865100814252 0 -0.24486674785014559 0.48403866850273408 0 -0.26933381259844358 0.46733117312422268 0 -0.26849227895677502 0.48591865100814252 0 -0.24486674785014559 0.48403866850273408 0 -0.26933381259844358 0.46733117312422268 0 -0.24486674785014559 0.48403866850273408 0 -0.26933381259844358 0.46733117312422268 0 -0.25162105297636073 0.4640601557830264 0 -0.24486674785014559 0.48403866850273408 0 -0.26933381259844358 0.46733117312422268 0 -0.26849227895677502 0.48591865100814252 0 -0.28484107483718552 0.47183730201628099 0 -0.26849227895677502 0.48591865100814252 0 -0.2879303905560423 0.48778095281364903 0 -0.28484107483718552 0.47183730201628099 0 -0.26849227895677502 0.48591865100814252 0 -0.28484107483718552 0.47183730201628099 0 -0.25214348307636342 0.50000000000000244 0 -0.26849227895677502 0.48591865100814252 0 -0.27929016350130098 0.5 0 -0.26849227895677502 0.48591865100814252 0 -0.27929016350130098 0.5 0 -0.2879303905560423 0.48778095281364903 0 -0.27929016350130098 0.5 0 -0.2879303905560423 0.48778095281364903 0 -0.3064368439262386 0.5 0 -0.28484107483718552 0.47183730201628099 0 -0.30059159155871129 0.48114881104382129 0 -0.29731474549003212 0.46978818990928212 0 -0.2879303905560423 0.48778095281364903 0 -0.28484107483718552 0.47183730201628099 0 -0.30059159155871129 0.48114881104382129 0 -0.30920249159951468 0.465490188929849 0 -0.30059159155871129 0.48114881104382129 0 -0.29731474549003212 0.46978818990928212 0 -0.30920249159951468 0.465490188929849 0 -0.30059159155871129 0.48114881104382129 0 -0.32003235719264711 0.48243078900452452 0 -0.30059159155871129 0.48114881104382129 0 -0.3064368439262386 0.5 0 -0.32003235719264711 0.48243078900452452 0 -0.2879303905560423 0.48778095281364903 0 -0.30059159155871129 0.48114881104382129 0 -0.3064368439262386 0.5 0 -0.3064368439262386 0.5 0 -0.33358352435117622 0.5 0 -0.32003235719264711 0.48243078900452452 0 -0.33358352435117622 0.5 0 -0.32003235719264711 0.48243078900452452 0 -0.34528222267437952 0.48675887293472708 0 -0.32003235719264711 0.48243078900452452 0 -0.32156186822339738 0.46822209513583068 0 -0.34398711935507281 0.46799732017084361 0 -0.32003235719264711 0.48243078900452452 0 -0.34398711935507281 0.46799732017084361 0 -0.34528222267437952 0.48675887293472708 0 -0.32003235719264711 0.48243078900452452 0 -0.34398711935507281 0.46799732017084361 0 -0.30920249159951468 0.465490188929849 0 -0.32003235719264711 0.48243078900452452 0 -0.32156186822339738 0.46822209513583068 0 -0.30920249159951468 0.465490188929849 0 -0.31364296931230218 0.45820183306721268 0 -0.32156186822339738 0.46822209513583068 0 -0.31364296931230218 0.45820183306721268 0 -0.32258506617599653 0.45338153487139549 0 -0.32156186822339738 0.46822209513583068 0 -0.32258506617599653 0.45338153487139549 0 -0.32156186822339738 0.46822209513583068 0 -0.33168580212298621 0.46071810626764848 0 -0.31571276072974269 0.43566100469432112 0 -0.31636815832426513 0.4446827721949706 0 -0.32778183569271918 0.44098721396009888 0 -0.31364296931230218 0.45820183306721268 0 -0.32258506617599653 0.45338153487139549 0 -0.31636815832426513 0.4446827721949706 0 -0.32258506617599653 0.45338153487139549 0 -0.31636815832426513 0.4446827721949706 0 -0.32778183569271918 0.44098721396009888 0 -0.34615848923103731 0.43608881812383221 0 -0.32778183569271918 0.44098721396009888 0 -0.34200491456029269 0.45112096267536778 0 -0.32258506617599653 0.45338153487139549 0 -0.32778183569271918 0.44098721396009888 0 -0.34200491456029269 0.45112096267536778 0 -0.32156186822339738 0.46822209513583068 0 -0.33168580212298621 0.46071810626764848 0 -0.34398711935507281 0.46799732017084361 0 -0.32258506617599653 0.45338153487139549 0 -0.34200491456029269 0.45112096267536778 0 -0.33168580212298621 0.46071810626764848 0 -0.34200491456029269 0.45112096267536778 0 -0.33168580212298621 0.46071810626764848 0 -0.34398711935507281 0.46799732017084361 0 -0.34398711935507281 0.46799732017084361 0 -0.36794188151749818 0.45356385133716282 0 -0.34200491456029269 0.45112096267536778 0 -0.34398711935507281 0.46799732017084361 0 -0.36794188151749818 0.45356385133716282 0 -0.36404659543697337 0.43742407143792272 0 -0.34200491456029269 0.45112096267536778 0 -0.36794188151749818 0.45356385133716282 0 -0.36404659543697337 0.43742407143792272 0 -0.34615848923103731 0.43608881812383221 0 -0.34200491456029269 0.45112096267536778 0 -0.3804235055036993 0.4401558411045346 0 -0.36404659543697337 0.43742407143792272 0 -0.36794188151749818 0.45356385133716282 0 -0.34398711935507281 0.46799732017084361 0 -0.37462302209290838 0.46732637768348528 0 -0.36794188151749818 0.45356385133716282 0 -0.34398711935507281 0.46799732017084361 0 -0.37462302209290838 0.46732637768348528 0 -0.36807790769688781 0.48336625549826751 0 -0.38787688520105151 0.5 0 -0.36807790769688781 0.48336625549826751 0 -0.36073020477611373 0.5 0 -0.33358352435117622 0.5 0 -0.36073020477611373 0.5 0 -0.34528222267437952 0.48675887293472708 0 -0.36807790769688781 0.48336625549826751 0 -0.36073020477611373 0.5 0 -0.34528222267437952 0.48675887293472708 0 -0.34398711935507281 0.46799732017084361 0 -0.36807790769688781 0.48336625549826751 0 -0.34528222267437952 0.48675887293472708 0 -0.1407690030600974 0.481176573493382 0 -0.15475328439277769 0.47817061310165948 0 -0.15768068774666441 0.48693323263817401 0 -0.1407690030600974 0.481176573493382 0 -0.1415539212150419 0.46619809181737182 0 -0.15637574194294221 0.46776966413519772 0 -0.1407690030600974 0.481176573493382 0 -0.15637574194294221 0.46776966413519772 0 -0.1407690030600974 0.481176573493382 0 -0.15475328439277769 0.47817061310165948 0 -0.15637574194294221 0.46776966413519772 0 -0.1407690030600974 0.481176573493382 0 -0.14314839427836751 0.5 0 -0.15768068774666441 0.48693323263817401 0 -0.1407690030600974 0.481176573493382 0 -0.12516226417725271 0.49458348285156623 0 -0.14314839427836751 0.5 0 -0.12516226417725271 0.49458348285156623 0 -0.1134368365049991 0.5 0 -0.1407690030600974 0.481176573493382 0 -0.14314839427836751 0.5 0 -0.12516226417725271 0.49458348285156623 0 -0.1407690030600974 0.481176573493382 0 -0.12516226417725271 0.49458348285156623 0 -0.12128549607814799 0.47718533142900871 0 -0.1407690030600974 0.481176573493382 0 -0.12943623685269401 0.46761185370050051 0 -0.12128549607814799 0.47718533142900871 0 -0.1407690030600974 0.481176573493382 0 -0.12943623685269401 0.46761185370050051 0 -0.1415539212150419 0.46619809181737182 0 -0.125402629074886 0.45481485359698892 0 -0.14111404505245351 0.45044076418504447 0 -0.1415539212150419 0.46619809181737182 0 -0.12943623685269401 0.46761185370050051 0 -0.125402629074886 0.45481485359698892 0 -0.1415539212150419 0.46619809181737182 0 -0.125402629074886 0.45481485359698892 0 -0.14111404505245351 0.45044076418504447 0 -0.13448153792001111 0.43701302413473381 0 -0.1488571617600366 0.44454898215049821 0 -0.15717824460582999 0.4331636405207332 0 -0.13448153792001111 0.43701302413473381 0 -0.14111404505245351 0.45044076418504447 0 -0.1488571617600366 0.44454898215049821 0 -0.13448153792001111 0.43701302413473381 0 -0.14111404505245351 0.45044076418504447 0 -0.1488571617600366 0.44454898215049821 0 -0.15033645244885949 0.45348703170234378 0 -0.1488571617600366 0.44454898215049821 0 -0.15033645244885949 0.45348703170234378 0 -0.16117552877302921 0.44864045020963528 0 -0.1488571617600366 0.44454898215049821 0 -0.16117552877302921 0.44864045020963528 0 -0.15717824460582999 0.4331636405207332 0 -0.14111404505245351 0.45044076418504447 0 -0.1415539212150419 0.46619809181737182 0 -0.15033645244885949 0.45348703170234378 0 -0.15033645244885949 0.45348703170234378 0 -0.15676820102041431 0.46028042329719238 0 -0.16117552877302921 0.44864045020963528 0 -0.1415539212150419 0.46619809181737182 0 -0.15033645244885949 0.45348703170234378 0 -0.15676820102041431 0.46028042329719238 0 -0.1415539212150419 0.46619809181737182 0 -0.15637574194294221 0.46776966413519772 0 -0.15676820102041431 0.46028042329719238 0 -0.1415539212150419 0.46619809181737182 0 -0.15676820102041431 0.46028042329719238 0 -0.15676820102041431 0.46028042329719238 0 -0.16117552877302921 0.44864045020963528 0 -0.17198248082578679 0.45436275477701332 0 -0.15637574194294221 0.46776966413519772 0 -0.15676820102041431 0.46028042329719238 0 -0.17198248082578679 0.45436275477701332 0 -0.15676820102041431 0.46028042329719238 0 -0.17198248082578679 0.45436275477701332 0 -0.15637574194294221 0.46776966413519772 0 -0.16905780764238379 0.46815390719760752 0 -0.17053456028457559 0.46253840900629978 0 -0.15637574194294221 0.46776966413519772 0 -0.17053456028457559 0.46253840900629978 0 -0.17198248082578679 0.45436275477701332 0 -0.15637574194294221 0.46776966413519772 0 -0.17198248082578679 0.45436275477701332 0 -0.16117552877302921 0.44864045020963528 0 -0.1770002932670928 0.4500522221870869 0 -0.17198248082578679 0.45436275477701332 0 -0.16117552877302921 0.44864045020963528 0 -0.1770002932670928 0.4500522221870869 0 -0.15717824460582999 0.4331636405207332 0 -0.1770002932670928 0.4500522221870869 0 -0.15717824460582999 0.4331636405207332 0 -0.1770002932670928 0.4500522221870869 0 -0.17732394712977509 0.42974690970327861 0 -0.15717824460582999 0.4331636405207332 0 -0.1770002932670928 0.4500522221870869 0 -0.19698704464285641 0.43288267984573631 0 -0.17732394712977509 0.42974690970327861 0 -0.1770002932670928 0.4500522221870869 0 -0.17890109652066141 0.45167172537407541 0 -0.19887744332007529 0.44390182761254382 0 -0.17890109652066141 0.45167172537407541 0 -0.18330481806999749 0.45542373972399491 0 -0.19887744332007529 0.44390182761254382 0 -0.1770002932670928 0.4500522221870869 0 -0.19698704464285641 0.43288267984573631 0 -0.17890109652066141 0.45167172537407541 0 -0.17198248082578679 0.45436275477701332 0 -0.1770002932670928 0.4500522221870869 0 -0.17198248082578679 0.45436275477701332 0 -0.1770002932670928 0.4500522221870869 0 -0.17890109652066141 0.45167172537407541 0 -0.17198248082578679 0.45436275477701332 0 -0.1770002932670928 0.4500522221870869 0 -0.17890109652066141 0.45167172537407541 0 -0.16905780764238379 0.46815390719760752 0 -0.17053456028457559 0.46253840900629978 0 -0.17771717221577829 0.46455047429392171 0 -0.17771717221577829 0.46455047429392171 0 -0.17753959879598649 0.45785524462775878 0 -0.183268669751987 0.46118897948567811 0 -0.17053456028457559 0.46253840900629978 0 -0.17771717221577829 0.46455047429392171 0 -0.17753959879598649 0.45785524462775878 0 -0.17053456028457559 0.46253840900629978 0 -0.17198248082578679 0.45436275477701332 0 -0.17753959879598649 0.45785524462775878 0 -0.17890109652066141 0.45167172537407541 0 -0.17198248082578679 0.45436275477701332 0 -0.17753959879598649 0.45785524462775878 0 -0.17753959879598649 0.45785524462775878 0 -0.18330481806999749 0.45542373972399491 0 -0.183268669751987 0.46118897948567811 0 -0.17890109652066141 0.45167172537407541 0 -0.18330481806999749 0.45542373972399491 0 -0.17890109652066141 0.45167172537407541 0 -0.17753959879598649 0.45785524462775878 0 -0.18330481806999749 0.45542373972399491 0 -0.18330481806999749 0.45542373972399491 0 -0.183268669751987 0.46118897948567811 0 -0.18984518912406689 0.46003668988818808 0 -0.183268669751987 0.46118897948567811 0 -0.18984518912406689 0.46003668988818808 0 -0.18844011154641291 0.46856195592650363 0 -0.17771717221577829 0.46455047429392171 0 -0.183268669751987 0.46118897948567811 0 -0.18844011154641291 0.46856195592650363 0 -0.17771717221577829 0.46455047429392171 0 -0.17673468537718909 0.47387831835943273 0 -0.18844011154641291 0.46856195592650363 0 -0.18499233083350561 0.48405394967281451 0 -0.17673468537718909 0.47387831835943273 0 -0.18844011154641291 0.46856195592650363 0 -0.18499233083350561 0.48405394967281451 0 -0.17673468537718909 0.47387831835943273 0 -0.17129107216610029 0.48433369656206121 0 -0.16905780764238379 0.46815390719760752 0 -0.17771717221577829 0.46455047429392171 0 -0.17673468537718909 0.47387831835943273 0 -0.16905780764238379 0.46815390719760752 0 -0.17673468537718909 0.47387831835943273 0 -0.16418770482140679 0.47680298213988448 0 -0.17673468537718909 0.47387831835943273 0 -0.17129107216610029 0.48433369656206121 0 -0.16418770482140679 0.47680298213988448 0 -0.17129107216610029 0.48433369656206121 0 -0.16418770482140679 0.47680298213988448 0 -0.15768068774666441 0.48693323263817401 0 -0.15475328439277769 0.47817061310165948 0 -0.16418770482140679 0.47680298213988448 0 -0.15768068774666441 0.48693323263817401 0 -0.15475328439277769 0.47817061310165948 0 -0.15637574194294221 0.46776966413519772 0 -0.16418770482140679 0.47680298213988448 0 -0.15637574194294221 0.46776966413519772 0 -0.16905780764238379 0.46815390719760752 0 -0.16418770482140679 0.47680298213988448 0 -0.14314839427836751 0.5 0 -0.15768068774666441 0.48693323263817401 0 -0.17285995205173579 0.5 0 -0.17129107216610029 0.48433369656206121 0 -0.15768068774666441 0.48693323263817401 0 -0.17285995205173579 0.5 0 -0.18499233083350561 0.48405394967281451 0 -0.17129107216610029 0.48433369656206121 0 -0.17285995205173579 0.5 0 -0.18499233083350561 0.48405394967281451 0 -0.17285995205173579 0.5 0 -0.20257150982510411 0.49999999999999989 0 -0.18499233083350561 0.48405394967281451 0 -0.20257150982510411 0.49999999999999989 0 -0.19869087615429129 0.4792867312459963 0 -0.18499233083350561 0.48405394967281451 0 -0.19869087615429129 0.4792867312459963 0 -0.18844011154641291 0.46856195592650363 0 -0.19869087615429129 0.4792867312459963 0 -0.2027711372567107 0.46414690520211349 0 -0.18844011154641291 0.46856195592650363 0 -0.19869087615429129 0.4792867312459963 0 -0.21467929130972299 0.4796708454285501 0 -0.2027711372567107 0.46414690520211349 0 -0.20257150982510411 0.49999999999999989 0 -0.19869087615429129 0.4792867312459963 0 -0.21467929130972299 0.4796708454285501 0 -0.20257150982510411 0.49999999999999989 0 -0.21467929130972299 0.4796708454285501 0 -0.22735749645073369 0.5 0 -0.20257150982510411 0.49999999999999989 0 -0.21467929130972299 0.4796708454285501 0 -0.21467929130972299 0.4796708454285501 0 -0.22735749645073369 0.5 0 -0.2299573781854661 0.48526770708290717 0 -0.22735749645073369 0.5 0 -0.2299573781854661 0.48526770708290717 0 -0.24486674785014559 0.48403866850273408 0 -0.21467929130972299 0.4796708454285501 0 -0.2299573781854661 0.48526770708290717 0 -0.23598382514153721 0.47157530858172142 0 -0.21467929130972299 0.4796708454285501 0 -0.23598382514153721 0.47157530858172142 0 -0.22678707279434199 0.45934169085710019 0 -0.21467929130972299 0.4796708454285501 0 -0.22678707279434199 0.45934169085710019 0 -0.25162105297636073 0.4640601557830264 0 -0.23598382514153721 0.47157530858172142 0 -0.24486674785014559 0.48403866850273408 0 -0.2299573781854661 0.48526770708290717 0 -0.23598382514153721 0.47157530858172142 0 -0.24486674785014559 0.48403866850273408 0 -0.25214348307636342 0.50000000000000244 0 -0.22735749645073369 0.5 0 -0.24486674785014559 0.48403866850273408 0 -0.23889485427896109 0.43901253628565051 0 -0.2439277080015006 0.45329424780325722 0 -0.22678707279434199 0.45934169085710019 0 -0.25238344478234498 0.43354098405421049 0 -0.23889485427896109 0.43901253628565051 0 -0.24833902215036341 0.44346703360991241 0 -0.23889485427896109 0.43901253628565051 0 -0.24833902215036341 0.44346703360991241 0 -0.2439277080015006 0.45329424780325722 0 -0.25162105297636073 0.4640601557830264 0 -0.23598382514153721 0.47157530858172142 0 -0.2439277080015006 0.45329424780325722 0 -0.23598382514153721 0.47157530858172142 0 -0.2439277080015006 0.45329424780325722 0 -0.22678707279434199 0.45934169085710019 0 -0.23889485427896109 0.43901253628565051 0 -0.22678707279434199 0.45934169085710019 0 -0.2188537901194893 0.43613192985101218 0 -0.23889485427896109 0.43901253628565051 0 -0.22678707279434199 0.45934169085710019 0 -0.19887744332007529 0.44390182761254382 0 -0.2188537901194893 0.43613192985101218 0 -0.19887744332007529 0.44390182761254382 0 -0.19698704464285641 0.43288267984573631 0 -0.2188537901194893 0.43613192985101218 0 -0.22678707279434199 0.45934169085710019 0 -0.2086243059877525 0.45171955758885102 0 -0.2188537901194893 0.43613192985101218 0 -0.2086243059877525 0.45171955758885102 0 -0.19887744332007529 0.44390182761254382 0 -0.2188537901194893 0.43613192985101218 0 -0.22678707279434199 0.45934169085710019 0 -0.2086243059877525 0.45171955758885102 0 -0.2027711372567107 0.46414690520211349 0 -0.21467929130972299 0.4796708454285501 0 -0.22678707279434199 0.45934169085710019 0 -0.2027711372567107 0.46414690520211349 0 -0.2027711372567107 0.46414690520211349 0 -0.19583208644814529 0.45507543442148501 0 -0.18984518912406689 0.46003668988818808 0 -0.2086243059877525 0.45171955758885102 0 -0.2027711372567107 0.46414690520211349 0 -0.19583208644814529 0.45507543442148501 0 -0.18330481806999749 0.45542373972399491 0 -0.19583208644814529 0.45507543442148501 0 -0.18984518912406689 0.46003668988818808 0 -0.2027711372567107 0.46414690520211349 0 -0.18984518912406689 0.46003668988818808 0 -0.18844011154641291 0.46856195592650363 0 -0.17890109652066141 0.45167172537407541 0 -0.19887744332007529 0.44390182761254382 0 -0.1770002932670928 0.4500522221870869 0 -0.19887744332007529 0.44390182761254382 0 -0.19698704464285641 0.43288267984573631 0 -0.2086243059877525 0.45171955758885102 0 -0.19583208644814529 0.45507543442148501 0 -0.19887744332007529 0.44390182761254382 0 -0.18330481806999749 0.45542373972399491 0 -0.19583208644814529 0.45507543442148501 0 -0.19887744332007529 0.44390182761254382 0 -0.19698704464285641 0.43288267984573631 0 -0.19068577465971739 0.41514163374887308 0 -0.17732394712977509 0.42974690970327861 0 -0.19068577465971739 0.41514163374887308 0 -0.21697379601861921 0.41571313750438449 0 -0.20008750404510081 0.39639776102304242 0 -0.19698704464285641 0.43288267984573631 0 -0.19068577465971739 0.41514163374887308 0 -0.21697379601861921 0.41571313750438449 0 -0.19068577465971739 0.41514163374887308 0 -0.21697379601861921 0.41571313750438449 0 -0.19698704464285641 0.43288267984573631 0 -0.21697379601861921 0.41571313750438449 0 -0.2188537901194893 0.43613192985101218 0 -0.19698704464285641 0.43288267984573631 0 -0.21697379601861921 0.41571313750438449 0 -0.23889485427896109 0.43901253628565051 0 -0.2188537901194893 0.43613192985101218 0 -0.2388301369189034 0.42836203208948059 0 -0.21697379601861921 0.41571313750438449 0 -0.2188537901194893 0.43613192985101218 0 -0.22721460742197949 0.42322528966286282 0 -0.2188537901194893 0.43613192985101218 0 -0.2388301369189034 0.42836203208948059 0 -0.2188537901194893 0.43613192985101218 0 -0.22721460742197949 0.42322528966286282 0 -0.2388301369189034 0.42836203208948059 0 -0.21697379601861921 0.41571313750438449 0 -0.22721460742197949 0.42322528966286282 0 -0.23777221845890009 0.41616529692601001 0 -0.21697379601861921 0.41571313750438449 0 -0.23777221845890009 0.41616529692601001 0 -0.23848739152810641 0.39723196554850421 0 -0.21697379601861921 0.41571313750438449 0 -0.23777221845890009 0.41616529692601001 0 -0.21697379601861921 0.41571313750438449 0 -0.23848739152810641 0.39723196554850421 0 -0.2585706408991808 0.41661745634763608 0 -0.23777221845890009 0.41616529692601001 0 -0.23848739152810641 0.39723196554850421 0 -0.2585706408991808 0.41661745634763608 0 -0.23777221845890009 0.41616529692601001 0 -0.2479034750772163 0.42330646490623342 0 -0.2585706408991808 0.41661745634763608 0 -0.23848739152810641 0.39723196554850421 0 -0.2585706408991808 0.41661745634763608 0 -0.23777221845890009 0.41616529692601001 0 -0.25238344478234498 0.43354098405421049 0 -0.2479034750772163 0.42330646490623342 0 -0.2388301369189034 0.42836203208948059 0 -0.25238344478234498 0.43354098405421049 0 -0.23889485427896109 0.43901253628565051 0 -0.2388301369189034 0.42836203208948059 0 -0.23777221845890009 0.41616529692601001 0 -0.2479034750772163 0.42330646490623342 0 -0.2388301369189034 0.42836203208948059 0 -0.22721460742197949 0.42322528966286282 0 -0.23777221845890009 0.41616529692601001 0 -0.2388301369189034 0.42836203208948059 0 -0.25245451154786352 0.38523356450486601 0 -0.23848739152810641 0.39723196554850421 0 -0.23807406657626479 0.37449872563355091 0 -0.25388726156416042 0.36855600570744479 0 -0.25245451154786352 0.38523356450486601 0 -0.23807406657626479 0.37449872563355091 0 -0.25245451154786352 0.38523356450486601 0 -0.23848739152810641 0.39723196554850421 0 -0.25406446795309762 0.39959820971143162 0 -0.25245451154786352 0.38523356450486601 0 -0.23848739152810641 0.39723196554850421 0 -0.21697379601861921 0.41571313750438449 0 -0.23848739152810641 0.39723196554850421 0 -0.21917881643168149 0.39746394869269702 0 -0.23848739152810641 0.39723196554850421 0 -0.21917881643168149 0.39746394869269702 0 -0.22116657413489921 0.38051293069485659 0 -0.23848739152810641 0.39723196554850421 0 -0.22116657413489921 0.38051293069485659 0 -0.23807406657626479 0.37449872563355091 0 -0.23848739152810641 0.39723196554850421 0 -0.22116657413489921 0.38051293069485659 0 -0.22116657413489921 0.38051293069485659 0 -0.20008750404510081 0.39639776102304242 0 -0.1937283514820283 0.3777557556897807 0 -0.21917881643168149 0.39746394869269702 0 -0.22116657413489921 0.38051293069485659 0 -0.20008750404510081 0.39639776102304242 0 -0.21697379601861921 0.41571313750438449 0 -0.21917881643168149 0.39746394869269702 0 -0.20008750404510081 0.39639776102304242 0 -0.19068577465971739 0.41514163374887308 0 -0.20008750404510081 0.39639776102304242 0 -0.17780881819189531 0.40257192616375331 0 -0.20008750404510081 0.39639776102304242 0 -0.1937283514820283 0.3777557556897807 0 -0.17953122315795761 0.38477963532132448 0 -0.17953122315795761 0.38477963532132448 0 -0.1601295698213418 0.37782552819920251 0 -0.18316049184609981 0.36448771503007432 0 -0.1937283514820283 0.3777557556897807 0 -0.17953122315795761 0.38477963532132448 0 -0.18316049184609981 0.36448771503007432 0 -0.17953122315795761 0.38477963532132448 0 -0.1601295698213418 0.37782552819920251 0 -0.1630069806942599 0.39649562980601938 0 -0.1630069806942599 0.39649562980601938 0 -0.17780881819189531 0.40257192616375331 0 -0.16439775330081571 0.41457012999336201 0 -0.17953122315795761 0.38477963532132448 0 -0.1630069806942599 0.39649562980601938 0 -0.17780881819189531 0.40257192616375331 0 -0.20008750404510081 0.39639776102304242 0 -0.17953122315795761 0.38477963532132448 0 -0.17780881819189531 0.40257192616375331 0 -0.19068577465971739 0.41514163374887308 0 -0.17780881819189531 0.40257192616375331 0 -0.16439775330081571 0.41457012999336201 0 -0.19068577465971739 0.41514163374887308 0 -0.16439775330081571 0.41457012999336201 0 -0.19068577465971739 0.41514163374887308 0 -0.17732394712977509 0.42974690970327861 0 -0.16439775330081571 0.41457012999336201 0 -0.17732394712977509 0.42974690970327861 0 -0.15717824460582999 0.4331636405207332 0 -0.16439775330081571 0.41457012999336201 0 -0.17732394712977509 0.42974690970327861 0 -0.15717824460582999 0.4331636405207332 0 -0.15717824460582999 0.4331636405207332 0 -0.16439775330081571 0.41457012999336201 0 -0.1509960365762672 0.40906271597372851 0 -0.1630069806942599 0.39649562980601938 0 -0.16439775330081571 0.41457012999336201 0 -0.1509960365762672 0.40906271597372851 0 -0.1509960365762672 0.40906271597372851 0 -0.13901058719099649 0.41768461657219291 0 -0.13696401555234641 0.40163329194434477 0 -0.15717824460582999 0.4331636405207332 0 -0.1509960365762672 0.40906271597372851 0 -0.13901058719099649 0.41768461657219291 0 -0.15717824460582999 0.4331636405207332 0 -0.13448153792001111 0.43701302413473381 0 -0.13901058719099649 0.41768461657219291 0 -0.15717824460582999 0.4331636405207332 0 -0.13901058719099649 0.41768461657219291 0 -0.15717824460582999 0.4331636405207332 0 -0.13448153792001111 0.43701302413473381 0 -0.13448153792001111 0.43701302413473381 0 -0.13901058719099649 0.41768461657219291 0 -0.1191954370207851 0.42244219748149592 0 -0.13901058719099649 0.41768461657219291 0 -0.12084292977616209 0.40220559262365357 0 -0.1191954370207851 0.42244219748149592 0 -0.13901058719099649 0.41768461657219291 0 -0.13696401555234641 0.40163329194434477 0 -0.12084292977616209 0.40220559262365357 0 -0.13901058719099649 0.41768461657219291 0 -0.12084292977616209 0.40220559262365357 0 -0.13696401555234641 0.40163329194434477 0 -0.12913571711656729 0.39128712338514521 0 -0.14541863811335479 0.39082898700571889 0 -0.13696401555234641 0.40163329194434477 0 -0.12913571711656729 0.39128712338514521 0 -0.12084292977616209 0.40220559262365357 0 -0.12913571711656729 0.39128712338514521 0 -0.14541863811335479 0.39082898700571889 0 -0.1316688985582615 0.37395036026003298 0 -0.1601295698213418 0.37782552819920251 0 -0.14541863811335479 0.39082898700571889 0 -0.1316688985582615 0.37395036026003298 0 -0.1601295698213418 0.37782552819920251 0 -0.1630069806942599 0.39649562980601938 0 -0.14541863811335479 0.39082898700571889 0 -0.1509960365762672 0.40906271597372851 0 -0.13696401555234641 0.40163329194434477 0 -0.14541863811335479 0.39082898700571889 0 -0.1630069806942599 0.39649562980601938 0 -0.1509960365762672 0.40906271597372851 0 -0.14541863811335479 0.39082898700571889 0 -0.1525536935338109 0.36008333542809068 0 -0.1301315718582082 0.34852002884837258 0 -0.1488920472096224 0.34023897988082302 0 -0.1601295698213418 0.37782552819920251 0 -0.1525536935338109 0.36008333542809068 0 -0.1316688985582615 0.37395036026003298 0 -0.1525536935338109 0.36008333542809068 0 -0.1316688985582615 0.37395036026003298 0 -0.1525536935338109 0.36008333542809068 0 -0.1316688985582615 0.37395036026003298 0 -0.1301315718582082 0.34852002884837258 0 -0.1316688985582615 0.37395036026003298 0 -0.1301315718582082 0.34852002884837258 0 -0.1183129240464134 0.36183617403739649 0 -0.1301315718582082 0.34852002884837258 0 -0.13338994618507699 0.33245683908299473 0 -0.11474023773839349 0.32822781435910903 0 -0.1301315718582082 0.34852002884837258 0 -0.13338994618507699 0.33245683908299473 0 -0.1488920472096224 0.34023897988082302 0 -0.13338994618507699 0.33245683908299473 0 -0.12932394091554861 0.31885650945505761 0 -0.11474023773839349 0.32822781435910903 0 -0.13338994618507699 0.33245683908299473 0 -0.12932394091554861 0.31885650945505761 0 -0.14386193320361221 0.32644086287161161 0 -0.12932394091554861 0.31885650945505761 0 -0.14117379783119521 0.31455915124218392 0 -0.14386193320361221 0.32644086287161161 0 -0.12932394091554861 0.31885650945505761 0 -0.14117379783119521 0.31455915124218392 0 -0.13330191435783509 0.31065133313023668 0 -0.14386193320361221 0.32644086287161161 0 -0.15227418085697991 0.31502886575503092 0 -0.16232640514340471 0.32688092942971969 0 -0.14117379783119521 0.31455915124218392 0 -0.14386193320361221 0.32644086287161161 0 -0.15227418085697991 0.31502886575503092 0 -0.14386193320361221 0.32644086287161161 0 -0.1488920472096224 0.34023897988082302 0 -0.16232640514340471 0.32688092942971969 0 -0.13338994618507699 0.33245683908299473 0 -0.14386193320361221 0.32644086287161161 0 -0.1488920472096224 0.34023897988082302 0 -0.16232640514340471 0.32688092942971969 0 -0.1791480316511711 0.32805869970942553 0 -0.17343848850936039 0.34621631059614838 0 -0.1488920472096224 0.34023897988082302 0 -0.16232640514340471 0.32688092942971969 0 -0.17343848850936039 0.34621631059614838 0 -0.15227418085697991 0.31502886575503092 0 -0.16232640514340471 0.32688092942971969 0 -0.16348911133213759 0.31109383769857779 0 -0.16232640514340471 0.32688092942971969 0 -0.17338179329072051 0.31767076830896712 0 -0.16348911133213759 0.31109383769857779 0 -0.16232640514340471 0.32688092942971969 0 -0.1791480316511711 0.32805869970942553 0 -0.17338179329072051 0.31767076830896712 0 -0.1791480316511711 0.32805869970942553 0 -0.17338179329072051 0.31767076830896712 0 -0.18950974577664309 0.31590213183382643 0 -0.17338179329072051 0.31767076830896712 0 -0.18950974577664309 0.31590213183382643 0 -0.17618505861563269 0.30552225514913189 0 -0.1791480316511711 0.32805869970942553 0 -0.17343848850936039 0.34621631059614838 0 -0.19708372553572689 0.33362335837846607 0 -0.17343848850936039 0.34621631059614838 0 -0.18316049184609981 0.36448771503007432 0 -0.19708372553572689 0.33362335837846607 0 -0.1525536935338109 0.36008333542809068 0 -0.17343848850936039 0.34621631059614838 0 -0.1525536935338109 0.36008333542809068 0 -0.17343848850936039 0.34621631059614838 0 -0.18316049184609981 0.36448771503007432 0 -0.1525536935338109 0.36008333542809068 0 -0.1488920472096224 0.34023897988082302 0 -0.17343848850936039 0.34621631059614838 0 -0.1601295698213418 0.37782552819920251 0 -0.1525536935338109 0.36008333542809068 0 -0.18316049184609981 0.36448771503007432 0 -0.1937283514820283 0.3777557556897807 0 -0.18316049184609981 0.36448771503007432 0 -0.20384575674169189 0.3637938958412093 0 -0.18316049184609981 0.36448771503007432 0 -0.20384575674169189 0.3637938958412093 0 -0.19708372553572689 0.33362335837846607 0 -0.20384575674169189 0.3637938958412093 0 -0.2219073923132179 0.34095955757839908 0 -0.19708372553572689 0.33362335837846607 0 -0.20384575674169189 0.3637938958412093 0 -0.223785224886002 0.36249128838945122 0 -0.2219073923132179 0.34095955757839908 0 -0.22116657413489921 0.38051293069485659 0 -0.20384575674169189 0.3637938958412093 0 -0.223785224886002 0.36249128838945122 0 -0.22116657413489921 0.38051293069485659 0 -0.1937283514820283 0.3777557556897807 0 -0.20384575674169189 0.3637938958412093 0 -0.22116657413489921 0.38051293069485659 0 -0.20384575674169189 0.3637938958412093 0 -0.22116657413489921 0.38051293069485659 0 -0.223785224886002 0.36249128838945122 0 -0.23807406657626479 0.37449872563355091 0 -0.223785224886002 0.36249128838945122 0 -0.23974242103901289 0.35638209320221331 0 -0.23807406657626479 0.37449872563355091 0 -0.223785224886002 0.36249128838945122 0 -0.23974242103901289 0.35638209320221331 0 -0.2219073923132179 0.34095955757839908 0 -0.23974242103901289 0.35638209320221331 0 -0.23986408012078619 0.33861761948273811 0 -0.2219073923132179 0.34095955757839908 0 -0.25388726156416042 0.36855600570744479 0 -0.25555285531660432 0.34950511563052261 0 -0.23974242103901289 0.35638209320221331 0 -0.25555285531660432 0.34950511563052261 0 -0.23974242103901289 0.35638209320221331 0 -0.23986408012078619 0.33861761948273811 0 -0.25388726156416042 0.36855600570744479 0 -0.23974242103901289 0.35638209320221331 0 -0.23807406657626479 0.37449872563355091 0 -0.25391231018304028 0.32891858577509753 0 -0.23986408012078619 0.33861761948273811 0 -0.23278741600051961 0.31618687697428588 0 -0.25391231018304028 0.32891858577509753 0 -0.23278741600051961 0.31618687697428588 0 -0.25646132123655913 0.30730868465492878 0 -0.25391231018304028 0.32891858577509753 0 -0.23278741600051961 0.31618687697428588 0 -0.25391231018304028 0.32891858577509753 0 -0.25555285531660432 0.34950511563052261 0 -0.23986408012078619 0.33861761948273811 0 -0.23986408012078619 0.33861761948273811 0 -0.2219073923132179 0.34095955757839908 0 -0.23278741600051961 0.31618687697428588 0 -0.2219073923132179 0.34095955757839908 0 -0.23278741600051961 0.31618687697428588 0 -0.2184081386653571 0.31615404010330522 0 -0.2184081386653571 0.31615404010330522 0 -0.19708372553572689 0.33362335837846607 0 -0.20628658880685169 0.30841887856850891 0 -0.2219073923132179 0.34095955757839908 0 -0.2184081386653571 0.31615404010330522 0 -0.19708372553572689 0.33362335837846607 0 -0.19708372553572689 0.33362335837846607 0 -0.20628658880685169 0.30841887856850891 0 -0.19708372553572689 0.33362335837846607 0 -0.18950974577664309 0.31590213183382643 0 -0.20628658880685169 0.30841887856850891 0 -0.1791480316511711 0.32805869970942553 0 -0.19708372553572689 0.33362335837846607 0 -0.18950974577664309 0.31590213183382643 0 -0.18950974577664309 0.31590213183382643 0 -0.19496815427226799 0.30596431169937799 0 -0.20628658880685169 0.30841887856850891 0 -0.18950974577664309 0.31590213183382643 0 -0.19496815427226799 0.30596431169937799 0 -0.18733186015208861 0.29924897486665308 0 -0.19496815427226799 0.30596431169937799 0 -0.20096232848435169 0.29830505589614498 0 -0.18733186015208861 0.29924897486665308 0 -0.19496815427226799 0.30596431169937799 0 -0.20096232848435169 0.29830505589614498 0 -0.20628658880685169 0.30841887856850891 0 -0.1986981257515324 0.28938981504180927 0 -0.1939107235235247 0.27224888809965331 0 -0.18618362856967419 0.28696183019305749 0 -0.1986981257515324 0.28938981504180927 0 -0.2154894520779766 0.28321439875855181 0 -0.1939107235235247 0.27224888809965331 0 -0.1986981257515324 0.28938981504180927 0 -0.18618362856967419 0.28696183019305749 0 -0.18733186015208861 0.29924897486665308 0 -0.20096232848435169 0.29830505589614498 0 -0.1986981257515324 0.28938981504180927 0 -0.18733186015208861 0.29924897486665308 0 -0.20096232848435169 0.29830505589614498 0 -0.1986981257515324 0.28938981504180927 0 -0.2154894520779766 0.28321439875855181 0 -0.20096232848435169 0.29830505589614498 0 -0.2154894520779766 0.28321439875855181 0 -0.20628658880685169 0.30841887856850891 0 -0.2154894520779766 0.28321439875855181 0 -0.20628658880685169 0.30841887856850891 0 -0.2154894520779766 0.28321439875855181 0 -0.20628658880685169 0.30841887856850891 0 -0.2116625218179988 0.30345516817347418 0 -0.2184081386653571 0.31615404010330522 0 -0.20628658880685169 0.30841887856850891 0 -0.2116625218179988 0.30345516817347418 0 -0.23278741600051961 0.31618687697428588 0 -0.2116625218179988 0.30345516817347418 0 -0.22956557460324009 0.29635794111323871 0 -0.23278741600051961 0.31618687697428588 0 -0.2116625218179988 0.30345516817347418 0 -0.23278741600051961 0.31618687697428588 0 -0.2184081386653571 0.31615404010330522 0 -0.2116625218179988 0.30345516817347418 0 -0.2154894520779766 0.28321439875855181 0 -0.22956557460324009 0.29635794111323871 0 -0.23278154235902129 0.27923573660433793 0 -0.2154894520779766 0.28321439875855181 0 -0.2116625218179988 0.30345516817347418 0 -0.22956557460324009 0.29635794111323871 0 -0.22956557460324009 0.29635794111323871 0 -0.24859791685371649 0.2880020299304798 0 -0.2418530571735088 0.3019638831682333 0 -0.22956557460324009 0.29635794111323871 0 -0.24859791685371649 0.2880020299304798 0 -0.23278154235902129 0.27923573660433793 0 -0.25646132123655913 0.30730868465492878 0 -0.23278741600051961 0.31618687697428588 0 -0.2418530571735088 0.3019638831682333 0 -0.25646132123655913 0.30730868465492878 0 -0.24859791685371649 0.2880020299304798 0 -0.2418530571735088 0.3019638831682333 0 -0.23278741600051961 0.31618687697428588 0 -0.22956557460324009 0.29635794111323871 0 -0.2418530571735088 0.3019638831682333 0 -0.24484340631482909 0.26800778059861019 0 -0.2246923153491015 0.2580099189485946 0 -0.2498521202164147 0.24664314714166921 0 -0.24859791685371649 0.2880020299304798 0 -0.24484340631482909 0.26800778059861019 0 -0.23278154235902129 0.27923573660433793 0 -0.2154894520779766 0.28321439875855181 0 -0.23278154235902129 0.27923573660433793 0 -0.2246923153491015 0.2580099189485946 0 -0.24484340631482909 0.26800778059861019 0 -0.23278154235902129 0.27923573660433793 0 -0.2246923153491015 0.2580099189485946 0 -0.2154894520779766 0.28321439875855181 0 -0.2246923153491015 0.2580099189485946 0 -0.2246923153491015 0.2580099189485946 0 -0.20922758868048891 0.26589711210059952 0 -0.1992355655274293 0.24593280249212751 0 -0.2154894520779766 0.28321439875855181 0 -0.20922758868048891 0.26589711210059952 0 -0.1939107235235247 0.27224888809965331 0 -0.2154894520779766 0.28321439875855181 0 -0.2246923153491015 0.2580099189485946 0 -0.20922758868048891 0.26589711210059952 0 -0.1939107235235247 0.27224888809965331 0 -0.17708334863010269 0.25567643143270868 0 -0.1992355655274293 0.24593280249212751 0 -0.20922758868048891 0.26589711210059952 0 -0.1939107235235247 0.27224888809965331 0 -0.1992355655274293 0.24593280249212751 0 -0.17708334863010269 0.25567643143270868 0 -0.1584297322636746 0.26031430093366159 0 -0.16402011641522299 0.2417029532036388 0 -0.1693845848548515 0.28338426734517758 0 -0.15160583778667741 0.2831383099384609 0 -0.1515139816893793 0.27400318117322481 0 -0.17708334863010269 0.25567643143270868 0 -0.1584297322636746 0.26031430093366159 0 -0.1693845848548515 0.28338426734517758 0 -0.1584297322636746 0.26031430093366159 0 -0.1693845848548515 0.28338426734517758 0 -0.1515139816893793 0.27400318117322481 0 -0.1939107235235247 0.27224888809965331 0 -0.18618362856967419 0.28696183019305749 0 -0.1693845848548515 0.28338426734517758 0 -0.1939107235235247 0.27224888809965331 0 -0.1693845848548515 0.28338426734517758 0 -0.1939107235235247 0.27224888809965331 0 -0.17708334863010269 0.25567643143270868 0 -0.1693845848548515 0.28338426734517758 0 -0.18618362856967419 0.28696183019305749 0 -0.1759784393786539 0.2942666823299509 0 -0.1693845848548515 0.28338426734517758 0 -0.18618362856967419 0.28696183019305749 0 -0.1759784393786539 0.2942666823299509 0 -0.18733186015208861 0.29924897486665308 0 -0.18950974577664309 0.31590213183382643 0 -0.18733186015208861 0.29924897486665308 0 -0.17618505861563269 0.30552225514913189 0 -0.1759784393786539 0.2942666823299509 0 -0.18733186015208861 0.29924897486665308 0 -0.17618505861563269 0.30552225514913189 0 -0.1759784393786539 0.2942666823299509 0 -0.17618505861563269 0.30552225514913189 0 -0.1646881156751879 0.2988372638038268 0 -0.17338179329072051 0.31767076830896712 0 -0.17618505861563269 0.30552225514913189 0 -0.16348911133213759 0.31109383769857779 0 -0.17618505861563269 0.30552225514913189 0 -0.1646881156751879 0.2988372638038268 0 -0.16348911133213759 0.31109383769857779 0 -0.15227418085697991 0.31502886575503092 0 -0.16348911133213759 0.31109383769857779 0 -0.1551406313297054 0.30559250972024699 0 -0.1646881156751879 0.2988372638038268 0 -0.16348911133213759 0.31109383769857779 0 -0.1551406313297054 0.30559250972024699 0 -0.1646881156751879 0.2988372638038268 0 -0.1693845848548515 0.28338426734517758 0 -0.14886491641959701 0.29769653297286119 0 -0.1693845848548515 0.28338426734517758 0 -0.14485844618617841 0.29451964659070229 0 -0.1759784393786539 0.2942666823299509 0 -0.1646881156751879 0.2988372638038268 0 -0.1693845848548515 0.28338426734517758 0 -0.1693845848548515 0.28338426734517758 0 -0.14485844618617841 0.29451964659070229 0 -0.14886491641959701 0.29769653297286119 0 -0.1693845848548515 0.28338426734517758 0 -0.15160583778667741 0.2831383099384609 0 -0.14485844618617841 0.29451964659070229 0 -0.14485844618617841 0.29451964659070229 0 -0.14886491641959701 0.29769653297286119 0 -0.15160583778667741 0.2831383099384609 0 -0.14485844618617841 0.29451964659070229 0 -0.1406663384163003 0.28064614464473903 0 -0.1646881156751879 0.2988372638038268 0 -0.1551406313297054 0.30559250972024699 0 -0.14886491641959701 0.29769653297286119 0 -0.15227418085697991 0.31502886575503092 0 -0.1551406313297054 0.30559250972024699 0 -0.14766246441412681 0.3065433675273786 0 -0.1551406313297054 0.30559250972024699 0 -0.14886491641959701 0.29769653297286119 0 -0.14766246441412681 0.3065433675273786 0 -0.14886491641959701 0.29769653297286119 0 -0.1413823614074167 0.30171545368253649 0 -0.14766246441412681 0.3065433675273786 0 -0.14485844618617841 0.29451964659070229 0 -0.14886491641959701 0.29769653297286119 0 -0.1413823614074167 0.30171545368253649 0 -0.14117379783119521 0.31455915124218392 0 -0.14766246441412681 0.3065433675273786 0 -0.138515838452963 0.30719457162604202 0 -0.14117379783119521 0.31455915124218392 0 -0.15227418085697991 0.31502886575503092 0 -0.14766246441412681 0.3065433675273786 0 -0.1413823614074167 0.30171545368253649 0 -0.14766246441412681 0.3065433675273786 0 -0.138515838452963 0.30719457162604202 0 -0.14485844618617841 0.29451964659070229 0 -0.1413823614074167 0.30171545368253649 0 -0.12701014156421819 0.30262314969569842 0 -0.12932394091554861 0.31885650945505761 0 -0.13330191435783509 0.31065133313023668 0 -0.12701014156421819 0.30262314969569842 0 -0.14485844618617841 0.29451964659070229 0 -0.12701014156421819 0.30262314969569842 0 -0.14117379783119521 0.31455915124218392 0 -0.138515838452963 0.30719457162604202 0 -0.13330191435783509 0.31065133313023668 0 -0.138515838452963 0.30719457162604202 0 -0.13330191435783509 0.31065133313023668 0 -0.12701014156421819 0.30262314969569842 0 -0.1413823614074167 0.30171545368253649 0 -0.138515838452963 0.30719457162604202 0 -0.12701014156421819 0.30262314969569842 0 -0.12701014156421819 0.30262314969569842 0 -0.1321621514173428 0.29187200718436113 0 -0.14485844618617841 0.29451964659070229 0 -0.12701014156421819 0.30262314969569842 0 -0.1321621514173428 0.29187200718436113 0 -0.14485844618617841 0.29451964659070229 0 -0.12648551561544941 0.27995103393918902 0 -0.1406663384163003 0.28064614464473903 0 -0.14485844618617841 0.29451964659070229 0 -0.12648551561544941 0.27995103393918902 0 -0.14485844618617841 0.29451964659070229 0 -0.1321621514173428 0.29187200718436113 0 -0.12648551561544941 0.27995103393918902 0 -0.12701014156421819 0.30262314969569842 0 -0.1321621514173428 0.29187200718436113 0 -0.1172889139204244 0.29062801409630701 0 -0.1321621514173428 0.29187200718436113 0 -0.12648551561544941 0.27995103393918902 0 -0.1172889139204244 0.29062801409630701 0 -0.12648551561544941 0.27995103393918902 0 -0.12981328336705 0.26969280123045009 0 -0.1406663384163003 0.28064614464473903 0 -0.13205824862631149 0.25781386204121309 0 -0.14548168625616259 0.24581136689616459 0 -0.12239846071040809 0.24920872385165541 0 -0.12981328336705 0.26969280123045009 0 -0.13205824862631149 0.25781386204121309 0 -0.1205564568069222 0.25944460472600878 0 -0.13205824862631149 0.25781386204121309 0 -0.1205564568069222 0.25944460472600878 0 -0.12239846071040809 0.24920872385165541 0 -0.13205824862631149 0.25781386204121309 0 -0.14309467573632839 0.26130760555105531 0 -0.14548168625616259 0.24581136689616459 0 -0.12981328336705 0.26969280123045009 0 -0.13205824862631149 0.25781386204121309 0 -0.14309467573632839 0.26130760555105531 0 -0.1584297322636746 0.26031430093366159 0 -0.14309467573632839 0.26130760555105531 0 -0.14548168625616259 0.24581136689616459 0 -0.1584297322636746 0.26031430093366159 0 -0.14309467573632839 0.26130760555105531 0 -0.1515139816893793 0.27400318117322481 0 -0.12981328336705 0.26969280123045009 0 -0.14309467573632839 0.26130760555105531 0 -0.1515139816893793 0.27400318117322481 0 -0.12981328336705 0.26969280123045009 0 -0.1515139816893793 0.27400318117322481 0 -0.1406663384163003 0.28064614464473903 0 -0.12981328336705 0.26969280123045009 0 -0.1515139816893793 0.27400318117322481 0 -0.15160583778667741 0.2831383099384609 0 -0.1515139816893793 0.27400318117322481 0 -0.1406663384163003 0.28064614464473903 0 -0.096054554386385577 0.26298735119697891 0 -0.1081125850447207 0.26538242128767547 0 -0.098502194110174843 0.28366356268430948 0 -0.096054554386385577 0.26298735119697891 0 -0.098502194110174843 0.28366356268430948 0 -0.1081125850447207 0.26538242128767547 0 -0.1125973021726924 0.27990625800187019 0 -0.098502194110174843 0.28366356268430948 0 -0.095118341533690268 0.25507877921583277 0 -0.1081125850447207 0.26538242128767547 0 -0.1107955376595843 0.25477349258218562 0 -0.096054554386385577 0.26298735119697891 0 -0.095118341533690268 0.25507877921583277 0 -0.095118341533690268 0.25507877921583277 0 -0.1107955376595843 0.25477349258218562 0 -0.1077918442021823 0.24475293382975541 0 -0.096054554386385577 0.26298735119697891 0 -0.095118341533690268 0.25507877921583277 0 -0.1081125850447207 0.26538242128767547 0 -0.095118341533690268 0.25507877921583277 0 -0.1081125850447207 0.26538242128767547 0 -0.096054554386385577 0.26298735119697891 0 -0.1081125850447207 0.26538242128767547 0 -0.12981328336705 0.26969280123045009 0 -0.1081125850447207 0.26538242128767547 0 -0.1205564568069222 0.25944460472600878 0 -0.1081125850447207 0.26538242128767547 0 -0.1107955376595843 0.25477349258218562 0 -0.1205564568069222 0.25944460472600878 0 -0.1107955376595843 0.25477349258218562 0 -0.1205564568069222 0.25944460472600878 0 -0.12239846071040809 0.24920872385165541 0 -0.12648551561544941 0.27995103393918902 0 -0.1081125850447207 0.26538242128767547 0 -0.12648551561544941 0.27995103393918902 0 -0.1081125850447207 0.26538242128767547 0 -0.1125973021726924 0.27990625800187019 0 -0.12648551561544941 0.27995103393918902 0 -0.12981328336705 0.26969280123045009 0 -0.1081125850447207 0.26538242128767547 0 -0.12981328336705 0.26969280123045009 0 -0.1081125850447207 0.26538242128767547 0 -0.12648551561544941 0.27995103393918902 0 -0.1125973021726924 0.27990625800187019 0 -0.1172889139204244 0.29062801409630701 0 -0.1125973021726924 0.27990625800187019 0 -0.1172889139204244 0.29062801409630701 0 -0.098502194110174843 0.28366356268430948 0 -0.12701014156421819 0.30262314969569842 0 -0.1172889139204244 0.29062801409630701 0 -0.1037541331188916 0.2980370398924726 0 -0.12701014156421819 0.30262314969569842 0 -0.1037541331188916 0.2980370398924726 0 -0.1034142099450754 0.31333619551102759 0 -0.12701014156421819 0.30262314969569842 0 -0.1034142099450754 0.31333619551102759 0 -0.1037541331188916 0.2980370398924726 0 -0.088033847755895844 0.30279958465283802 0 -0.1034142099450754 0.31333619551102759 0 -0.1037541331188916 0.2980370398924726 0 -0.098502194110174843 0.28366356268430948 0 -0.088033847755895844 0.30279958465283802 0 -0.1172889139204244 0.29062801409630701 0 -0.1037541331188916 0.2980370398924726 0 -0.098502194110174843 0.28366356268430948 0 -0.098502194110174843 0.28366356268430948 0 -0.088033847755895844 0.30279958465283802 0 -0.076814276400449744 0.28742660237262768 0 -0.098502194110174843 0.28366356268430948 0 -0.076814276400449744 0.28742660237262768 0 -0.08488422002937851 0.27359806280567428 0 -0.088033847755895844 0.30279958465283802 0 -0.065564674949872684 0.30603865125947061 0 -0.079818278325932634 0.32404924132635682 0 -0.088033847755895844 0.30279958465283802 0 -0.065564674949872684 0.30603865125947061 0 -0.076814276400449744 0.28742660237262768 0 -0.065564674949872684 0.30603865125947061 0 -0.076814276400449744 0.28742660237262768 0 -0.053017199562786443 0.28187263881364177 0 -0.076814276400449744 0.28742660237262768 0 -0.070133679365689552 0.26867644757707898 0 -0.08488422002937851 0.27359806280567428 0 -0.076814276400449744 0.28742660237262768 0 -0.070133679365689552 0.26867644757707898 0 -0.053017199562786443 0.28187263881364177 0 -0.096054554386385577 0.26298735119697891 0 -0.098502194110174843 0.28366356268430948 0 -0.08488422002937851 0.27359806280567428 0 -0.070133679365689552 0.26867644757707898 0 -0.08488422002937851 0.27359806280567428 0 -0.080154621318093006 0.25982916930020022 0 -0.096054554386385577 0.26298735119697891 0 -0.095118341533690268 0.25507877921583277 0 -0.080154621318093006 0.25982916930020022 0 -0.096054554386385577 0.26298735119697891 0 -0.080154621318093006 0.25982916930020022 0 -0.095118341533690268 0.25507877921583277 0 -0.080154621318093006 0.25982916930020022 0 -0.077333197375133444 0.24097624531684669 0 -0.096054554386385577 0.26298735119697891 0 -0.08488422002937851 0.27359806280567428 0 -0.080154621318093006 0.25982916930020022 0 -0.070133679365689552 0.26867644757707898 0 -0.080154621318093006 0.25982916930020022 0 -0.064254688249800379 0.25667098740342192 0 -0.080154621318093006 0.25982916930020022 0 -0.064254688249800379 0.25667098740342192 0 -0.077333197375133444 0.24097624531684669 0 -0.080154621318093006 0.25982916930020022 0 -0.064254688249800379 0.25667098740342192 0 -0.070133679365689552 0.26867644757707898 0 -0.062757023430971379 0.25752841825603962 0 -0.064254688249800379 0.25667098740342192 0 -0.062757023430971379 0.25752841825603962 0 -0.045372874053630351 0.26356861235578238 0 -0.052881971493888867 0.24751266973014979 0 -0.062757023430971379 0.25752841825603962 0 -0.064254688249800379 0.25667098740342192 0 -0.052881971493888867 0.24751266973014979 0 -0.070133679365689552 0.26867644757707898 0 -0.062757023430971379 0.25752841825603962 0 -0.053017199562786443 0.28187263881364177 0 -0.062757023430971379 0.25752841825603962 0 -0.045372874053630351 0.26356861235578238 0 -0.053017199562786443 0.28187263881364177 0 -0.062757023430971379 0.25752841825603962 0 -0.053017199562786443 0.28187263881364177 0 -0.045372874053630351 0.26356861235578238 0 -0.030905506094596271 0.27222730248973759 0 -0.053017199562786443 0.28187263881364177 0 -0.045372874053630351 0.26356861235578238 0 -0.028430745612644661 0.25404909414345389 0 -0.052881971493888867 0.24751266973014979 0 -0.045372874053630351 0.26356861235578238 0 -0.028430745612644661 0.25404909414345389 0 -0.030905506094596271 0.27222730248973759 0 -0.028430745612644661 0.25404909414345389 0 -0.052881971493888867 0.24751266973014979 0 -0.028430745612644661 0.25404909414345389 0 -0.01353007234780859 0.26055202432608088 0 -0.016072689309413999 0.24082991343790081 0 -0.028430745612644661 0.25404909414345389 0 -0.030905506094596271 0.27222730248973759 0 -0.01353007234780859 0.26055202432608088 0 -0.030905506094596271 0.27222730248973759 0 -0.01441201617890675 0.2806593130904535 0 -0.01353007234780859 0.26055202432608088 0 -0.01441201617890675 0.2806593130904535 0 -0.01353007234780859 0.26055202432608088 0 0.0076965934919400961 0.26915301454252388 0 -0.01441201617890675 0.2806593130904535 0 -0.003227979543891877 0.2930284770625457 0 0.0076965934919400961 0.26915301454252388 0 -0.01353007234780859 0.26055202432608088 0 -0.00045679976148860701 0.24809875771850209 0 0.0076965934919400961 0.26915301454252388 0 -0.015436342006023141 0.3043878247029288 0 -0.003227979543891877 0.2930284770625457 0 -0.002441496602033208 0.31402100451125609 0 -0.01441201617890675 0.2806593130904535 0 -0.015436342006023141 0.3043878247029288 0 -0.003227979543891877 0.2930284770625457 0 -0.01441201617890675 0.2806593130904535 0 -0.015436342006023141 0.3043878247029288 0 -0.01441201617890675 0.2806593130904535 0 -0.015436342006023141 0.3043878247029288 0 -0.030670128811800829 0.29266213220901338 0 -0.030905506094596271 0.27222730248973759 0 -0.01441201617890675 0.2806593130904535 0 -0.030670128811800829 0.29266213220901338 0 -0.015436342006023141 0.3043878247029288 0 -0.030670128811800829 0.29266213220901338 0 -0.028441827201914311 0.31149310572219302 0 -0.030670128811800829 0.29266213220901338 0 -0.028441827201914311 0.31149310572219302 0 -0.043277375694601522 0.30621685937124399 0 -0.030670128811800829 0.29266213220901338 0 -0.043277375694601522 0.30621685937124399 0 -0.053017199562786443 0.28187263881364177 0 -0.030905506094596271 0.27222730248973759 0 -0.030670128811800829 0.29266213220901338 0 -0.053017199562786443 0.28187263881364177 0 -0.043277375694601522 0.30621685937124399 0 -0.053017199562786443 0.28187263881364177 0 -0.065564674949872684 0.30603865125947061 0 -0.043277375694601522 0.30621685937124399 0 -0.053017199562786443 0.28187263881364177 0 -0.065564674949872684 0.30603865125947061 0 -0.043277375694601522 0.30621685937124399 0 -0.05162230471562218 0.32367606533028398 0 -0.05162230471562218 0.32367606533028398 0 -0.059326428535272147 0.3409821215877411 0 -0.043191861586496919 0.34579653066351568 0 -0.05162230471562218 0.32367606533028398 0 -0.033537551826416552 0.33056107992884631 0 -0.043191861586496919 0.34579653066351568 0 -0.028441827201914311 0.31149310572219302 0 -0.043277375694601522 0.30621685937124399 0 -0.033537551826416552 0.33056107992884631 0 -0.043277375694601522 0.30621685937124399 0 -0.033537551826416552 0.33056107992884631 0 -0.043277375694601522 0.30621685937124399 0 -0.05162230471562218 0.32367606533028398 0 -0.033537551826416552 0.33056107992884631 0 -0.015436342006023141 0.3043878247029288 0 -0.016460667833139521 0.32811633631540399 0 -0.028441827201914311 0.31149310572219302 0 -0.033537551826416552 0.33056107992884631 0 -0.016460667833139521 0.32811633631540399 0 -0.015436342006023141 0.3043878247029288 0 -0.028441827201914311 0.31149310572219302 0 -0.016460667833139521 0.32811633631540399 0 -0.033537551826416552 0.33056107992884631 0 -0.016460667833139521 0.32811633631540399 0 -0.02316103986679794 0.3405444371870282 0 -0.016460667833139521 0.32811633631540399 0 -0.017484993660256722 0.3518448479278794 0 -0.033537551826416552 0.33056107992884631 0 -0.02379772795823518 0.35490530048645019 0 -0.033537551826416552 0.33056107992884631 0 -0.02316103986679794 0.3405444371870282 0 -0.02379772795823518 0.35490530048645019 0 -0.016460667833139521 0.32811633631540399 0 -0.02316103986679794 0.3405444371870282 0 -0.017484993660256722 0.3518448479278794 0 -0.002697893735798772 0.33006307357789327 0 -0.017484993660256722 0.3518448479278794 0 0.0086928153310342343 0.33915368452331762 0 -0.016460667833139521 0.32811633631540399 0 -0.002697893735798772 0.33006307357789327 0 -0.017484993660256722 0.3518448479278794 0 -0.016460667833139521 0.32811633631540399 0 -0.002697893735798772 0.33006307357789327 0 -0.002441496602033208 0.31402100451125609 0 -0.015436342006023141 0.3043878247029288 0 -0.016460667833139521 0.32811633631540399 0 -0.002441496602033208 0.31402100451125609 0 -0.01298845703962298 0.35974321345150378 0 0.0064616500294893166 0.37590280414288318 0 -0.01298845703962298 0.35974321345150378 0 0.0064616500294893166 0.37590280414288318 0 0.0053995666687935966 0.3573960307483004 0 -0.01298845703962298 0.35974321345150378 0 -0.0066720667952192923 0.37360948796106253 0 0.0064616500294893166 0.37590280414288318 0 -0.01298845703962298 0.35974321345150378 0 -0.01348445599382808 0.37010593841236561 0 -0.01821903720090046 0.36884896928961269 0 -0.01298845703962298 0.35974321345150378 0 -0.01348445599382808 0.37010593841236561 0 -0.0066720667952192923 0.37360948796106253 0 -0.01348445599382808 0.37010593841236561 0 -0.01444046291139898 0.37295046248379021 0 -0.01836170820937566 0.37215394373402322 0 -0.01444046291139898 0.37295046248379021 0 -0.016070446726766479 0.37359254619603799 0 -0.014464353601989961 0.37565634894642752 0 -0.01348445599382808 0.37010593841236561 0 -0.01444046291139898 0.37295046248379021 0 -0.01155362819535294 0.37367029465570212 0 -0.01444046291139898 0.37295046248379021 0 -0.01155362819535294 0.37367029465570212 0 -0.014464353601989961 0.37565634894642752 0 -0.01348445599382808 0.37010593841236561 0 -0.01155362819535294 0.37367029465570212 0 -0.0066720667952192923 0.37360948796106253 0 -0.017484993660256722 0.3518448479278794 0 0.0086928153310342343 0.33915368452331762 0 -0.017484993660256722 0.3518448479278794 0 0.0053995666687935966 0.3573960307483004 0 0.0086928153310342343 0.33915368452331762 0 -0.01298845703962298 0.35974321345150378 0 -0.017484993660256722 0.3518448479278794 0 0.0053995666687935966 0.3573960307483004 0 -0.017484993660256722 0.3518448479278794 0 -0.02379772795823518 0.35490530048645019 0 -0.01821903720090046 0.36884896928961269 0 -0.017484993660256722 0.3518448479278794 0 -0.02379772795823518 0.35490530048645019 0 -0.02316103986679794 0.3405444371870282 0 -0.017484993660256722 0.3518448479278794 0 -0.02379772795823518 0.35490530048645019 0 -0.02379772795823518 0.35490530048645019 0 -0.02702628424760806 0.37002643043231642 0 -0.042708578203073153 0.36407339742902622 0 -0.017484993660256722 0.3518448479278794 0 -0.01821903720090046 0.36884896928961269 0 -0.01298845703962298 0.35974321345150378 0 -0.017484993660256722 0.3518448479278794 0 -0.01821903720090046 0.36884896928961269 0 -0.02379772795823518 0.35490530048645019 0 -0.01821903720090046 0.36884896928961269 0 -0.02379772795823518 0.35490530048645019 0 -0.01821903720090046 0.36884896928961269 0 -0.02702628424760806 0.37002643043231642 0 -0.01821903720090046 0.36884896928961269 0 -0.022034907257985029 0.37195692518126711 0 -0.02702628424760806 0.37002643043231642 0 -0.01444046291139898 0.37295046248379021 0 -0.01836170820937566 0.37215394373402322 0 -0.016070446726766479 0.37359254619603799 0 -0.01836170820937566 0.37215394373402322 0 -0.019500397764489089 0.37432995690158982 0 -0.017034618856495421 0.37502202355730091 0 -0.016070446726766479 0.37359254619603799 0 -0.017034618856495421 0.37502202355730091 0 -0.014464353601989961 0.37565634894642752 0 -0.01836170820937566 0.37215394373402322 0 -0.016070446726766479 0.37359254619603799 0 -0.017034618856495421 0.37502202355730091 0 -0.01348445599382808 0.37010593841236561 0 -0.01836170820937566 0.37215394373402322 0 -0.01821903720090046 0.36884896928961269 0 -0.01836170820937566 0.37215394373402322 0 -0.01821903720090046 0.36884896928961269 0 -0.01836170820937566 0.37215394373402322 0 -0.01821903720090046 0.36884896928961269 0 -0.022034907257985029 0.37195692518126711 0 -0.01836170820937566 0.37215394373402322 0 -0.019500397764489089 0.37432995690158982 0 -0.022034907257985029 0.37195692518126711 0 -0.019500397764489089 0.37432995690158982 0 -0.022034907257985029 0.37195692518126711 0 -0.02276380427485284 0.37584067803819537 0 -0.022034907257985029 0.37195692518126711 0 -0.02702628424760806 0.37002643043231642 0 -0.02276380427485284 0.37584067803819537 0 -0.02379772795823518 0.35490530048645019 0 -0.042708578203073153 0.36407339742902622 0 -0.02702628424760806 0.37002643043231642 0 -0.042708578203073153 0.36407339742902622 0 -0.036327028634482922 0.37529465541912599 0 -0.042708578203073153 0.36407339742902622 0 -0.049081901540940699 0.37953421683033378 0 -0.036327028634482922 0.37529465541912599 0 -0.033537551826416552 0.33056107992884631 0 -0.02379772795823518 0.35490530048645019 0 -0.043191861586496919 0.34579653066351568 0 -0.02379772795823518 0.35490530048645019 0 -0.042708578203073153 0.36407339742902622 0 -0.043191861586496919 0.34579653066351568 0 -0.059326428535272147 0.3409821215877411 0 -0.043191861586496919 0.34579653066351568 0 -0.057470228042752779 0.35771240227543938 0 -0.042708578203073153 0.36407339742902622 0 -0.043191861586496919 0.34579653066351568 0 -0.057470228042752779 0.35771240227543938 0 -0.042708578203073153 0.36407339742902622 0 -0.061619428447911018 0.37324149437160242 0 -0.042708578203073153 0.36407339742902622 0 -0.057470228042752779 0.35771240227543938 0 -0.061619428447911018 0.37324149437160242 0 -0.042708578203073153 0.36407339742902622 0 -0.061619428447911018 0.37324149437160242 0 -0.049081901540940699 0.37953421683033378 0 -0.061619428447911018 0.37324149437160242 0 -0.078263617492921128 0.36485278809800858 0 -0.080530278692748869 0.38240959131417862 0 -0.057470228042752779 0.35771240227543938 0 -0.061619428447911018 0.37324149437160242 0 -0.078263617492921128 0.36485278809800858 0 -0.078263617492921128 0.36485278809800858 0 -0.1024703339125687 0.35383247902251957 0 -0.090200430086744041 0.37943714368593018 0 -0.078263617492921128 0.36485278809800858 0 -0.07838025158432442 0.34473518868353109 0 -0.1024703339125687 0.35383247902251957 0 -0.057470228042752779 0.35771240227543938 0 -0.078263617492921128 0.36485278809800858 0 -0.07838025158432442 0.34473518868353109 0 -0.059326428535272147 0.3409821215877411 0 -0.057470228042752779 0.35771240227543938 0 -0.07838025158432442 0.34473518868353109 0 -0.05162230471562218 0.32367606533028398 0 -0.059326428535272147 0.3409821215877411 0 -0.079818278325932634 0.32404924132635682 0 -0.059326428535272147 0.3409821215877411 0 -0.07838025158432442 0.34473518868353109 0 -0.079818278325932634 0.32404924132635682 0 -0.065564674949872684 0.30603865125947061 0 -0.05162230471562218 0.32367606533028398 0 -0.079818278325932634 0.32404924132635682 0 -0.079818278325932634 0.32404924132635682 0 -0.095546813139354314 0.33238586962747912 0 -0.1034142099450754 0.31333619551102759 0 -0.079818278325932634 0.32404924132635682 0 -0.1034142099450754 0.31333619551102759 0 -0.088033847755895844 0.30279958465283802 0 -0.079818278325932634 0.32404924132635682 0 -0.1034142099450754 0.31333619551102759 0 -0.07838025158432442 0.34473518868353109 0 -0.095546813139354314 0.33238586962747912 0 -0.1024703339125687 0.35383247902251957 0 -0.07838025158432442 0.34473518868353109 0 -0.079818278325932634 0.32404924132635682 0 -0.095546813139354314 0.33238586962747912 0 -0.095546813139354314 0.33238586962747912 0 -0.11474023773839349 0.32822781435910903 0 -0.1024703339125687 0.35383247902251957 0 -0.11474023773839349 0.32822781435910903 0 -0.1024703339125687 0.35383247902251957 0 -0.095546813139354314 0.33238586962747912 0 -0.1034142099450754 0.31333619551102759 0 -0.11474023773839349 0.32822781435910903 0 -0.12701014156421819 0.30262314969569842 0 -0.11474023773839349 0.32822781435910903 0 -0.12701014156421819 0.30262314969569842 0 -0.1034142099450754 0.31333619551102759 0 -0.11474023773839349 0.32822781435910903 0 -0.12932394091554861 0.31885650945505761 0 -0.12701014156421819 0.30262314969569842 0 -0.11474023773839349 0.32822781435910903 0 -0.1301315718582082 0.34852002884837258 0 -0.11474023773839349 0.32822781435910903 0 -0.1024703339125687 0.35383247902251957 0 -0.1301315718582082 0.34852002884837258 0 -0.1183129240464134 0.36183617403739649 0 -0.1024703339125687 0.35383247902251957 0 -0.1316688985582615 0.37395036026003298 0 -0.1183129240464134 0.36183617403739649 0 -0.1064972718629514 0.3717967988509232 0 -0.1024703339125687 0.35383247902251957 0 -0.090200430086744041 0.37943714368593018 0 -0.1183129240464134 0.36183617403739649 0 -0.1064972718629514 0.3717967988509232 0 -0.1024703339125687 0.35383247902251957 0 -0.1064972718629514 0.3717967988509232 0 -0.1024703339125687 0.35383247902251957 0 -0.090200430086744041 0.37943714368593018 0 -0.096986051875403004 0.38598496006916211 0 -0.1107841035827119 0.38781738509197528 0 -0.089899308607162276 0.40168440992391768 0 -0.1107841035827119 0.38781738509197528 0 -0.089899308607162276 0.40168440992391768 0 -0.1107841035827119 0.38781738509197528 0 -0.1048334080172154 0.4109464963926247 0 -0.089899308607162276 0.40168440992391768 0 -0.1064972718629514 0.3717967988509232 0 -0.096986051875403004 0.38598496006916211 0 -0.090200430086744041 0.37943714368593018 0 -0.1064972718629514 0.3717967988509232 0 -0.096986051875403004 0.38598496006916211 0 -0.1107841035827119 0.38781738509197528 0 -0.12913571711656729 0.39128712338514521 0 -0.1316688985582615 0.37395036026003298 0 -0.1107841035827119 0.38781738509197528 0 -0.1316688985582615 0.37395036026003298 0 -0.1107841035827119 0.38781738509197528 0 -0.1316688985582615 0.37395036026003298 0 -0.1064972718629514 0.3717967988509232 0 -0.1107841035827119 0.38781738509197528 0 -0.1107841035827119 0.38781738509197528 0 -0.12084292977616209 0.40220559262365357 0 -0.1048334080172154 0.4109464963926247 0 -0.12913571711656729 0.39128712338514521 0 -0.1107841035827119 0.38781738509197528 0 -0.12084292977616209 0.40220559262365357 0 -0.12084292977616209 0.40220559262365357 0 -0.1191954370207851 0.42244219748149592 0 -0.1048334080172154 0.4109464963926247 0 -0.1191954370207851 0.42244219748149592 0 -0.1024823546010096 0.42672768074767781 0 -0.1117848312341921 0.44086240774873342 0 -0.13448153792001111 0.43701302413473381 0 -0.1191954370207851 0.42244219748149592 0 -0.1117848312341921 0.44086240774873342 0 -0.1024823546010096 0.42672768074767781 0 -0.094219926621094685 0.43462278907053248 0 -0.086188278932907189 0.42339358902716168 0 -0.1024823546010096 0.42672768074767781 0 -0.094219926621094685 0.43462278907053248 0 -0.1117848312341921 0.44086240774873342 0 -0.1024823546010096 0.42672768074767781 0 -0.1048334080172154 0.4109464963926247 0 -0.086188278932907189 0.42339358902716168 0 -0.1191954370207851 0.42244219748149592 0 -0.1024823546010096 0.42672768074767781 0 -0.1048334080172154 0.4109464963926247 0 -0.1048334080172154 0.4109464963926247 0 -0.086188278932907189 0.42339358902716168 0 -0.089899308607162276 0.40168440992391768 0 -0.086188278932907189 0.42339358902716168 0 -0.075527355789384104 0.41318542108875889 0 -0.089899308607162276 0.40168440992391768 0 -0.094219926621094685 0.43462278907053248 0 -0.086188278932907189 0.42339358902716168 0 -0.08155604378899145 0.43741847646635651 0 -0.086188278932907189 0.42339358902716168 0 -0.08155604378899145 0.43741847646635651 0 -0.071786573188817079 0.42803613000021451 0 -0.08155604378899145 0.43741847646635651 0 -0.071786573188817079 0.42803613000021451 0 -0.065957804293597308 0.44123940949751972 0 -0.071786573188817079 0.42803613000021451 0 -0.061083500341701277 0.42054052117937418 0 -0.056961782541193287 0.43360255886829752 0 -0.071786573188817079 0.42803613000021451 0 -0.056961782541193287 0.43360255886829752 0 -0.065957804293597308 0.44123940949751972 0 -0.086188278932907189 0.42339358902716168 0 -0.071786573188817079 0.42803613000021451 0 -0.075527355789384104 0.41318542108875889 0 -0.071786573188817079 0.42803613000021451 0 -0.075527355789384104 0.41318542108875889 0 -0.061083500341701277 0.42054052117937418 0 -0.075527355789384104 0.41318542108875889 0 -0.064393724440175354 0.4091178353577905 0 -0.061083500341701277 0.42054052117937418 0 -0.075527355789384104 0.41318542108875889 0 -0.064393724440175354 0.4091178353577905 0 -0.07786416697828405 0.39573941743605268 0 -0.064393724440175354 0.4091178353577905 0 -0.066006156058392232 0.39682441401930479 0 -0.07786416697828405 0.39573941743605268 0 -0.066006156058392232 0.39682441401930479 0 -0.07786416697828405 0.39573941743605268 0 -0.066627839548182424 0.38547948324932618 0 -0.075527355789384104 0.41318542108875889 0 -0.07786416697828405 0.39573941743605268 0 -0.089899308607162276 0.40168440992391768 0 -0.096986051875403004 0.38598496006916211 0 -0.089899308607162276 0.40168440992391768 0 -0.087549145237445447 0.38918906279306409 0 -0.07786416697828405 0.39573941743605268 0 -0.089899308607162276 0.40168440992391768 0 -0.087549145237445447 0.38918906279306409 0 -0.078263617492921128 0.36485278809800858 0 -0.090200430086744041 0.37943714368593018 0 -0.080530278692748869 0.38240959131417862 0 -0.096986051875403004 0.38598496006916211 0 -0.090200430086744041 0.37943714368593018 0 -0.087549145237445447 0.38918906279306409 0 -0.090200430086744041 0.37943714368593018 0 -0.087549145237445447 0.38918906279306409 0 -0.080530278692748869 0.38240959131417862 0 -0.07786416697828405 0.39573941743605268 0 -0.087549145237445447 0.38918906279306409 0 -0.080530278692748869 0.38240959131417862 0 -0.061619428447911018 0.37324149437160242 0 -0.080530278692748869 0.38240959131417862 0 -0.061619428447911018 0.37324149437160242 0 -0.080530278692748869 0.38240959131417862 0 -0.066627839548182424 0.38547948324932618 0 -0.07786416697828405 0.39573941743605268 0 -0.080530278692748869 0.38240959131417862 0 -0.066627839548182424 0.38547948324932618 0 -0.066627839548182424 0.38547948324932618 0 -0.049081901540940699 0.37953421683033378 0 -0.050851512412925397 0.39449939793314431 0 -0.061619428447911018 0.37324149437160242 0 -0.066627839548182424 0.38547948324932618 0 -0.049081901540940699 0.37953421683033378 0 -0.064393724440175354 0.4091178353577905 0 -0.050851512412925397 0.39449939793314431 0 -0.050883074489459272 0.410989792393885 0 -0.066006156058392232 0.39682441401930479 0 -0.066627839548182424 0.38547948324932618 0 -0.050851512412925397 0.39449939793314431 0 -0.064393724440175354 0.4091178353577905 0 -0.066006156058392232 0.39682441401930479 0 -0.050851512412925397 0.39449939793314431 0 -0.050851512412925397 0.39449939793314431 0 -0.038730707949088741 0.39885269589167532 0 -0.050883074489459272 0.410989792393885 0 -0.050851512412925397 0.39449939793314431 0 -0.038730707949088741 0.39885269589167532 0 -0.036357021999069282 0.38461687257977761 0 -0.038730707949088741 0.39885269589167532 0 -0.036357021999069282 0.38461687257977761 0 -0.02620174394578053 0.39158762504428207 0 -0.038730707949088741 0.39885269589167532 0 -0.02620174394578053 0.39158762504428207 0 -0.030964451969007181 0.40505617028186403 0 -0.038730707949088741 0.39885269589167532 0 -0.030964451969007181 0.40505617028186403 0 -0.039149548416679357 0.41271897355877601 0 -0.049081901540940699 0.37953421683033378 0 -0.036357021999069282 0.38461687257977761 0 -0.036327028634482922 0.37529465541912599 0 -0.049081901540940699 0.37953421683033378 0 -0.050851512412925397 0.39449939793314431 0 -0.036357021999069282 0.38461687257977761 0 -0.036357021999069282 0.38461687257977761 0 -0.036327028634482922 0.37529465541912599 0 -0.0277509215932711 0.37972047834118727 0 -0.02702628424760806 0.37002643043231642 0 -0.036327028634482922 0.37529465541912599 0 -0.0277509215932711 0.37972047834118727 0 -0.02702628424760806 0.37002643043231642 0 -0.0277509215932711 0.37972047834118727 0 -0.02276380427485284 0.37584067803819537 0 -0.0277509215932711 0.37972047834118727 0 -0.02276380427485284 0.37584067803819537 0 -0.020837352826514971 0.38197056265722928 0 -0.02276380427485284 0.37584067803819537 0 -0.020837352826514971 0.38197056265722928 0 -0.019228795013316081 0.377213278542604 0 -0.019500397764489089 0.37432995690158982 0 -0.02276380427485284 0.37584067803819537 0 -0.019228795013316081 0.377213278542604 0 -0.020837352826514971 0.38197056265722928 0 -0.01613256176106187 0.37870695065856858 0 -0.019228795013316081 0.377213278542604 0 -0.020837352826514971 0.38197056265722928 0 -0.01613256176106187 0.37870695065856858 0 -0.01480833564022062 0.38349446184985048 0 -0.01613256176106187 0.37870695065856858 0 -0.017034618856495421 0.37502202355730091 0 -0.019228795013316081 0.377213278542604 0 -0.01613256176106187 0.37870695065856858 0 -0.017034618856495421 0.37502202355730091 0 -0.014464353601989961 0.37565634894642752 0 -0.019500397764489089 0.37432995690158982 0 -0.017034618856495421 0.37502202355730091 0 -0.019228795013316081 0.377213278542604 0 -0.020837352826514971 0.38197056265722928 0 -0.01709991518037348 0.3908870101690809 0 -0.01480833564022062 0.38349446184985048 0 -0.020837352826514971 0.38197056265722928 0 -0.02620174394578053 0.39158762504428207 0 -0.01709991518037348 0.3908870101690809 0 -0.036357021999069282 0.38461687257977761 0 -0.0277509215932711 0.37972047834118727 0 -0.02620174394578053 0.39158762504428207 0 -0.0277509215932711 0.37972047834118727 0 -0.020837352826514971 0.38197056265722928 0 -0.02620174394578053 0.39158762504428207 0 -0.02620174394578053 0.39158762504428207 0 -0.030964451969007181 0.40505617028186403 0 -0.01941730521571311 0.40396508601932291 0 -0.01941730521571311 0.40396508601932291 0 -0.01709991518037348 0.3908870101690809 0 -0.01091218200410596 0.39738256474865868 0 -0.02620174394578053 0.39158762504428207 0 -0.01941730521571311 0.40396508601932291 0 -0.01709991518037348 0.3908870101690809 0 -0.01709991518037348 0.3908870101690809 0 -0.01091218200410596 0.39738256474865868 0 -0.0089892299431857167 0.38814435242507361 0 -0.01941730521571311 0.40396508601932291 0 -0.01091218200410596 0.39738256474865868 0 -0.0072800668744587137 0.40727001201776891 0 -0.01091218200410596 0.39738256474865868 0 -0.0022908109905751309 0.39614741140520843 0 -0.0072800668744587137 0.40727001201776891 0 -0.0022908109905751309 0.39614741140520843 0 -0.0072800668744587137 0.40727001201776891 0 0.0065146757135608191 0.40661753301827669 0 -0.01091218200410596 0.39738256474865868 0 -0.0022908109905751309 0.39614741140520843 0 -0.0089892299431857167 0.38814435242507361 0 -0.0022908109905751309 0.39614741140520843 0 -0.0014178203071608399 0.38460551199721982 0 -0.0089892299431857167 0.38814435242507361 0 -0.0014178203071608399 0.38460551199721982 0 -0.01060083049011689 0.37971266172301232 0 -0.0089892299431857167 0.38814435242507361 0 -0.0066720667952192923 0.37360948796106253 0 -0.0014178203071608399 0.38460551199721982 0 0.0064616500294893166 0.37590280414288318 0 -0.0066720667952192923 0.37360948796106253 0 -0.0014178203071608399 0.38460551199721982 0 -0.01060083049011689 0.37971266172301232 0 -0.01155362819535294 0.37367029465570212 0 -0.0066720667952192923 0.37360948796106253 0 -0.01060083049011689 0.37971266172301232 0 -0.01155362819535294 0.37367029465570212 0 -0.01060083049011689 0.37971266172301232 0 -0.014464353601989961 0.37565634894642752 0 -0.01613256176106187 0.37870695065856858 0 -0.01060083049011689 0.37971266172301232 0 -0.014464353601989961 0.37565634894642752 0 -0.01613256176106187 0.37870695065856858 0 -0.01060083049011689 0.37971266172301232 0 -0.01480833564022062 0.38349446184985048 0 -0.01060083049011689 0.37971266172301232 0 -0.0089892299431857167 0.38814435242507361 0 -0.01480833564022062 0.38349446184985048 0 -0.01709991518037348 0.3908870101690809 0 -0.0089892299431857167 0.38814435242507361 0 -0.01480833564022062 0.38349446184985048 0 -0.0047535049403858321 0.43159789699643453 0 -0.01304268943739159 0.42047262144243908 0 -0.018056179120583611 0.43850863026579662 0 -0.0047535049403858321 0.43159789699643453 0 -0.01304268943739159 0.42047262144243908 0 0.00090433381781004777 0.41979830144503072 0 -0.0072800668744587137 0.40727001201776891 0 -0.01304268943739159 0.42047262144243908 0 0.00090433381781004777 0.41979830144503072 0 -0.01941730521571311 0.40396508601932291 0 -0.0072800668744587137 0.40727001201776891 0 -0.01304268943739159 0.42047262144243908 0 -0.01941730521571311 0.40396508601932291 0 -0.01304268943739159 0.42047262144243908 0 -0.029058907182411959 0.42094888362789029 0 -0.030964451969007181 0.40505617028186403 0 -0.01941730521571311 0.40396508601932291 0 -0.029058907182411959 0.42094888362789029 0 -0.01304268943739159 0.42047262144243908 0 -0.029058907182411959 0.42094888362789029 0 -0.018056179120583611 0.43850863026579662 0 -0.029058907182411959 0.42094888362789029 0 -0.036891221309114167 0.43882191937151649 0 -0.018056179120583611 0.43850863026579662 0 -0.029058907182411959 0.42094888362789029 0 -0.045671160183175727 0.42443702638727682 0 -0.036891221309114167 0.43882191937151649 0 -0.045671160183175727 0.42443702638727682 0 -0.056961782541193287 0.43360255886829752 0 -0.036891221309114167 0.43882191937151649 0 -0.029058907182411959 0.42094888362789029 0 -0.045671160183175727 0.42443702638727682 0 -0.039149548416679357 0.41271897355877601 0 -0.030964451969007181 0.40505617028186403 0 -0.029058907182411959 0.42094888362789029 0 -0.039149548416679357 0.41271897355877601 0 -0.045671160183175727 0.42443702638727682 0 -0.039149548416679357 0.41271897355877601 0 -0.050883074489459272 0.410989792393885 0 -0.038730707949088741 0.39885269589167532 0 -0.039149548416679357 0.41271897355877601 0 -0.050883074489459272 0.410989792393885 0 -0.045671160183175727 0.42443702638727682 0 -0.050883074489459272 0.410989792393885 0 -0.061083500341701277 0.42054052117937418 0 -0.064393724440175354 0.4091178353577905 0 -0.050883074489459272 0.410989792393885 0 -0.061083500341701277 0.42054052117937418 0 -0.045671160183175727 0.42443702638727682 0 -0.061083500341701277 0.42054052117937418 0 -0.056961782541193287 0.43360255886829752 0 -0.056961782541193287 0.43360255886829752 0 -0.052871731629001009 0.44892577516038779 0 -0.036891221309114167 0.43882191937151649 0 -0.052871731629001009 0.44892577516038779 0 -0.066612890319983672 0.45821410699234227 0 -0.065957804293597308 0.44123940949751972 0 -0.056961782541193287 0.43360255886829752 0 -0.052871731629001009 0.44892577516038779 0 -0.065957804293597308 0.44123940949751972 0 -0.051669736850975971 0.47900973751832809 0 -0.066612890319983672 0.45821410699234227 0 -0.052871731629001009 0.44892577516038779 0 -0.048574195280828722 0.46444552076598922 0 -0.066612890319983672 0.45821410699234227 0 -0.048574195280828722 0.46444552076598922 0 -0.051669736850975971 0.47900973751832809 0 -0.066612890319983672 0.45821410699234227 0 -0.052871731629001009 0.44892577516038779 0 -0.048574195280828722 0.46444552076598922 0 -0.036400297279642807 0.45909781285824558 0 -0.048574195280828722 0.46444552076598922 0 -0.036400297279642807 0.45909781285824558 0 -0.030541269715503649 0.4783871338314466 0 -0.036400297279642807 0.45909781285824558 0 -0.036891221309114167 0.43882191937151649 0 -0.025684531975961541 0.45047445555582982 0 -0.052871731629001009 0.44892577516038779 0 -0.036400297279642807 0.45909781285824558 0 -0.036891221309114167 0.43882191937151649 0 -0.018056179120583611 0.43850863026579662 0 -0.025684531975961541 0.45047445555582982 0 -0.01395321655433915 0.45911900910945458 0 -0.036891221309114167 0.43882191937151649 0 -0.018056179120583611 0.43850863026579662 0 -0.025684531975961541 0.45047445555582982 0 -0.036400297279642807 0.45909781285824558 0 -0.024668701829368839 0.46573152027305381 0 -0.030541269715503649 0.4783871338314466 0 -0.036400297279642807 0.45909781285824558 0 -0.025684531975961541 0.45047445555582982 0 -0.024668701829368839 0.46573152027305381 0 -0.024668701829368839 0.46573152027305381 0 -0.01395321655433915 0.45911900910945458 0 -0.0099657085561305949 0.47544558769919709 0 -0.025684531975961541 0.45047445555582982 0 -0.024668701829368839 0.46573152027305381 0 -0.01395321655433915 0.45911900910945458 0 -0.01395321655433915 0.45911900910945458 0 -0.0099657085561305949 0.47544558769919709 0 0.00019032937963638021 0.4599463752571149 0 -0.01395321655433915 0.45911900910945458 0 -0.002103054149575386 0.44647914075093459 0 0.00019032937963638021 0.4599463752571149 0 -0.0047535049403858321 0.43159789699643453 0 -0.018056179120583611 0.43850863026579662 0 -0.002103054149575386 0.44647914075093459 0 -0.018056179120583611 0.43850863026579662 0 -0.01395321655433915 0.45911900910945458 0 -0.002103054149575386 0.44647914075093459 0 -0.0099657085561305949 0.47544558769919709 0 -0.01831617672715961 0.48861729852614771 0 0.0054093945884738934 0.5 0 -0.01831617672715961 0.48861729852614771 0 -0.024302163184894421 0.5 0 0.0054093945884738934 0.5 0 -0.024668701829368839 0.46573152027305381 0 -0.0099657085561305949 0.47544558769919709 0 -0.030541269715503649 0.4783871338314466 0 -0.0099657085561305949 0.47544558769919709 0 -0.030541269715503649 0.4783871338314466 0 -0.01831617672715961 0.48861729852614771 0 -0.030541269715503649 0.4783871338314466 0 -0.01831617672715961 0.48861729852614771 0 -0.032181136767743257 0.4892537711000946 0 -0.01831617672715961 0.48861729852614771 0 -0.024302163184894421 0.5 0 -0.032181136767743257 0.4892537711000946 0 -0.024302163184894421 0.5 0 -0.036726583381968173 0.5 0 -0.032181136767743257 0.4892537711000946 0 -0.036726583381968173 0.5 0 -0.032181136767743257 0.4892537711000946 0 -0.051669736850975971 0.47900973751832809 0 -0.036726583381968173 0.5 0 -0.051669736850975971 0.47900973751832809 0 -0.030541269715503649 0.4783871338314466 0 -0.032181136767743257 0.4892537711000946 0 -0.051669736850975971 0.47900973751832809 0 -0.048574195280828722 0.46444552076598922 0 -0.030541269715503649 0.4783871338314466 0 -0.051669736850975971 0.47900973751832809 0 -0.036726583381968173 0.5 0 -0.051669736850975971 0.47900973751832809 0 -0.054013720958262623 0.5 0 -0.051669736850975971 0.47900973751832809 0 -0.054013720958262623 0.5 0 -0.072039866998557023 0.47973266089665101 0 -0.054013720958262623 0.5 0 -0.083725278731630937 0.5 0 -0.072039866998557023 0.47973266089665101 0 -0.083725278731630937 0.5 0 -0.072039866998557023 0.47973266089665101 0 -0.095424067983703564 0.48358368202038471 0 -0.072039866998557023 0.47973266089665101 0 -0.08787573764289186 0.46534321372302362 0 -0.095424067983703564 0.48358368202038471 0 -0.051669736850975971 0.47900973751832809 0 -0.072039866998557023 0.47973266089665101 0 -0.066612890319983672 0.45821410699234227 0 -0.072039866998557023 0.47973266089665101 0 -0.066612890319983672 0.45821410699234227 0 -0.08787573764289186 0.46534321372302362 0 -0.08155604378899145 0.43741847646635651 0 -0.066612890319983672 0.45821410699234227 0 -0.065957804293597308 0.44123940949751972 0 -0.08155604378899145 0.43741847646635651 0 -0.066612890319983672 0.45821410699234227 0 -0.08155604378899145 0.43741847646635651 0 -0.066612890319983672 0.45821410699234227 0 -0.089088124548373088 0.44471179136273298 0 -0.094219926621094685 0.43462278907053248 0 -0.08155604378899145 0.43741847646635651 0 -0.089088124548373088 0.44471179136273298 0 -0.066612890319983672 0.45821410699234227 0 -0.089088124548373088 0.44471179136273298 0 -0.08787573764289186 0.46534321372302362 0 -0.08787573764289186 0.46534321372302362 0 -0.10598884419020679 0.45697520388432089 0 -0.105050439428287 0.47142162478576388 0 -0.089088124548373088 0.44471179136273298 0 -0.08787573764289186 0.46534321372302362 0 -0.10598884419020679 0.45697520388432089 0 -0.094219926621094685 0.43462278907053248 0 -0.089088124548373088 0.44471179136273298 0 -0.1117848312341921 0.44086240774873342 0 -0.089088124548373088 0.44471179136273298 0 -0.10598884419020679 0.45697520388432089 0 -0.1117848312341921 0.44086240774873342 0 -0.089088124548373088 0.44471179136273298 0 -0.1117848312341921 0.44086240774873342 0 -0.13448153792001111 0.43701302413473381 0 -0.1117848312341921 0.44086240774873342 0 -0.125402629074886 0.45481485359698892 0 -0.13448153792001111 0.43701302413473381 0 -0.1117848312341921 0.44086240774873342 0 -0.125402629074886 0.45481485359698892 0 -0.10598884419020679 0.45697520388432089 0 -0.1117848312341921 0.44086240774873342 0 -0.125402629074886 0.45481485359698892 0 -0.10598884419020679 0.45697520388432089 0 -0.11746222535326251 0.46532507926677402 0 -0.10598884419020679 0.45697520388432089 0 -0.11746222535326251 0.46532507926677402 0 -0.105050439428287 0.47142162478576388 0 -0.12943623685269401 0.46761185370050051 0 -0.125402629074886 0.45481485359698892 0 -0.11746222535326251 0.46532507926677402 0 -0.11746222535326251 0.46532507926677402 0 -0.12128549607814799 0.47718533142900871 0 -0.105050439428287 0.47142162478576388 0 -0.12128549607814799 0.47718533142900871 0 -0.1104162485958555 0.48500459271686958 0 -0.105050439428287 0.47142162478576388 0 -0.12943623685269401 0.46761185370050051 0 -0.11746222535326251 0.46532507926677402 0 -0.12128549607814799 0.47718533142900871 0 -0.12516226417725271 0.49458348285156623 0 -0.12128549607814799 0.47718533142900871 0 -0.1104162485958555 0.48500459271686958 0 -0.12516226417725271 0.49458348285156623 0 -0.1134368365049991 0.5 0 -0.1104162485958555 0.48500459271686958 0 -0.1134368365049991 0.5 0 -0.1104162485958555 0.48500459271686958 0 -0.095424067983703564 0.48358368202038471 0 -0.083725278731630937 0.5 0 -0.1134368365049991 0.5 0 -0.095424067983703564 0.48358368202038471 0 -0.08787573764289186 0.46534321372302362 0 -0.095424067983703564 0.48358368202038471 0 -0.105050439428287 0.47142162478576388 0 -0.1104162485958555 0.48500459271686958 0 -0.095424067983703564 0.48358368202038471 0 -0.105050439428287 0.47142162478576388 0 -0.16115588760314489 0.079303835386836746 0 -0.16546244303094171 0.094073964495737253 0 -0.14895026118402321 0.095303034576461568 0 -0.16115588760314489 0.079303835386836746 0 -0.17711641391154309 0.077990878136875136 0 -0.16546244303094171 0.094073964495737253 0 -0.16115588760314489 0.079303835386836746 0 -0.16745452341379841 0.067500467711368306 0 -0.17711641391154309 0.077990878136875136 0 -0.16115588760314489 0.079303835386836746 0 -0.16745452341379841 0.067500467711368306 0 -0.14996024074177111 0.065019287594427405 0 -0.18688571273968849 0.064794272860611554 0 -0.17711641391154309 0.077990878136875136 0 -0.1957058492120104 0.085190016344094996 0 -0.16745452341379841 0.067500467711368306 0 -0.18688571273968849 0.064794272860611554 0 -0.17711641391154309 0.077990878136875136 0 -0.17711641391154309 0.077990878136875136 0 -0.18029771947639489 0.091579072044630949 0 -0.1957058492120104 0.085190016344094996 0 -0.17711641391154309 0.077990878136875136 0 -0.18029771947639489 0.091579072044630949 0 -0.16546244303094171 0.094073964495737253 0 -0.18029771947639489 0.091579072044630949 0 -0.17407724728530041 0.1017929794424924 0 -0.18913700503696751 0.1003280978803313 0 -0.17407724728530041 0.1017929794424924 0 -0.17946457119465409 0.1122230238000228 0 -0.1636028664340185 0.1081617597770396 0 -0.17946457119465409 0.1122230238000228 0 -0.19199734899891249 0.1152329014036889 0 -0.18913700503696751 0.1003280978803313 0 -0.17407724728530041 0.1017929794424924 0 -0.17946457119465409 0.1122230238000228 0 -0.18913700503696751 0.1003280978803313 0 -0.18029771947639489 0.091579072044630949 0 -0.17407724728530041 0.1017929794424924 0 -0.16546244303094171 0.094073964495737253 0 -0.17946457119465409 0.1122230238000228 0 -0.17162251468671061 0.1232110551526293 0 -0.18839345918863831 0.12639625269004601 0 -0.17946457119465409 0.1122230238000228 0 -0.19199734899891249 0.1152329014036889 0 -0.18839345918863831 0.12639625269004601 0 -0.17946457119465409 0.1122230238000228 0 -0.17162251468671061 0.1232110551526293 0 -0.1636028664340185 0.1081617597770396 0 -0.17162251468671061 0.1232110551526293 0 -0.1636028664340185 0.1081617597770396 0 -0.15512093016006639 0.12137006157731491 0 -0.1636028664340185 0.1081617597770396 0 -0.15512093016006639 0.12137006157731491 0 -0.1636028664340185 0.1081617597770396 0 -0.15512093016006639 0.12137006157731491 0 -0.1501322844487841 0.1147619265129963 0 -0.17407724728530041 0.1017929794424924 0 -0.16546244303094171 0.094073964495737253 0 -0.1636028664340185 0.1081617597770396 0 -0.16546244303094171 0.094073964495737253 0 -0.1636028664340185 0.1081617597770396 0 -0.1535966862780585 0.10478613593910931 0 -0.16546244303094171 0.094073964495737253 0 -0.14895026118402321 0.095303034576461568 0 -0.1535966862780585 0.10478613593910931 0 -0.1535966862780585 0.10478613593910931 0 -0.14216875594384509 0.108103908748774 0 -0.1501322844487841 0.1147619265129963 0 -0.1636028664340185 0.1081617597770396 0 -0.1535966862780585 0.10478613593910931 0 -0.1501322844487841 0.1147619265129963 0 -0.14895026118402321 0.095303034576461568 0 -0.1535966862780585 0.10478613593910931 0 -0.14216875594384509 0.108103908748774 0 -0.14216875594384509 0.108103908748774 0 -0.1501322844487841 0.1147619265129963 0 -0.1487090112585778 0.12513642102532321 0 -0.15512093016006639 0.12137006157731491 0 -0.1501322844487841 0.1147619265129963 0 -0.1487090112585778 0.12513642102532321 0 -0.15512093016006639 0.12137006157731491 0 -0.1487090112585778 0.12513642102532321 0 -0.15155321825865031 0.12692579956075631 0 -0.15512093016006639 0.12137006157731491 0 -0.15155321825865031 0.12692579956075631 0 -0.15512093016006639 0.12137006157731491 0 -0.1501322844487841 0.1147619265129963 0 -0.14216875594384509 0.108103908748774 0 -0.13017052272918739 0.1005343898467644 0 -0.13095425995938231 0.12915849522848741 0 -0.13017052272918739 0.1005343898467644 0 -0.13095425995938231 0.12915849522848741 0 -0.13017052272918739 0.1005343898467644 0 -0.13095425995938231 0.12915849522848741 0 -0.1264941796651104 0.12914036777275359 0 -0.14216875594384509 0.108103908748774 0 -0.1487090112585778 0.12513642102532321 0 -0.13095425995938231 0.12915849522848741 0 -0.13017052272918739 0.1005343898467644 0 -0.1264941796651104 0.12914036777275359 0 -0.12171505972308121 0.099774495224226684 0 -0.14895026118402321 0.095303034576461568 0 -0.14216875594384509 0.108103908748774 0 -0.13017052272918739 0.1005343898467644 0 -0.13017052272918739 0.1005343898467644 0 -0.12938678549899241 0.07191028446504151 0 -0.12171505972308121 0.099774495224226684 0 -0.13017052272918739 0.1005343898467644 0 -0.14392473955142379 0.082414166373906347 0 -0.12938678549899241 0.07191028446504151 0 -0.13017052272918739 0.1005343898467644 0 -0.12938678549899241 0.07191028446504151 0 -0.16115588760314489 0.079303835386836746 0 -0.14895026118402321 0.095303034576461568 0 -0.14392473955142379 0.082414166373906347 0 -0.14895026118402321 0.095303034576461568 0 -0.13017052272918739 0.1005343898467644 0 -0.14392473955142379 0.082414166373906347 0 -0.14392473955142379 0.082414166373906347 0 -0.14996024074177111 0.065019287594427405 0 -0.12938678549899241 0.07191028446504151 0 -0.16115588760314489 0.079303835386836746 0 -0.14392473955142379 0.082414166373906347 0 -0.14996024074177111 0.065019287594427405 0 -0.12938678549899241 0.07191028446504151 0 -0.12860304826879579 0.043286179083318721 0 -0.1432252532741051 0.045280793122137793 0 -0.12938678549899241 0.07191028446504151 0 -0.12860304826879579 0.043286179083318721 0 -0.12860304826879579 0.043286179083318721 0 -0.1287110431512061 0.034778633130733289 0 -0.13260625998306871 0.038689498113595323 0 -0.12860304826879579 0.043286179083318721 0 -0.1287110431512061 0.034778633130733289 0 -0.1229295450058164 0.037868452923291163 0 -0.1287110431512061 0.034778633130733289 0 -0.13260625998306871 0.038689498113595323 0 -0.13385653989948559 0.029726207043600121 0 -0.13260625998306871 0.038689498113595323 0 -0.13742301140600061 0.035993856295569851 0 -0.13385653989948559 0.029726207043600121 0 -0.13260625998306871 0.038689498113595323 0 -0.13742301140600061 0.035993856295569851 0 -0.1432252532741051 0.045280793122137793 0 -0.12860304826879579 0.043286179083318721 0 -0.1432252532741051 0.045280793122137793 0 -0.12860304826879579 0.043286179083318721 0 -0.13260625998306871 0.038689498113595323 0 -0.1432252532741051 0.045280793122137793 0 -0.13742301140600061 0.035993856295569851 0 -0.15420936899696669 0.0340528766712761 0 -0.16215436207284459 0.05039406457809071 0 -0.13742301140600061 0.035993856295569851 0 -0.1432252532741051 0.045280793122137793 0 -0.16215436207284459 0.05039406457809071 0 -0.13742301140600061 0.035993856295569851 0 -0.15420936899696669 0.0340528766712761 0 -0.1445273165529781 0.027680973473232749 0 -0.13742301140600061 0.035993856295569851 0 -0.16215436207284459 0.05039406457809071 0 -0.14996024074177111 0.065019287594427405 0 -0.12938678549899241 0.07191028446504151 0 -0.1432252532741051 0.045280793122137793 0 -0.14996024074177111 0.065019287594427405 0 -0.1432252532741051 0.045280793122137793 0 -0.16215436207284459 0.05039406457809071 0 -0.14346822796634109 -0.00072879923856594079 0 -0.13072301095149069 -0.005437812573230668 0 -0.1305622280860454 0.0096379025991953846 0 -0.12152508443855629 -4.6565042202755903e-05 0 -0.13072301095149069 -0.005437812573230668 0 -0.1305622280860454 0.0096379025991953846 0 -0.1305622280860454 0.0096379025991953846 0 -0.12787977143513179 0.018424739451976979 0 -0.12356325337797559 0.01429926066788118 0 -0.1305622280860454 0.0096379025991953846 0 -0.13529887065436089 0.021983328193282341 0 -0.1490600055499299 0.017729596538547159 0 -0.12787977143513179 0.018424739451976979 0 -0.12925545507246761 0.025474708153412969 0 -0.1207190499848096 0.02072849764611303 0 -0.1305622280860454 0.0096379025991953846 0 -0.13529887065436089 0.021983328193282341 0 -0.12787977143513179 0.018424739451976979 0 -0.13529887065436089 0.021983328193282341 0 -0.12787977143513179 0.018424739451976979 0 -0.12925545507246761 0.025474708153412969 0 -0.1287110431512061 0.034778633130733289 0 -0.12925545507246761 0.025474708153412969 0 -0.1207190499848096 0.02072849764611303 0 -0.1287110431512061 0.034778633130733289 0 -0.12925545507246761 0.025474708153412969 0 -0.13385653989948559 0.029726207043600121 0 -0.13529887065436089 0.021983328193282341 0 -0.12925545507246761 0.025474708153412969 0 -0.13385653989948559 0.029726207043600121 0 -0.13529887065436089 0.021983328193282341 0 -0.13385653989948559 0.029726207043600121 0 -0.1445273165529781 0.027680973473232749 0 -0.13742301140600061 0.035993856295569851 0 -0.13385653989948559 0.029726207043600121 0 -0.1445273165529781 0.027680973473232749 0 -0.15420936899696669 0.0340528766712761 0 -0.1445273165529781 0.027680973473232749 0 -0.1490600055499299 0.017729596538547159 0 -0.13529887065436089 0.021983328193282341 0 -0.1445273165529781 0.027680973473232749 0 -0.1490600055499299 0.017729596538547159 0 -0.14346822796634109 -0.00072879923856594079 0 -0.1622406895765654 -0.0080810254460947795 0 -0.1490600055499299 0.017729596538547159 0 -0.14346822796634109 -0.00072879923856594079 0 -0.1305622280860454 0.0096379025991953846 0 -0.1490600055499299 0.017729596538547159 0 -0.1622406895765654 -0.0080810254460947795 0 -0.1490600055499299 0.017729596538547159 0 -0.17798670521398249 0.01035253212461292 0 -0.1490600055499299 0.017729596538547159 0 -0.17798670521398249 0.01035253212461292 0 -0.15420936899696669 0.0340528766712761 0 -0.1490600055499299 0.017729596538547159 0 -0.16872434686312041 0.031843163746684722 0 -0.1490600055499299 0.017729596538547159 0 -0.17798670521398249 0.01035253212461292 0 -0.16872434686312041 0.031843163746684722 0 -0.17798670521398249 0.01035253212461292 0 -0.16872434686312041 0.031843163746684722 0 -0.18751156723722889 0.032402639581565952 0 -0.17798670521398249 0.01035253212461292 0 -0.18751156723722889 0.032402639581565952 0 -0.1937727340522582 0.016880035037217422 0 -0.16745452341379841 0.067500467711368306 0 -0.14996024074177111 0.065019287594427405 0 -0.16215436207284459 0.05039406457809071 0 -0.15420936899696669 0.0340528766712761 0 -0.16215436207284459 0.05039406457809071 0 -0.16872434686312041 0.031843163746684722 0 -0.16215436207284459 0.05039406457809071 0 -0.16872434686312041 0.031843163746684722 0 -0.18142407210776981 0.046127272986015523 0 -0.16872434686312041 0.031843163746684722 0 -0.18142407210776981 0.046127272986015523 0 -0.18751156723722889 0.032402639581565952 0 -0.16745452341379841 0.067500467711368306 0 -0.18688571273968849 0.064794272860611554 0 -0.16215436207284459 0.05039406457809071 0 -0.18688571273968849 0.064794272860611554 0 -0.16215436207284459 0.05039406457809071 0 -0.18688571273968849 0.064794272860611554 0 -0.16215436207284459 0.05039406457809071 0 -0.18142407210776981 0.046127272986015523 0 -0.18688571273968849 0.064794272860611554 0 -0.18142407210776981 0.046127272986015523 0 -0.19917459028432921 0.046942929123501481 0 -0.18688571273968849 0.064794272860611554 0 -0.2028589565933617 0.061754212292830082 0 -0.19917459028432921 0.046942929123501481 0 -0.18142407210776981 0.046127272986015523 0 -0.19917459028432921 0.046942929123501481 0 -0.18751156723722889 0.032402639581565952 0 -0.19917459028432921 0.046942929123501481 0 -0.18751156723722889 0.032402639581565952 0 -0.19856055560228769 0.034414576317309431 0 -0.19856055560228769 0.034414576317309431 0 -0.20386645708802889 0.040926345425209329 0 -0.20595816817437679 0.029725133199477231 0 -0.19917459028432921 0.046942929123501481 0 -0.19856055560228769 0.034414576317309431 0 -0.20386645708802889 0.040926345425209329 0 -0.19917459028432921 0.046942929123501481 0 -0.20542701435326441 0.045916118591608081 0 -0.20386645708802889 0.040926345425209329 0 -0.21482981173042021 0.045745875526779868 0 -0.2115426369534513 0.047573317076487723 0 -0.20595816817437679 0.029725133199477231 0 -0.21482981173042021 0.045745875526779868 0 -0.2108716083042268 0.024360671618729381 0 -0.2202275159942183 0.033687895023283898 0 -0.21482981173042021 0.045745875526779868 0 -0.2108716083042268 0.024360671618729381 0 -0.20386645708802889 0.040926345425209329 0 -0.2115426369534513 0.047573317076487723 0 -0.20595816817437679 0.029725133199477231 0 -0.21482981173042021 0.045745875526779868 0 -0.20595816817437679 0.029725133199477231 0 -0.2108716083042268 0.024360671618729381 0 -0.20542701435326441 0.045916118591608081 0 -0.20386645708802889 0.040926345425209329 0 -0.2115426369534513 0.047573317076487723 0 -0.2115426369534513 0.047573317076487723 0 -0.20595816817437679 0.029725133199477231 0 -0.21482981173042021 0.045745875526779868 0 -0.22062838055236439 0.042276575389992563 0 -0.2202275159942183 0.033687895023283898 0 -0.21482981173042021 0.045745875526779868 0 -0.2115426369534513 0.047573317076487723 0 -0.2171271057325265 0.065421500953498024 0 -0.19917459028432921 0.046942929123501481 0 -0.20542701435326441 0.045916118591608081 0 -0.2171271057325265 0.065421500953498024 0 -0.19917459028432921 0.046942929123501481 0 -0.2171271057325265 0.065421500953498024 0 -0.2028589565933617 0.061754212292830082 0 -0.19917459028432921 0.046942929123501481 0 -0.2171271057325265 0.065421500953498024 0 -0.21482981173042021 0.045745875526779868 0 -0.2187880151566125 0.067131079434830626 0 -0.2171271057325265 0.065421500953498024 0 -0.2115426369534513 0.047573317076487723 0 -0.2171271057325265 0.065421500953498024 0 -0.21482981173042021 0.045745875526779868 0 -0.2187880151566125 0.067131079434830626 0 -0.20542701435326441 0.045916118591608081 0 -0.2115426369534513 0.047573317076487723 0 -0.2171271057325265 0.065421500953498024 0 -0.18701109662081961 -0.010325168466654461 0 -0.17798670521398249 0.01035253212461292 0 -0.20691340487803511 0.002975467710678561 0 -0.2011926499476073 0.022982538716881828 0 -0.1937727340522582 0.016880035037217422 0 -0.20691340487803511 0.002975467710678561 0 -0.17798670521398249 0.01035253212461292 0 -0.1937727340522582 0.016880035037217422 0 -0.20691340487803511 0.002975467710678561 0 -0.17798670521398249 0.01035253212461292 0 -0.20691340487803511 0.002975467710678561 0 -0.18751156723722889 0.032402639581565952 0 -0.2011926499476073 0.022982538716881828 0 -0.1937727340522582 0.016880035037217422 0 -0.19856055560228769 0.034414576317309431 0 -0.2011926499476073 0.022982538716881828 0 -0.20595816817437679 0.029725133199477231 0 -0.18751156723722889 0.032402639581565952 0 -0.19856055560228769 0.034414576317309431 0 -0.2011926499476073 0.022982538716881828 0 -0.2011926499476073 0.022982538716881828 0 -0.2108716083042268 0.024360671618729381 0 -0.20691340487803511 0.002975467710678561 0 -0.2011926499476073 0.022982538716881828 0 -0.20595816817437679 0.029725133199477231 0 -0.2108716083042268 0.024360671618729381 0 -0.2108716083042268 0.024360671618729381 0 -0.22064277633262669 0.02413281513641009 0 -0.2202275159942183 0.033687895023283898 0 -0.2108716083042268 0.024360671618729381 0 -0.21662888994096199 0.01274141445158799 0 -0.22064277633262669 0.02413281513641009 0 -0.2108716083042268 0.024360671618729381 0 -0.20691340487803511 0.002975467710678561 0 -0.21662888994096199 0.01274141445158799 0 -0.2108716083042268 0.024360671618729381 0 -0.20691340487803511 0.002975467710678561 0 -0.23578128998160799 -0.0043865974532140608 0 -0.21662888994096199 0.01274141445158799 0 -0.22819171089519821 0.016149603059852781 0 -0.23578128998160799 -0.0043865974532140608 0 -0.20691340487803511 0.002975467710678561 0 -0.21662888994096199 0.01274141445158799 0 -0.22819171089519821 0.016149603059852781 0 -0.23104575101164909 0.030396178277663059 0 -0.2431292390292662 0.015141556947905199 0 -0.21662888994096199 0.01274141445158799 0 -0.22819171089519821 0.016149603059852781 0 -0.22064277633262669 0.02413281513641009 0 -0.22064277633262669 0.02413281513641009 0 -0.23104575101164909 0.030396178277663059 0 -0.2202275159942183 0.033687895023283898 0 -0.22819171089519821 0.016149603059852781 0 -0.22064277633262669 0.02413281513641009 0 -0.23104575101164909 0.030396178277663059 0 -0.23104575101164909 0.030396178277663059 0 -0.24794929732059029 0.030806793726077451 0 -0.2431292390292662 0.015141556947905199 0 -0.23578128998160799 -0.0043865974532140608 0 -0.22819171089519821 0.016149603059852781 0 -0.2431292390292662 0.015141556947905199 0 -0.23578128998160799 -0.0043865974532140608 0 -0.25440382098127251 0.00065316407925673781 0 -0.2431292390292662 0.015141556947905199 0 -0.21482981173042021 0.045745875526779868 0 -0.222890813587834 0.05363394857805015 0 -0.2187880151566125 0.067131079434830626 0 -0.222890813587834 0.05363394857805015 0 -0.22648870208618949 0.04372780870543172 0 -0.23449886551819391 0.053893171588237171 0 -0.22706387585794099 0.060319665012824847 0 -0.222890813587834 0.05363394857805015 0 -0.23449886551819391 0.053893171588237171 0 -0.22706387585794099 0.060319665012824847 0 -0.23449886551819391 0.053893171588237171 0 -0.2320778091691246 0.066620460450180483 0 -0.22706387585794099 0.060319665012824847 0 -0.222890813587834 0.05363394857805015 0 -0.2187880151566125 0.067131079434830626 0 -0.21482981173042021 0.045745875526779868 0 -0.222890813587834 0.05363394857805015 0 -0.22096749239862981 0.045944722304474751 0 -0.222890813587834 0.05363394857805015 0 -0.22096749239862981 0.045944722304474751 0 -0.22648870208618949 0.04372780870543172 0 -0.22062838055236439 0.042276575389992563 0 -0.22648870208618949 0.04372780870543172 0 -0.2202275159942183 0.033687895023283898 0 -0.21482981173042021 0.045745875526779868 0 -0.22096749239862981 0.045944722304474751 0 -0.22062838055236439 0.042276575389992563 0 -0.22096749239862981 0.045944722304474751 0 -0.22062838055236439 0.042276575389992563 0 -0.22648870208618949 0.04372780870543172 0 -0.23104575101164909 0.030396178277663059 0 -0.22648870208618949 0.04372780870543172 0 -0.2202275159942183 0.033687895023283898 0 -0.23104575101164909 0.030396178277663059 0 -0.22648870208618949 0.04372780870543172 0 -0.23834746118517899 0.040875725629168087 0 -0.22648870208618949 0.04372780870543172 0 -0.23834746118517899 0.040875725629168087 0 -0.23449886551819391 0.053893171588237171 0 -0.23104575101164909 0.030396178277663059 0 -0.24794929732059029 0.030806793726077451 0 -0.23834746118517899 0.040875725629168087 0 -0.25175468998927231 0.045554675848431037 0 -0.23834746118517899 0.040875725629168087 0 -0.23449886551819391 0.053893171588237171 0 -0.25175468998927231 0.045554675848431037 0 -0.24794929732059029 0.030806793726077451 0 -0.23834746118517899 0.040875725629168087 0 -0.25175468998927231 0.045554675848431037 0 -0.23449886551819391 0.053893171588237171 0 -0.24568172363412241 0.062469702665654013 0 -0.23449886551819391 0.053893171588237171 0 -0.24568172363412241 0.062469702665654013 0 -0.2320778091691246 0.066620460450180483 0 -0.25463713592647902 0.075048816336487523 0 -0.24568172363412241 0.062469702665654013 0 -0.24158874284655951 0.073162263788198692 0 -0.25463713592647902 0.075048816336487523 0 -0.24158874284655951 0.073162263788198692 0 -0.2453540382212071 0.082717383994226748 0 -0.24158874284655951 0.073162263788198692 0 -0.2327177433460618 0.081468985655483883 0 -0.2320778091691246 0.066620460450180483 0 -0.24568172363412241 0.062469702665654013 0 -0.24158874284655951 0.073162263788198692 0 -0.2320778091691246 0.066620460450180483 0 -0.2327177433460618 0.081468985655483883 0 -0.22611156922643691 0.094136202891932752 0 -0.24664747153551139 0.09580689187613696 0 -0.2524414654835232 0.089356977395346426 0 -0.2453540382212071 0.082717383994226748 0 -0.24664747153551139 0.09580689187613696 0 -0.2524414654835232 0.089356977395346426 0 -0.24664747153551139 0.09580689187613696 0 -0.24158874284655951 0.073162263788198692 0 -0.2453540382212071 0.082717383994226748 0 -0.2327177433460618 0.081468985655483883 0 -0.2453540382212071 0.082717383994226748 0 -0.2327177433460618 0.081468985655483883 0 -0.24664747153551139 0.09580689187613696 0 -0.2327177433460618 0.081468985655483883 0 -0.24664747153551139 0.09580689187613696 0 -0.2327177433460618 0.081468985655483883 0 -0.22041883437506191 0.075941996350544883 0 -0.22611156922643691 0.094136202891932752 0 -0.22041883437506191 0.075941996350544883 0 -0.22611156922643691 0.094136202891932752 0 -0.22209633576596119 0.085005125613437968 0 -0.22041883437506191 0.075941996350544883 0 -0.22611156922643691 0.094136202891932752 0 -0.22209633576596119 0.085005125613437968 0 -0.22041883437506191 0.075941996350544883 0 -0.22209633576596119 0.085005125613437968 0 -0.2180255109116841 0.098429442494135905 0 -0.22611156922643691 0.094136202891932752 0 -0.2327177433460618 0.081468985655483883 0 -0.2320778091691246 0.066620460450180483 0 -0.2187880151566125 0.067131079434830626 0 -0.2327177433460618 0.081468985655483883 0 -0.22041883437506191 0.075941996350544883 0 -0.2187880151566125 0.067131079434830626 0 -0.2327177433460618 0.081468985655483883 0 -0.2187880151566125 0.067131079434830626 0 -0.22041883437506191 0.075941996350544883 0 -0.2171271057325265 0.065421500953498024 0 -0.22041883437506191 0.075941996350544883 0 -0.2187880151566125 0.067131079434830626 0 -0.22041883437506191 0.075941996350544883 0 -0.2187880151566125 0.067131079434830626 0 -0.2171271057325265 0.065421500953498024 0 -0.22706387585794099 0.060319665012824847 0 -0.2320778091691246 0.066620460450180483 0 -0.2187880151566125 0.067131079434830626 0 -0.2171271057325265 0.065421500953498024 0 -0.20666277786533649 0.068616293879383825 0 -0.21438188477819131 0.072109127623781979 0 -0.2187880151566125 0.067131079434830626 0 -0.2171271057325265 0.065421500953498024 0 -0.2028589565933617 0.061754212292830082 0 -0.2171271057325265 0.065421500953498024 0 -0.20666277786533649 0.068616293879383825 0 -0.20666277786533649 0.068616293879383825 0 -0.21438188477819131 0.072109127623781979 0 -0.21161706340653269 0.079194481143132531 0 -0.22041883437506191 0.075941996350544883 0 -0.2171271057325265 0.065421500953498024 0 -0.21438188477819131 0.072109127623781979 0 -0.22041883437506191 0.075941996350544883 0 -0.21438188477819131 0.072109127623781979 0 -0.21161706340653269 0.079194481143132531 0 -0.22209633576596119 0.085005125613437968 0 -0.21161706340653269 0.079194481143132531 0 -0.21365768493628429 0.088297399697812098 0 -0.22209633576596119 0.085005125613437968 0 -0.22041883437506191 0.075941996350544883 0 -0.21161706340653269 0.079194481143132531 0 -0.21161706340653269 0.079194481143132531 0 -0.206123270694134 0.088027704659970646 0 -0.1957058492120104 0.085190016344094996 0 -0.21365768493628429 0.088297399697812098 0 -0.20907733946636939 0.093817429790240728 0 -0.2180255109116841 0.098429442494135905 0 -0.22209633576596119 0.085005125613437968 0 -0.21365768493628429 0.088297399697812098 0 -0.2180255109116841 0.098429442494135905 0 -0.206123270694134 0.088027704659970646 0 -0.20112244363722931 0.09604125515615225 0 -0.20907733946636939 0.093817429790240728 0 -0.21365768493628429 0.088297399697812098 0 -0.206123270694134 0.088027704659970646 0 -0.20907733946636939 0.093817429790240728 0 -0.21161706340653269 0.079194481143132531 0 -0.21365768493628429 0.088297399697812098 0 -0.206123270694134 0.088027704659970646 0 -0.206123270694134 0.088027704659970646 0 -0.1957058492120104 0.085190016344094996 0 -0.20112244363722931 0.09604125515615225 0 -0.18029771947639489 0.091579072044630949 0 -0.1957058492120104 0.085190016344094996 0 -0.18913700503696751 0.1003280978803313 0 -0.18688571273968849 0.064794272860611554 0 -0.21161706340653269 0.079194481143132531 0 -0.18688571273968849 0.064794272860611554 0 -0.20666277786533649 0.068616293879383825 0 -0.21161706340653269 0.079194481143132531 0 -0.18688571273968849 0.064794272860611554 0 -0.21161706340653269 0.079194481143132531 0 -0.1957058492120104 0.085190016344094996 0 -0.18688571273968849 0.064794272860611554 0 -0.2028589565933617 0.061754212292830082 0 -0.20666277786533649 0.068616293879383825 0 -0.19844819055787019 0.10679912347164359 0 -0.2075547101705098 0.1043814762515777 0 -0.20316215272653651 0.1184291402193727 0 -0.19199734899891249 0.1152329014036889 0 -0.19844819055787019 0.10679912347164359 0 -0.20316215272653651 0.1184291402193727 0 -0.19199734899891249 0.1152329014036889 0 -0.20316215272653651 0.1184291402193727 0 -0.18839345918863831 0.12639625269004601 0 -0.19199734899891249 0.1152329014036889 0 -0.18913700503696751 0.1003280978803313 0 -0.19844819055787019 0.10679912347164359 0 -0.18913700503696751 0.1003280978803313 0 -0.20112244363722931 0.09604125515615225 0 -0.19844819055787019 0.10679912347164359 0 -0.1957058492120104 0.085190016344094996 0 -0.18913700503696751 0.1003280978803313 0 -0.20112244363722931 0.09604125515615225 0 -0.20112244363722931 0.09604125515615225 0 -0.19844819055787019 0.10679912347164359 0 -0.2075547101705098 0.1043814762515777 0 -0.20112244363722931 0.09604125515615225 0 -0.2075547101705098 0.1043814762515777 0 -0.20907733946636939 0.093817429790240728 0 -0.2075547101705098 0.1043814762515777 0 -0.20907733946636939 0.093817429790240728 0 -0.2180255109116841 0.098429442494135905 0 -0.2075547101705098 0.1043814762515777 0 -0.2180255109116841 0.098429442494135905 0 -0.2154926237233693 0.112772466377921 0 -0.2154926237233693 0.112772466377921 0 -0.20316215272653651 0.1184291402193727 0 -0.2166565967551615 0.1291929428925872 0 -0.2075547101705098 0.1043814762515777 0 -0.2154926237233693 0.112772466377921 0 -0.20316215272653651 0.1184291402193727 0 -0.23180430407781269 0.1123304094333205 0 -0.2166565967551615 0.1291929428925872 0 -0.2154926237233693 0.112772466377921 0 -0.23180430407781269 0.1123304094333205 0 -0.2166565967551615 0.1291929428925872 0 -0.23180430407781269 0.1123304094333205 0 -0.2345229960484102 0.12101945688184571 0 -0.2166565967551615 0.1291929428925872 0 -0.23180430407781269 0.1123304094333205 0 -0.2345229960484102 0.12101945688184571 0 -0.23180430407781269 0.1123304094333205 0 -0.22611156922643691 0.094136202891932752 0 -0.2180255109116841 0.098429442494135905 0 -0.2154926237233693 0.112772466377921 0 -0.23180430407781269 0.1123304094333205 0 -0.2180255109116841 0.098429442494135905 0 -0.23180430407781269 0.1123304094333205 0 -0.22611156922643691 0.094136202891932752 0 -0.2507963612449623 0.1000773550728951 0 -0.23180430407781269 0.1123304094333205 0 -0.24664747153551139 0.09580689187613696 0 -0.23180430407781269 0.1123304094333205 0 -0.24664747153551139 0.09580689187613696 0 -0.23180430407781269 0.1123304094333205 0 -0.22611156922643691 0.094136202891932752 0 -0.24664747153551139 0.09580689187613696 0 -0.2507963612449623 0.1000773550728951 0 -0.2524414654835232 0.089356977395346426 0 -0.24664747153551139 0.09580689187613696 0 -0.2507963612449623 0.1000773550728951 0 -0.24664747153551139 0.09580689187613696 0 -0.2507963612449623 0.1000773550728951 0 -0.23180430407781269 0.1123304094333205 0 -0.24674899311506121 0.12645216703654991 0 -0.2507963612449623 0.1000773550728951 0 -0.24674899311506121 0.12645216703654991 0 -0.23180430407781269 0.1123304094333205 0 -0.2345229960484102 0.12101945688184571 0 -0.24674899311506121 0.12645216703654991 0 -0.24674899311506121 0.12645216703654991 0 -0.2427016249851594 0.15282697900020459 0 -0.2345229960484102 0.12101945688184571 0 -0.24674899311506121 0.12645216703654991 0 -0.2318104996829404 0.13912067805115899 0 -0.24674899311506121 0.12645216703654991 0 -0.2318104996829404 0.13912067805115899 0 -0.2427016249851594 0.15282697900020459 0 -0.2345229960484102 0.12101945688184571 0 -0.2318104996829404 0.13912067805115899 0 -0.2166565967551615 0.1291929428925872 0 -0.2318104996829404 0.13912067805115899 0 -0.2166565967551615 0.1291929428925872 0 -0.21683955935191351 0.1472049066368572 0 -0.2318104996829404 0.13912067805115899 0 -0.2427016249851594 0.15282697900020459 0 -0.22746350475365609 0.1606287635524403 0 -0.2318104996829404 0.13912067805115899 0 -0.22746350475365609 0.1606287635524403 0 -0.21683955935191351 0.1472049066368572 0 -0.25612433468249851 0.1701603509616286 0 -0.2427016249851594 0.15282697900020459 0 -0.2328949581751639 0.1781004023367444 0 -0.25508119701697057 0.19205845094730969 0 -0.25612433468249851 0.1701603509616286 0 -0.2328949581751639 0.1781004023367444 0 -0.25508119701697057 0.19205845094730969 0 -0.2328949581751639 0.1781004023367444 0 -0.2427016249851594 0.15282697900020459 0 -0.2328949581751639 0.1781004023367444 0 -0.22746350475365609 0.1606287635524403 0 -0.2328949581751639 0.1781004023367444 0 -0.22746350475365609 0.1606287635524403 0 -0.21070871933335719 0.16414235372617911 0 -0.2328949581751639 0.1781004023367444 0 -0.21070871933335719 0.16414235372617911 0 -0.22746350475365609 0.1606287635524403 0 -0.21070871933335719 0.16414235372617911 0 -0.21683955935191351 0.1472049066368572 0 -0.2328949581751639 0.1781004023367444 0 -0.21070871933335719 0.16414235372617911 0 -0.20531973932905789 0.18786516470849429 0 -0.18915801373812369 0.1831520491821218 0 -0.19232524010262059 0.17065219530734491 0 -0.20531973932905789 0.18786516470849429 0 -0.19232524010262059 0.17065219530734491 0 -0.20531973932905789 0.18786516470849429 0 -0.21070871933335719 0.16414235372617911 0 -0.19232524010262059 0.17065219530734491 0 -0.20531973932905789 0.18786516470849429 0 -0.21070871933335719 0.16414235372617911 0 -0.1885224804915504 0.15018430511561379 0 -0.21070871933335719 0.16414235372617911 0 -0.19232524010262059 0.17065219530734491 0 -0.1885224804915504 0.15018430511561379 0 -0.21070871933335719 0.16414235372617911 0 -0.1885224804915504 0.15018430511561379 0 -0.20233031817283151 0.14748107570876159 0 -0.20233031817283151 0.14748107570876159 0 -0.19237270101108769 0.13991058201972151 0 -0.20320813067624829 0.13596323104543651 0 -0.1885224804915504 0.15018430511561379 0 -0.20233031817283151 0.14748107570876159 0 -0.19237270101108769 0.13991058201972151 0 -0.20316215272653651 0.1184291402193727 0 -0.18839345918863831 0.12639625269004601 0 -0.20320813067624829 0.13596323104543651 0 -0.19237270101108769 0.13991058201972151 0 -0.18839345918863831 0.12639625269004601 0 -0.20320813067624829 0.13596323104543651 0 -0.2166565967551615 0.1291929428925872 0 -0.20320813067624829 0.13596323104543651 0 -0.21683955935191351 0.1472049066368572 0 -0.20316215272653651 0.1184291402193727 0 -0.2166565967551615 0.1291929428925872 0 -0.20320813067624829 0.13596323104543651 0 -0.21070871933335719 0.16414235372617911 0 -0.20233031817283151 0.14748107570876159 0 -0.21683955935191351 0.1472049066368572 0 -0.20233031817283151 0.14748107570876159 0 -0.20320813067624829 0.13596323104543651 0 -0.21683955935191351 0.1472049066368572 0 -0.2246923153491015 0.2580099189485946 0 -0.2257836452137138 0.23635557483672789 0 -0.2498521202164147 0.24664314714166921 0 -0.2257836452137138 0.23635557483672789 0 -0.2498521202164147 0.24664314714166921 0 -0.24291454888764341 0.22641203327300219 0 -0.2257836452137138 0.23635557483672789 0 -0.24291454888764341 0.22641203327300219 0 -0.2277608726542418 0.21909791506280221 0 -0.2257836452137138 0.23635557483672789 0 -0.2277608726542418 0.21909791506280221 0 -0.21024644864745209 0.22203763210217159 0 -0.2277608726542418 0.21909791506280221 0 -0.22238869432810321 0.20270017660886311 0 -0.21024644864745209 0.22203763210217159 0 -0.2277608726542418 0.21909791506280221 0 -0.2418524378781827 0.20624867095867719 0 -0.22238869432810321 0.20270017660886311 0 -0.24291454888764341 0.22641203327300219 0 -0.2277608726542418 0.21909791506280221 0 -0.2418524378781827 0.20624867095867719 0 -0.26076456779167362 0.22086102137108299 0 -0.24291454888764341 0.22641203327300219 0 -0.2418524378781827 0.20624867095867719 0 -0.25508119701697057 0.19205845094730969 0 -0.2328949581751639 0.1781004023367444 0 -0.2418524378781827 0.20624867095867719 0 -0.2328949581751639 0.1781004023367444 0 -0.22238869432810321 0.20270017660886311 0 -0.20531973932905789 0.18786516470849429 0 -0.2328949581751639 0.1781004023367444 0 -0.2418524378781827 0.20624867095867719 0 -0.22238869432810321 0.20270017660886311 0 -0.22238869432810321 0.20270017660886311 0 -0.20531973932905789 0.18786516470849429 0 -0.20495989645233489 0.20497104415835779 0 -0.20531973932905789 0.18786516470849429 0 -0.1880452818400728 0.1959988191052501 0 -0.20495989645233489 0.20497104415835779 0 -0.18915801373812369 0.1831520491821218 0 -0.20531973932905789 0.18786516470849429 0 -0.1880452818400728 0.1959988191052501 0 -0.1880452818400728 0.1959988191052501 0 -0.19181712431864709 0.21609959306580401 0 -0.20495989645233489 0.20497104415835779 0 -0.19181712431864709 0.21609959306580401 0 -0.20495989645233489 0.20497104415835779 0 -0.21024644864745209 0.22203763210217159 0 -0.22238869432810321 0.20270017660886311 0 -0.20495989645233489 0.20497104415835779 0 -0.21024644864745209 0.22203763210217159 0 -0.21024644864745209 0.22203763210217159 0 -0.19466920135099069 0.22958501467628581 0 -0.1992355655274293 0.24593280249212751 0 -0.19181712431864709 0.21609959306580401 0 -0.19466920135099069 0.22958501467628581 0 -0.1791633773006393 0.2321020610136677 0 -0.19181712431864709 0.21609959306580401 0 -0.21024644864745209 0.22203763210217159 0 -0.19466920135099069 0.22958501467628581 0 -0.19466920135099069 0.22958501467628581 0 -0.1992355655274293 0.24593280249212751 0 -0.1791633773006393 0.2321020610136677 0 -0.2257836452137138 0.23635557483672789 0 -0.21024644864745209 0.22203763210217159 0 -0.1992355655274293 0.24593280249212751 0 -0.2246923153491015 0.2580099189485946 0 -0.2257836452137138 0.23635557483672789 0 -0.1992355655274293 0.24593280249212751 0 -0.17708334863010269 0.25567643143270868 0 -0.16402011641522299 0.2417029532036388 0 -0.1791633773006393 0.2321020610136677 0 -0.17708334863010269 0.25567643143270868 0 -0.1992355655274293 0.24593280249212751 0 -0.1791633773006393 0.2321020610136677 0 -0.19181712431864709 0.21609959306580401 0 -0.1791633773006393 0.2321020610136677 0 -0.17347998560628269 0.21051595706923151 0 -0.1791633773006393 0.2321020610136677 0 -0.15921500987295961 0.22322696346696211 0 -0.17347998560628269 0.21051595706923151 0 -0.16402011641522299 0.2417029532036388 0 -0.1791633773006393 0.2321020610136677 0 -0.15921500987295961 0.22322696346696211 0 -0.1614470018874283 0.2075850678741156 0 -0.17347998560628269 0.21051595706923151 0 -0.1625857289415451 0.19372626535019241 0 -0.15921500987295961 0.22322696346696211 0 -0.1614470018874283 0.2075850678741156 0 -0.149386647102312 0.20817021023034141 0 -0.15921500987295961 0.22322696346696211 0 -0.1614470018874283 0.2075850678741156 0 -0.17347998560628269 0.21051595706923151 0 -0.1614470018874283 0.2075850678741156 0 -0.1625857289415451 0.19372626535019241 0 -0.149386647102312 0.20817021023034141 0 -0.1880452818400728 0.1959988191052501 0 -0.19181712431864709 0.21609959306580401 0 -0.17347998560628269 0.21051595706923151 0 -0.1880452818400728 0.1959988191052501 0 -0.1625857289415451 0.19372626535019241 0 -0.17423111358700491 0.18459620325179679 0 -0.1880452818400728 0.1959988191052501 0 -0.17347998560628269 0.21051595706923151 0 -0.1625857289415451 0.19372626535019241 0 -0.1880452818400728 0.1959988191052501 0 -0.1625857289415451 0.19372626535019241 0 -0.18915801373812369 0.1831520491821218 0 -0.1880452818400728 0.1959988191052501 0 -0.17423111358700491 0.18459620325179679 0 -0.1625857289415451 0.19372626535019241 0 -0.17423111358700491 0.18459620325179679 0 -0.1604633879170852 0.1844009334303035 0 -0.1625857289415451 0.19372626535019241 0 -0.13649532114903859 0.1905935745805587 0 -0.149386647102312 0.20817021023034141 0 -0.1625857289415451 0.19372626535019241 0 -0.1397119548681614 0.18924361007983259 0 -0.13649532114903859 0.1905935745805587 0 -0.1625857289415451 0.19372626535019241 0 -0.1397119548681614 0.18924361007983259 0 -0.14441449776289589 0.1872700356770981 0 -0.1625857289415451 0.19372626535019241 0 -0.1511468522884073 0.18224030603998859 0 -0.14441449776289589 0.1872700356770981 0 -0.1625857289415451 0.19372626535019241 0 -0.13649532114903859 0.1905935745805587 0 -0.13649532114903859 0.1905935745805587 0 -0.149386647102312 0.20817021023034141 0 -0.1397119548681614 0.18924361007983259 0 -0.13470318013734731 0.1881500858572335 0 -0.14441449776289589 0.1872700356770981 0 -0.13649532114903859 0.1905935745805587 0 -0.13598035861989621 0.19673933074901259 0 -0.14105487682786169 0.21861030832367209 0 -0.1397119548681614 0.18924361007983259 0 -0.13730490334988471 0.18914289795810979 0 -0.13470318013734731 0.1881500858572335 0 -0.1397119548681614 0.18924361007983259 0 -0.13730490334988471 0.18914289795810979 0 -0.13649532114903859 0.1905935745805587 0 -0.13649532114903859 0.1905935745805587 0 -0.13184076356291621 0.19098192860559959 0 -0.13598035861989621 0.19673933074901259 0 -0.13184076356291621 0.19098192860559959 0 -0.13598035861989621 0.19673933074901259 0 -0.13649532114903859 0.1905935745805587 0 -0.13470318013734731 0.1881500858572335 0 -0.13184076356291621 0.19098192860559959 0 -0.13649532114903859 0.1905935745805587 0 -0.13184076356291621 0.19098192860559959 0 -0.13649532114903859 0.1905935745805587 0 -0.13470318013734731 0.1881500858572335 0 -0.13730490334988471 0.18914289795810979 0 -0.13649532114903859 0.1905935745805587 0 -0.13470318013734731 0.1881500858572335 0 -0.13184076356291621 0.19098192860559959 0 -0.12782187032645351 0.19062319681827869 0 -0.13470318013734731 0.1881500858572335 0 -0.13081054133833811 0.18954908226137371 0 -0.13081054133833811 0.18954908226137371 0 -0.13184076356291621 0.19098192860559959 0 -0.12782187032645351 0.19062319681827869 0 -0.13081054133833811 0.18954908226137371 0 -0.12782187032645351 0.19062319681827869 0 -0.13470318013734731 0.1881500858572335 0 -0.13081054133833811 0.18954908226137371 0 -0.13184076356291621 0.19098192860559959 0 -0.13081054133833811 0.18954908226137371 0 -0.13184076356291621 0.19098192860559959 0 -0.13184076356291621 0.19098192860559959 0 -0.12982061872798731 0.19661420155223669 0 -0.13598035861989621 0.19673933074901259 0 -0.13184076356291621 0.19098192860559959 0 -0.12782187032645351 0.19062319681827869 0 -0.12982061872798731 0.19661420155223669 0 -0.13081054133833811 0.18954908226137371 0 -0.12782187032645351 0.19062319681827869 0 -0.12650879603858101 0.18356615947101279 0 -0.12782187032645351 0.19062319681827869 0 -0.1255604935427049 0.19940652691928251 0 -0.12982061872798731 0.19661420155223669 0 -0.1255604935427049 0.19940652691928251 0 -0.12946875259747301 0.20183595347192301 0 -0.1240103389159177 0.20769051875160641 0 -0.1255604935427049 0.19940652691928251 0 -0.12982061872798731 0.19661420155223669 0 -0.12946875259747301 0.20183595347192301 0 -0.12982061872798731 0.19661420155223669 0 -0.12946875259747301 0.20183595347192301 0 -0.13598035861989621 0.19673933074901259 0 -0.12946875259747301 0.20183595347192301 0 -0.13598035861989621 0.19673933074901259 0 -0.1343761124835684 0.20863573423156351 0 -0.13598035861989621 0.19673933074901259 0 -0.1343761124835684 0.20863573423156351 0 -0.14105487682786169 0.21861030832367209 0 -0.13649532114903859 0.1905935745805587 0 -0.14105487682786169 0.21861030832367209 0 -0.12946875259747301 0.20183595347192301 0 -0.1343761124835684 0.20863573423156351 0 -0.1240103389159177 0.20769051875160641 0 -0.1343761124835684 0.20863573423156351 0 -0.13047323729424359 0.22122652269772711 0 -0.1240103389159177 0.20769051875160641 0 -0.1343761124835684 0.20863573423156351 0 -0.14105487682786169 0.21861030832367209 0 -0.13047323729424359 0.22122652269772711 0 -0.13649532114903859 0.1905935745805587 0 -0.14105487682786169 0.21861030832367209 0 -0.149386647102312 0.20817021023034141 0 -0.15921500987295961 0.22322696346696211 0 -0.14105487682786169 0.21861030832367209 0 -0.149386647102312 0.20817021023034141 0 -0.15921500987295961 0.22322696346696211 0 -0.14105487682786169 0.21861030832367209 0 -0.14548168625616259 0.24581136689616459 0 -0.14105487682786169 0.21861030832367209 0 -0.14548168625616259 0.24581136689616459 0 -0.13047323729424359 0.22122652269772711 0 -0.14548168625616259 0.24581136689616459 0 -0.11916008899418459 0.22979487073713159 0 -0.14105487682786169 0.21861030832367209 0 -0.13047323729424359 0.22122652269772711 0 -0.14548168625616259 0.24581136689616459 0 -0.14548168625616259 0.24581136689616459 0 -0.12239846071040809 0.24920872385165541 0 -0.11916008899418459 0.22979487073713159 0 -0.1584297322636746 0.26031430093366159 0 -0.16402011641522299 0.2417029532036388 0 -0.14548168625616259 0.24581136689616459 0 -0.16402011641522299 0.2417029532036388 0 -0.15921500987295961 0.22322696346696211 0 -0.14548168625616259 0.24581136689616459 0 -0.16536414247421599 0.15123154081981871 0 -0.1663362416497445 0.13622625650504719 0 -0.1793307408761832 0.15343922590619549 0 -0.16536414247421599 0.15123154081981871 0 -0.1793307408761832 0.15343922590619549 0 -0.16947818063466899 0.16308706642553239 0 -0.16536414247421599 0.15123154081981871 0 -0.15677203831724251 0.15889203584728731 0 -0.15490351089324139 0.14451311941502959 0 -0.16536414247421599 0.15123154081981871 0 -0.1663362416497445 0.13622625650504719 0 -0.15490351089324139 0.14451311941502959 0 -0.17162251468671061 0.1232110551526293 0 -0.15512093016006639 0.12137006157731491 0 -0.1663362416497445 0.13622625650504719 0 -0.1663362416497445 0.13622625650504719 0 -0.15490351089324139 0.14451311941502959 0 -0.15155321825865031 0.12692579956075631 0 -0.1663362416497445 0.13622625650504719 0 -0.15155321825865031 0.12692579956075631 0 -0.15512093016006639 0.12137006157731491 0 -0.1663362416497445 0.13622625650504719 0 -0.15512093016006639 0.12137006157731491 0 -0.1663362416497445 0.13622625650504719 0 -0.15155321825865031 0.12692579956075631 0 -0.1885224804915504 0.15018430511561379 0 -0.1663362416497445 0.13622625650504719 0 -0.1811536052703496 0.1351722896646694 0 -0.17162251468671061 0.1232110551526293 0 -0.18839345918863831 0.12639625269004601 0 -0.1811536052703496 0.1351722896646694 0 -0.17162251468671061 0.1232110551526293 0 -0.1663362416497445 0.13622625650504719 0 -0.1811536052703496 0.1351722896646694 0 -0.19237270101108769 0.13991058201972151 0 -0.18839345918863831 0.12639625269004601 0 -0.1811536052703496 0.1351722896646694 0 -0.1885224804915504 0.15018430511561379 0 -0.1663362416497445 0.13622625650504719 0 -0.1793307408761832 0.15343922590619549 0 -0.1663362416497445 0.13622625650504719 0 -0.1793307408761832 0.15343922590619549 0 -0.1885224804915504 0.15018430511561379 0 -0.1663362416497445 0.13622625650504719 0 -0.1885224804915504 0.15018430511561379 0 -0.19237270101108769 0.13991058201972151 0 -0.1811536052703496 0.1351722896646694 0 -0.19232524010262059 0.17065219530734491 0 -0.1793307408761832 0.15343922590619549 0 -0.17999883219887489 0.16516840957122891 0 -0.19232524010262059 0.17065219530734491 0 -0.1793307408761832 0.15343922590619549 0 -0.19232524010262059 0.17065219530734491 0 -0.1885224804915504 0.15018430511561379 0 -0.1793307408761832 0.15343922590619549 0 -0.19232524010262059 0.17065219530734491 0 -0.17999883219887489 0.16516840957122891 0 -0.17886116718202669 0.17349515064584259 0 -0.17999883219887489 0.16516840957122891 0 -0.17886116718202669 0.17349515064584259 0 -0.16947818063466899 0.16308706642553239 0 -0.1793307408761832 0.15343922590619549 0 -0.17999883219887489 0.16516840957122891 0 -0.16947818063466899 0.16308706642553239 0 -0.18915801373812369 0.1831520491821218 0 -0.17886116718202669 0.17349515064584259 0 -0.17423111358700491 0.18459620325179679 0 -0.18915801373812369 0.1831520491821218 0 -0.19232524010262059 0.17065219530734491 0 -0.17886116718202669 0.17349515064584259 0 -0.17886116718202669 0.17349515064584259 0 -0.17423111358700491 0.18459620325179679 0 -0.16627310190317621 0.17680400179707029 0 -0.17423111358700491 0.18459620325179679 0 -0.16627310190317621 0.17680400179707029 0 -0.1604633879170852 0.1844009334303035 0 -0.16627310190317621 0.17680400179707029 0 -0.1511468522884073 0.18224030603998859 0 -0.16627310190317621 0.17680400179707029 0 -0.15906754774665521 0.17315279547673759 0 -0.16150939920807869 0.166413548963707 0 -0.16627310190317621 0.17680400179707029 0 -0.1511468522884073 0.18224030603998859 0 -0.1549352728546412 0.17919731251027801 0 -0.16627310190317621 0.17680400179707029 0 -0.15906754774665521 0.17315279547673759 0 -0.1549352728546412 0.17919731251027801 0 -0.16627310190317621 0.17680400179707029 0 -0.1604633879170852 0.1844009334303035 0 -0.1511468522884073 0.18224030603998859 0 -0.1625857289415451 0.19372626535019241 0 -0.1604633879170852 0.1844009334303035 0 -0.1511468522884073 0.18224030603998859 0 -0.17886116718202669 0.17349515064584259 0 -0.16627310190317621 0.17680400179707029 0 -0.16947818063466899 0.16308706642553239 0 -0.16627310190317621 0.17680400179707029 0 -0.16947818063466899 0.16308706642553239 0 -0.16150939920807869 0.166413548963707 0 -0.16150939920807869 0.166413548963707 0 -0.15677203831724251 0.15889203584728731 0 -0.1551025226248304 0.16733079661281891 0 -0.15906754774665521 0.17315279547673759 0 -0.16150939920807869 0.166413548963707 0 -0.1551025226248304 0.16733079661281891 0 -0.16947818063466899 0.16308706642553239 0 -0.16150939920807869 0.166413548963707 0 -0.15677203831724251 0.15889203584728731 0 -0.16536414247421599 0.15123154081981871 0 -0.16947818063466899 0.16308706642553239 0 -0.15677203831724251 0.15889203584728731 0 -0.15677203831724251 0.15889203584728731 0 -0.1551025226248304 0.16733079661281891 0 -0.14786060477659951 0.16477448024407981 0 -0.15677203831724251 0.15889203584728731 0 -0.14786060477659951 0.16477448024407981 0 -0.14497326706497701 0.15619836621398389 0 -0.15906754774665521 0.17315279547673759 0 -0.1551025226248304 0.16733079661281891 0 -0.1493884966074705 0.17334740084960981 0 -0.1551025226248304 0.16733079661281891 0 -0.14786060477659951 0.16477448024407981 0 -0.1493884966074705 0.17334740084960981 0 -0.14786060477659951 0.16477448024407981 0 -0.14296353827794939 0.1712980782443502 0 -0.1493884966074705 0.17334740084960981 0 -0.14786060477659951 0.16477448024407981 0 -0.14296353827794939 0.1712980782443502 0 -0.13914560087149849 0.16495245682226969 0 -0.14786060477659951 0.16477448024407981 0 -0.13914560087149849 0.16495245682226969 0 -0.14497326706497701 0.15619836621398389 0 -0.1511468522884073 0.18224030603998859 0 -0.1549352728546412 0.17919731251027801 0 -0.13513587082231099 0.18224026988952041 0 -0.1493884966074705 0.17334740084960981 0 -0.1549352728546412 0.17919731251027801 0 -0.13513587082231099 0.18224026988952041 0 -0.13470318013734731 0.1881500858572335 0 -0.1511468522884073 0.18224030603998859 0 -0.13470318013734731 0.1881500858572335 0 -0.1511468522884073 0.18224030603998859 0 -0.14441449776289589 0.1872700356770981 0 -0.1549352728546412 0.17919731251027801 0 -0.13513587082231099 0.18224026988952041 0 -0.15906754774665521 0.17315279547673759 0 -0.1493884966074705 0.17334740084960981 0 -0.1549352728546412 0.17919731251027801 0 -0.14296353827794939 0.1712980782443502 0 -0.1493884966074705 0.17334740084960981 0 -0.13513587082231099 0.18224026988952041 0 -0.13513587082231099 0.18224026988952041 0 -0.1318558138368508 0.16208556848941921 0 -0.13470318013734731 0.1881500858572335 0 -0.1511468522884073 0.18224030603998859 0 -0.13513587082231099 0.18224026988952041 0 -0.13513587082231099 0.18224026988952041 0 -0.1322603647043685 0.1768608097539236 0 -0.1318558138368508 0.16208556848941921 0 -0.14296353827794939 0.1712980782443502 0 -0.13513587082231099 0.18224026988952041 0 -0.13914560087149849 0.16495245682226969 0 -0.13470318013734731 0.1881500858572335 0 -0.13513587082231099 0.18224026988952041 0 -0.13085163627695509 0.18289871114460729 0 -0.13470318013734731 0.1881500858572335 0 -0.13513587082231099 0.18224026988952041 0 -0.13513587082231099 0.18224026988952041 0 -0.13085163627695509 0.18289871114460729 0 -0.13085163627695509 0.18289871114460729 0 -0.12272479767150379 0.1718181999799373 0 -0.1322603647043685 0.1768608097539236 0 -0.13085163627695509 0.18289871114460729 0 -0.12272479767150379 0.1718181999799373 0 -0.13085163627695509 0.18289871114460729 0 -0.12650879603858101 0.18356615947101279 0 -0.12272479767150379 0.1718181999799373 0 -0.13513587082231099 0.18224026988952041 0 -0.1322603647043685 0.1768608097539236 0 -0.13085163627695509 0.18289871114460729 0 -0.13085163627695509 0.18289871114460729 0 -0.12650879603858101 0.18356615947101279 0 -0.13081054133833811 0.18954908226137371 0 -0.12650879603858101 0.18356615947101279 0 -0.13081054133833811 0.18954908226137371 0 -0.13085163627695509 0.18289871114460729 0 -0.12650879603858101 0.18356615947101279 0 -0.13470318013734731 0.1881500858572335 0 -0.13081054133833811 0.18954908226137371 0 -0.13085163627695509 0.18289871114460729 0 -0.13470318013734731 0.1881500858572335 0 -0.13085163627695509 0.18289871114460729 0 -0.13513587082231099 0.18224026988952041 0 -0.13914560087149849 0.16495245682226969 0 -0.1318558138368508 0.16208556848941921 0 -0.13914560087149849 0.16495245682226969 0 -0.13173799718957629 0.15778260061021029 0 -0.14497326706497701 0.15619836621398389 0 -0.13914560087149849 0.16495245682226969 0 -0.1318558138368508 0.16208556848941921 0 -0.13173799718957629 0.15778260061021029 0 -0.1322603647043685 0.1768608097539236 0 -0.1318558138368508 0.16208556848941921 0 -0.1322603647043685 0.1768608097539236 0 -0.1318558138368508 0.16208556848941921 0 -0.12272479767150379 0.1718181999799373 0 -0.13173799718957629 0.15778260061021029 0 -0.12272479767150379 0.1718181999799373 0 -0.1318558138368508 0.16208556848941921 0 -0.13173799718957629 0.15778260061021029 0 -0.12272479767150379 0.1718181999799373 0 -0.13173799718957629 0.15778260061021029 0 -0.1217316554424835 0.1593157851010957 0 -0.12272479767150379 0.1718181999799373 0 -0.1318558138368508 0.16208556848941921 0 -0.13173799718957629 0.15778260061021029 0 -0.13173799718957629 0.15778260061021029 0 -0.1264941796651104 0.12914036777275359 0 -0.12088058938728841 0.14967783300830581 0 -0.13173799718957629 0.15778260061021029 0 -0.13095425995938231 0.12915849522848741 0 -0.13173799718957629 0.15778260061021029 0 -0.1264941796651104 0.12914036777275359 0 -0.13173799718957629 0.15778260061021029 0 -0.14164560772411261 0.14235420008548291 0 -0.13095425995938231 0.12915849522848741 0 -0.13173799718957629 0.15778260061021029 0 -0.14164560772411261 0.14235420008548291 0 -0.13173799718957629 0.15778260061021029 0 -0.14497326706497701 0.15619836621398389 0 -0.14164560772411261 0.14235420008548291 0 -0.14497326706497701 0.15619836621398389 0 -0.14164560772411261 0.14235420008548291 0 -0.15490351089324139 0.14451311941502959 0 -0.15677203831724251 0.15889203584728731 0 -0.14497326706497701 0.15619836621398389 0 -0.15490351089324139 0.14451311941502959 0 -0.14164560772411261 0.14235420008548291 0 -0.15490351089324139 0.14451311941502959 0 -0.15155321825865031 0.12692579956075631 0 -0.14164560772411261 0.14235420008548291 0 -0.1487090112585778 0.12513642102532321 0 -0.15155321825865031 0.12692579956075631 0 -0.1487090112585778 0.12513642102532321 0 -0.15155321825865031 0.12692579956075631 0 -0.14164560772411261 0.14235420008548291 0 -0.15155321825865031 0.12692579956075631 0 -0.13173799718957629 0.15778260061021029 0 -0.13095425995938231 0.12915849522848741 0 -0.1264941796651104 0.12914036777275359 0 -0.14164560772411261 0.14235420008548291 0 -0.1487090112585778 0.12513642102532321 0 -0.13095425995938231 0.12915849522848741 0 -0.1264941796651104 0.12914036777275359 0 -0.1075713076840287 0.12540789134565311 0 -0.1139013726696214 0.14136234152422411 0 -0.1264941796651104 0.12914036777275359 0 -0.1139013726696214 0.14136234152422411 0 -0.12088058938728841 0.14967783300830581 0 -0.1075713076840287 0.12540789134565311 0 -0.10137107253649021 0.1427035342097781 0 -0.09141071441716081 0.13475129531753779 0 -0.1075713076840287 0.12540789134565311 0 -0.09141071441716081 0.13475129531753779 0 -0.093673927622337574 0.11804829874094711 0 -0.1075713076840287 0.12540789134565311 0 -0.10137107253649021 0.1427035342097781 0 -0.1139013726696214 0.14136234152422411 0 -0.1059678514232404 0.1549975490324893 0 -0.09141071441716081 0.13475129531753779 0 -0.10137107253649021 0.1427035342097781 0 -0.1059678514232404 0.1549975490324893 0 -0.09141071441716081 0.13475129531753779 0 -0.10137107253649021 0.1427035342097781 0 -0.1139013726696214 0.14136234152422411 0 -0.1120479351039968 0.15726086709485779 0 -0.096532313246969231 0.15376220551894201 0 -0.1059678514232404 0.1549975490324893 0 -0.09141071441716081 0.13475129531753779 0 -0.10137107253649021 0.1427035342097781 0 -0.1059678514232404 0.1549975490324893 0 -0.1120479351039968 0.15726086709485779 0 -0.096532313246969231 0.15376220551894201 0 -0.1059678514232404 0.1549975490324893 0 -0.1022880964939263 0.15919949808722819 0 -0.10137107253649021 0.1427035342097781 0 -0.1120479351039968 0.15726086709485779 0 -0.1139013726696214 0.14136234152422411 0 -0.12088058938728841 0.14967783300830581 0 -0.1120479351039968 0.15726086709485779 0 -0.12088058938728841 0.14967783300830581 0 -0.1217316554424835 0.1593157851010957 0 -0.1120479351039968 0.15726086709485779 0 -0.13173799718957629 0.15778260061021029 0 -0.12088058938728841 0.14967783300830581 0 -0.1217316554424835 0.1593157851010957 0 -0.1059678514232404 0.1549975490324893 0 -0.1205249884293183 0.17524380274744189 0 -0.1059678514232404 0.1549975490324893 0 -0.1120479351039968 0.15726086709485779 0 -0.1205249884293183 0.17524380274744189 0 -0.1059678514232404 0.1549975490324893 0 -0.1205249884293183 0.17524380274744189 0 -0.1063021511680885 0.16547732636150281 0 -0.12272479767150379 0.1718181999799373 0 -0.1120479351039968 0.15726086709485779 0 -0.1205249884293183 0.17524380274744189 0 -0.1217316554424835 0.1593157851010957 0 -0.12272479767150379 0.1718181999799373 0 -0.1120479351039968 0.15726086709485779 0 -0.12272479767150379 0.1718181999799373 0 -0.1120479351039968 0.15726086709485779 0 -0.1205249884293183 0.17524380274744189 0 -0.10889721654058029 0.17187836527557471 0 -0.1063021511680885 0.16547732636150281 0 -0.1205249884293183 0.17524380274744189 0 -0.1139401967340319 0.18549781942407831 0 -0.12782187032645351 0.19062319681827869 0 -0.12650879603858101 0.18356615947101279 0 -0.1139401967340319 0.18549781942407831 0 -0.12650879603858101 0.18356615947101279 0 -0.1139401967340319 0.18549781942407831 0 -0.12650879603858101 0.18356615947101279 0 -0.1205249884293183 0.17524380274744189 0 -0.1139401967340319 0.18549781942407831 0 -0.12650879603858101 0.18356615947101279 0 -0.12272479767150379 0.1718181999799373 0 -0.1205249884293183 0.17524380274744189 0 -0.12650879603858101 0.18356615947101279 0 -0.1205249884293183 0.17524380274744189 0 -0.12272479767150379 0.1718181999799373 0 -0.1205249884293183 0.17524380274744189 0 -0.1205249884293183 0.17524380274744189 0 -0.11051457285052139 0.1780554473362389 0 -0.10889721654058029 0.17187836527557471 0 -0.1205249884293183 0.17524380274744189 0 -0.11051457285052139 0.1780554473362389 0 -0.1139401967340319 0.18549781942407831 0 -0.11051457285052139 0.1780554473362389 0 -0.1139401967340319 0.18549781942407831 0 -0.1051126072686825 0.18078435944167781 0 -0.1139401967340319 0.18549781942407831 0 -0.11157985193502371 0.18917341252582559 0 -0.1139401967340319 0.18549781942407831 0 -0.1051126072686825 0.18078435944167781 0 -0.097944026696918873 0.18795626052116651 0 -0.1139401967340319 0.18549781942407831 0 -0.097944026696918873 0.18795626052116651 0 -0.1051126072686825 0.18078435944167781 0 -0.1048223641162945 0.17544468712886549 0 -0.09841641976267626 0.17662962154769321 0 -0.11051457285052139 0.1780554473362389 0 -0.1051126072686825 0.18078435944167781 0 -0.1048223641162945 0.17544468712886549 0 -0.11051457285052139 0.1780554473362389 0 -0.10889721654058029 0.17187836527557471 0 -0.1048223641162945 0.17544468712886549 0 -0.10889721654058029 0.17187836527557471 0 -0.1048223641162945 0.17544468712886549 0 -0.10117100415901201 0.16987564204314309 0 -0.1048223641162945 0.17544468712886549 0 -0.09841641976267626 0.17662962154769321 0 -0.10117100415901201 0.16987564204314309 0 -0.1051126072686825 0.18078435944167781 0 -0.09841641976267626 0.17662962154769321 0 -0.097944026696918873 0.18795626052116651 0 -0.09841641976267626 0.17662962154769321 0 -0.090613635159056308 0.17983170177915089 0 -0.097944026696918873 0.18795626052116651 0 -0.1059678514232404 0.1549975490324893 0 -0.1022880964939263 0.15919949808722819 0 -0.1063021511680885 0.16547732636150281 0 -0.1022880964939263 0.15919949808722819 0 -0.1063021511680885 0.16547732636150281 0 -0.098980889122722363 0.16256121842380561 0 -0.10889721654058029 0.17187836527557471 0 -0.1063021511680885 0.16547732636150281 0 -0.10117100415901201 0.16987564204314309 0 -0.1063021511680885 0.16547732636150281 0 -0.10117100415901201 0.16987564204314309 0 -0.098980889122722363 0.16256121842380561 0 -0.09841641976267626 0.17662962154769321 0 -0.10117100415901201 0.16987564204314309 0 -0.091776433567411914 0.1690652936469266 0 -0.10117100415901201 0.16987564204314309 0 -0.098980889122722363 0.16256121842380561 0 -0.091776433567411914 0.1690652936469266 0 -0.096532313246969231 0.15376220551894201 0 -0.098980889122722363 0.16256121842380561 0 -0.091381309067865457 0.15924707431092 0 -0.098980889122722363 0.16256121842380561 0 -0.091381309067865457 0.15924707431092 0 -0.091776433567411914 0.1690652936469266 0 -0.096532313246969231 0.15376220551894201 0 -0.1022880964939263 0.15919949808722819 0 -0.098980889122722363 0.16256121842380561 0 -0.091381309067865457 0.15924707431092 0 -0.081199094132618138 0.16018253748460209 0 -0.08841781526960564 0.1506641164803238 0 -0.091381309067865457 0.15924707431092 0 -0.091776433567411914 0.1690652936469266 0 -0.081199094132618138 0.16018253748460209 0 -0.091776433567411914 0.1690652936469266 0 -0.081199094132618138 0.16018253748460209 0 -0.080912071527475177 0.1746966028502154 0 -0.090613635159056308 0.17983170177915089 0 -0.081990166797998615 0.18653219764129361 0 -0.097944026696918873 0.18795626052116651 0 -0.081990166797998615 0.18653219764129361 0 -0.097944026696918873 0.18795626052116651 0 -0.091776433567411914 0.1690652936469266 0 -0.090613635159056308 0.17983170177915089 0 -0.080912071527475177 0.1746966028502154 0 -0.09841641976267626 0.17662962154769321 0 -0.091776433567411914 0.1690652936469266 0 -0.090613635159056308 0.17983170177915089 0 -0.090613635159056308 0.17983170177915089 0 -0.080912071527475177 0.1746966028502154 0 -0.084104813200846479 0.18035432063214951 0 -0.080912071527475177 0.1746966028502154 0 -0.084104813200846479 0.18035432063214951 0 -0.077130053694179912 0.18445742039988899 0 -0.090613635159056308 0.17983170177915089 0 -0.084104813200846479 0.18035432063214951 0 -0.081990166797998615 0.18653219764129361 0 -0.081990166797998615 0.18653219764129361 0 -0.077130053694179912 0.18445742039988899 0 -0.078774311760827526 0.1909024416950979 0 -0.084104813200846479 0.18035432063214951 0 -0.081990166797998615 0.18653219764129361 0 -0.077130053694179912 0.18445742039988899 0 -0.072632647547005297 0.17985830935403979 0 -0.067262738939772748 0.16805113731736959 0 -0.065634821334183885 0.19085383763484401 0 -0.067262738939772748 0.16805113731736959 0 -0.065634821334183885 0.19085383763484401 0 -0.055549509222324697 0.18023608485537079 0 -0.067262738939772748 0.16805113731736959 0 -0.065634821334183885 0.19085383763484401 0 -0.072632647547005297 0.17985830935403979 0 -0.077130053694179912 0.18445742039988899 0 -0.065634821334183885 0.19085383763484401 0 -0.080912071527475177 0.1746966028502154 0 -0.072632647547005297 0.17985830935403979 0 -0.067262738939772748 0.16805113731736959 0 -0.080912071527475177 0.1746966028502154 0 -0.072632647547005297 0.17985830935403979 0 -0.077130053694179912 0.18445742039988899 0 -0.081199094132618138 0.16018253748460209 0 -0.067262738939772748 0.16805113731736959 0 -0.068890656545361612 0.1452484369998952 0 -0.067262738939772748 0.16805113731736959 0 -0.068890656545361612 0.1452484369998952 0 -0.081199094132618138 0.16018253748460209 0 -0.080912071527475177 0.1746966028502154 0 -0.067262738939772748 0.16805113731736959 0 -0.081199094132618138 0.16018253748460209 0 -0.068890656545361612 0.1452484369998952 0 -0.081515005974284863 0.1426408413637249 0 -0.067262738939772748 0.16805113731736959 0 -0.068890656545361612 0.1452484369998952 0 -0.054221750566417537 0.15267247508177889 0 -0.068890656545361612 0.1452484369998952 0 -0.054576734574750249 0.1339179416313582 0 -0.070518574150950461 0.12244573668242099 0 -0.068890656545361612 0.1452484369998952 0 -0.070518574150950461 0.12244573668242099 0 -0.068890656545361612 0.1452484369998952 0 -0.081413616827771013 0.1284346449919557 0 -0.070518574150950461 0.12244573668242099 0 -0.068890656545361612 0.1452484369998952 0 -0.081413616827771013 0.1284346449919557 0 -0.081515005974284863 0.1426408413637249 0 -0.081413616827771013 0.1284346449919557 0 -0.09141071441716081 0.13475129531753779 0 -0.081515005974284863 0.1426408413637249 0 -0.081413616827771013 0.1284346449919557 0 -0.09141071441716081 0.13475129531753779 0 -0.093673927622337574 0.11804829874094711 0 -0.09141071441716081 0.13475129531753779 0 -0.08841781526960564 0.1506641164803238 0 -0.081515005974284863 0.1426408413637249 0 -0.081199094132618138 0.16018253748460209 0 -0.08841781526960564 0.1506641164803238 0 -0.081515005974284863 0.1426408413637249 0 -0.096532313246969231 0.15376220551894201 0 -0.09141071441716081 0.13475129531753779 0 -0.08841781526960564 0.1506641164803238 0 -0.096532313246969231 0.15376220551894201 0 -0.091381309067865457 0.15924707431092 0 -0.08841781526960564 0.1506641164803238 0 -0.1077918442021823 0.24475293382975541 0 -0.11916008899418459 0.22979487073713159 0 -0.092954540558931431 0.23680026945980279 0 -0.095118341533690268 0.25507877921583277 0 -0.1077918442021823 0.24475293382975541 0 -0.092954540558931431 0.23680026945980279 0 -0.095118341533690268 0.25507877921583277 0 -0.092954540558931431 0.23680026945980279 0 -0.1107955376595843 0.25477349258218562 0 -0.1077918442021823 0.24475293382975541 0 -0.12239846071040809 0.24920872385165541 0 -0.1077918442021823 0.24475293382975541 0 -0.12239846071040809 0.24920872385165541 0 -0.11916008899418459 0.22979487073713159 0 -0.13047323729424359 0.22122652269772711 0 -0.11916008899418459 0.22979487073713159 0 -0.1187563202877663 0.21681633724622451 0 -0.11916008899418459 0.22979487073713159 0 -0.1073414887541969 0.21820121115238861 0 -0.1187563202877663 0.21681633724622451 0 -0.11916008899418459 0.22979487073713159 0 -0.092954540558931431 0.23680026945980279 0 -0.11916008899418459 0.22979487073713159 0 -0.1073414887541969 0.21820121115238861 0 -0.092954540558931431 0.23680026945980279 0 -0.095972727873671296 0.2206718285035463 0 -0.1073414887541969 0.21820121115238861 0 -0.092954540558931431 0.23680026945980279 0 -0.095972727873671296 0.2206718285035463 0 -0.098854916361446304 0.2136510515698877 0 -0.1073414887541969 0.21820121115238861 0 -0.095972727873671296 0.2206718285035463 0 -0.098854916361446304 0.2136510515698877 0 -0.094492077823573994 0.21103226581358159 0 -0.098854916361446304 0.2136510515698877 0 -0.095671365317517909 0.2067559273788058 0 -0.10402828467232079 0.2100150694351299 0 -0.098854916361446304 0.2136510515698877 0 -0.094492077823573994 0.21103226581358159 0 -0.095671365317517909 0.2067559273788058 0 -0.094492077823573994 0.21103226581358159 0 -0.095671365317517909 0.2067559273788058 0 -0.092412689700083442 0.20743998062449201 0 -0.10402828467232079 0.2100150694351299 0 -0.1076488545720633 0.20477956871258851 0 -0.1129666717145098 0.20943339795260979 0 -0.095671365317517909 0.2067559273788058 0 -0.10402828467232079 0.2100150694351299 0 -0.1076488545720633 0.20477956871258851 0 -0.10402828467232079 0.2100150694351299 0 -0.1073414887541969 0.21820121115238861 0 -0.1129666717145098 0.20943339795260979 0 -0.098854916361446304 0.2136510515698877 0 -0.10402828467232079 0.2100150694351299 0 -0.1073414887541969 0.21820121115238861 0 -0.1073414887541969 0.21820121115238861 0 -0.1187563202877663 0.21681633724622451 0 -0.1129666717145098 0.20943339795260979 0 -0.1187563202877663 0.21681633724622451 0 -0.1240103389159177 0.20769051875160641 0 -0.1129666717145098 0.20943339795260979 0 -0.13047323729424359 0.22122652269772711 0 -0.1187563202877663 0.21681633724622451 0 -0.1240103389159177 0.20769051875160641 0 -0.1240103389159177 0.20769051875160641 0 -0.1129666717145098 0.20943339795260979 0 -0.1166808871456933 0.20026876400236779 0 -0.1076488545720633 0.20477956871258851 0 -0.1129666717145098 0.20943339795260979 0 -0.1166808871456933 0.20026876400236779 0 -0.1076488545720633 0.20477956871258851 0 -0.1166808871456933 0.20026876400236779 0 -0.1088970640102747 0.1974246847940293 0 -0.12782187032645351 0.19062319681827869 0 -0.1166808871456933 0.20026876400236779 0 -0.1088970640102747 0.1974246847940293 0 -0.12782187032645351 0.19062319681827869 0 -0.1139401967340319 0.18549781942407831 0 -0.11157985193502371 0.18917341252582559 0 -0.12782187032645351 0.19062319681827869 0 -0.1088970640102747 0.1974246847940293 0 -0.12782187032645351 0.19062319681827869 0 -0.1102404820475926 0.19125911573367921 0 -0.1088970640102747 0.1974246847940293 0 -0.12782187032645351 0.19062319681827869 0 -0.11157985193502371 0.18917341252582559 0 -0.1102404820475926 0.19125911573367921 0 -0.12782187032645351 0.19062319681827869 0 -0.11157985193502371 0.18917341252582559 0 -0.1255604935427049 0.19940652691928251 0 -0.1240103389159177 0.20769051875160641 0 -0.1166808871456933 0.20026876400236779 0 -0.12782187032645351 0.19062319681827869 0 -0.1255604935427049 0.19940652691928251 0 -0.1166808871456933 0.20026876400236779 0 -0.11157985193502371 0.18917341252582559 0 -0.1102404820475926 0.19125911573367921 0 -0.1088970640102747 0.1974246847940293 0 -0.097978604953467385 0.19778067013072459 0 -0.089972257694095781 0.20422617276977981 0 -0.095671365317517909 0.2067559273788058 0 -0.1088970640102747 0.1974246847940293 0 -0.089972257694095781 0.20422617276977981 0 -0.11157985193502371 0.18917341252582559 0 -0.1102404820475926 0.19125911573367921 0 -0.1053280059286554 0.19271882874108501 0 -0.1088970640102747 0.1974246847940293 0 -0.089972257694095781 0.20422617276977981 0 -0.11157985193502371 0.18917341252582559 0 -0.097944026696918873 0.18795626052116651 0 -0.11157985193502371 0.18917341252582559 0 -0.1053280059286554 0.19271882874108501 0 -0.097944026696918873 0.18795626052116651 0 -0.1139401967340319 0.18549781942407831 0 -0.11157985193502371 0.18917341252582559 0 -0.097944026696918873 0.18795626052116651 0 -0.1102404820475926 0.19125911573367921 0 -0.1053280059286554 0.19271882874108501 0 -0.1088970640102747 0.1974246847940293 0 -0.095671365317517909 0.2067559273788058 0 -0.1076488545720633 0.20477956871258851 0 -0.1088970640102747 0.1974246847940293 0 -0.1053280059286554 0.19271882874108501 0 -0.1088970640102747 0.1974246847940293 0 -0.097978604953467385 0.19778067013072459 0 -0.1053280059286554 0.19271882874108501 0 -0.097978604953467385 0.19778067013072459 0 -0.097944026696918873 0.18795626052116651 0 -0.097978604953467385 0.19778067013072459 0 -0.097944026696918873 0.18795626052116651 0 -0.091699384353946617 0.19756200648351949 0 -0.081990166797998615 0.18653219764129361 0 -0.097944026696918873 0.18795626052116651 0 -0.078774311760827526 0.1909024416950979 0 -0.097944026696918873 0.18795626052116651 0 -0.078774311760827526 0.1909024416950979 0 -0.097944026696918873 0.18795626052116651 0 -0.086633107205569368 0.19592632761222259 0 -0.078774311760827526 0.1909024416950979 0 -0.097944026696918873 0.18795626052116651 0 -0.091699384353946617 0.19756200648351949 0 -0.086633107205569368 0.19592632761222259 0 -0.097978604953467385 0.19778067013072459 0 -0.091699384353946617 0.19756200648351949 0 -0.090594378521073632 0.20019800276939759 0 -0.097978604953467385 0.19778067013072459 0 -0.090594378521073632 0.20019800276939759 0 -0.089972257694095781 0.20422617276977981 0 -0.091699384353946617 0.19756200648351949 0 -0.090594378521073632 0.20019800276939759 0 -0.088749794631799286 0.19846837468082881 0 -0.090594378521073632 0.20019800276939759 0 -0.087153713919559755 0.2007704464246434 0 -0.089972257694095781 0.20422617276977981 0 -0.090594378521073632 0.20019800276939759 0 -0.087153713919559755 0.2007704464246434 0 -0.088749794631799286 0.19846837468082881 0 -0.091699384353946617 0.19756200648351949 0 -0.086633107205569368 0.19592632761222259 0 -0.088749794631799286 0.19846837468082881 0 -0.087153713919559755 0.2007704464246434 0 -0.086633107205569368 0.19592632761222259 0 -0.088749794631799286 0.19846837468082881 0 -0.087153713919559755 0.2007704464246434 0 -0.086633107205569368 0.19592632761222259 0 -0.083000911422065185 0.19990291903999191 0 -0.086633107205569368 0.19592632761222259 0 -0.083000911422065185 0.19990291903999191 0 -0.08131091793527985 0.1958536062776961 0 -0.087153713919559755 0.2007704464246434 0 -0.083000911422065185 0.19990291903999191 0 -0.085681182829230054 0.2048333086320458 0 -0.083000911422065185 0.19990291903999191 0 -0.077570467645842744 0.1981174064381751 0 -0.080115532930150224 0.20481308740185819 0 -0.083000911422065185 0.19990291903999191 0 -0.08131091793527985 0.1958536062776961 0 -0.077570467645842744 0.1981174064381751 0 -0.08131091793527985 0.1958536062776961 0 -0.078774311760827526 0.1909024416950979 0 -0.077570467645842744 0.1981174064381751 0 -0.086633107205569368 0.19592632761222259 0 -0.08131091793527985 0.1958536062776961 0 -0.078774311760827526 0.1909024416950979 0 -0.078774311760827526 0.1909024416950979 0 -0.069872978793345489 0.19682297426003059 0 -0.059604596824736213 0.1938486228690294 0 -0.078774311760827526 0.1909024416950979 0 -0.065634821334183885 0.19085383763484401 0 -0.059604596824736213 0.1938486228690294 0 -0.077130053694179912 0.18445742039988899 0 -0.078774311760827526 0.1909024416950979 0 -0.065634821334183885 0.19085383763484401 0 -0.078774311760827526 0.1909024416950979 0 -0.069872978793345489 0.19682297426003059 0 -0.077570467645842744 0.1981174064381751 0 -0.078774311760827526 0.1909024416950979 0 -0.059604596824736213 0.1938486228690294 0 -0.064686429839550003 0.19900745585684829 0 -0.069872978793345489 0.19682297426003059 0 -0.059604596824736213 0.1938486228690294 0 -0.064686429839550003 0.19900745585684829 0 -0.067969193912958886 0.20173885566738209 0 -0.061626928082827687 0.2036608219695667 0 -0.064686429839550003 0.19900745585684829 0 -0.069872978793345489 0.19682297426003059 0 -0.067969193912958886 0.20173885566738209 0 -0.069872978793345489 0.19682297426003059 0 -0.067969193912958886 0.20173885566738209 0 -0.07325263073117283 0.2017894668927544 0 -0.069872978793345489 0.19682297426003059 0 -0.07325263073117283 0.2017894668927544 0 -0.077570467645842744 0.1981174064381751 0 -0.07325263073117283 0.2017894668927544 0 -0.077570467645842744 0.1981174064381751 0 -0.080115532930150224 0.20481308740185819 0 -0.07723472296379072 0.21030060449403379 0 -0.071062958629235118 0.20749646203494149 0 -0.080115532930150224 0.20481308740185819 0 -0.07325263073117283 0.2017894668927544 0 -0.071062958629235118 0.20749646203494149 0 -0.080115532930150224 0.20481308740185819 0 -0.067969193912958886 0.20173885566738209 0 -0.07325263073117283 0.2017894668927544 0 -0.071062958629235118 0.20749646203494149 0 -0.071062958629235118 0.20749646203494149 0 -0.063180472889600353 0.21393061275763159 0 -0.061626928082827687 0.2036608219695667 0 -0.067969193912958886 0.20173885566738209 0 -0.071062958629235118 0.20749646203494149 0 -0.061626928082827687 0.2036608219695667 0 -0.071062958629235118 0.20749646203494149 0 -0.063180472889600353 0.21393061275763159 0 -0.07284744998003001 0.21716695237991929 0 -0.07723472296379072 0.21030060449403379 0 -0.07284744998003001 0.21716695237991929 0 -0.083047482382757401 0.21764525228648979 0 -0.07723472296379072 0.21030060449403379 0 -0.071062958629235118 0.20749646203494149 0 -0.07284744998003001 0.21716695237991929 0 -0.083047482382757401 0.21764525228648979 0 -0.083118795814214885 0.20906756187004569 0 -0.089515057965146097 0.2077455565358009 0 -0.07723472296379072 0.21030060449403379 0 -0.083047482382757401 0.21764525228648979 0 -0.083118795814214885 0.20906756187004569 0 -0.07723472296379072 0.21030060449403379 0 -0.080115532930150224 0.20481308740185819 0 -0.083118795814214885 0.20906756187004569 0 -0.080115532930150224 0.20481308740185819 0 -0.085681182829230054 0.2048333086320458 0 -0.083118795814214885 0.20906756187004569 0 -0.083000911422065185 0.19990291903999191 0 -0.080115532930150224 0.20481308740185819 0 -0.085681182829230054 0.2048333086320458 0 -0.085681182829230054 0.2048333086320458 0 -0.083118795814214885 0.20906756187004569 0 -0.089515057965146097 0.2077455565358009 0 -0.087153713919559755 0.2007704464246434 0 -0.085681182829230054 0.2048333086320458 0 -0.089972257694095781 0.20422617276977981 0 -0.085681182829230054 0.2048333086320458 0 -0.089515057965146097 0.2077455565358009 0 -0.089972257694095781 0.20422617276977981 0 -0.095671365317517909 0.2067559273788058 0 -0.089972257694095781 0.20422617276977981 0 -0.092412689700083442 0.20743998062449201 0 -0.089515057965146097 0.2077455565358009 0 -0.089972257694095781 0.20422617276977981 0 -0.092412689700083442 0.20743998062449201 0 -0.094492077823573994 0.21103226581358159 0 -0.089515057965146097 0.2077455565358009 0 -0.092412689700083442 0.20743998062449201 0 -0.095972727873671296 0.2206718285035463 0 -0.094492077823573994 0.21103226581358159 0 -0.089515057965146097 0.2077455565358009 0 -0.089515057965146097 0.2077455565358009 0 -0.092954540558931431 0.23680026945980279 0 -0.083047482382757401 0.21764525228648979 0 -0.089515057965146097 0.2077455565358009 0 -0.092954540558931431 0.23680026945980279 0 -0.083047482382757401 0.21764525228648979 0 -0.0797727672322429 0.22418734256211131 0 -0.092954540558931431 0.23680026945980279 0 -0.095972727873671296 0.2206718285035463 0 -0.089515057965146097 0.2077455565358009 0 -0.092954540558931431 0.23680026945980279 0 -0.079730636553076412 0.23284911369301839 0 -0.0797727672322429 0.22418734256211131 0 -0.092954540558931431 0.23680026945980279 0 -0.07284744998003001 0.21716695237991929 0 -0.083047482382757401 0.21764525228648979 0 -0.0797727672322429 0.22418734256211131 0 -0.07284744998003001 0.21716695237991929 0 -0.0797727672322429 0.22418734256211131 0 -0.062786295782553694 0.22944144014430801 0 -0.079730636553076412 0.23284911369301839 0 -0.0797727672322429 0.22418734256211131 0 -0.062786295782553694 0.22944144014430801 0 -0.063180472889600353 0.21393061275763159 0 -0.07284744998003001 0.21716695237991929 0 -0.062786295782553694 0.22944144014430801 0 -0.062786295782553694 0.22944144014430801 0 -0.077333197375133444 0.24097624531684669 0 -0.052881971493888867 0.24751266973014979 0 -0.077333197375133444 0.24097624531684669 0 -0.052881971493888867 0.24751266973014979 0 -0.079730636553076412 0.23284911369301839 0 -0.062786295782553694 0.22944144014430801 0 -0.077333197375133444 0.24097624531684669 0 -0.064254688249800379 0.25667098740342192 0 -0.077333197375133444 0.24097624531684669 0 -0.052881971493888867 0.24751266973014979 0 -0.062786295782553694 0.22944144014430801 0 -0.077333197375133444 0.24097624531684669 0 -0.095118341533690268 0.25507877921583277 0 -0.077333197375133444 0.24097624531684669 0 -0.092954540558931431 0.23680026945980279 0 -0.095118341533690268 0.25507877921583277 0 -0.077333197375133444 0.24097624531684669 0 -0.077333197375133444 0.24097624531684669 0 -0.092954540558931431 0.23680026945980279 0 -0.079730636553076412 0.23284911369301839 0 -0.077333197375133444 0.24097624531684669 0 -0.092954540558931431 0.23680026945980279 0 -0.036418311207255548 0.2349273439165635 0 -0.052881971493888867 0.24751266973014979 0 -0.050020540649615662 0.23419464800685491 0 -0.028430745612644661 0.25404909414345389 0 -0.036418311207255548 0.2349273439165635 0 -0.052881971493888867 0.24751266973014979 0 -0.062786295782553694 0.22944144014430801 0 -0.052881971493888867 0.24751266973014979 0 -0.050020540649615662 0.23419464800685491 0 -0.062786295782553694 0.22944144014430801 0 -0.050020540649615662 0.23419464800685491 0 -0.048239394189975048 0.2179066349717679 0 -0.063180472889600353 0.21393061275763159 0 -0.062786295782553694 0.22944144014430801 0 -0.048239394189975048 0.2179066349717679 0 -0.062786295782553694 0.22944144014430801 0 -0.048239394189975048 0.2179066349717679 0 -0.036418311207255548 0.2349273439165635 0 -0.050020540649615662 0.23419464800685491 0 -0.048239394189975048 0.2179066349717679 0 -0.036418311207255548 0.2349273439165635 0 -0.031863592739214318 0.21448514191410681 0 -0.048239394189975048 0.2179066349717679 0 -0.031863592739214318 0.21448514191410681 0 -0.048239394189975048 0.2179066349717679 0 -0.035740149174309531 0.20047863842295471 0 -0.048239394189975048 0.2179066349717679 0 -0.050362314297388508 0.2017462128731429 0 -0.035740149174309531 0.20047863842295471 0 -0.048239394189975048 0.2179066349717679 0 -0.055852277364947897 0.20931107064302731 0 -0.050362314297388508 0.2017462128731429 0 -0.063180472889600353 0.21393061275763159 0 -0.048239394189975048 0.2179066349717679 0 -0.055852277364947897 0.20931107064302731 0 -0.063180472889600353 0.21393061275763159 0 -0.055852277364947897 0.20931107064302731 0 -0.061626928082827687 0.2036608219695667 0 -0.055852277364947897 0.20931107064302731 0 -0.061626928082827687 0.2036608219695667 0 -0.050362314297388508 0.2017462128731429 0 -0.064686429839550003 0.19900745585684829 0 -0.061626928082827687 0.2036608219695667 0 -0.059604596824736213 0.1938486228690294 0 -0.061626928082827687 0.2036608219695667 0 -0.050362314297388508 0.2017462128731429 0 -0.059604596824736213 0.1938486228690294 0 -0.065634821334183885 0.19085383763484401 0 -0.059604596824736213 0.1938486228690294 0 -0.055549509222324697 0.18023608485537079 0 -0.059604596824736213 0.1938486228690294 0 -0.046147172203450153 0.18942895734676929 0 -0.055549509222324697 0.18023608485537079 0 -0.050362314297388508 0.2017462128731429 0 -0.059604596824736213 0.1938486228690294 0 -0.046147172203450153 0.18942895734676929 0 -0.050362314297388508 0.2017462128731429 0 -0.046147172203450153 0.18942895734676929 0 -0.035740149174309531 0.20047863842295471 0 -0.046147172203450153 0.18942895734676929 0 -0.035740149174309531 0.20047863842295471 0 -0.033929580519229598 0.18529784726130391 0 -0.035740149174309531 0.20047863842295471 0 -0.019134616442041591 0.18944378515470639 0 -0.033929580519229598 0.18529784726130391 0 -0.035740149174309531 0.20047863842295471 0 -0.019134616442041591 0.18944378515470639 0 -0.021121261792717311 0.20535170820237031 0 -0.019134616442041591 0.18944378515470639 0 -0.0016568719922026871 0.2009702443398711 0 -0.021121261792717311 0.20535170820237031 0 -0.019134616442041591 0.18944378515470639 0 -0.0016568719922026871 0.2009702443398711 0 -0.0054011812225076708 0.18534100671761389 0 -0.0016568719922026871 0.2009702443398711 0 -0.017211078615818429 0.22138073118021209 0 -0.00022409353603266441 0.22794192581451611 0 -0.0016568719922026871 0.2009702443398711 0 -0.021121261792717311 0.20535170820237031 0 -0.017211078615818429 0.22138073118021209 0 -0.031863592739214318 0.21448514191410681 0 -0.021121261792717311 0.20535170820237031 0 -0.017211078615818429 0.22138073118021209 0 -0.031863592739214318 0.21448514191410681 0 -0.035740149174309531 0.20047863842295471 0 -0.021121261792717311 0.20535170820237031 0 -0.036418311207255548 0.2349273439165635 0 -0.017211078615818429 0.22138073118021209 0 -0.016072689309413999 0.24082991343790081 0 -0.036418311207255548 0.2349273439165635 0 -0.031863592739214318 0.21448514191410681 0 -0.017211078615818429 0.22138073118021209 0 -0.017211078615818429 0.22138073118021209 0 -0.00022409353603266441 0.22794192581451611 0 -0.016072689309413999 0.24082991343790081 0 -0.01353007234780859 0.26055202432608088 0 -0.00045679976148860701 0.24809875771850209 0 -0.016072689309413999 0.24082991343790081 0 -0.00022409353603266441 0.22794192581451611 0 -0.00045679976148860701 0.24809875771850209 0 -0.016072689309413999 0.24082991343790081 0 -0.028430745612644661 0.25404909414345389 0 -0.036418311207255548 0.2349273439165635 0 -0.016072689309413999 0.24082991343790081 0 -0.033194960055921777 0.14425051463511271 0 -0.039170336409938673 0.15813068917439599 0 -0.022462081040142631 0.1561272175492214 0 -0.04462587568541463 0.14471993992151441 0 -0.033194960055921777 0.14425051463511271 0 -0.041965596820044908 0.13462807908492619 0 -0.04462587568541463 0.14471993992151441 0 -0.054221750566417537 0.15267247508177889 0 -0.039170336409938673 0.15813068917439599 0 -0.04462587568541463 0.14471993992151441 0 -0.033194960055921777 0.14425051463511271 0 -0.039170336409938673 0.15813068917439599 0 -0.033194960055921777 0.14425051463511271 0 -0.034184970048351353 0.13309497835154491 0 -0.041965596820044908 0.13462807908492619 0 -0.033194960055921777 0.14425051463511271 0 -0.034184970048351353 0.13309497835154491 0 -0.028194241421983238 0.13742380327457709 0 -0.033797996019737417 0.12593711880714331 0 -0.029387318715036571 0.12693889827351201 0 -0.034184970048351353 0.13309497835154491 0 -0.033797996019737417 0.12593711880714331 0 -0.029387318715036571 0.12693889827351201 0 -0.034184970048351353 0.13309497835154491 0 -0.038874500414573653 0.1294911787899683 0 -0.041965596820044908 0.13462807908492619 0 -0.034184970048351353 0.13309497835154491 0 -0.033797996019737417 0.12593711880714331 0 -0.038874500414573653 0.1294911787899683 0 -0.038874500414573653 0.1294911787899683 0 -0.041965596820044908 0.13462807908492619 0 -0.045549438770160947 0.1243045389162587 0 -0.033797996019737417 0.12593711880714331 0 -0.038874500414573653 0.1294911787899683 0 -0.045549438770160947 0.1243045389162587 0 -0.054576734574750249 0.1339179416313582 0 -0.045549438770160947 0.1243045389162587 0 -0.057694624707726128 0.11809935769594319 0 -0.04462587568541463 0.14471993992151441 0 -0.041965596820044908 0.13462807908492619 0 -0.054576734574750249 0.1339179416313582 0 -0.041965596820044908 0.13462807908492619 0 -0.054576734574750249 0.1339179416313582 0 -0.045549438770160947 0.1243045389162587 0 -0.04462587568541463 0.14471993992151441 0 -0.054576734574750249 0.1339179416313582 0 -0.054221750566417537 0.15267247508177889 0 -0.068890656545361612 0.1452484369998952 0 -0.054576734574750249 0.1339179416313582 0 -0.054221750566417537 0.15267247508177889 0 -0.067262738939772748 0.16805113731736959 0 -0.051490979634525952 0.1666910151059586 0 -0.055549509222324697 0.18023608485537079 0 -0.067262738939772748 0.16805113731736959 0 -0.054221750566417537 0.15267247508177889 0 -0.051490979634525952 0.1666910151059586 0 -0.054221750566417537 0.15267247508177889 0 -0.051490979634525952 0.1666910151059586 0 -0.039170336409938673 0.15813068917439599 0 -0.051490979634525952 0.1666910151059586 0 -0.055549509222324697 0.18023608485537079 0 -0.041250563034176103 0.1743646891008776 0 -0.046147172203450153 0.18942895734676929 0 -0.055549509222324697 0.18023608485537079 0 -0.041250563034176103 0.1743646891008776 0 -0.046147172203450153 0.18942895734676929 0 -0.041250563034176103 0.1743646891008776 0 -0.033929580519229598 0.18529784726130391 0 -0.041250563034176103 0.1743646891008776 0 -0.033929580519229598 0.18529784726130391 0 -0.026482761445098139 0.1715698688853376 0 -0.041250563034176103 0.1743646891008776 0 -0.039170336409938673 0.15813068917439599 0 -0.026482761445098139 0.1715698688853376 0 -0.051490979634525952 0.1666910151059586 0 -0.041250563034176103 0.1743646891008776 0 -0.039170336409938673 0.15813068917439599 0 -0.026482761445098139 0.1715698688853376 0 -0.0095485104545254846 0.17119758740342761 0 -0.022462081040142631 0.1561272175492214 0 -0.039170336409938673 0.15813068917439599 0 -0.026482761445098139 0.1715698688853376 0 -0.022462081040142631 0.1561272175492214 0 -0.019134616442041591 0.18944378515470639 0 -0.033929580519229598 0.18529784726130391 0 -0.026482761445098139 0.1715698688853376 0 -0.019134616442041591 0.18944378515470639 0 -0.026482761445098139 0.1715698688853376 0 -0.0095485104545254846 0.17119758740342761 0 -0.019134616442041591 0.18944378515470639 0 -0.0054011812225076708 0.18534100671761389 0 -0.0095485104545254846 0.17119758740342761 0 -0.0054011812225076708 0.18534100671761389 0 -0.0095485104545254846 0.17119758740342761 0 0.0087352739987390793 0.17975240997245071 0 -0.0095485104545254846 0.17119758740342761 0 -0.0061056759341989036 0.1508760704608294 0 0.003769649654854173 0.1639063082871591 0 -0.0095485104545254846 0.17119758740342761 0 -0.0061056759341989036 0.1508760704608294 0 -0.022462081040142631 0.1561272175492214 0 -0.0061056759341989036 0.1508760704608294 0 -0.0034187467457100699 0.1403675532242544 0 0.0041527042863420023 0.14544045411878639 0 -0.0061056759341989036 0.1508760704608294 0 -0.01774649732461784 0.13890748436717079 0 -0.0034187467457100699 0.1403675532242544 0 -0.0061056759341989036 0.1508760704608294 0 -0.01774649732461784 0.13890748436717079 0 -0.0061056759341989036 0.1508760704608294 0 -0.022462081040142631 0.1561272175492214 0 -0.02406274046335612 0.1458578720667093 0 -0.0061056759341989036 0.1508760704608294 0 -0.02406274046335612 0.1458578720667093 0 -0.01774649732461784 0.13890748436717079 0 -0.02406274046335612 0.1458578720667093 0 -0.028194241421983238 0.13742380327457709 0 -0.01774649732461784 0.13890748436717079 0 -0.033194960055921777 0.14425051463511271 0 -0.02406274046335612 0.1458578720667093 0 -0.028194241421983238 0.13742380327457709 0 -0.033194960055921777 0.14425051463511271 0 -0.022462081040142631 0.1561272175492214 0 -0.02406274046335612 0.1458578720667093 0 -0.029387318715036571 0.12693889827351201 0 -0.01672900714769622 0.13171599915262119 0 -0.012902105114553889 0.1306831187963011 0 -0.029387318715036571 0.12693889827351201 0 -0.012902105114553889 0.1306831187963011 0 -0.02372579505221185 0.1189320102862463 0 -0.029387318715036571 0.12693889827351201 0 -0.012902105114553889 0.1306831187963011 0 -0.034184970048351353 0.13309497835154491 0 -0.029387318715036571 0.12693889827351201 0 -0.028194241421983238 0.13742380327457709 0 -0.029387318715036571 0.12693889827351201 0 -0.028194241421983238 0.13742380327457709 0 -0.01774649732461784 0.13890748436717079 0 -0.029387318715036571 0.12693889827351201 0 -0.01774649732461784 0.13890748436717079 0 -0.01774649732461784 0.13890748436717079 0 -0.01672900714769622 0.13171599915262119 0 -0.012902105114553889 0.1306831187963011 0 -0.029387318715036571 0.12693889827351201 0 -0.01774649732461784 0.13890748436717079 0 -0.01672900714769622 0.13171599915262119 0 -0.012902105114553889 0.1306831187963011 0 -0.0017697058181939749 0.12767848568776111 0 0.01059393583606 0.1326036928341485 0 -0.012902105114553889 0.1306831187963011 0 -0.0034187467457100699 0.1403675532242544 0 0.01482452591839916 0.1369805574256879 0 -0.012902105114553889 0.1306831187963011 0 -0.0017697058181939749 0.12767848568776111 0 -0.02372579505221185 0.1189320102862463 0 -0.01672900714769622 0.13171599915262119 0 -0.012902105114553889 0.1306831187963011 0 -0.01774649732461784 0.13890748436717079 0 -0.012902105114553889 0.1306831187963011 0 -0.0034187467457100699 0.1403675532242544 0 -0.012902105114553889 0.1306831187963011 0 -0.0017697058181939749 0.12767848568776111 0 -0.0041589317298227797 0.11498810019226161 0 -0.01053778417586399 0.1043570195209408 0 -0.02372579505221185 0.1189320102862463 0 -0.0017697058181939749 0.12767848568776111 0 -0.0041589317298227797 0.11498810019226161 0 -0.02372579505221185 0.1189320102862463 0 -0.0017697058181939749 0.12767848568776111 0 -0.02372579505221185 0.1189320102862463 0 -0.0041589317298227797 0.11498810019226161 0 -0.01053778417586399 0.1043570195209408 0 0.002021913286525874 0.1035490079229269 0 -0.0045414923040372722 0.096101033527476509 0 -0.01053778417586399 0.1043570195209408 0 0.002021913286525874 0.1035490079229269 0 -0.0045414923040372722 0.096101033527476509 0 -0.01053778417586399 0.1043570195209408 0 -0.01273102791978523 0.093541370776597563 0 -0.01053778417586399 0.1043570195209408 0 -0.023174902723317931 0.096860049871388493 0 -0.01273102791978523 0.093541370776597563 0 -0.023174902723317931 0.096860049871388493 0 -0.02372579505221185 0.1189320102862463 0 -0.03320555458859422 0.1045982463749713 0 -0.01053778417586399 0.1043570195209408 0 -0.023174902723317931 0.096860049871388493 0 -0.02372579505221185 0.1189320102862463 0 -0.0063264523735629009 0.066298950401494985 0 -0.012070208140856759 0.073369200276280952 0 -0.012050031881561689 0.060452773404427028 0 -0.012070208140856759 0.073369200276280952 0 -0.02150736912529326 0.067217420750426665 0 -0.012050031881561689 0.060452773404427028 0 -0.0063264523735629009 0.066298950401494985 0 -0.012070208140856759 0.073369200276280952 0 0.00034612155240797409 0.070760528259967037 0 -0.0063264523735629009 0.066298950401494985 0 -0.00080083599168530534 0.059620852853258813 0 0.00034612155240797409 0.070760528259967037 0 -0.012070208140856759 0.073369200276280952 0 -0.00074415235142066155 0.079413076318190806 0 0.00034612155240797409 0.070760528259967037 0 -0.012070208140856759 0.073369200276280952 0 -0.0069279830034974458 0.085862666166759208 0 -0.018472977392209509 0.084526084796422735 0 -0.00074415235142066155 0.079413076318190806 0 -0.0069279830034974458 0.085862666166759208 0 0.0043271437301636087 0.090155458803287167 0 -0.012070208140856759 0.073369200276280952 0 -0.00074415235142066155 0.079413076318190806 0 -0.0069279830034974458 0.085862666166759208 0 -0.0045414923040372722 0.096101033527476509 0 -0.0069279830034974458 0.085862666166759208 0 0.0043271437301636087 0.090155458803287167 0 -0.0069279830034974458 0.085862666166759208 0 -0.01273102791978523 0.093541370776597563 0 -0.018472977392209509 0.084526084796422735 0 -0.0045414923040372722 0.096101033527476509 0 -0.0069279830034974458 0.085862666166759208 0 -0.01273102791978523 0.093541370776597563 0 -0.023174902723317931 0.096860049871388493 0 -0.01273102791978523 0.093541370776597563 0 -0.018472977392209509 0.084526084796422735 0 -0.023174902723317931 0.096860049871388493 0 -0.030835443501861341 0.083461416753116663 0 -0.018472977392209509 0.084526084796422735 0 -0.030835443501861341 0.083461416753116663 0 -0.018472977392209509 0.084526084796422735 0 -0.023031560147032028 0.075839448312886318 0 -0.012070208140856759 0.073369200276280952 0 -0.018472977392209509 0.084526084796422735 0 -0.023031560147032028 0.075839448312886318 0 -0.012070208140856759 0.073369200276280952 0 -0.023031560147032028 0.075839448312886318 0 -0.02150736912529326 0.067217420750426665 0 -0.030835443501861341 0.083461416753116663 0 -0.023031560147032028 0.075839448312886318 0 -0.033964873777420433 0.071401704985943004 0 -0.023031560147032028 0.075839448312886318 0 -0.02150736912529326 0.067217420750426665 0 -0.033964873777420433 0.071401704985943004 0 -0.030401614705188859 0.063047084766585298 0 -0.02150736912529326 0.067217420750426665 0 -0.023369440754571289 0.059621919296414992 0 -0.030401614705188859 0.063047084766585298 0 -0.02150736912529326 0.067217420750426665 0 -0.033964873777420433 0.071401704985943004 0 -0.043934574461468763 0.07000385685666681 0 -0.053404505586731821 0.066234889961895443 0 -0.039984691506067101 0.061046364652690172 0 -0.043934574461468763 0.07000385685666681 0 -0.033964873777420433 0.071401704985943004 0 -0.039984691506067101 0.061046364652690172 0 -0.030401614705188859 0.063047084766585298 0 -0.033964873777420433 0.071401704985943004 0 -0.039984691506067101 0.061046364652690172 0 -0.043934574461468763 0.07000385685666681 0 -0.033964873777420433 0.071401704985943004 0 -0.046128710678570661 0.079725822094540835 0 -0.023174902723317931 0.096860049871388493 0 -0.030835443501861341 0.083461416753116663 0 -0.040239636292617453 0.092415390457518676 0 -0.030835443501861341 0.083461416753116663 0 -0.046128710678570661 0.079725822094540835 0 -0.040239636292617453 0.092415390457518676 0 -0.030835443501861341 0.083461416753116663 0 -0.033964873777420433 0.071401704985943004 0 -0.046128710678570661 0.079725822094540835 0 -0.058517707755227598 0.077288710600330879 0 -0.059556267489222763 0.095920497711485669 0 -0.066764760796653264 0.07679237469592308 0 -0.046128710678570661 0.079725822094540835 0 -0.058517707755227598 0.077288710600330879 0 -0.059556267489222763 0.095920497711485669 0 -0.046128710678570661 0.079725822094540835 0 -0.040239636292617453 0.092415390457518676 0 -0.059556267489222763 0.095920497711485669 0 -0.043934574461468763 0.07000385685666681 0 -0.046128710678570661 0.079725822094540835 0 -0.053404505586731821 0.066234889961895443 0 -0.046128710678570661 0.079725822094540835 0 -0.058517707755227598 0.077288710600330879 0 -0.053404505586731821 0.066234889961895443 0 -0.058517707755227598 0.077288710600330879 0 -0.053404505586731821 0.066234889961895443 0 -0.064649539992338759 0.066605596752747243 0 -0.02372579505221185 0.1189320102862463 0 -0.045681884286229553 0.1101855348847313 0 -0.033797996019737417 0.12593711880714331 0 -0.029387318715036571 0.12693889827351201 0 -0.045681884286229553 0.1101855348847313 0 -0.029387318715036571 0.12693889827351201 0 -0.045681884286229553 0.1101855348847313 0 -0.029387318715036571 0.12693889827351201 0 -0.02372579505221185 0.1189320102862463 0 -0.045681884286229553 0.1101855348847313 0 -0.033797996019737417 0.12593711880714331 0 -0.045681884286229553 0.1101855348847313 0 -0.045549438770160947 0.1243045389162587 0 -0.02372579505221185 0.1189320102862463 0 -0.045681884286229553 0.1101855348847313 0 -0.03320555458859422 0.1045982463749713 0 -0.023174902723317931 0.096860049871388493 0 -0.040239636292617453 0.092415390457518676 0 -0.03320555458859422 0.1045982463749713 0 -0.040239636292617453 0.092415390457518676 0 -0.045681884286229553 0.1101855348847313 0 -0.03320555458859422 0.1045982463749713 0 -0.040239636292617453 0.092415390457518676 0 -0.045681884286229553 0.1101855348847313 0 -0.059556267489222763 0.095920497711485669 0 -0.045681884286229553 0.1101855348847313 0 -0.057694624707726128 0.11809935769594319 0 -0.072146491756540754 0.099643036364946702 0 -0.045681884286229553 0.1101855348847313 0 -0.072146491756540754 0.099643036364946702 0 -0.045681884286229553 0.1101855348847313 0 -0.059556267489222763 0.095920497711485669 0 -0.045681884286229553 0.1101855348847313 0 -0.059556267489222763 0.095920497711485669 0 -0.072146491756540754 0.099643036364946702 0 -0.054576734574750249 0.1339179416313582 0 -0.057694624707726128 0.11809935769594319 0 -0.070518574150950461 0.12244573668242099 0 -0.045681884286229553 0.1101855348847313 0 -0.045549438770160947 0.1243045389162587 0 -0.057694624707726128 0.11809935769594319 0 -0.070518574150950461 0.12244573668242099 0 -0.072146491756540754 0.099643036364946702 0 -0.057694624707726128 0.11809935769594319 0 -0.070518574150950461 0.12244573668242099 0 -0.072146491756540754 0.099643036364946702 0 -0.070518574150950461 0.12244573668242099 0 -0.08247282225653077 0.107473260847208 0 -0.072146491756540754 0.099643036364946702 0 -0.081413616827771013 0.1284346449919557 0 -0.070518574150950461 0.12244573668242099 0 -0.08247282225653077 0.107473260847208 0 -0.081413616827771013 0.1284346449919557 0 -0.093673927622337574 0.11804829874094711 0 -0.08247282225653077 0.107473260847208 0 -0.093673927622337574 0.11804829874094711 0 -0.08247282225653077 0.107473260847208 0 -0.09508959462053479 0.1034165534599467 0 -0.0897668348610966 0.097844977304272815 0 -0.088366164597947883 0.091318080665791765 0 -0.098319103815266012 0.092329579514289689 0 -0.0897668348610966 0.097844977304272815 0 -0.084586489015203589 0.094687412034127894 0 -0.088366164597947883 0.091318080665791765 0 -0.0897668348610966 0.097844977304272815 0 -0.08247282225653077 0.107473260847208 0 -0.09508959462053479 0.1034165534599467 0 -0.08247282225653077 0.107473260847208 0 -0.084586489015203589 0.094687412034127894 0 -0.072146491756540754 0.099643036364946702 0 -0.084586489015203589 0.094687412034127894 0 -0.072146491756540754 0.099643036364946702 0 -0.082198619523032881 0.090119064207125912 0 -0.084586489015203589 0.094687412034127894 0 -0.072146491756540754 0.099643036364946702 0 -0.0897668348610966 0.097844977304272815 0 -0.08247282225653077 0.107473260847208 0 -0.084586489015203589 0.094687412034127894 0 -0.059556267489222763 0.095920497711485669 0 -0.072146491756540754 0.099643036364946702 0 -0.073430650692214841 0.081655460538238966 0 -0.059556267489222763 0.095920497711485669 0 -0.073430650692214841 0.081655460538238966 0 -0.059556267489222763 0.095920497711485669 0 -0.073430650692214841 0.081655460538238966 0 -0.066764760796653264 0.07679237469592308 0 -0.072146491756540754 0.099643036364946702 0 -0.073430650692214841 0.081655460538238966 0 -0.078782670630030763 0.085454828596712787 0 -0.072146491756540754 0.099643036364946702 0 -0.073430650692214841 0.081655460538238966 0 -0.073430650692214841 0.081655460538238966 0 -0.078233032228911009 0.076242758025551832 0 -0.078943083366912054 0.08071649856841101 0 -0.073430650692214841 0.081655460538238966 0 -0.078782670630030763 0.085454828596712787 0 -0.078943083366912054 0.08071649856841101 0 -0.072146491756540754 0.099643036364946702 0 -0.082198619523032881 0.090119064207125912 0 -0.078782670630030763 0.085454828596712787 0 -0.058517707755227598 0.077288710600330879 0 -0.064649539992338759 0.066605596752747243 0 -0.066764760796653264 0.07679237469592308 0 -0.064649539992338759 0.066605596752747243 0 -0.066764760796653264 0.07679237469592308 0 -0.074053891015249146 0.072925557831135912 0 -0.073430650692214841 0.081655460538238966 0 -0.066764760796653264 0.07679237469592308 0 -0.074053891015249146 0.072925557831135912 0 -0.073430650692214841 0.081655460538238966 0 -0.074053891015249146 0.072925557831135912 0 -0.078233032228911009 0.076242758025551832 0 -0.073430650692214841 0.081655460538238966 0 -0.074053891015249146 0.072925557831135912 0 -0.074053891015249146 0.072925557831135912 0 -0.080840117961280683 0.06885136722325666 0 -0.078233032228911009 0.076242758025551832 0 -0.064649539992338759 0.066605596752747243 0 -0.074053891015249146 0.072925557831135912 0 -0.073361296565677622 0.063810835899955398 0 -0.074053891015249146 0.072925557831135912 0 -0.073361296565677622 0.063810835899955398 0 -0.080840117961280683 0.06885136722325666 0 -0.073361296565677622 0.063810835899955398 0 -0.080840117961280683 0.06885136722325666 0 -0.080497900310670251 0.055162339773894571 0 -0.080840117961280683 0.06885136722325666 0 -0.0952126043837907 0.065491696933578522 0 -0.080497900310670251 0.055162339773894571 0 -0.080840117961280683 0.06885136722325666 0 -0.078233032228911009 0.076242758025551832 0 -0.08368198326338544 0.079475014875423799 0 -0.080840117961280683 0.06885136722325666 0 -0.08368198326338544 0.079475014875423799 0 -0.0952126043837907 0.065491696933578522 0 -0.088366164597947883 0.091318080665791765 0 -0.0952126043837907 0.065491696933578522 0 -0.08368198326338544 0.079475014875423799 0 -0.088366164597947883 0.091318080665791765 0 -0.0952126043837907 0.065491696933578522 0 -0.082198619523032881 0.090119064207125912 0 -0.08368198326338544 0.079475014875423799 0 -0.088366164597947883 0.091318080665791765 0 -0.084586489015203589 0.094687412034127894 0 -0.082198619523032881 0.090119064207125912 0 -0.088366164597947883 0.091318080665791765 0 -0.082198619523032881 0.090119064207125912 0 -0.078782670630030763 0.085454828596712787 0 -0.08368198326338544 0.079475014875423799 0 -0.078782670630030763 0.085454828596712787 0 -0.078943083366912054 0.08071649856841101 0 -0.08368198326338544 0.079475014875423799 0 -0.078233032228911009 0.076242758025551832 0 -0.078943083366912054 0.08071649856841101 0 -0.08368198326338544 0.079475014875423799 0 -0.098319103815266012 0.092329579514289689 0 -0.10804391098957419 0.085520619680795829 0 -0.0952126043837907 0.065491696933578522 0 -0.088366164597947883 0.091318080665791765 0 -0.098319103815266012 0.092329579514289689 0 -0.0952126043837907 0.065491696933578522 0 -0.098319103815266012 0.092329579514289689 0 -0.10804391098957419 0.085520619680795829 0 -0.1054551992192774 0.098081408397785674 0 -0.10804391098957419 0.085520619680795829 0 -0.0952126043837907 0.065491696933578522 0 -0.1169359397810521 0.07040862267569957 0 -0.12938678549899241 0.07191028446504151 0 -0.1169359397810521 0.07040862267569957 0 -0.12171505972308121 0.099774495224226684 0 -0.1169359397810521 0.07040862267569957 0 -0.12171505972308121 0.099774495224226684 0 -0.10804391098957419 0.085520619680795829 0 -0.1169359397810521 0.07040862267569957 0 -0.12171505972308121 0.099774495224226684 0 -0.10804391098957419 0.085520619680795829 0 -0.12171505972308121 0.099774495224226684 0 -0.1054551992192774 0.098081408397785674 0 -0.12171505972308121 0.099774495224226684 0 -0.1054551992192774 0.098081408397785674 0 -0.1041083269479305 0.1093657941096695 0 -0.1075713076840287 0.12540789134565311 0 -0.12171505972308121 0.099774495224226684 0 -0.1041083269479305 0.1093657941096695 0 -0.1264941796651104 0.12914036777275359 0 -0.1075713076840287 0.12540789134565311 0 -0.12171505972308121 0.099774495224226684 0 -0.1264941796651104 0.12914036777275359 0 -0.12171505972308121 0.099774495224226684 0 -0.1075713076840287 0.12540789134565311 0 -0.093673927622337574 0.11804829874094711 0 -0.1041083269479305 0.1093657941096695 0 -0.093673927622337574 0.11804829874094711 0 -0.09508959462053479 0.1034165534599467 0 -0.1041083269479305 0.1093657941096695 0 -0.09508959462053479 0.1034165534599467 0 -0.1054551992192774 0.098081408397785674 0 -0.1041083269479305 0.1093657941096695 0 -0.0897668348610966 0.097844977304272815 0 -0.098319103815266012 0.092329579514289689 0 -0.09508959462053479 0.1034165534599467 0 -0.098319103815266012 0.092329579514289689 0 -0.09508959462053479 0.1034165534599467 0 -0.1054551992192774 0.098081408397785674 0 -0.1081768659009219 0.016587448416186191 0 -0.095408124884719309 0.025341257639437859 0 -0.1020590441696352 0.039665313201365598 0 -0.1081768659009219 0.016587448416186191 0 -0.1020590441696352 0.039665313201365598 0 -0.1081768659009219 0.016587448416186191 0 -0.095408124884719309 0.025341257639437859 0 -0.097525534210196829 0.013430051964502169 0 -0.097525534210196829 0.013430051964502169 0 -0.097171755980116931 0.0054446210143261967 0 -0.1069972213370404 0.0093389816826255773 0 -0.097525534210196829 0.013430051964502169 0 -0.097171755980116931 0.0054446210143261967 0 -0.09031233222172122 0.0050713261246467774 0 -0.09385193615150994 -0.0060618757144698344 0 -0.097171755980116931 0.0054446210143261967 0 -0.09031233222172122 0.0050713261246467774 0 -0.09385193615150994 -0.0060618757144698344 0 -0.1069972213370404 0.0093389816826255773 0 -0.09385193615150994 -0.0060618757144698344 0 -0.097171755980116931 0.0054446210143261967 0 -0.1069972213370404 0.0093389816826255773 0 -0.10564944294261031 0.00105739657185959 0 -0.1069972213370404 0.0093389816826255773 0 -0.09385193615150994 -0.0060618757144698344 0 -0.10564944294261031 0.00105739657185959 0 -0.1069972213370404 0.0093389816826255773 0 -0.113185123950466 -0.0023048807743676759 0 -0.10564944294261031 0.00105739657185959 0 -0.1069972213370404 0.0093389816826255773 0 -0.1081768659009219 0.016587448416186191 0 -0.097525534210196829 0.013430051964502169 0 -0.1069972213370404 0.0093389816826255773 0 -0.1069972213370404 0.0093389816826255773 0 -0.1093634797443277 0.012111261460579991 0 -0.1081768659009219 0.016587448416186191 0 -0.1093634797443277 0.012111261460579991 0 -0.1081768659009219 0.016587448416186191 0 -0.1069972213370404 0.0093389816826255773 0 -0.1093634797443277 0.012111261460579991 0 -0.1081768659009219 0.016587448416186191 0 -0.1069972213370404 0.0093389816826255773 0 -0.1093634797443277 0.012111261460579991 0 -0.11769508649168769 0.01291883167957931 0 -0.1207190499848096 0.02072849764611303 0 -0.1093634797443277 0.012111261460579991 0 -0.1150803219389772 0.0092126368710666803 0 -0.11769508649168769 0.01291883167957931 0 -0.1093634797443277 0.012111261460579991 0 -0.1150803219389772 0.0092126368710666803 0 -0.1154564166567095 0.0047049407595056193 0 -0.113185123950466 -0.0023048807743676759 0 -0.1069972213370404 0.0093389816826255773 0 -0.1093634797443277 0.012111261460579991 0 -0.113185123950466 -0.0023048807743676759 0 -0.12152508443855629 -4.6565042202755903e-05 0 -0.1154564166567095 0.0047049407595056193 0 -0.113185123950466 -0.0023048807743676759 0 -0.1093634797443277 0.012111261460579991 0 -0.1154564166567095 0.0047049407595056193 0 -0.113185123950466 -0.0023048807743676759 0 -0.1093634797443277 0.012111261460579991 0 -0.1150803219389772 0.0092126368710666803 0 -0.1154564166567095 0.0047049407595056193 0 -0.12021087944097431 0.008263864461434664 0 -0.12152508443855629 -4.6565042202755903e-05 0 -0.1154564166567095 0.0047049407595056193 0 -0.12021087944097431 0.008263864461434664 0 -0.12152508443855629 -4.6565042202755903e-05 0 -0.1305622280860454 0.0096379025991953846 0 -0.12021087944097431 0.008263864461434664 0 -0.1305622280860454 0.0096379025991953846 0 -0.12021087944097431 0.008263864461434664 0 -0.12356325337797559 0.01429926066788118 0 -0.11769508649168769 0.01291883167957931 0 -0.12021087944097431 0.008263864461434664 0 -0.12356325337797559 0.01429926066788118 0 -0.1150803219389772 0.0092126368710666803 0 -0.11769508649168769 0.01291883167957931 0 -0.12021087944097431 0.008263864461434664 0 -0.12787977143513179 0.018424739451976979 0 -0.12356325337797559 0.01429926066788118 0 -0.1207190499848096 0.02072849764611303 0 -0.1287110431512061 0.034778633130733289 0 -0.1093634797443277 0.012111261460579991 0 -0.1165962237406514 0.02776875602806541 0 -0.1287110431512061 0.034778633130733289 0 -0.1093634797443277 0.012111261460579991 0 -0.1287110431512061 0.034778633130733289 0 -0.1093634797443277 0.012111261460579991 0 -0.1207190499848096 0.02072849764611303 0 -0.1081768659009219 0.016587448416186191 0 -0.1165962237406514 0.02776875602806541 0 -0.1121568198390258 0.041042750127172067 0 -0.1081768659009219 0.016587448416186191 0 -0.1121568198390258 0.041042750127172067 0 -0.1081768659009219 0.016587448416186191 0 -0.1093634797443277 0.012111261460579991 0 -0.1165962237406514 0.02776875602806541 0 -0.11769508649168769 0.01291883167957931 0 -0.12356325337797559 0.01429926066788118 0 -0.1207190499848096 0.02072849764611303 0 -0.1287110431512061 0.034778633130733289 0 -0.1165962237406514 0.02776875602806541 0 -0.1229295450058164 0.037868452923291163 0 -0.12860304826879579 0.043286179083318721 0 -0.1121568198390258 0.041042750127172067 0 -0.12860304826879579 0.043286179083318721 0 -0.1229295450058164 0.037868452923291163 0 -0.1121568198390258 0.041042750127172067 0 -0.1165962237406514 0.02776875602806541 0 -0.1229295450058164 0.037868452923291163 0 -0.1121568198390258 0.041042750127172067 0 -0.1169359397810521 0.07040862267569957 0 -0.1121568198390258 0.041042750127172067 0 -0.12938678549899241 0.07191028446504151 0 -0.12860304826879579 0.043286179083318721 0 -0.1169359397810521 0.07040862267569957 0 -0.12860304826879579 0.043286179083318721 0 -0.1169359397810521 0.07040862267569957 0 -0.1121568198390258 0.041042750127172067 0 -0.0952126043837907 0.065491696933578522 0 -0.1020590441696352 0.039665313201365598 0 -0.0952126043837907 0.065491696933578522 0 -0.1020590441696352 0.039665313201365598 0 -0.089162703649149799 0.048139809416304948 0 -0.0952126043837907 0.065491696933578522 0 -0.1169359397810521 0.07040862267569957 0 -0.1121568198390258 0.041042750127172067 0 -0.0952126043837907 0.065491696933578522 0 -0.1121568198390258 0.041042750127172067 0 -0.1020590441696352 0.039665313201365598 0 -0.1081768659009219 0.016587448416186191 0 -0.1121568198390258 0.041042750127172067 0 -0.1020590441696352 0.039665313201365598 0 -0.1121568198390258 0.041042750127172067 0 -0.1020590441696352 0.039665313201365598 0 -0.095408124884719309 0.025341257639437859 0 -0.1020590441696352 0.039665313201365598 0 -0.078620068730424181 0.036468004078042487 0 -0.078620068730424181 0.036468004078042487 0 -0.089162703649149799 0.048139809416304948 0 -0.080497900310670251 0.055162339773894571 0 -0.1020590441696352 0.039665313201365598 0 -0.078620068730424181 0.036468004078042487 0 -0.089162703649149799 0.048139809416304948 0 -0.1020590441696352 0.039665313201365598 0 -0.078620068730424181 0.036468004078042487 0 -0.0952126043837907 0.065491696933578522 0 -0.089162703649149799 0.048139809416304948 0 -0.080497900310670251 0.055162339773894571 0 -0.073361296565677622 0.063810835899955398 0 -0.080497900310670251 0.055162339773894571 0 -0.064286826154205404 0.053491937300194477 0 -0.078620068730424181 0.036468004078042487 0 -0.080497900310670251 0.055162339773894571 0 -0.064286826154205404 0.053491937300194477 0 -0.064649539992338759 0.066605596752747243 0 -0.073361296565677622 0.063810835899955398 0 -0.064286826154205404 0.053491937300194477 0 -0.078620068730424181 0.036468004078042487 0 -0.055181093291213228 0.033270694954719182 0 -0.078620068730424181 0.036468004078042487 0 -0.064286826154205404 0.053491937300194477 0 -0.055181093291213228 0.033270694954719182 0 -0.078620068730424181 0.036468004078042487 0 -0.069808218535932415 0.020692827861588058 0 -0.055181093291213228 0.033270694954719182 0 -0.078620068730424181 0.036468004078042487 0 -0.069808218535932415 0.020692827861588058 0 -0.085036056626104681 0.014773309485708191 0 -0.069808218535932415 0.020692827861588058 0 -0.063756631081569176 0.0087498687259285526 0 -0.055233528470989217 0.017860211932935379 0 -0.095408124884719309 0.025341257639437859 0 -0.078620068730424181 0.036468004078042487 0 -0.085036056626104681 0.014773309485708191 0 -0.095408124884719309 0.025341257639437859 0 -0.097525534210196829 0.013430051964502169 0 -0.085036056626104681 0.014773309485708191 0 -0.097525534210196829 0.013430051964502169 0 -0.09031233222172122 0.0050713261246467774 0 -0.085036056626104681 0.014773309485708191 0 -0.09031233222172122 0.0050713261246467774 0 -0.085036056626104681 0.014773309485708191 0 -0.075425995574936927 0.0068699248734238926 0 -0.078600163196295716 -0.0056513456052398056 0 -0.09031233222172122 0.0050713261246467774 0 -0.075425995574936927 0.0068699248734238926 0 -0.069808218535932415 0.020692827861588058 0 -0.085036056626104681 0.014773309485708191 0 -0.075425995574936927 0.0068699248734238926 0 -0.069808218535932415 0.020692827861588058 0 -0.075425995574936927 0.0068699248734238926 0 -0.063756631081569176 0.0087498687259285526 0 -0.065042571787998396 -0.0024164373520884279 0 -0.075425995574936927 0.0068699248734238926 0 -0.063756631081569176 0.0087498687259285526 0 -0.053532001743839631 -0.0090646478392168665 0 -0.055448025631663143 0.0046361647304281181 0 -0.041902249435711407 0.011753440906031041 0 -0.065042571787998396 -0.0024164373520884279 0 -0.063756631081569176 0.0087498687259285526 0 -0.055448025631663143 0.0046361647304281181 0 -0.053532001743839631 -0.0090646478392168665 0 -0.04565717587050426 0.0013713559571671839 0 -0.041902249435711407 0.011753440906031041 0 -0.053532001743839631 -0.0090646478392168665 0 -0.041902249435711407 0.011753440906031041 0 -0.055448025631663143 0.0046361647304281181 0 -0.055233528470989217 0.017860211932935379 0 -0.041902249435711407 0.011753440906031041 0 -0.063756631081569176 0.0087498687259285526 0 -0.055448025631663143 0.0046361647304281181 0 -0.055233528470989217 0.017860211932935379 0 -0.055233528470989217 0.017860211932935379 0 -0.044837850734605847 0.02764883150305391 0 -0.041902249435711407 0.011753440906031041 0 -0.069808218535932415 0.020692827861588058 0 -0.055233528470989217 0.017860211932935379 0 -0.055181093291213228 0.033270694954719182 0 -0.055233528470989217 0.017860211932935379 0 -0.044837850734605847 0.02764883150305391 0 -0.055181093291213228 0.033270694954719182 0 -0.041902249435711407 0.011753440906031041 0 -0.030272497127583179 0.032571529651278963 0 -0.041902249435711407 0.011753440906031041 0 -0.030272497127583179 0.032571529651278963 0 -0.02504502092149305 0.015993819921371281 0 -0.044837850734605847 0.02764883150305391 0 -0.041902249435711407 0.011753440906031041 0 -0.030272497127583179 0.032571529651278963 0 -0.033051866494802067 0.003827832867512487 0 -0.041902249435711407 0.011753440906031041 0 -0.02504502092149305 0.015993819921371281 0 -0.033051866494802067 0.003827832867512487 0 -0.04565717587050426 0.0013713559571671839 0 -0.041902249435711407 0.011753440906031041 0 -0.053404505586731821 0.066234889961895443 0 -0.064286826154205404 0.053491937300194477 0 -0.045432352363923699 0.046125250982555911 0 -0.053404505586731821 0.066234889961895443 0 -0.064649539992338759 0.066605596752747243 0 -0.064286826154205404 0.053491937300194477 0 -0.044837850734605847 0.02764883150305391 0 -0.055181093291213228 0.033270694954719182 0 -0.045432352363923699 0.046125250982555911 0 -0.064286826154205404 0.053491937300194477 0 -0.055181093291213228 0.033270694954719182 0 -0.045432352363923699 0.046125250982555911 0 -0.044837850734605847 0.02764883150305391 0 -0.045432352363923699 0.046125250982555911 0 -0.030272497127583179 0.032571529651278963 0 -0.045432352363923699 0.046125250982555911 0 -0.031427398611973613 0.049810600845057271 0 -0.030272497127583179 0.032571529651278963 0 -0.053404505586731821 0.066234889961895443 0 -0.045432352363923699 0.046125250982555911 0 -0.039984691506067101 0.061046364652690172 0 -0.045432352363923699 0.046125250982555911 0 -0.031427398611973613 0.049810600845057271 0 -0.039984691506067101 0.061046364652690172 0 -0.030401614705188859 0.063047084766585298 0 -0.031427398611973613 0.049810600845057271 0 -0.039984691506067101 0.061046364652690172 0 -0.023369440754571289 0.059621919296414992 0 -0.018642744819454951 0.053389618396526867 0 -0.012050031881561689 0.060452773404427028 0 -0.02150736912529326 0.067217420750426665 0 -0.023369440754571289 0.059621919296414992 0 -0.012050031881561689 0.060452773404427028 0 -0.030401614705188859 0.063047084766585298 0 -0.031427398611973613 0.049810600845057271 0 -0.023369440754571289 0.059621919296414992 0 -0.031427398611973613 0.049810600845057271 0 -0.023369440754571289 0.059621919296414992 0 -0.018642744819454951 0.053389618396526867 0 -0.018642744819454951 0.053389618396526867 0 -0.030272497127583179 0.032571529651278963 0 -0.031427398611973613 0.049810600845057271 0 -0.018642744819454951 0.053389618396526867 0 -0.030272497127583179 0.032571529651278963 0 -0.018642744819454951 0.053389618396526867 0 -0.030272497127583179 0.032571529651278963 0 -0.0055437092567477298 0.032573799606927432 0 -0.0055437092567477298 0.032573799606927432 0 -0.012050031881561689 0.060452773404427028 0 -0.0055437092567477298 0.032573799606927432 0 -0.00080083599168530534 0.059620852853258813 0 -0.012050031881561689 0.060452773404427028 0 -0.018642744819454951 0.053389618396526867 0 -0.0055437092567477298 0.032573799606927432 0 -0.012050031881561689 0.060452773404427028 0 -0.0063264523735629009 0.066298950401494985 0 -0.00080083599168530534 0.059620852853258813 0 -0.012050031881561689 0.060452773404427028 0 -0.0210886489830319 -0.001087742540378641 0 -0.02504502092149305 0.015993819921371281 0 -0.01197270849472701 0.009528451721344474 0 -0.0210886489830319 -0.001087742540378641 0 -0.033051866494802067 0.003827832867512487 0 -0.02504502092149305 0.015993819921371281 0 -0.030272497127583179 0.032571529651278963 0 -0.0055437092567477298 0.032573799606927432 0 -0.02504502092149305 0.015993819921371281 0 -0.0055437092567477298 0.032573799606927432 0 0.0009626133680662478 0.004694825809427778 0 -0.0055437092567477298 0.032573799606927432 0 -0.02504502092149305 0.015993819921371281 0 -0.01197270849472701 0.009528451721344474 0 -0.0055437092567477298 0.032573799606927432 0 -0.01197270849472701 0.009528451721344474 0 0.0009626133680662478 0.004694825809427778 0 -0.0210886489830319 -0.001087742540378641 0 -0.0091487766804286413 -0.0045324441906254851 0 -0.01197270849472701 0.009528451721344474 0 -0.0091487766804286413 -0.0045324441906254851 0 -0.01197270849472701 0.009528451721344474 0 0.0009626133680662478 0.004694825809427778 0 0.0009626133680662478 0.004694825809427778 0 0.020086082938962909 0.0074320309104848412 0 0.01439257658453344 -0.0038299249426867062 0 0.0009626133680662478 0.004694825809427778 0 0.013831591660066381 0.022525265786382611 0 0.020086082938962909 0.0074320309104848412 0 -0.0055437092567477298 0.032573799606927432 0 0.0009626133680662478 0.004694825809427778 0 0.013831591660066381 0.022525265786382611 0 0.013831591660066381 0.022525265786382611 0 0.020086082938962909 0.0074320309104848412 0 0.034876898438642862 0.024866226185940019 0 0.013831591660066381 0.022525265786382611 0 0.01877607281140763 0.043059446419132993 0 0.034876898438642862 0.024866226185940019 0 0.020086082938962909 0.0074320309104848412 0 0.034154709133544653 0.0073558485479120169 0 0.034876898438642862 0.024866226185940019 0 0.020086082938962909 0.0074320309104848412 0 0.034154709133544653 0.0073558485479120169 0 0.02922333002937957 -0.0082555710176626471 0 -0.0055437092567477298 0.032573799606927432 0 -0.00080083599168530534 0.059620852853258813 0 0.0094079415879301017 0.05351195612673007 0 0.0094079415879301017 0.05351195612673007 0 0.0056454913240516326 0.06441850267048474 0 0.01279726835615559 0.063859752649670184 0 0.0094079415879301017 0.05351195612673007 0 0.02290734969728812 0.05713125032784061 0 0.01279726835615559 0.063859752649670184 0 -0.00080083599168530534 0.059620852853258813 0 0.0094079415879301017 0.05351195612673007 0 0.0056454913240516326 0.06441850267048474 0 -0.0055437092567477298 0.032573799606927432 0 0.013831591660066381 0.022525265786382611 0 0.01877607281140763 0.043059446419132993 0 -0.0055437092567477298 0.032573799606927432 0 0.0094079415879301017 0.05351195612673007 0 0.01877607281140763 0.043059446419132993 0 0.01877607281140763 0.043059446419132993 0 0.034876898438642862 0.024866226185940019 0 0.01877607281140763 0.043059446419132993 0 0.02290734969728812 0.05713125032784061 0 0.041331584852818883 0.044557872627579279 0 0.0094079415879301017 0.05351195612673007 0 0.01877607281140763 0.043059446419132993 0 0.02290734969728812 0.05713125032784061 0 0.02290734969728812 0.05713125032784061 0 0.041331584852818883 0.044557872627579279 0 0.037392817009368591 0.064273339576823491 0 0.041331584852818883 0.044557872627579279 0 0.057939947110843881 0.056013907512773242 0 0.037392817009368591 0.064273339576823491 0 0.041331584852818883 0.044557872627579279 0 0.034876898438642862 0.024866226185940019 0 0.050805068997542849 0.024374498382918171 0 0.01877607281140763 0.043059446419132993 0 0.041331584852818883 0.044557872627579279 0 0.034876898438642862 0.024866226185940019 0 0.050805068997542849 0.024374498382918171 0 0.066259465414325536 0.02826166251356774 0 0.064596582621070833 0.042886294136181988 0 0.041331584852818883 0.044557872627579279 0 0.050805068997542849 0.024374498382918171 0 0.064596582621070833 0.042886294136181988 0 0.041331584852818883 0.044557872627579279 0 0.057939947110843881 0.056013907512773242 0 0.064596582621070833 0.042886294136181988 0 0.057939947110843881 0.056013907512773242 0 0.037392817009368591 0.064273339576823491 0 0.034154709133544653 0.0073558485479120169 0 0.034876898438642862 0.024866226185940019 0 0.051995645116997273 0.0055228002246816019 0 0.034876898438642862 0.024866226185940019 0 0.051995645116997273 0.0055228002246816019 0 0.034154709133544653 0.0073558485479120169 0 0.051995645116997273 0.0055228002246816019 0 0.02922333002937957 -0.0082555710176626471 0 0.034876898438642862 0.024866226185940019 0 0.050805068997542849 0.024374498382918171 0 0.051995645116997273 0.0055228002246816019 0 0.054031853616332753 0.0087688495784121034 0 0.066259465414325536 0.02826166251356774 0 0.050805068997542849 0.024374498382918171 0 0.054031853616332753 0.0087688495784121034 0 0.066259465414325536 0.02826166251356774 0 0.054031853616332753 0.0087688495784121034 0 0.051995645116997273 0.0055228002246816019 0 0.070494389351615672 0.0059909234811812706 0 0.050805068997542849 0.024374498382918171 0 0.054031853616332753 0.0087688495784121034 0 0.051995645116997273 0.0055228002246816019 0 0.054031853616332753 0.0087688495784121034 0 0.051995645116997273 0.0055228002246816019 0 0.070494389351615672 0.0059909234811812706 0 0.074511499250843799 0.022822652486853879 0 0.051995645116997273 0.0055228002246816019 0 0.070494389351615672 0.0059909234811812706 0 0.066477279452386295 -0.01084080552449102 0 0.054031853616332753 0.0087688495784121034 0 0.070494389351615672 0.0059909234811812706 0 0.074511499250843799 0.022822652486853879 0 0.070494389351615672 0.0059909234811812706 0 0.083795351221403136 0.0099553092528977694 0 0.074511499250843799 0.022822652486853879 0 0.070494389351615672 0.0059909234811812706 0 0.083795351221403136 0.0099553092528977694 0 0.076223698019018987 -0.0042716822877690861 0 0.083795351221403136 0.0099553092528977694 0 0.087962381713208915 -0.0048627492070227631 0 0.076223698019018987 -0.0042716822877690861 0 0.083795351221403136 0.0099553092528977694 0 0.097562349300996831 0.0046908460472591717 0 0.096120668668269821 0.016869694277425799 0 0.083795351221403136 0.0099553092528977694 0 0.097562349300996831 0.0046908460472591717 0 0.087962381713208915 -0.0048627492070227631 0 0.083795351221403136 0.0099553092528977694 0 0.090663126299268093 0.02308512311075062 0 0.074511499250843799 0.022822652486853879 0 0.074511499250843799 0.022822652486853879 0 0.098890949978592976 0.039552629248095612 0 0.090663126299268093 0.02308512311075062 0 0.074511499250843799 0.022822652486853879 0 0.098890949978592976 0.039552629248095612 0 0.083795351221403136 0.0099553092528977694 0 0.090663126299268093 0.02308512311075062 0 0.096120668668269821 0.016869694277425799 0 0.054031853616332753 0.0087688495784121034 0 0.066259465414325536 0.02826166251356774 0 0.074511499250843799 0.022822652486853879 0 0.054031853616332753 0.0087688495784121034 0 0.074511499250843799 0.022822652486853879 0 0.066259465414325536 0.02826166251356774 0 0.064596582621070833 0.042886294136181988 0 0.078487077212319151 0.0477544754487228 0 0.074511499250843799 0.022822652486853879 0 0.080288937183491615 0.047030172835790821 0 0.066259465414325536 0.02826166251356774 0 0.078487077212319151 0.0477544754487228 0 0.066259465414325536 0.02826166251356774 0 0.074511499250843799 0.022822652486853879 0 0.080288937183491615 0.047030172835790821 0 0.066259465414325536 0.02826166251356774 0 0.078487077212319151 0.0477544754487228 0 0.080288937183491615 0.047030172835790821 0 0.057939947110843881 0.056013907512773242 0 0.078487077212319151 0.0477544754487228 0 0.057939947110843881 0.056013907512773242 0 0.064596582621070833 0.042886294136181988 0 0.078487077212319151 0.0477544754487228 0 0.057939947110843881 0.056013907512773242 0 0.071102290591906939 0.05897372877843933 0 0.078487077212319151 0.0477544754487228 0 0.057939947110843881 0.056013907512773242 0 0.071102290591906939 0.05897372877843933 0 0.064752399404367916 0.06944268927858846 0 0.071102290591906939 0.05897372877843933 0 0.078144061965535846 0.056909331060185211 0 0.078487077212319151 0.0477544754487228 0 0.071102290591906939 0.05897372877843933 0 0.078144061965535846 0.056909331060185211 0 0.07610786061619873 0.065132645269676617 0 0.083348560479883843 0.059850023792375133 0 0.078144061965535846 0.056909331060185211 0 0.07610786061619873 0.065132645269676617 0 0.083348560479883843 0.059850023792375133 0 0.081674520927370764 0.05283578201171206 0 0.091253342768393905 0.068105990566818916 0 0.083348560479883843 0.059850023792375133 0 0.078144061965535846 0.056909331060185211 0 0.081674520927370764 0.05283578201171206 0 0.083348560479883843 0.059850023792375133 0 0.081674520927370764 0.05283578201171206 0 0.081674520927370764 0.05283578201171206 0 0.080288937183491615 0.047030172835790821 0 0.094067899227498378 0.051112735700636222 0 0.078144061965535846 0.056909331060185211 0 0.081674520927370764 0.05283578201171206 0 0.078487077212319151 0.0477544754487228 0 0.081674520927370764 0.05283578201171206 0 0.078487077212319151 0.0477544754487228 0 0.080288937183491615 0.047030172835790821 0 0.081674520927370764 0.05283578201171206 0 0.080288937183491615 0.047030172835790821 0 0.081674520927370764 0.05283578201171206 0 0.078487077212319151 0.0477544754487228 0 0.078487077212319151 0.0477544754487228 0 0.080288937183491615 0.047030172835790821 0 0.081674520927370764 0.05283578201171206 0 0.093694535075226015 0.058090215445345338 0 0.094067899227498378 0.051112735700636222 0 0.081674520927370764 0.05283578201171206 0 0.091253342768393905 0.068105990566818916 0 0.081674520927370764 0.05283578201171206 0 0.093694535075226015 0.058090215445345338 0 0.091253342768393905 0.068105990566818916 0 0.080288937183491615 0.047030172835790821 0 0.098890949978592976 0.039552629248095612 0 0.094067899227498378 0.051112735700636222 0 0.080288937183491615 0.047030172835790821 0 0.098890949978592976 0.039552629248095612 0 0.074511499250843799 0.022822652486853879 0 0.080288937183491615 0.047030172835790821 0 0.098890949978592976 0.039552629248095612 0 0.098890949978592976 0.039552629248095612 0 0.104421605214936 0.031750561343949747 0 0.099997162377229526 0.026225330288480651 0 0.098890949978592976 0.039552629248095612 0 0.1178651115546696 0.052573319737666623 0 0.098890949978592976 0.039552629248095612 0 0.1178651115546696 0.052573319737666623 0 0.1103555289719426 0.040168221000956718 0 0.098890949978592976 0.039552629248095612 0 0.1032134510603863 0.037815091993232228 0 0.098890949978592976 0.039552629248095612 0 0.1032134510603863 0.037815091993232228 0 0.1103555289719426 0.040168221000956718 0 0.1071983466260798 0.035659111028307711 0 0.1032134510603863 0.037815091993232228 0 0.1103555289719426 0.040168221000956718 0 0.1071983466260798 0.035659111028307711 0 0.104421605214936 0.031750561343949747 0 0.1108028012570542 0.032902569775092157 0 0.1071983466260798 0.035659111028307711 0 0.104421605214936 0.031750561343949747 0 0.1032134510603863 0.037815091993232228 0 0.098890949978592976 0.039552629248095612 0 0.104421605214936 0.031750561343949747 0 0.1032134510603863 0.037815091993232228 0 0.098890949978592976 0.039552629248095612 0 0.1052157281839373 0.05171626743718441 0 0.1178651115546696 0.052573319737666623 0 0.093694535075226015 0.058090215445345338 0 0.1033265977975325 0.058227819525599897 0 0.1020541336235844 0.06729563110500944 0 0.093694535075226015 0.058090215445345338 0 0.094067899227498378 0.051112735700636222 0 0.1033265977975325 0.058227819525599897 0 0.098890949978592976 0.039552629248095612 0 0.094067899227498378 0.051112735700636222 0 0.1052157281839373 0.05171626743718441 0 0.094067899227498378 0.051112735700636222 0 0.1052157281839373 0.05171626743718441 0 0.1033265977975325 0.058227819525599897 0 0.1033265977975325 0.058227819525599897 0 0.111928082361393 0.057114832973922947 0 0.1104173619967095 0.064099761855261117 0 0.1052157281839373 0.05171626743718441 0 0.1033265977975325 0.058227819525599897 0 0.111928082361393 0.057114832973922947 0 0.1178651115546696 0.052573319737666623 0 0.1187772725441008 0.060376865824300442 0 0.1368392731307452 0.065594010227238722 0 0.111928082361393 0.057114832973922947 0 0.1187772725441008 0.060376865824300442 0 0.1104173619967095 0.064099761855261117 0 0.111928082361393 0.057114832973922947 0 0.1178651115546696 0.052573319737666623 0 0.1187772725441008 0.060376865824300442 0 0.1052157281839373 0.05171626743718441 0 0.111928082361393 0.057114832973922947 0 0.1178651115546696 0.052573319737666623 0 0.1249336348272455 0.049712884967204288 0 0.1178651115546696 0.052573319737666623 0 0.12983247874270121 0.055145662020453901 0 0.1249336348272455 0.049712884967204288 0 0.1178651115546696 0.052573319737666623 0 0.1199836596841395 0.043662078150655308 0 0.1159222067999727 0.036865131504598331 0 0.1108028012570542 0.032902569775092157 0 0.11758222700326811 0.029309149166297659 0 0.1159222067999727 0.036865131504598331 0 0.1108028012570542 0.032902569775092157 0 0.1103555289719426 0.040168221000956718 0 0.1071983466260798 0.035659111028307711 0 0.1108028012570542 0.032902569775092157 0 0.1103555289719426 0.040168221000956718 0 0.1178651115546696 0.052573319737666623 0 0.1103555289719426 0.040168221000956718 0 0.1199836596841395 0.043662078150655308 0 0.1159222067999727 0.036865131504598331 0 0.1103555289719426 0.040168221000956718 0 0.1199836596841395 0.043662078150655308 0 0.1159222067999727 0.036865131504598331 0 0.1199836596841395 0.043662078150655308 0 0.1232511026531718 0.037397597548952312 0 0.1249336348272455 0.049712884967204288 0 0.1199836596841395 0.043662078150655308 0 0.12749811000021771 0.044891151010640867 0 0.1199836596841395 0.043662078150655308 0 0.1232511026531718 0.037397597548952312 0 0.12749811000021771 0.044891151010640867 0 0.1232511026531718 0.037397597548952312 0 0.11758222700326811 0.029309149166297659 0 0.1252687186775906 0.030178848056689331 0 0.1159222067999727 0.036865131504598331 0 0.1232511026531718 0.037397597548952312 0 0.11758222700326811 0.029309149166297659 0 0.11758222700326811 0.029309149166297659 0 0.1211411023831821 0.019790141388387712 0 0.1252687186775906 0.030178848056689331 0 0.11758222700326811 0.029309149166297659 0 0.1103878944876959 0.025334044021030871 0 0.1211411023831821 0.019790141388387712 0 0.1108028012570542 0.032902569775092157 0 0.11758222700326811 0.029309149166297659 0 0.1103878944876959 0.025334044021030871 0 0.1103878944876959 0.025334044021030871 0 0.1129003350383067 0.0171478145756222 0 0.1211411023831821 0.019790141388387712 0 0.1211411023831821 0.019790141388387712 0 0.1163702940501759 0.0090495192000805344 0 0.12886194335753109 0.011760229185582571 0 0.1163702940501759 0.0090495192000805344 0 0.11633231768299999 -0.0032458042684647909 0 0.12774018681310881 -0.00055002405430379581 0 0.1163702940501759 0.0090495192000805344 0 0.12886194335753109 0.011760229185582571 0 0.12774018681310881 -0.00055002405430379581 0 0.1163702940501759 0.0090495192000805344 0 0.10794563736626241 0.0033798730949545562 0 0.11633231768299999 -0.0032458042684647909 0 0.1129003350383067 0.0171478145756222 0 0.1163702940501759 0.0090495192000805344 0 0.1062180237753647 0.01285346454743401 0 0.1163702940501759 0.0090495192000805344 0 0.1062180237753647 0.01285346454743401 0 0.10794563736626241 0.0033798730949545562 0 0.1129003350383067 0.0171478145756222 0 0.1211411023831821 0.019790141388387712 0 0.1163702940501759 0.0090495192000805344 0 0.10794563736626241 0.0033798730949545562 0 0.097562349300996831 0.0046908460472591717 0 0.1032452020217742 -0.0064486600515361444 0 0.1062180237753647 0.01285346454743401 0 0.10794563736626241 0.0033798730949545562 0 0.097562349300996831 0.0046908460472591717 0 0.1062180237753647 0.01285346454743401 0 0.097562349300996831 0.0046908460472591717 0 0.096120668668269821 0.016869694277425799 0 0.090663126299268093 0.02308512311075062 0 0.096120668668269821 0.016869694277425799 0 0.099997162377229526 0.026225330288480651 0 0.096120668668269821 0.016869694277425799 0 0.099997162377229526 0.026225330288480651 0 0.104520983233354 0.02043417622616139 0 0.090663126299268093 0.02308512311075062 0 0.098890949978592976 0.039552629248095612 0 0.099997162377229526 0.026225330288480651 0 0.1103878944876959 0.025334044021030871 0 0.099997162377229526 0.026225330288480651 0 0.104520983233354 0.02043417622616139 0 0.104421605214936 0.031750561343949747 0 0.1103878944876959 0.025334044021030871 0 0.099997162377229526 0.026225330288480651 0 0.104421605214936 0.031750561343949747 0 0.1108028012570542 0.032902569775092157 0 0.1103878944876959 0.025334044021030871 0 0.1129003350383067 0.0171478145756222 0 0.1062180237753647 0.01285346454743401 0 0.104520983233354 0.02043417622616139 0 0.1103878944876959 0.025334044021030871 0 0.1129003350383067 0.0171478145756222 0 0.104520983233354 0.02043417622616139 0 0.1062180237753647 0.01285346454743401 0 0.096120668668269821 0.016869694277425799 0 0.104520983233354 0.02043417622616139 0 0.1088848750480591 0.1078206233403337 0 0.095271618902415367 0.1014870448860037 0 0.1097428353041781 0.09758126547906007 0 0.095271618902415367 0.1014870448860037 0 0.1097428353041781 0.09758126547906007 0 0.095271618902415367 0.1014870448860037 0 0.098806715234831644 0.092689698106066892 0 0.093311414211961208 0.090019020899341912 0 0.095271618902415367 0.1014870448860037 0 0.1097428353041781 0.09758126547906007 0 0.098806715234831644 0.092689698106066892 0 0.095271618902415367 0.1014870448860037 0 0.1111259908926811 0.1192393239755556 0 0.095271618902415367 0.1014870448860037 0 0.1001109663316266 0.1175143366698319 0 0.089905184585409748 0.1221616073525835 0 0.095271618902415367 0.1014870448860037 0 0.1001109663316266 0.1175143366698319 0 0.1111259908926811 0.1192393239755556 0 0.1088848750480591 0.1078206233403337 0 0.095271618902415367 0.1014870448860037 0 0.1111259908926811 0.1192393239755556 0 0.1001109663316266 0.1175143366698319 0 0.089905184585409748 0.1221616073525835 0 0.1041410709460001 0.12716937046518489 0 0.1001109663316266 0.1175143366698319 0 0.1111259908926811 0.1192393239755556 0 0.1041410709460001 0.12716937046518489 0 0.1088848750480591 0.1078206233403337 0 0.1111259908926811 0.1192393239755556 0 0.11939905509296191 0.11297485902071561 0 0.1111259908926811 0.1192393239755556 0 0.1216401709375836 0.12439355965593769 0 0.11939905509296191 0.11297485902071561 0 0.1216401709375836 0.12439355965593769 0 0.11939905509296191 0.11297485902071561 0 0.12905527488174429 0.12836845256237209 0 0.11939905509296191 0.11297485902071561 0 0.12905527488174429 0.12836845256237209 0 0.11939905509296191 0.11297485902071561 0 0.1214707721692264 0.1026479329041762 0 0.12729066611458559 0.1091688786199347 0 0.11939905509296191 0.11297485902071561 0 0.1214707721692264 0.1026479329041762 0 0.1097428353041781 0.09758126547906007 0 0.11939905509296191 0.11297485902071561 0 0.1097428353041781 0.09758126547906007 0 0.1088848750480591 0.1078206233403337 0 0.11939905509296191 0.11297485902071561 0 0.1097428353041781 0.09758126547906007 0 0.1214707721692264 0.1026479329041762 0 0.1097428353041781 0.09758126547906007 0 0.1174954373401422 0.095488839207375345 0 0.1097428353041781 0.09758126547906007 0 0.1174954373401422 0.095488839207375345 0 0.11192896193966 0.090272824834310428 0 0.1097428353041781 0.09758126547906007 0 0.1174954373401422 0.095488839207375345 0 0.1174954373401422 0.095488839207375345 0 0.12607469971850391 0.089622711649675113 0 0.12559798341448161 0.097258343255633206 0 0.1214707721692264 0.1026479329041762 0 0.1174954373401422 0.095488839207375345 0 0.12559798341448161 0.097258343255633206 0 0.11683149720093459 0.084428374275348328 0 0.11192896193966 0.090272824834310428 0 0.10083216460941841 0.083376199121925038 0 0.1174954373401422 0.095488839207375345 0 0.11683149720093459 0.084428374275348328 0 0.12607469971850391 0.089622711649675113 0 0.12471564955468201 0.081195509797041612 0 0.11683149720093459 0.084428374275348328 0 0.12607469971850391 0.089622711649675113 0 0.12471564955468201 0.081195509797041612 0 0.11683149720093459 0.084428374275348328 0 0.11814348795895351 0.075948389892801629 0 0.1174954373401422 0.095488839207375345 0 0.11683149720093459 0.084428374275348328 0 0.11192896193966 0.090272824834310428 0 0.1187772725441008 0.060376865824300442 0 0.1227522073855048 0.072534643688884251 0 0.11633949967059511 0.069066224377138302 0 0.1187772725441008 0.060376865824300442 0 0.1227522073855048 0.072534643688884251 0 0.1292113830156463 0.072164121783763885 0 0.12471564955468201 0.081195509797041612 0 0.1227522073855048 0.072534643688884251 0 0.11814348795895351 0.075948389892801629 0 0.12471564955468201 0.081195509797041612 0 0.1227522073855048 0.072534643688884251 0 0.12736964571532741 0.076354341111398549 0 0.1227522073855048 0.072534643688884251 0 0.11814348795895351 0.075948389892801629 0 0.11633949967059511 0.069066224377138302 0 0.11683149720093459 0.084428374275348328 0 0.11814348795895351 0.075948389892801629 0 0.11007858598305111 0.072517197325595667 0 0.11814348795895351 0.075948389892801629 0 0.11007858598305111 0.072517197325595667 0 0.11633949967059511 0.069066224377138302 0 0.1187772725441008 0.060376865824300442 0 0.1104173619967095 0.064099761855261117 0 0.11633949967059511 0.069066224377138302 0 0.11007858598305111 0.072517197325595667 0 0.1104173619967095 0.064099761855261117 0 0.11633949967059511 0.069066224377138302 0 0.1020541336235844 0.06729563110500944 0 0.10083216460941841 0.083376199121925038 0 0.091253342768393905 0.068105990566818916 0 0.11007858598305111 0.072517197325595667 0 0.1020541336235844 0.06729563110500944 0 0.10083216460941841 0.083376199121925038 0 0.11007858598305111 0.072517197325595667 0 0.1104173619967095 0.064099761855261117 0 0.1020541336235844 0.06729563110500944 0 0.1033265977975325 0.058227819525599897 0 0.1104173619967095 0.064099761855261117 0 0.1020541336235844 0.06729563110500944 0 0.10083216460941841 0.083376199121925038 0 0.091253342768393905 0.068105990566818916 0 0.093694535075226015 0.058090215445345338 0 0.1020541336235844 0.06729563110500944 0 0.091253342768393905 0.068105990566818916 0 0.11683149720093459 0.084428374275348328 0 0.10083216460941841 0.083376199121925038 0 0.11683149720093459 0.084428374275348328 0 0.11007858598305111 0.072517197325595667 0 0.10083216460941841 0.083376199121925038 0 0.1097428353041781 0.09758126547906007 0 0.10083216460941841 0.083376199121925038 0 0.1097428353041781 0.09758126547906007 0 0.11192896193966 0.090272824834310428 0 0.10083216460941841 0.083376199121925038 0 0.1097428353041781 0.09758126547906007 0 0.10083216460941841 0.083376199121925038 0 0.098806715234831644 0.092689698106066892 0 0.10083216460941841 0.083376199121925038 0 0.098806715234831644 0.092689698106066892 0 0.093311414211961208 0.090019020899341912 0 0.095271618902415367 0.1014870448860037 0 0.078376176952103915 0.081899410504432252 0 0.095271618902415367 0.1014870448860037 0 0.078376176952103915 0.081899410504432252 0 0.0755496871488813 0.093805718140906158 0 0.10083216460941841 0.083376199121925038 0 0.093311414211961208 0.090019020899341912 0 0.078376176952103915 0.081899410504432252 0 0.10083216460941841 0.083376199121925038 0 0.078376176952103915 0.081899410504432252 0 0.10083216460941841 0.083376199121925038 0 0.078376176952103915 0.081899410504432252 0 0.08351203592868614 0.076605331542631105 0 0.095271618902415367 0.1014870448860037 0 0.093311414211961208 0.090019020899341912 0 0.078376176952103915 0.081899410504432252 0 0.078376176952103915 0.081899410504432252 0 0.08351203592868614 0.076605331542631105 0 0.073652642405267171 0.081588773441411327 0 0.10083216460941841 0.083376199121925038 0 0.08351203592868614 0.076605331542631105 0 0.085929792253091747 0.071341141216387696 0 0.091253342768393905 0.068105990566818916 0 0.085929792253091747 0.071341141216387696 0 0.083268093957030928 0.06713691255470905 0 0.083348560479883843 0.059850023792375133 0 0.091253342768393905 0.068105990566818916 0 0.083268093957030928 0.06713691255470905 0 0.10083216460941841 0.083376199121925038 0 0.091253342768393905 0.068105990566818916 0 0.085929792253091747 0.071341141216387696 0 0.08351203592868614 0.076605331542631105 0 0.077444666708066989 0.075465782005144533 0 0.073652642405267171 0.081588773441411327 0 0.08351203592868614 0.076605331542631105 0 0.079700913667586429 0.071254761928286919 0 0.077444666708066989 0.075465782005144533 0 0.08351203592868614 0.076605331542631105 0 0.079700913667586429 0.071254761928286919 0 0.085929792253091747 0.071341141216387696 0 0.079700913667586429 0.071254761928286919 0 0.085929792253091747 0.071341141216387696 0 0.083268093957030928 0.06713691255470905 0 0.079700913667586429 0.071254761928286919 0 0.083268093957030928 0.06713691255470905 0 0.07610786061619873 0.065132645269676617 0 0.083348560479883843 0.059850023792375133 0 0.083268093957030928 0.06713691255470905 0 0.07610786061619873 0.065132645269676617 0 0.07610786061619873 0.065132645269676617 0 0.073676881815571846 0.072881275313532112 0 0.064752399404367916 0.06944268927858846 0 0.071102290591906939 0.05897372877843933 0 0.07610786061619873 0.065132645269676617 0 0.064752399404367916 0.06944268927858846 0 0.079700913667586429 0.071254761928286919 0 0.07610786061619873 0.065132645269676617 0 0.073676881815571846 0.072881275313532112 0 0.073676881815571846 0.072881275313532112 0 0.077444666708066989 0.075465782005144533 0 0.073652642405267171 0.081588773441411327 0 0.073676881815571846 0.072881275313532112 0 0.064752399404367916 0.06944268927858846 0 0.073652642405267171 0.081588773441411327 0 0.079700913667586429 0.071254761928286919 0 0.073676881815571846 0.072881275313532112 0 0.077444666708066989 0.075465782005144533 0 0.073652642405267171 0.081588773441411327 0 0.0755496871488813 0.093805718140906158 0 0.059477728613281551 0.09539472580730092 0 0.078376176952103915 0.081899410504432252 0 0.073652642405267171 0.081588773441411327 0 0.0755496871488813 0.093805718140906158 0 0.078376176952103915 0.081899410504432252 0 0.073652642405267171 0.081588773441411327 0 0.07101128772226295 0.1080349050864428 0 0.0755496871488813 0.093805718140906158 0 0.059477728613281551 0.09539472580730092 0 0.095271618902415367 0.1014870448860037 0 0.07101128772226295 0.1080349050864428 0 0.0755496871488813 0.093805718140906158 0 0.095271618902415367 0.1014870448860037 0 0.07101128772226295 0.1080349050864428 0 0.095271618902415367 0.1014870448860037 0 0.07101128772226295 0.1080349050864428 0 0.089905184585409748 0.1221616073525835 0 0.07101128772226295 0.1080349050864428 0 0.089905184585409748 0.1221616073525835 0 0.069548650080668059 0.1299857614399112 0 0.07101128772226295 0.1080349050864428 0 0.046750956542110589 0.1145827652868822 0 0.07101128772226295 0.1080349050864428 0 0.046750956542110589 0.1145827652868822 0 0.069548650080668059 0.1299857614399112 0 0.07101128772226295 0.1080349050864428 0 0.059477728613281551 0.09539472580730092 0 0.046750956542110589 0.1145827652868822 0 0.059477728613281551 0.09539472580730092 0 0.046452349622281737 0.096138726220766788 0 0.046750956542110589 0.1145827652868822 0 0.033107593132618678 0.094776066027985689 0 0.046750956542110589 0.1145827652868822 0 0.02537901533854595 0.10692275220455701 0 0.046452349622281737 0.096138726220766788 0 0.033107593132618678 0.094776066027985689 0 0.046750956542110589 0.1145827652868822 0 0.046750956542110589 0.1145827652868822 0 0.02249062536195829 0.1211306254873217 0 0.033142827097578598 0.1293853955372119 0 0.046750956542110589 0.1145827652868822 0 0.02249062536195829 0.1211306254873217 0 0.02537901533854595 0.10692275220455701 0 0.046750956542110589 0.1145827652868822 0 0.02249062536195829 0.1211306254873217 0 0.064752399404367916 0.06944268927858846 0 0.051657925599651343 0.067643169016757959 0 0.046473120201116172 0.079801347760898353 0 0.064752399404367916 0.06944268927858846 0 0.073652642405267171 0.081588773441411327 0 0.046473120201116172 0.079801347760898353 0 0.057939947110843881 0.056013907512773242 0 0.051657925599651343 0.067643169016757959 0 0.037392817009368591 0.064273339576823491 0 0.057939947110843881 0.056013907512773242 0 0.064752399404367916 0.06944268927858846 0 0.051657925599651343 0.067643169016757959 0 0.073652642405267171 0.081588773441411327 0 0.059477728613281551 0.09539472580730092 0 0.046473120201116172 0.079801347760898353 0 0.073652642405267171 0.081588773441411327 0 0.046473120201116172 0.079801347760898353 0 0.059477728613281551 0.09539472580730092 0 0.046452349622281737 0.096138726220766788 0 0.046473120201116172 0.079801347760898353 0 0.033107593132618678 0.094776066027985689 0 0.046473120201116172 0.079801347760898353 0 0.02525671987695954 0.086780250188721667 0 0.046452349622281737 0.096138726220766788 0 0.033107593132618678 0.094776066027985689 0 0.046473120201116172 0.079801347760898353 0 0.046473120201116172 0.079801347760898353 0 0.019293597996965062 0.078013922080385378 0 0.046473120201116172 0.079801347760898353 0 0.037392817009368591 0.064273339576823491 0 0.019293597996965062 0.078013922080385378 0 0.051657925599651343 0.067643169016757959 0 0.046473120201116172 0.079801347760898353 0 0.037392817009368591 0.064273339576823491 0 0.037392817009368591 0.064273339576823491 0 0.016845686907893349 0.072532771640873739 0 0.037392817009368591 0.064273339576823491 0 0.016845686907893349 0.072532771640873739 0 0.019293597996965062 0.078013922080385378 0 0.02290734969728812 0.05713125032784061 0 0.037392817009368591 0.064273339576823491 0 0.016845686907893349 0.072532771640873739 0 0.02290734969728812 0.05713125032784061 0 0.016845686907893349 0.072532771640873739 0 0.01279726835615559 0.063859752649670184 0 0.016845686907893349 0.072532771640873739 0 0.019293597996965062 0.078013922080385378 0 0.013594647392820109 0.077219203875750514 0 0.046473120201116172 0.079801347760898353 0 0.019293597996965062 0.078013922080385378 0 0.02525671987695954 0.086780250188721667 0 0.019293597996965062 0.078013922080385378 0 0.015769285846694479 0.082888274550818181 0 0.02525671987695954 0.086780250188721667 0 0.019293597996965062 0.078013922080385378 0 0.015769285846694479 0.082888274550818181 0 0.013594647392820109 0.077219203875750514 0 0.033107593132618678 0.094776066027985689 0 0.02525671987695954 0.086780250188721667 0 0.022298183900466399 0.095579429832714252 0 0.02525671987695954 0.086780250188721667 0 0.01474283185100999 0.089277872826573457 0 0.022298183900466399 0.095579429832714252 0 0.015769285846694479 0.082888274550818181 0 0.02525671987695954 0.086780250188721667 0 0.01474283185100999 0.089277872826573457 0 0.01474283185100999 0.089277872826573457 0 0.0043271437301636087 0.090155458803287167 0 0.01300475930319784 0.1001402079157335 0 0.01474283185100999 0.089277872826573457 0 0.0043271437301636087 0.090155458803287167 0 0.0081534915697565307 0.080137202913275404 0 -0.00074415235142066155 0.079413076318190806 0 0.0043271437301636087 0.090155458803287167 0 0.0081534915697565307 0.080137202913275404 0 0.015769285846694479 0.082888274550818181 0 0.01474283185100999 0.089277872826573457 0 0.0081534915697565307 0.080137202913275404 0 0.015769285846694479 0.082888274550818181 0 0.0081534915697565307 0.080137202913275404 0 0.013594647392820109 0.077219203875750514 0 0.0081534915697565307 0.080137202913275404 0 0.013594647392820109 0.077219203875750514 0 0.0091798722636147433 0.07170428248242175 0 0.016845686907893349 0.072532771640873739 0 0.013594647392820109 0.077219203875750514 0 0.0091798722636147433 0.07170428248242175 0 -0.00074415235142066155 0.079413076318190806 0 0.0081534915697565307 0.080137202913275404 0 0.00034612155240797409 0.070760528259967037 0 0.0081534915697565307 0.080137202913275404 0 0.0091798722636147433 0.07170428248242175 0 0.00034612155240797409 0.070760528259967037 0 -0.00080083599168530534 0.059620852853258813 0 0.00034612155240797409 0.070760528259967037 0 0.0056454913240516326 0.06441850267048474 0 0.0091798722636147433 0.07170428248242175 0 0.00034612155240797409 0.070760528259967037 0 0.0056454913240516326 0.06441850267048474 0 0.0091798722636147433 0.07170428248242175 0 0.0056454913240516326 0.06441850267048474 0 0.01279726835615559 0.063859752649670184 0 0.016845686907893349 0.072532771640873739 0 0.0091798722636147433 0.07170428248242175 0 0.01279726835615559 0.063859752649670184 0 0.02249062536195829 0.1211306254873217 0 0.02537901533854595 0.10692275220455701 0 0.0079273285984345077 0.1153896153985875 0 0.033107593132618678 0.094776066027985689 0 0.02537901533854595 0.10692275220455701 0 0.022298183900466399 0.095579429832714252 0 0.02537901533854595 0.10692275220455701 0 0.022298183900466399 0.095579429832714252 0 0.01300475930319784 0.1001402079157335 0 0.01474283185100999 0.089277872826573457 0 0.022298183900466399 0.095579429832714252 0 0.01300475930319784 0.1001402079157335 0 0.02537901533854595 0.10692275220455701 0 0.01300475930319784 0.1001402079157335 0 0.0079273285984345077 0.1153896153985875 0 0.0043271437301636087 0.090155458803287167 0 0.01300475930319784 0.1001402079157335 0 0.002021913286525874 0.1035490079229269 0 -0.0045414923040372722 0.096101033527476509 0 0.0043271437301636087 0.090155458803287167 0 0.002021913286525874 0.1035490079229269 0 0.01300475930319784 0.1001402079157335 0 0.002021913286525874 0.1035490079229269 0 0.0079273285984345077 0.1153896153985875 0 -0.0017697058181939749 0.12767848568776111 0 0.02249062536195829 0.1211306254873217 0 0.0079273285984345077 0.1153896153985875 0 -0.0017697058181939749 0.12767848568776111 0 0.02249062536195829 0.1211306254873217 0 -0.0041589317298227797 0.11498810019226161 0 0.002021913286525874 0.1035490079229269 0 0.0079273285984345077 0.1153896153985875 0 -0.0017697058181939749 0.12767848568776111 0 -0.0041589317298227797 0.11498810019226161 0 0.0079273285984345077 0.1153896153985875 0 -0.0017697058181939749 0.12767848568776111 0 0.01059393583606 0.1326036928341485 0 -0.0017697058181939749 0.12767848568776111 0 0.02249062536195829 0.1211306254873217 0 0.0059556153534708438 0.12780500038479281 0 -0.0017697058181939749 0.12767848568776111 0 0.0059556153534708438 0.12780500038479281 0 0.01059393583606 0.1326036928341485 0 -0.012902105114553889 0.1306831187963011 0 0.01482452591839916 0.1369805574256879 0 0.01059393583606 0.1326036928341485 0 -0.012902105114553889 0.1306831187963011 0 0.01482452591839916 0.1369805574256879 0 0.01482452591839916 0.1369805574256879 0 0.01059393583606 0.1326036928341485 0 0.0059556153534708438 0.12780500038479281 0 0.01059393583606 0.1326036928341485 0 0.018761729494022172 0.12929455326016931 0 0.0059556153534708438 0.12780500038479281 0 0.01059393583606 0.1326036928341485 0 0.01482452591839916 0.1369805574256879 0 0.022176209975297439 0.1372176327199208 0 0.037512515609930172 0.14213358963276679 0 0.01482452591839916 0.1369805574256879 0 0.037512515609930172 0.14213358963276679 0 0.02249062536195829 0.1211306254873217 0 0.0059556153534708438 0.12780500038479281 0 0.018761729494022172 0.12929455326016931 0 0.01482452591839916 0.1369805574256879 0 0.01059393583606 0.1326036928341485 0 0.022176209975297439 0.1372176327199208 0 0.01059393583606 0.1326036928341485 0 0.018761729494022172 0.12929455326016931 0 0.022176209975297439 0.1372176327199208 0 0.01059393583606 0.1326036928341485 0 0.022176209975297439 0.1372176327199208 0 0.022176209975297439 0.1372176327199208 0 0.033142827097578598 0.1293853955372119 0 0.037512515609930172 0.14213358963276679 0 0.02249062536195829 0.1211306254873217 0 0.018761729494022172 0.12929455326016931 0 0.033142827097578598 0.1293853955372119 0 0.018761729494022172 0.12929455326016931 0 0.022176209975297439 0.1372176327199208 0 0.033142827097578598 0.1293853955372119 0 0.01482452591839916 0.1369805574256879 0 0.029544969375660968 0.15220996667731471 0 0.01131071390687767 0.15353763536437401 0 0.01482452591839916 0.1369805574256879 0 0.029544969375660968 0.15220996667731471 0 0.037512515609930172 0.14213358963276679 0 0.01482452591839916 0.1369805574256879 0 0.029544969375660968 0.15220996667731471 0 -0.0061056759341989036 0.1508760704608294 0 0.01131071390687767 0.15353763536437401 0 0.0041527042863420023 0.14544045411878639 0 0.01482452591839916 0.1369805574256879 0 0.01131071390687767 0.15353763536437401 0 0.0041527042863420023 0.14544045411878639 0 -0.0034187467457100699 0.1403675532242544 0 0.01482452591839916 0.1369805574256879 0 0.0041527042863420023 0.14544045411878639 0 -0.0061056759341989036 0.1508760704608294 0 0.01131071390687767 0.15353763536437401 0 0.003769649654854173 0.1639063082871591 0 0.01131071390687767 0.15353763536437401 0 0.003769649654854173 0.1639063082871591 0 0.020797784187683108 0.16705173656896449 0 -0.0095485104545254846 0.17119758740342761 0 0.003769649654854173 0.1639063082871591 0 0.0087352739987390793 0.17975240997245071 0 0.003769649654854173 0.1639063082871591 0 0.0087352739987390793 0.17975240997245071 0 0.020797784187683108 0.16705173656896449 0 0.0087352739987390793 0.17975240997245071 0 0.029327990546941889 0.18381470456662291 0 0.020797784187683108 0.16705173656896449 0 0.0087352739987390793 0.17975240997245071 0 0.029327990546941889 0.18381470456662291 0 0.01791102231314461 0.19737738856290471 0 0.029544969375660968 0.15220996667731471 0 0.01131071390687767 0.15353763536437401 0 0.020797784187683108 0.16705173656896449 0 0.029544969375660968 0.15220996667731471 0 0.044265412832922638 0.1674393759289417 0 0.029544969375660968 0.15220996667731471 0 0.044265412832922638 0.1674393759289417 0 0.046505540028049831 0.15456171134326629 0 0.029544969375660968 0.15220996667731471 0 0.020797784187683108 0.16705173656896449 0 0.044265412832922638 0.1674393759289417 0 0.029327990546941889 0.18381470456662291 0 0.020797784187683108 0.16705173656896449 0 0.044265412832922638 0.1674393759289417 0 0.029327990546941889 0.18381470456662291 0 0.044265412832922638 0.1674393759289417 0 0.046624266848346793 0.1858829101895049 0 0.044265412832922638 0.1674393759289417 0 0.046624266848346793 0.1858829101895049 0 0.05898585629018431 0.18266878518056859 0 0.044265412832922638 0.1674393759289417 0 0.05898585629018431 0.18266878518056859 0 0.044265412832922638 0.1674393759289417 0 0.05898585629018431 0.18266878518056859 0 0.061004297020274108 0.1637390026374628 0 0.044265412832922638 0.1674393759289417 0 0.061004297020274108 0.1637390026374628 0 0.046505540028049831 0.15456171134326629 0 0.060200505301461232 0.14728662183984539 0 0.046505540028049831 0.15456171134326629 0 0.037512515609930172 0.14213358963276679 0 0.060200505301461232 0.14728662183984539 0 0.04943109092634973 0.1326748267473235 0 0.037512515609930172 0.14213358963276679 0 0.060200505301461232 0.14728662183984539 0 0.037512515609930172 0.14213358963276679 0 0.061004297020274108 0.1637390026374628 0 0.060200505301461232 0.14728662183984539 0 0.046505540028049831 0.15456171134326629 0 0.060200505301461232 0.14728662183984539 0 0.04943109092634973 0.1326748267473235 0 0.069548650080668059 0.1299857614399112 0 0.046750956542110589 0.1145827652868822 0 0.04943109092634973 0.1326748267473235 0 0.069548650080668059 0.1299857614399112 0 0.046750956542110589 0.1145827652868822 0 0.04943109092634973 0.1326748267473235 0 0.033142827097578598 0.1293853955372119 0 0.04943109092634973 0.1326748267473235 0 0.033142827097578598 0.1293853955372119 0 0.037512515609930172 0.14213358963276679 0 0.029544969375660968 0.15220996667731471 0 0.046505540028049831 0.15456171134326629 0 0.037512515609930172 0.14213358963276679 0 0.0168823415007953 0.24231856612335889 0 0.034419932012919131 0.23287576080008879 0 0.029720614319208541 0.25580432796631258 0 -0.00022409353603266441 0.22794192581451611 0 -0.00045679976148860701 0.24809875771850209 0 0.0168823415007953 0.24231856612335889 0 -0.00022409353603266441 0.22794192581451611 0 0.0168823415007953 0.24231856612335889 0 0.013549127747612759 0.21602952418420579 0 0.0168823415007953 0.24231856612335889 0 0.013549127747612759 0.21602952418420579 0 0.034419932012919131 0.23287576080008879 0 0.013549127747612759 0.21602952418420579 0 0.039599591264631993 0.20632005975137321 0 0.034419932012919131 0.23287576080008879 0 0.013549127747612759 0.21602952418420579 0 0.01791102231314461 0.19737738856290471 0 0.039599591264631993 0.20632005975137321 0 0.013549127747612759 0.21602952418420579 0 0.039599591264631993 0.20632005975137321 0 -0.0016568719922026871 0.2009702443398711 0 0.013549127747612759 0.21602952418420579 0 0.01791102231314461 0.19737738856290471 0 -0.0016568719922026871 0.2009702443398711 0 -0.00022409353603266441 0.22794192581451611 0 0.013549127747612759 0.21602952418420579 0 -0.0016568719922026871 0.2009702443398711 0 0.0087352739987390793 0.17975240997245071 0 0.01791102231314461 0.19737738856290471 0 -0.0016568719922026871 0.2009702443398711 0 -0.0054011812225076708 0.18534100671761389 0 0.0087352739987390793 0.17975240997245071 0 0.029327990546941889 0.18381470456662291 0 0.01791102231314461 0.19737738856290471 0 0.039599591264631993 0.20632005975137321 0 0.029327990546941889 0.18381470456662291 0 0.046624266848346793 0.1858829101895049 0 0.039599591264631993 0.20632005975137321 0 0.046624266848346793 0.1858829101895049 0 0.05898585629018431 0.18266878518056859 0 0.065650054781651215 0.1966105953185405 0 0.039599591264631993 0.20632005975137321 0 0.065650054781651215 0.1966105953185405 0 0.046624266848346793 0.1858829101895049 0 0.039599591264631993 0.20632005975137321 0 0.065650054781651215 0.1966105953185405 0 0.039599591264631993 0.20632005975137321 0 0.065296136296669097 0.21518382948803569 0 0.065650054781651215 0.1966105953185405 0 0.039599591264631993 0.20632005975137321 0 0.05168788161907182 0.2270023089895857 0 0.065296136296669097 0.21518382948803569 0 0.039599591264631993 0.20632005975137321 0 0.034419932012919131 0.23287576080008879 0 0.05168788161907182 0.2270023089895857 0 0.05168788161907182 0.2270023089895857 0 0.068770506654405289 0.23379551070657811 0 0.065296136296669097 0.21518382948803569 0 0.05168788161907182 0.2270023089895857 0 0.052834710101556888 0.24979866557787231 0 0.068770506654405289 0.23379551070657811 0 0.034419932012919131 0.23287576080008879 0 0.05168788161907182 0.2270023089895857 0 0.052834710101556888 0.24979866557787231 0 0.034419932012919131 0.23287576080008879 0 0.052834710101556888 0.24979866557787231 0 0.029720614319208541 0.25580432796631258 0 0.0881919609430801 0.23853131264943281 0 0.073282428511230874 0.24964968076252789 0 0.088802191617374862 0.25605340422718847 0 0.052834710101556888 0.24979866557787231 0 0.073282428511230874 0.24964968076252789 0 0.068770506654405289 0.23379551070657811 0 0.0881919609430801 0.23853131264943281 0 0.073282428511230874 0.24964968076252789 0 0.068770506654405289 0.23379551070657811 0 0.068770506654405289 0.23379551070657811 0 0.081329922454823012 0.22260726677201459 0 0.065296136296669097 0.21518382948803569 0 0.0881919609430801 0.23853131264943281 0 0.081329922454823012 0.22260726677201459 0 0.10120080731870661 0.2228861683554047 0 0.0881919609430801 0.23853131264943281 0 0.068770506654405289 0.23379551070657811 0 0.081329922454823012 0.22260726677201459 0 0.081329922454823012 0.22260726677201459 0 0.083484877816895564 0.2048098978147489 0 0.10120080731870661 0.2228861683554047 0 0.083484877816895564 0.2048098978147489 0 0.065296136296669097 0.21518382948803569 0 0.065650054781651215 0.1966105953185405 0 0.081329922454823012 0.22260726677201459 0 0.083484877816895564 0.2048098978147489 0 0.065296136296669097 0.21518382948803569 0 0.065650054781651215 0.1966105953185405 0 0.073228281100056802 0.18488802035624891 0 0.091700518298670416 0.18690113088570781 0 0.05898585629018431 0.18266878518056859 0 0.065650054781651215 0.1966105953185405 0 0.073228281100056802 0.18488802035624891 0 0.065650054781651215 0.1966105953185405 0 0.091700518298670416 0.18690113088570781 0 0.083484877816895564 0.2048098978147489 0 0.1025347692543684 0.2023141448528713 0 0.091700518298670416 0.18690113088570781 0 0.083484877816895564 0.2048098978147489 0 0.065650054781651215 0.1966105953185405 0 0.091700518298670416 0.18690113088570781 0 0.1025347692543684 0.2023141448528713 0 0.091700518298670416 0.18690113088570781 0 0.1177509818156896 0.17719166645287521 0 0.1200220371616058 0.19573652800271529 0 0.1177509818156896 0.17719166645287521 0 0.1364155055957354 0.19266673635397941 0 0.1025347692543684 0.2023141448528713 0 0.1200220371616058 0.19573652800271529 0 0.1177509818156896 0.17719166645287521 0 0.1025347692543684 0.2023141448528713 0 0.1200220371616058 0.19573652800271529 0 0.12387454219424469 0.21480458646465231 0 0.1025347692543684 0.2023141448528713 0 0.12387454219424469 0.21480458646465231 0 0.083484877816895564 0.2048098978147489 0 0.1025347692543684 0.2023141448528713 0 0.10120080731870661 0.2228861683554047 0 0.1025347692543684 0.2023141448528713 0 0.12387454219424469 0.21480458646465231 0 0.10120080731870661 0.2228861683554047 0 0.10120080731870661 0.2228861683554047 0 0.1220688525743734 0.2327695730971403 0 0.1061789030124069 0.2432622937135818 0 0.12387454219424469 0.21480458646465231 0 0.10120080731870661 0.2228861683554047 0 0.1220688525743734 0.2327695730971403 0 0.1220688525743734 0.2327695730971403 0 0.1061789030124069 0.2432622937135818 0 0.13031494490476789 0.25030009388335078 0 0.0881919609430801 0.23853131264943281 0 0.10120080731870661 0.2228861683554047 0 0.1061789030124069 0.2432622937135818 0 0.0881919609430801 0.23853131264943281 0 0.1061789030124069 0.2432622937135818 0 0.088802191617374862 0.25605340422718847 0 0.082888494992992334 0.152439654046924 0 0.085084784417796572 0.13502074802294051 0 0.09799680801211616 0.13549596925234311 0 0.089905184585409748 0.1221616073525835 0 0.085084784417796572 0.13502074802294051 0 0.069548650080668059 0.1299857614399112 0 0.082888494992992334 0.152439654046924 0 0.085084784417796572 0.13502074802294051 0 0.069548650080668059 0.1299857614399112 0 0.089905184585409748 0.1221616073525835 0 0.085084784417796572 0.13502074802294051 0 0.09799680801211616 0.13549596925234311 0 0.060200505301461232 0.14728662183984539 0 0.082888494992992334 0.152439654046924 0 0.069548650080668059 0.1299857614399112 0 0.060200505301461232 0.14728662183984539 0 0.082888494992992334 0.152439654046924 0 0.061004297020274108 0.1637390026374628 0 0.060200505301461232 0.14728662183984539 0 0.082888494992992334 0.152439654046924 0 0.061004297020274108 0.1637390026374628 0 0.082888494992992334 0.152439654046924 0 0.076576695029721281 0.17337157004017861 0 0.05898585629018431 0.18266878518056859 0 0.076576695029721281 0.17337157004017861 0 0.073228281100056802 0.18488802035624891 0 0.05898585629018431 0.18266878518056859 0 0.061004297020274108 0.1637390026374628 0 0.076576695029721281 0.17337157004017861 0 0.076576695029721281 0.17337157004017861 0 0.073228281100056802 0.18488802035624891 0 0.091700518298670416 0.18690113088570781 0 0.076576695029721281 0.17337157004017861 0 0.091700518298670416 0.18690113088570781 0 0.088468087130287587 0.1703990119093319 0 0.082888494992992334 0.152439654046924 0 0.088468087130287587 0.1703990119093319 0 0.1027066401997663 0.16888369266451739 0 0.082888494992992334 0.152439654046924 0 0.076576695029721281 0.17337157004017861 0 0.088468087130287587 0.1703990119093319 0 0.1027066401997663 0.16888369266451739 0 0.10557648468452351 0.15759268625400261 0 0.1148435015413569 0.15293764786481259 0 0.1027066401997663 0.16888369266451739 0 0.1148435015413569 0.15293764786481259 0 0.082888494992992334 0.152439654046924 0 0.1027066401997663 0.16888369266451739 0 0.10557648468452351 0.15759268625400261 0 0.091700518298670416 0.18690113088570781 0 0.1177509818156896 0.17719166645287521 0 0.091700518298670416 0.18690113088570781 0 0.088468087130287587 0.1703990119093319 0 0.1027066401997663 0.16888369266451739 0 0.091700518298670416 0.18690113088570781 0 0.1027066401997663 0.16888369266451739 0 0.1177509818156896 0.17719166645287521 0 0.1177509818156896 0.17719166645287521 0 0.11501201501288651 0.16496048097220789 0 0.1282231585752876 0.15861068819309701 0 0.1027066401997663 0.16888369266451739 0 0.11501201501288651 0.16496048097220789 0 0.1148435015413569 0.15293764786481259 0 0.1027066401997663 0.16888369266451739 0 0.1177509818156896 0.17719166645287521 0 0.11501201501288651 0.16496048097220789 0 0.11501201501288651 0.16496048097220789 0 0.1148435015413569 0.15293764786481259 0 0.1282231585752876 0.15861068819309701 0 0.1148435015413569 0.15293764786481259 0 0.12502037983405781 0.1480261647290971 0 0.1282231585752876 0.15861068819309701 0 0.1164901235946051 0.14156181430883 0 0.1148435015413569 0.15293764786481259 0 0.12698036288294701 0.1369916030651073 0 0.1148435015413569 0.15293764786481259 0 0.12698036288294701 0.1369916030651073 0 0.12502037983405781 0.1480261647290971 0 0.1148435015413569 0.15293764786481259 0 0.12698036288294701 0.1369916030651073 0 0.1164901235946051 0.14156181430883 0 0.1148435015413569 0.15293764786481259 0 0.1046266060455936 0.14573568547394111 0 0.082888494992992334 0.152439654046924 0 0.10557648468452351 0.15759268625400261 0 0.10557648468452351 0.15759268625400261 0 0.1148435015413569 0.15293764786481259 0 0.1046266060455936 0.14573568547394111 0 0.082888494992992334 0.152439654046924 0 0.10557648468452351 0.15759268625400261 0 0.1046266060455936 0.14573568547394111 0 0.082888494992992334 0.152439654046924 0 0.1046266060455936 0.14573568547394111 0 0.09799680801211616 0.13549596925234311 0 0.089905184585409748 0.1221616073525835 0 0.09799680801211616 0.13549596925234311 0 0.1041410709460001 0.12716937046518489 0 0.1046266060455936 0.14573568547394111 0 0.09799680801211616 0.13549596925234311 0 0.10996422344796759 0.13438634111673439 0 0.09799680801211616 0.13549596925234311 0 0.1041410709460001 0.12716937046518489 0 0.10996422344796759 0.13438634111673439 0 0.1111259908926811 0.1192393239755556 0 0.1041410709460001 0.12716937046518489 0 0.10996422344796759 0.13438634111673439 0 0.1111259908926811 0.1192393239755556 0 0.1216401709375836 0.12439355965593769 0 0.12698036288294701 0.1369916030651073 0 0.1111259908926811 0.1192393239755556 0 0.11614017520455019 0.1330447706165569 0 0.10996422344796759 0.13438634111673439 0 0.1111259908926811 0.1192393239755556 0 0.12698036288294701 0.1369916030651073 0 0.1111259908926811 0.1192393239755556 0 0.11614017520455019 0.1330447706165569 0 0.12698036288294701 0.1369916030651073 0 0.1164901235946051 0.14156181430883 0 0.1046266060455936 0.14573568547394111 0 0.10996422344796759 0.13438634111673439 0 0.1164901235946051 0.14156181430883 0 0.11614017520455019 0.1330447706165569 0 0.10996422344796759 0.13438634111673439 0 0.1164901235946051 0.14156181430883 0 0.11614017520455019 0.1330447706165569 0 0.12698036288294701 0.1369916030651073 0 0.1216401709375836 0.12439355965593769 0 0.12905527488174429 0.12836845256237209 0 0.12698036288294701 0.1369916030651073 0 0.12905527488174429 0.12836845256237209 0 0.12698036288294701 0.1369916030651073 0 0.13872775740638019 0.12155726019191861 0 0.12698036288294701 0.1369916030651073 0 0.13353245044721901 0.1374763363790131 0 0.1368909929055255 0.13234702384679239 0 0.12698036288294701 0.1369916030651073 0 0.13116011559993851 0.1416717087673644 0 0.12698036288294701 0.1369916030651073 0 0.13353245044721901 0.1374763363790131 0 0.13116011559993851 0.1416717087673644 0 0.13353245044721901 0.1374763363790131 0 0.1405414004014108 0.1410139536082296 0 0.13116011559993851 0.1416717087673644 0 0.13353245044721901 0.1374763363790131 0 0.1368909929055255 0.13234702384679239 0 0.1405414004014108 0.1410139536082296 0 0.12698036288294701 0.1369916030651073 0 0.13872775740638019 0.12155726019191861 0 0.12698036288294701 0.1369916030651073 0 0.1368909929055255 0.13234702384679239 0 0.13872775740638019 0.12155726019191861 0 0.1368909929055255 0.13234702384679239 0 0.1496879439767958 0.13013929788962339 0 0.13872775740638019 0.12155726019191861 0 0.1496879439767958 0.13013929788962339 0 0.14781075651651099 0.146980326714863 0 0.1405414004014108 0.1410139536082296 0 0.1496879439767958 0.13013929788962339 0 0.14781075651651099 0.146980326714863 0 0.16739835445773441 0.13534996523662901 0 0.1368909929055255 0.13234702384679239 0 0.1496879439767958 0.13013929788962339 0 0.1405414004014108 0.1410139536082296 0 0.12502037983405781 0.1480261647290971 0 0.13116011559993851 0.1416717087673644 0 0.1282231585752876 0.15861068819309701 0 0.14781075651651099 0.146980326714863 0 0.1282231585752876 0.15861068819309701 0 0.1405414004014108 0.1410139536082296 0 0.13116011559993851 0.1416717087673644 0 0.1282231585752876 0.15861068819309701 0 0.14781075651651099 0.146980326714863 0 0.1405414004014108 0.1410139536082296 0 0.1282231585752876 0.15861068819309701 0 0.12698036288294701 0.1369916030651073 0 0.12502037983405781 0.1480261647290971 0 0.13116011559993851 0.1416717087673644 0 0.14781075651651099 0.146980326714863 0 0.1282231585752876 0.15861068819309701 0 0.14380144533270889 0.16748220202004249 0 0.1177509818156896 0.17719166645287521 0 0.1282231585752876 0.15861068819309701 0 0.14380144533270889 0.16748220202004249 0 0.1177509818156896 0.17719166645287521 0 0.14380144533270889 0.16748220202004249 0 0.1364155055957354 0.19266673635397941 0 0.1177509818156896 0.17719166645287521 0 0.14380144533270889 0.16748220202004249 0 0.14380144533270889 0.16748220202004249 0 0.1651995128374302 0.1782699985134828 0 0.15445212082840989 0.19187786861435019 0 0.14380144533270889 0.16748220202004249 0 0.1364155055957354 0.19266673635397941 0 0.15445212082840989 0.19187786861435019 0 0.14781075651651099 0.146980326714863 0 0.14380144533270889 0.16748220202004249 0 0.16985190884972809 0.1577727375872098 0 0.14380144533270889 0.16748220202004249 0 0.16985190884972809 0.1577727375872098 0 0.1651995128374302 0.1782699985134828 0 0.14380144533270889 0.16748220202004249 0 0.16985190884972809 0.1577727375872098 0 0.1651995128374302 0.1782699985134828 0 0.1850721076939828 0.1766764296230772 0 0.17281998148232119 0.1975407547227345 0 0.16985190884972809 0.1577727375872098 0 0.1850721076939828 0.1766764296230772 0 0.1880998796917947 0.16151451338078149 0 0.16985190884972809 0.1577727375872098 0 0.1651995128374302 0.1782699985134828 0 0.1850721076939828 0.1766764296230772 0 0.16985190884972809 0.1577727375872098 0 0.19590237236674729 0.1480632731543772 0 0.16985190884972809 0.1577727375872098 0 0.19590237236674729 0.1480632731543772 0 0.1880998796917947 0.16151451338078149 0 0.16985190884972809 0.1577727375872098 0 0.18003464701829189 0.14122639493415279 0 0.19590237236674729 0.1480632731543772 0 0.16985190884972809 0.1577727375872098 0 0.18003464701829189 0.14122639493415279 0 0.16739835445773441 0.13534996523662901 0 0.16739835445773441 0.13534996523662901 0 0.1869859523989576 0.1237196037583949 0 0.18003464701829189 0.14122639493415279 0 0.16739835445773441 0.13534996523662901 0 0.1869859523989576 0.1237196037583949 0 0.16739835445773441 0.13534996523662901 0 0.17628586543944791 0.12089648966018229 0 0.1869859523989576 0.1237196037583949 0 0.1496879439767958 0.13013929788962339 0 0.16739835445773441 0.13534996523662901 0 0.1664666864147436 0.1157930048278925 0 0.14781075651651099 0.146980326714863 0 0.16739835445773441 0.13534996523662901 0 0.14781075651651099 0.146980326714863 0 0.16985190884972809 0.1577727375872098 0 0.16739835445773441 0.13534996523662901 0 0.14521431513412089 0.22729502807643329 0 0.1489771954588234 0.25126435036168582 0 0.13031494490476789 0.25030009388335078 0 0.14521431513412089 0.22729502807643329 0 0.16655408807399719 0.23978546968821421 0 0.1489771954588234 0.25126435036168582 0 0.1220688525743734 0.2327695730971403 0 0.14521431513412089 0.22729502807643329 0 0.13031494490476789 0.25030009388335078 0 0.12387454219424469 0.21480458646465231 0 0.1220688525743734 0.2327695730971403 0 0.14521431513412089 0.22729502807643329 0 0.12387454219424469 0.21480458646465231 0 0.14521431513412089 0.22729502807643329 0 0.14521431513412089 0.22729502807643329 0 0.16655408807399719 0.23978546968821421 0 0.12387454219424469 0.21480458646465231 0 0.14521431513412089 0.22729502807643329 0 0.1527907392017582 0.20765701698626329 0 0.12387454219424469 0.21480458646465231 0 0.1527907392017582 0.20765701698626329 0 0.1364155055957354 0.19266673635397941 0 0.1200220371616058 0.19573652800271529 0 0.12387454219424469 0.21480458646465231 0 0.1364155055957354 0.19266673635397941 0 0.1527907392017582 0.20765701698626329 0 0.1364155055957354 0.19266673635397941 0 0.15445212082840989 0.19187786861435019 0 0.1651995128374302 0.1782699985134828 0 0.15445212082840989 0.19187786861435019 0 0.17281998148232119 0.1975407547227345 0 0.1527907392017582 0.20765701698626329 0 0.15445212082840989 0.19187786861435019 0 0.17281998148232119 0.1975407547227345 0 0.1850721076939828 0.1766764296230772 0 0.17281998148232119 0.1975407547227345 0 0.1975995415010259 0.19357062919756801 0 0.17281998148232119 0.1975407547227345 0 0.17120038256269521 0.21878649800035099 0 0.19614720701294219 0.21509984345315369 0 0.14521431513412089 0.22729502807643329 0 0.1527907392017582 0.20765701698626329 0 0.17120038256269521 0.21878649800035099 0 0.1527907392017582 0.20765701698626329 0 0.17281998148232119 0.1975407547227345 0 0.17120038256269521 0.21878649800035099 0 0.14521431513412089 0.22729502807643329 0 0.17120038256269521 0.21878649800035099 0 0.16655408807399719 0.23978546968821421 0 0.17120038256269521 0.21878649800035099 0 0.18535214175287029 0.22964045367288091 0 0.19614720701294219 0.21509984345315369 0 0.17120038256269521 0.21878649800035099 0 0.18535214175287029 0.22964045367288091 0 0.16655408807399719 0.23978546968821421 0 0.16655408807399719 0.23978546968821421 0 0.18789386101387501 0.25227591129999283 0 0.18535214175287029 0.22964045367288091 0 0.16655408807399719 0.23978546968821421 0 0.1896584537775701 0.24050421126634861 0 0.16655408807399719 0.23978546968821421 0 0.1896584537775701 0.24050421126634861 0 0.18789386101387501 0.25227591129999283 0 0.21333945866335119 0.23972475408501909 0 0.20306155191186681 0.24492252111671359 0 0.21908793363626539 0.25099558894759982 0 0.21333945866335119 0.23972475408501909 0 0.20306155191186681 0.24492252111671359 0 0.20008194780478231 0.23268059113881551 0 0.20306155191186681 0.24492252111671359 0 0.18789386101387501 0.25227591129999283 0 0.20306155191186681 0.24492252111671359 0 0.1896584537775701 0.24050421126634861 0 0.18789386101387501 0.25227591129999283 0 0.20306155191186681 0.24492252111671359 0 0.1896584537775701 0.24050421126634861 0 0.20008194780478231 0.23268059113881551 0 0.18535214175287029 0.22964045367288091 0 0.20008194780478231 0.23268059113881551 0 0.19614720701294219 0.21509984345315369 0 0.20008194780478231 0.23268059113881551 0 0.21137842487152761 0.22710094096167949 0 0.19614720701294219 0.21509984345315369 0 0.18535214175287029 0.22964045367288091 0 0.1896584537775701 0.24050421126634861 0 0.20008194780478231 0.23268059113881551 0 0.21137842487152761 0.22710094096167949 0 0.21648177800647031 0.2152993786927814 0 0.19614720701294219 0.21509984345315369 0 0.21333945866335119 0.23972475408501909 0 0.20008194780478231 0.23268059113881551 0 0.21137842487152761 0.22710094096167949 0 0.21648177800647031 0.2152993786927814 0 0.19614720701294219 0.21509984345315369 0 0.21187130924575531 0.20274913017925841 0 0.19614720701294219 0.21509984345315369 0 0.1975995415010259 0.19357062919756801 0 0.21187130924575531 0.20274913017925841 0 0.17281998148232119 0.1975407547227345 0 0.19614720701294219 0.21509984345315369 0 0.1975995415010259 0.19357062919756801 0 0.1975995415010259 0.19357062919756801 0 0.21187130924575531 0.20274913017925841 0 0.2135677911027295 0.18879453277570871 0 0.21187130924575531 0.20274913017925841 0 0.2135677911027295 0.18879453277570871 0 0.22585544112562991 0.19509769648058309 0 0.21187130924575531 0.20274913017925841 0 0.22585544112562991 0.19509769648058309 0 0.22861204580531341 0.21103584866064229 0 0.22585544112562991 0.19509769648058309 0 0.23829354872295239 0.19747545425212359 0 0.22861204580531341 0.21103584866064229 0 0.2135677911027295 0.18879453277570871 0 0.22585544112562991 0.19509769648058309 0 0.22631403747709011 0.18192960454196869 0 0.22585544112562991 0.19509769648058309 0 0.22631403747709011 0.18192960454196869 0 0.23592116792149451 0.18646134224702671 0 0.22585544112562991 0.19509769648058309 0 0.23829354872295239 0.19747545425212359 0 0.23592116792149451 0.18646134224702671 0 0.2479267836454804 0.18853790808704729 0 0.24446556628995289 0.20951871422480439 0 0.2546123745411078 0.20102907767462311 0 0.2479267836454804 0.18853790808704729 0 0.23829354872295239 0.19747545425212359 0 0.24446556628995289 0.20951871422480439 0 0.2479267836454804 0.18853790808704729 0 0.24446556628995289 0.20951871422480439 0 0.2479267836454804 0.18853790808704729 0 0.23829354872295239 0.19747545425212359 0 0.23592116792149451 0.18646134224702671 0 0.23829354872295239 0.19747545425212359 0 0.24379451425300089 0.21789940802104771 0 0.23829354872295239 0.19747545425212359 0 0.24379451425300089 0.21789940802104771 0 0.22861204580531341 0.21103584866064229 0 0.23829354872295239 0.19747545425212359 0 0.24446556628995289 0.20951871422480439 0 0.24379451425300089 0.21789940802104771 0 0.24446556628995289 0.20951871422480439 0 0.2509697907780245 0.2154724319508407 0 0.25382484201740502 0.20971433286650901 0 0.24446556628995289 0.20951871422480439 0 0.24379451425300089 0.21789940802104771 0 0.2509697907780245 0.2154724319508407 0 0.24379451425300089 0.21789940802104771 0 0.22861204580531341 0.21103584866064229 0 0.22962867875802381 0.22582500169057099 0 0.21648177800647031 0.2152993786927814 0 0.21187130924575531 0.20274913017925841 0 0.22861204580531341 0.21103584866064229 0 0.21648177800647031 0.2152993786927814 0 0.22861204580531341 0.21103584866064229 0 0.22962867875802381 0.22582500169057099 0 0.22962867875802381 0.22582500169057099 0 0.23895152697159699 0.23124297494046939 0 0.23308743509231389 0.24292412826028709 0 0.21137842487152761 0.22710094096167949 0 0.21648177800647031 0.2152993786927814 0 0.22962867875802381 0.22582500169057099 0 0.21137842487152761 0.22710094096167949 0 0.22962867875802381 0.22582500169057099 0 0.23308743509231389 0.24292412826028709 0 0.24379451425300089 0.21789940802104771 0 0.24929547978304939 0.2383233617899719 0 0.25417444182490823 0.22520000528801451 0 0.24379451425300089 0.21789940802104771 0 0.23895152697159699 0.23124297494046939 0 0.24929547978304939 0.2383233617899719 0 0.24379451425300089 0.21789940802104771 0 0.24929547978304939 0.2383233617899719 0 0.24379451425300089 0.21789940802104771 0 0.22962867875802381 0.22582500169057099 0 0.23895152697159699 0.23124297494046939 0 0.24379451425300089 0.21789940802104771 0 0.25417444182490823 0.22520000528801451 0 0.2509697907780245 0.2154724319508407 0 0.23895152697159699 0.23124297494046939 0 0.24929547978304939 0.2383233617899719 0 0.23308743509231389 0.24292412826028709 0 0.24929547978304939 0.2383233617899719 0 0.23308743509231389 0.24292412826028709 0 0.25479644531309942 0.25874731555889569 0 0.21333945866335119 0.23972475408501909 0 0.21137842487152761 0.22710094096167949 0 0.23308743509231389 0.24292412826028709 0 0.21137842487152761 0.22710094096167949 0 0.23308743509231389 0.24292412826028709 0 0.21333945866335119 0.23972475408501909 0 0.23308743509231389 0.24292412826028709 0 0.21908793363626539 0.25099558894759982 0 0.20712103688461389 0.14388188021874121 0 0.20452236423473599 0.15294622757781839 0 0.21349291783086211 0.15629414377969331 0 0.20712103688461389 0.14388188021874121 0 0.21349291783086211 0.15629414377969331 0 0.22177695637273631 0.1445272735051259 0 0.213748375161457 0.1319407166572705 0 0.20206279758515169 0.13177972623036999 0 0.20551205288289581 0.1127195185995697 0 0.20712103688461389 0.14388188021874121 0 0.213748375161457 0.1319407166572705 0 0.22177695637273631 0.1445272735051259 0 0.20712103688461389 0.14388188021874121 0 0.213748375161457 0.1319407166572705 0 0.20206279758515169 0.13177972623036999 0 0.20206279758515169 0.13177972623036999 0 0.19590237236674729 0.1480632731543772 0 0.1869859523989576 0.1237196037583949 0 0.19590237236674729 0.1480632731543772 0 0.1869859523989576 0.1237196037583949 0 0.18003464701829189 0.14122639493415279 0 0.19590237236674729 0.1480632731543772 0 0.1869859523989576 0.1237196037583949 0 0.20712103688461389 0.14388188021874121 0 0.20206279758515169 0.13177972623036999 0 0.19590237236674729 0.1480632731543772 0 0.20712103688461389 0.14388188021874121 0 0.20452236423473599 0.15294622757781839 0 0.19590237236674729 0.1480632731543772 0 0.20712103688461389 0.14388188021874121 0 0.19590237236674729 0.1480632731543772 0 0.19590237236674729 0.1480632731543772 0 0.2015731298567208 0.16354561315846189 0 0.20452236423473599 0.15294622757781839 0 0.19590237236674729 0.1480632731543772 0 0.2015731298567208 0.16354561315846189 0 0.1850721076939828 0.1766764296230772 0 0.1880998796917947 0.16151451338078149 0 0.2015731298567208 0.16354561315846189 0 0.19590237236674729 0.1480632731543772 0 0.1880998796917947 0.16151451338078149 0 0.2015731298567208 0.16354561315846189 0 0.1850721076939828 0.1766764296230772 0 0.1975995415010259 0.19357062919756801 0 0.20724388734669069 0.17902795316254791 0 0.1850721076939828 0.1766764296230772 0 0.2015731298567208 0.16354561315846189 0 0.20724388734669069 0.17902795316254791 0 0.2135677911027295 0.18879453277570871 0 0.20724388734669069 0.17902795316254791 0 0.21900273081899699 0.17154982698330359 0 0.1975995415010259 0.19357062919756801 0 0.2135677911027295 0.18879453277570871 0 0.20724388734669069 0.17902795316254791 0 0.2015731298567208 0.16354561315846189 0 0.20724388734669069 0.17902795316254791 0 0.21900273081899699 0.17154982698330359 0 0.2015731298567208 0.16354561315846189 0 0.21349291783086211 0.15629414377969331 0 0.21900273081899699 0.17154982698330359 0 0.20452236423473599 0.15294622757781839 0 0.2015731298567208 0.16354561315846189 0 0.21349291783086211 0.15629414377969331 0 0.2015731298567208 0.16354561315846189 0 0.20724388734669069 0.17902795316254791 0 0.21349291783086211 0.15629414377969331 0 0.2265200856968794 0.1583149967680812 0 0.21900273081899699 0.17154982698330359 0 0.2265200856968794 0.1583149967680812 0 0.21900273081899699 0.17154982698330359 0 0.2348812429127492 0.17239961992041941 0 0.2265200856968794 0.1583149967680812 0 0.2348812429127492 0.17239961992041941 0 0.2370958938282951 0.1524465588662183 0 0.2135677911027295 0.18879453277570871 0 0.21900273081899699 0.17154982698330359 0 0.22631403747709011 0.18192960454196869 0 0.21900273081899699 0.17154982698330359 0 0.22631403747709011 0.18192960454196869 0 0.2348812429127492 0.17239961992041941 0 0.22631403747709011 0.18192960454196869 0 0.23592116792149451 0.18646134224702671 0 0.2348812429127492 0.17239961992041941 0 0.2479267836454804 0.18853790808704729 0 0.25138800100100789 0.1675571019492901 0 0.2479267836454804 0.18853790808704729 0 0.23592116792149451 0.18646134224702671 0 0.2348812429127492 0.17239961992041941 0 0.2479267836454804 0.18853790808704729 0 0.2348812429127492 0.17239961992041941 0 0.25138800100100789 0.1675571019492901 0 0.2348812429127492 0.17239961992041941 0 0.2370958938282951 0.1524465588662183 0 0.25138800100100789 0.1675571019492901 0 0.2370958938282951 0.1524465588662183 0 0.25484921835653429 0.14657629581153281 0 0.25138800100100789 0.1675571019492901 0 0.2370958938282951 0.1524465588662183 0 0.23018063561971441 0.12964790720555219 0 0.25484921835653429 0.14657629581153281 0 0.2265200856968794 0.1583149967680812 0 0.2370958938282951 0.1524465588662183 0 0.22177695637273631 0.1445272735051259 0 0.2370958938282951 0.1524465588662183 0 0.22177695637273631 0.1445272735051259 0 0.23018063561971441 0.12964790720555219 0 0.21349291783086211 0.15629414377969331 0 0.2265200856968794 0.1583149967680812 0 0.22177695637273631 0.1445272735051259 0 0.213748375161457 0.1319407166572705 0 0.22177695637273631 0.1445272735051259 0 0.23018063561971441 0.12964790720555219 0 0.23018063561971441 0.12964790720555219 0 0.24498662208429181 0.13092789129870561 0 0.23713901404643389 0.1186621138914548 0 0.24498662208429181 0.13092789129870561 0 0.23713901404643389 0.1186621138914548 0 0.25777762031448642 0.12882524828628061 0 0.23018063561971441 0.12964790720555219 0 0.24498662208429181 0.13092789129870561 0 0.25484921835653429 0.14657629581153281 0 0.23018063561971441 0.12964790720555219 0 0.25484921835653429 0.14657629581153281 0 0.24964033317715059 0.1130154559540677 0 0.23713901404643389 0.1186621138914548 0 0.25777762031448642 0.12882524828628061 0 0.24964033317715059 0.1130154559540677 0 0.23713901404643389 0.1186621138914548 0 0.24611891882383971 0.1006270183858942 0 0.23713901404643389 0.1186621138914548 0 0.25777762031448642 0.12882524828628061 0 0.23713901404643389 0.1186621138914548 0 0.24611891882383971 0.1006270183858942 0 0.23046866470915869 0.095389661386913641 0 0.24611891882383971 0.1006270183858942 0 0.23046866470915869 0.095389661386913641 0 0.245688018213612 0.086793125358372858 0 0.23713901404643389 0.1186621138914548 0 0.23046866470915869 0.095389661386913641 0 0.21650040777838109 0.1084989794966295 0 0.23046866470915869 0.095389661386913641 0 0.21650040777838109 0.1084989794966295 0 0.2137478828602177 0.095578024946511575 0 0.23713901404643389 0.1186621138914548 0 0.21650040777838109 0.1084989794966295 0 0.23018063561971441 0.12964790720555219 0 0.22224534712845609 0.1170311206441457 0 0.20551205288289581 0.1127195185995697 0 0.23713901404643389 0.1186621138914548 0 0.22224534712845609 0.1170311206441457 0 0.21650040777838109 0.1084989794966295 0 0.23018063561971441 0.12964790720555219 0 0.23713901404643389 0.1186621138914548 0 0.22224534712845609 0.1170311206441457 0 0.213748375161457 0.1319407166572705 0 0.23018063561971441 0.12964790720555219 0 0.20551205288289581 0.1127195185995697 0 0.22224534712845609 0.1170311206441457 0 0.20551205288289581 0.1127195185995697 0 0.21118388594740151 0.1093518025078702 0 0.23018063561971441 0.12964790720555219 0 0.20551205288289581 0.1127195185995697 0 0.20551205288289581 0.1127195185995697 0 0.21118388594740151 0.1093518025078702 0 0.22224534712845609 0.1170311206441457 0 0.21650040777838109 0.1084989794966295 0 0.21118388594740151 0.1093518025078702 0 0.21650040777838109 0.1084989794966295 0 0.2137478828602177 0.095578024946511575 0 0.1958618015103282 0.098335845101804847 0 0.21650040777838109 0.1084989794966295 0 0.1958618015103282 0.098335845101804847 0 0.2137478828602177 0.095578024946511575 0 0.1958618015103282 0.098335845101804847 0 0.2054123054841249 0.088598685448378511 0 0.21650040777838109 0.1084989794966295 0 0.21118388594740151 0.1093518025078702 0 0.1958618015103282 0.098335845101804847 0 0.20551205288289581 0.1127195185995697 0 0.21118388594740151 0.1093518025078702 0 0.1958618015103282 0.098335845101804847 0 0.20551205288289581 0.1127195185995697 0 0.1958618015103282 0.098335845101804847 0 0.19131175995307481 0.1029748129713821 0 0.20551205288289581 0.1127195185995697 0 0.19131175995307481 0.1029748129713821 0 0.182628221274903 0.11182806330225931 0 0.20551205288289581 0.1127195185995697 0 0.19131175995307481 0.1029748129713821 0 0.1958618015103282 0.098335845101804847 0 0.19328483401984431 0.09706686082075866 0 0.2054123054841249 0.088598685448378511 0 0.1958618015103282 0.098335845101804847 0 0.19131175995307481 0.1029748129713821 0 0.1958618015103282 0.098335845101804847 0 0.19328483401984431 0.09706686082075866 0 0.19131175995307481 0.1029748129713821 0 0.1958618015103282 0.098335845101804847 0 0.19328483401984431 0.09706686082075866 0 0.19328483401984431 0.09706686082075866 0 0.18803964952670299 0.10072938373654571 0 0.19328483401984431 0.09706686082075866 0 0.18803964952670299 0.10072938373654571 0 0.19131175995307481 0.1029748129713821 0 0.18803964952670299 0.10072938373654571 0 0.19131175995307481 0.1029748129713821 0 0.20551205288289581 0.1127195185995697 0 0.182628221274903 0.11182806330225931 0 0.1869859523989576 0.1237196037583949 0 0.20206279758515169 0.13177972623036999 0 0.20551205288289581 0.1127195185995697 0 0.1869859523989576 0.1237196037583949 0 0.20551205288289581 0.1127195185995697 0 0.1869859523989576 0.1237196037583949 0 0.1983447976511086 0.077030807134474508 0 0.19635251568706061 0.065898424142551149 0 0.20650280679796679 0.068109608673056363 0 0.19635251568706061 0.065898424142551149 0 0.20650280679796679 0.068109608673056363 0 0.2030130137595352 0.060285639163796492 0 0.19635251568706061 0.065898424142551149 0 0.1858741983741303 0.061894615702290552 0 0.18647402101605079 0.07279598704852859 0 0.1983447976511086 0.077030807134474508 0 0.19635251568706061 0.065898424142551149 0 0.18647402101605079 0.07279598704852859 0 0.19328483401984431 0.09706686082075866 0 0.18840064917572899 0.085053792795005079 0 0.2054123054841249 0.088598685448378511 0 0.1983447976511086 0.077030807134474508 0 0.18840064917572899 0.085053792795005079 0 0.2054123054841249 0.088598685448378511 0 0.1983447976511086 0.077030807134474508 0 0.18840064917572899 0.085053792795005079 0 0.18647402101605079 0.07279598704852859 0 0.19328483401984431 0.09706686082075866 0 0.2054123054841249 0.088598685448378511 0 0.1958618015103282 0.098335845101804847 0 0.2054123054841249 0.088598685448378511 0 0.1983447976511086 0.077030807134474508 0 0.2054123054841249 0.088598685448378511 0 0.20945953196571979 0.074853419710979738 0 0.2054123054841249 0.088598685448378511 0 0.22244317632261429 0.071234962146838138 0 0.2054123054841249 0.088598685448378511 0 0.20945953196571979 0.074853419710979738 0 0.22244317632261429 0.071234962146838138 0 0.2054123054841249 0.088598685448378511 0 0.22713021576988829 0.073433852979943176 0 0.2054123054841249 0.088598685448378511 0 0.22713021576988829 0.073433852979943176 0 0.22049623481909569 0.08706695329883142 0 0.2137478828602177 0.095578024946511575 0 0.2054123054841249 0.088598685448378511 0 0.22049623481909569 0.08706695329883142 0 0.2054123054841249 0.088598685448378511 0 0.22244317632261429 0.071234962146838138 0 0.22713021576988829 0.073433852979943176 0 0.20945953196571979 0.074853419710979738 0 0.21459457357278461 0.069293035152151267 0 0.22244317632261429 0.071234962146838138 0 0.20945953196571979 0.074853419710979738 0 0.20650280679796679 0.068109608673056363 0 0.21459457357278461 0.069293035152151267 0 0.1983447976511086 0.077030807134474508 0 0.20945953196571979 0.074853419710979738 0 0.20650280679796679 0.068109608673056363 0 0.20650280679796679 0.068109608673056363 0 0.2095542920518528 0.058754048578273647 0 0.21591186866622619 0.062498316448832081 0 0.20650280679796679 0.068109608673056363 0 0.21459457357278461 0.069293035152151267 0 0.21591186866622619 0.062498316448832081 0 0.21459457357278461 0.069293035152151267 0 0.2188376408916432 0.066376259759123826 0 0.22244317632261429 0.071234962146838138 0 0.21459457357278461 0.069293035152151267 0 0.2188376408916432 0.066376259759123826 0 0.21591186866622619 0.062498316448832081 0 0.22244317632261429 0.071234962146838138 0 0.22240094500494759 0.062478725288673848 0 0.22836164230408609 0.057259090095424563 0 0.22244317632261429 0.071234962146838138 0 0.2394740471611039 0.053871238845297917 0 0.22244317632261429 0.071234962146838138 0 0.22713021576988829 0.073433852979943176 0 0.2394740471611039 0.053871238845297917 0 0.2188376408916432 0.066376259759123826 0 0.22240094500494759 0.062478725288673848 0 0.21591186866622619 0.062498316448832081 0 0.2188376408916432 0.066376259759123826 0 0.22244317632261429 0.071234962146838138 0 0.22240094500494759 0.062478725288673848 0 0.22713021576988829 0.073433852979943176 0 0.23271294946509419 0.077617518384936648 0 0.239428424907323 0.072424612357718979 0 0.22713021576988829 0.073433852979943176 0 0.23271294946509419 0.077617518384936648 0 0.22840880933807611 0.08270382320129388 0 0.23046866470915869 0.095389661386913641 0 0.2137478828602177 0.095578024946511575 0 0.22049623481909569 0.08706695329883142 0 0.23046866470915869 0.095389661386913641 0 0.22049623481909569 0.08706695329883142 0 0.22840880933807611 0.08270382320129388 0 0.22713021576988829 0.073433852979943176 0 0.22049623481909569 0.08706695329883142 0 0.22840880933807611 0.08270382320129388 0 0.23271294946509419 0.077617518384936648 0 0.22840880933807611 0.08270382320129388 0 0.23588434784508949 0.081907785000790587 0 0.23046866470915869 0.095389661386913641 0 0.22840880933807611 0.08270382320129388 0 0.23588434784508949 0.081907785000790587 0 0.23046866470915869 0.095389661386913641 0 0.23588434784508949 0.081907785000790587 0 0.245688018213612 0.086793125358372858 0 0.245688018213612 0.086793125358372858 0 0.24510103268691749 0.076001689946383469 0 0.25716355122997991 0.087651813314684204 0 0.23588434784508949 0.081907785000790587 0 0.245688018213612 0.086793125358372858 0 0.24510103268691749 0.076001689946383469 0 0.24611891882383971 0.1006270183858942 0 0.245688018213612 0.086793125358372858 0 0.25716355122997991 0.087651813314684204 0 0.22713021576988829 0.073433852979943176 0 0.239428424907323 0.072424612357718979 0 0.24884812605565171 0.05826902051150757 0 0.22713021576988829 0.073433852979943176 0 0.24884812605565171 0.05826902051150757 0 0.23588434784508949 0.081907785000790587 0 0.239428424907323 0.072424612357718979 0 0.24510103268691749 0.076001689946383469 0 0.23271294946509419 0.077617518384936648 0 0.23588434784508949 0.081907785000790587 0 0.239428424907323 0.072424612357718979 0 0.239428424907323 0.072424612357718979 0 0.24510103268691749 0.076001689946383469 0 0.24800882400270011 0.067846839465396949 0 0.239428424907323 0.072424612357718979 0 0.24800882400270011 0.067846839465396949 0 0.24884812605565171 0.05826902051150757 0 0.22713021576988829 0.073433852979943176 0 0.24884812605565171 0.05826902051150757 0 0.2394740471611039 0.053871238845297917 0 0.24884812605565171 0.05826902051150757 0 0.2394740471611039 0.053871238845297917 0 0.25571699748515131 0.049496503273623808 0 0.2394740471611039 0.053871238845297917 0 0.23858613083145649 0.033828835169312357 0 0.25650491799959352 0.036507515543757703 0 0.2394740471611039 0.053871238845297917 0 0.23858613083145649 0.033828835169312357 0 0.22832001327310161 0.04577342165456328 0 0.2394740471611039 0.053871238845297917 0 0.25650491799959352 0.036507515543757703 0 0.23858613083145649 0.033828835169312357 0 0.2488208660698156 0.024893742846385462 0 0.25650491799959352 0.036507515543757703 0 0.22832001327310161 0.04577342165456328 0 0.2202372500959969 0.026900740978776871 0 0.21726204871869739 0.050306833801823637 0 0.23858613083145649 0.033828835169312357 0 0.22832001327310161 0.04577342165456328 0 0.2202372500959969 0.026900740978776871 0 0.22244317632261429 0.071234962146838138 0 0.2394740471611039 0.053871238845297917 0 0.22836164230408609 0.057259090095424563 0 0.22832001327310161 0.04577342165456328 0 0.22279676396246251 0.056055171789660463 0 0.21726204871869739 0.050306833801823637 0 0.22832001327310161 0.04577342165456328 0 0.22279676396246251 0.056055171789660463 0 0.22836164230408609 0.057259090095424563 0 0.22240094500494759 0.062478725288673848 0 0.22279676396246251 0.056055171789660463 0 0.21591186866622619 0.062498316448832081 0 0.22240094500494759 0.062478725288673848 0 0.22279676396246251 0.056055171789660463 0 0.22836164230408609 0.057259090095424563 0 0.2394740471611039 0.053871238845297917 0 0.22832001327310161 0.04577342165456328 0 0.22836164230408609 0.057259090095424563 0 0.23539277787515489 0.001231637153694301 0 0.24619606834605909 0.0052377862522218566 0 0.24052622350298081 0.017649298995576369 0 0.23539277787515489 0.001231637153694301 0 0.24619606834605909 0.0052377862522218566 0 0.24772306794153229 -0.0049010006205228709 0 0.24619606834605909 0.0052377862522218566 0 0.25539330519756809 0.0004604523674139167 0 0.24772306794153229 -0.0049010006205228709 0 0.24619606834605909 0.0052377862522218566 0 0.24052622350298081 0.017649298995576369 0 0.25392424779940193 0.013803051573067391 0 0.23858613083145649 0.033828835169312357 0 0.24052622350298081 0.017649298995576369 0 0.2488208660698156 0.024893742846385462 0 0.24052622350298081 0.017649298995576369 0 0.2488208660698156 0.024893742846385462 0 0.25392424779940193 0.013803051573067391 0 0.23858613083145649 0.033828835169312357 0 0.24052622350298081 0.017649298995576369 0 0.2202372500959969 0.026900740978776871 0 0.23539277787515489 0.001231637153694301 0 0.2202372500959969 0.026900740978776871 0 0.23539277787515489 0.001231637153694301 0 0.2202372500959969 0.026900740978776871 0 0.21545221830689651 -0.0031844272832586029 0 0.23539277787515489 0.001231637153694301 0 0.24052622350298081 0.017649298995576369 0 0.2202372500959969 0.026900740978776871 0 0.2202372500959969 0.026900740978776871 0 0.19712068339584549 0.017427854422274 0 0.21545221830689651 -0.0031844272832586029 0 0.2202372500959969 0.026900740978776871 0 0.19712068339584549 0.017427854422274 0 0.1971372193597031 0.038555584395646131 0 0.19712068339584549 0.017427854422274 0 0.1971372193597031 0.038555584395646131 0 0.17965795960961761 0.035069856495963711 0 0.19712068339584549 0.017427854422274 0 0.17844363024109161 0.009640382599961363 0 0.19317581678127099 -0.00216777134334645 0 0.19712068339584549 0.017427854422274 0 0.21545221830689651 -0.0031844272832586029 0 0.19317581678127099 -0.00216777134334645 0 0.2050817223168386 0.052569844803859678 0 0.2095542920518528 0.058754048578273647 0 0.21726204871869739 0.050306833801823637 0 0.2050817223168386 0.052569844803859678 0 0.2095542920518528 0.058754048578273647 0 0.2030130137595352 0.060285639163796492 0 0.20650280679796679 0.068109608673056363 0 0.2095542920518528 0.058754048578273647 0 0.2030130137595352 0.060285639163796492 0 0.2095542920518528 0.058754048578273647 0 0.21591186866622619 0.062498316448832081 0 0.21726204871869739 0.050306833801823637 0 0.22279676396246251 0.056055171789660463 0 0.21591186866622619 0.062498316448832081 0 0.21726204871869739 0.050306833801823637 0 0.2202372500959969 0.026900740978776871 0 0.2050817223168386 0.052569844803859678 0 0.1971372193597031 0.038555584395646131 0 0.2202372500959969 0.026900740978776871 0 0.2050817223168386 0.052569844803859678 0 0.2202372500959969 0.026900740978776871 0 0.2050817223168386 0.052569844803859678 0 0.21726204871869739 0.050306833801823637 0 0.1972375985669205 0.05531456908388406 0 0.17965795960961761 0.035069856495963711 0 0.1971372193597031 0.038555584395646131 0 0.1972375985669205 0.05531456908388406 0 0.17965795960961761 0.035069856495963711 0 0.2050817223168386 0.052569844803859678 0 0.1971372193597031 0.038555584395646131 0 0.1972375985669205 0.05531456908388406 0 0.2050817223168386 0.052569844803859678 0 0.1972375985669205 0.05531456908388406 0 0.2030130137595352 0.060285639163796492 0 0.19635251568706061 0.065898424142551149 0 0.1972375985669205 0.05531456908388406 0 0.2030130137595352 0.060285639163796492 0 0.19635251568706061 0.065898424142551149 0 0.1972375985669205 0.05531456908388406 0 0.1858741983741303 0.061894615702290552 0 0.1972375985669205 0.05531456908388406 0 0.1766716913351343 0.053118347966779382 0 0.17965795960961761 0.035069856495963711 0 0.1972375985669205 0.05531456908388406 0 0.1858741983741303 0.061894615702290552 0 0.1766716913351343 0.053118347966779382 0 0.1858741983741303 0.061894615702290552 0 0.1766716913351343 0.053118347966779382 0 0.16973691186386031 0.06715359219985291 0 0.1766716913351343 0.053118347966779382 0 0.17965795960961761 0.035069856495963711 0 0.16670964012300271 0.043499824226836209 0 0.17965795960961761 0.035069856495963711 0 0.16670964012300271 0.043499824226836209 0 0.1588856381250002 0.03032928241865045 0 0.16670964012300271 0.043499824226836209 0 0.1588856381250002 0.03032928241865045 0 0.15206508672997629 0.041003724997575493 0 0.16670964012300271 0.043499824226836209 0 0.1579899935638317 0.055107731263230778 0 0.15206508672997629 0.041003724997575493 0 0.1766716913351343 0.053118347966779382 0 0.1579899935638317 0.055107731263230778 0 0.16973691186386031 0.06715359219985291 0 0.1579899935638317 0.055107731263230778 0 0.14933678298690881 0.063106902897618014 0 0.16973691186386031 0.06715359219985291 0 0.1766716913351343 0.053118347966779382 0 0.16670964012300271 0.043499824226836209 0 0.1579899935638317 0.055107731263230778 0 0.17844363024109161 0.009640382599961363 0 0.1758171007110983 -0.0072782848513643569 0 0.1628119002964023 -3.4503031802248997e-05 0 0.17844363024109161 0.009640382599961363 0 0.1758171007110983 -0.0072782848513643569 0 0.19317581678127099 -0.00216777134334645 0 0.19712068339584549 0.017427854422274 0 0.17965795960961761 0.035069856495963711 0 0.17844363024109161 0.009640382599961363 0 0.17965795960961761 0.035069856495963711 0 0.17844363024109161 0.009640382599961363 0 0.16207832065231481 0.01482514390804352 0 0.17965795960961761 0.035069856495963711 0 0.16207832065231481 0.01482514390804352 0 0.17965795960961761 0.035069856495963711 0 0.1588856381250002 0.03032928241865045 0 0.16207832065231481 0.01482514390804352 0 0.16207832065231481 0.01482514390804352 0 0.1444986816950119 -0.0054195686798767691 0 0.1628119002964023 -3.4503031802248997e-05 0 0.17844363024109161 0.009640382599961363 0 0.16207832065231481 0.01482514390804352 0 0.1628119002964023 -3.4503031802248997e-05 0 0.16207832065231481 0.01482514390804352 0 0.1444986816950119 -0.0054195686798767691 0 0.16207832065231481 0.01482514390804352 0 0.14720220649664481 0.01511066470983327 0 0.1444986816950119 -0.0054195686798767691 0 0.14720220649664481 0.01511066470983327 0 0.1371043771030877 0.004741772287450402 0 0.1444986816950119 -0.0054195686798767691 0 0.14720220649664481 0.01511066470983327 0 0.13779473402229281 0.016742723563806901 0 0.1371043771030877 0.004741772287450402 0 0.1588856381250002 0.03032928241865045 0 0.14720220649664481 0.01511066470983327 0 0.14285148738216119 0.029444634760925129 0 0.14720220649664481 0.01511066470983327 0 0.14285148738216119 0.029444634760925129 0 0.13779473402229281 0.016742723563806901 0 0.1588856381250002 0.03032928241865045 0 0.16207832065231481 0.01482514390804352 0 0.14720220649664481 0.01511066470983327 0 0.14285148738216119 0.029444634760925129 0 0.1313952767383893 0.023930866887826849 0 0.13245367460757801 0.035668624371569493 0 0.1211411023831821 0.019790141388387712 0 0.1313952767383893 0.023930866887826849 0 0.1252687186775906 0.030178848056689331 0 0.1313952767383893 0.023930866887826849 0 0.1252687186775906 0.030178848056689331 0 0.13245367460757801 0.035668624371569493 0 0.1313952767383893 0.023930866887826849 0 0.13779473402229281 0.016742723563806901 0 0.12886194335753109 0.011760229185582571 0 0.1211411023831821 0.019790141388387712 0 0.1313952767383893 0.023930866887826849 0 0.12886194335753109 0.011760229185582571 0 0.14285148738216119 0.029444634760925129 0 0.1313952767383893 0.023930866887826849 0 0.13779473402229281 0.016742723563806901 0 0.13779473402229281 0.016742723563806901 0 0.12886194335753109 0.011760229185582571 0 0.1371043771030877 0.004741772287450402 0 0.12886194335753109 0.011760229185582571 0 0.1371043771030877 0.004741772287450402 0 0.12774018681310881 -0.00055002405430379581 0 0.13773539783806871 0.054919486887478393 0 0.1368392731307452 0.065594010227238722 0 0.14933678298690881 0.063106902897618014 0 0.14571739751084761 0.050050581491749707 0 0.13773539783806871 0.054919486887478393 0 0.14933678298690881 0.063106902897618014 0 0.1579899935638317 0.055107731263230778 0 0.14571739751084761 0.050050581491749707 0 0.14933678298690881 0.063106902897618014 0 0.1579899935638317 0.055107731263230778 0 0.14571739751084761 0.050050581491749707 0 0.15206508672997629 0.041003724997575493 0 0.1588856381250002 0.03032928241865045 0 0.14285148738216119 0.029444634760925129 0 0.15206508672997629 0.041003724997575493 0 0.14285148738216119 0.029444634760925129 0 0.15206508672997629 0.041003724997575493 0 0.14131252684869389 0.039834040395887269 0 0.14571739751084761 0.050050581491749707 0 0.14131252684869389 0.039834040395887269 0 0.13586459709760609 0.046331602508708353 0 0.14571739751084761 0.050050581491749707 0 0.15206508672997629 0.041003724997575493 0 0.14131252684869389 0.039834040395887269 0 0.14131252684869389 0.039834040395887269 0 0.13586459709760609 0.046331602508708353 0 0.13245367460757801 0.035668624371569493 0 0.14285148738216119 0.029444634760925129 0 0.14131252684869389 0.039834040395887269 0 0.13245367460757801 0.035668624371569493 0 0.1232511026531718 0.037397597548952312 0 0.1252687186775906 0.030178848056689331 0 0.13245367460757801 0.035668624371569493 0 0.1232511026531718 0.037397597548952312 0 0.13245367460757801 0.035668624371569493 0 0.12749811000021771 0.044891151010640867 0 0.13586459709760609 0.046331602508708353 0 0.13245367460757801 0.035668624371569493 0 0.12749811000021771 0.044891151010640867 0 0.1178651115546696 0.052573319737666623 0 0.1368392731307452 0.065594010227238722 0 0.1178651115546696 0.052573319737666623 0 0.12983247874270121 0.055145662020453901 0 0.1368392731307452 0.065594010227238722 0 0.1249336348272455 0.049712884967204288 0 0.12749811000021771 0.044891151010640867 0 0.1311728437011678 0.05020015747889716 0 0.13586459709760609 0.046331602508708353 0 0.12749811000021771 0.044891151010640867 0 0.1311728437011678 0.05020015747889716 0 0.1249336348272455 0.049712884967204288 0 0.1311728437011678 0.05020015747889716 0 0.12983247874270121 0.055145662020453901 0 0.14571739751084761 0.050050581491749707 0 0.13586459709760609 0.046331602508708353 0 0.13773539783806871 0.054919486887478393 0 0.13586459709760609 0.046331602508708353 0 0.1311728437011678 0.05020015747889716 0 0.13773539783806871 0.054919486887478393 0 0.1311728437011678 0.05020015747889716 0 0.13773539783806871 0.054919486887478393 0 0.12983247874270121 0.055145662020453901 0 0.13773539783806871 0.054919486887478393 0 0.12983247874270121 0.055145662020453901 0 0.1368392731307452 0.065594010227238722 0 0.1187772725441008 0.060376865824300442 0 0.137295353625461 0.0694957832705555 0 0.1187772725441008 0.060376865824300442 0 0.1292113830156463 0.072164121783763885 0 0.137295353625461 0.0694957832705555 0 0.1187772725441008 0.060376865824300442 0 0.137295353625461 0.0694957832705555 0 0.1368392731307452 0.065594010227238722 0 0.1227522073855048 0.072534643688884251 0 0.12736964571532741 0.076354341111398549 0 0.1292113830156463 0.072164121783763885 0 0.1292113830156463 0.072164121783763885 0 0.13583300542364679 0.074849504171219619 0 0.13279934290547621 0.079523089175904491 0 0.12736964571532741 0.076354341111398549 0 0.1292113830156463 0.072164121783763885 0 0.13279934290547621 0.079523089175904491 0 0.13583300542364679 0.074849504171219619 0 0.14424961222167659 0.078735637355741295 0 0.13279934290547621 0.079523089175904491 0 0.1292113830156463 0.072164121783763885 0 0.13583300542364679 0.074849504171219619 0 0.137295353625461 0.0694957832705555 0 0.13583300542364679 0.074849504171219619 0 0.137295353625461 0.0694957832705555 0 0.14424961222167659 0.078735637355741295 0 0.1368392731307452 0.065594010227238722 0 0.1558134347068211 0.078614700716810718 0 0.137295353625461 0.0694957832705555 0 0.1558134347068211 0.078614700716810718 0 0.1368392731307452 0.065594010227238722 0 0.14933678298690881 0.063106902897618014 0 0.1558134347068211 0.078614700716810718 0 0.137295353625461 0.0694957832705555 0 0.1558134347068211 0.078614700716810718 0 0.14424961222167659 0.078735637355741295 0 0.137295353625461 0.0694957832705555 0 0.1368392731307452 0.065594010227238722 0 0.1558134347068211 0.078614700716810718 0 0.1519042238715527 0.09174881124031771 0 0.13593479038082859 0.088701784030852632 0 0.14051226614354009 0.098818012409359127 0 0.1519042238715527 0.09174881124031771 0 0.14424961222167659 0.078735637355741295 0 0.13593479038082859 0.088701784030852632 0 0.1519042238715527 0.09174881124031771 0 0.1558134347068211 0.078614700716810718 0 0.14424961222167659 0.078735637355741295 0 0.13593479038082859 0.088701784030852632 0 0.1298811206398727 0.084760773663368455 0 0.13279934290547621 0.079523089175904491 0 0.14424961222167659 0.078735637355741295 0 0.13593479038082859 0.088701784030852632 0 0.13279934290547621 0.079523089175904491 0 0.12471564955468201 0.081195509797041612 0 0.12736964571532741 0.076354341111398549 0 0.13279934290547621 0.079523089175904491 0 0.12471564955468201 0.081195509797041612 0 0.1298811206398727 0.084760773663368455 0 0.13279934290547621 0.079523089175904491 0 0.12471564955468201 0.081195509797041612 0 0.1298811206398727 0.084760773663368455 0 0.12607469971850391 0.089622711649675113 0 0.13593479038082859 0.088701784030852632 0 0.1298811206398727 0.084760773663368455 0 0.12607469971850391 0.089622711649675113 0 0.13593479038082859 0.088701784030852632 0 0.12607469971850391 0.089622711649675113 0 0.13241779042919721 0.095615906451828075 0 0.1214707721692264 0.1026479329041762 0 0.12559798341448161 0.097258343255633206 0 0.1305312174153381 0.1029163260651112 0 0.12607469971850391 0.089622711649675113 0 0.12559798341448161 0.097258343255633206 0 0.13241779042919721 0.095615906451828075 0 0.12559798341448161 0.097258343255633206 0 0.13241779042919721 0.095615906451828075 0 0.1305312174153381 0.1029163260651112 0 0.12729066611458559 0.1091688786199347 0 0.1305312174153381 0.1029163260651112 0 0.13622660303017009 0.1093129175564735 0 0.1214707721692264 0.1026479329041762 0 0.12729066611458559 0.1091688786199347 0 0.1305312174153381 0.1029163260651112 0 0.1305312174153381 0.1029163260651112 0 0.13622660303017009 0.1093129175564735 0 0.14051226614354009 0.098818012409359127 0 0.13241779042919721 0.095615906451828075 0 0.1305312174153381 0.1029163260651112 0 0.14051226614354009 0.098818012409359127 0 0.13593479038082859 0.088701784030852632 0 0.13241779042919721 0.095615906451828075 0 0.14051226614354009 0.098818012409359127 0 0.11939905509296191 0.11297485902071561 0 0.12905527488174429 0.12836845256237209 0 0.13016442658528379 0.1167730631691601 0 0.12905527488174429 0.12836845256237209 0 0.13016442658528379 0.1167730631691601 0 0.13872775740638019 0.12155726019191861 0 0.12729066611458559 0.1091688786199347 0 0.13622660303017009 0.1093129175564735 0 0.13016442658528379 0.1167730631691601 0 0.11939905509296191 0.11297485902071561 0 0.12729066611458559 0.1091688786199347 0 0.13016442658528379 0.1167730631691601 0 0.13622660303017009 0.1093129175564735 0 0.13016442658528379 0.1167730631691601 0 0.13872775740638019 0.12155726019191861 0 0.1496879439767958 0.13013929788962339 0 0.14997965973526489 0.11793355080103909 0 0.1664666864147436 0.1157930048278925 0 0.14997965973526489 0.11793355080103909 0 0.15047515192981281 0.1061229173187295 0 0.1664666864147436 0.1157930048278925 0 0.1496879439767958 0.13013929788962339 0 0.13872775740638019 0.12155726019191861 0 0.14997965973526489 0.11793355080103909 0 0.13622660303017009 0.1093129175564735 0 0.13872775740638019 0.12155726019191861 0 0.15047515192981281 0.1061229173187295 0 0.13872775740638019 0.12155726019191861 0 0.15047515192981281 0.1061229173187295 0 0.13872775740638019 0.12155726019191861 0 0.14997965973526489 0.11793355080103909 0 0.15047515192981281 0.1061229173187295 0 0.1519042238715527 0.09174881124031771 0 0.14051226614354009 0.098818012409359127 0 0.15047515192981281 0.1061229173187295 0 0.13622660303017009 0.1093129175564735 0 0.14051226614354009 0.098818012409359127 0 0.15047515192981281 0.1061229173187295 0 0.1519042238715527 0.09174881124031771 0 0.15047515192981281 0.1061229173187295 0 0.16336539078436091 0.10085251634723991 0 0.1519042238715527 0.09174881124031771 0 0.16336539078436091 0.10085251634723991 0 0.17192654211676189 0.089672042226678295 0 0.15047515192981281 0.1061229173187295 0 0.16336539078436091 0.10085251634723991 0 0.1664666864147436 0.1157930048278925 0 0.16336539078436091 0.10085251634723991 0 0.1664666864147436 0.1157930048278925 0 0.17244956721064231 0.10176173678458909 0 0.16336539078436091 0.10085251634723991 0 0.17244956721064231 0.10176173678458909 0 0.17192654211676189 0.089672042226678295 0 0.16739835445773441 0.13534996523662901 0 0.1664666864147436 0.1157930048278925 0 0.17628586543944791 0.12089648966018229 0 0.1664666864147436 0.1157930048278925 0 0.17628586543944791 0.12089648966018229 0 0.182628221274903 0.11182806330225931 0 0.1664666864147436 0.1157930048278925 0 0.182628221274903 0.11182806330225931 0 0.18091534144246749 0.10714558114728311 0 0.182628221274903 0.11182806330225931 0 0.18091534144246749 0.10714558114728311 0 0.182628221274903 0.11182806330225931 0 0.1869859523989576 0.1237196037583949 0 0.17628586543944791 0.12089648966018229 0 0.182628221274903 0.11182806330225931 0 0.1869859523989576 0.1237196037583949 0 0.18803964952670299 0.10072938373654571 0 0.1664666864147436 0.1157930048278925 0 0.17244956721064231 0.10176173678458909 0 0.18803964952670299 0.10072938373654571 0 0.1664666864147436 0.1157930048278925 0 0.18091534144246749 0.10714558114728311 0 0.18803964952670299 0.10072938373654571 0 0.1664666864147436 0.1157930048278925 0 0.18803964952670299 0.10072938373654571 0 0.17192654211676189 0.089672042226678295 0 0.18803964952670299 0.10072938373654571 0 0.17244956721064231 0.10176173678458909 0 0.17192654211676189 0.089672042226678295 0 0.19328483401984431 0.09706686082075866 0 0.18803964952670299 0.10072938373654571 0 0.17454913436333311 0.087840780768783877 0 0.19131175995307481 0.1029748129713821 0 0.182628221274903 0.11182806330225931 0 0.18091534144246749 0.10714558114728311 0 0.19131175995307481 0.1029748129713821 0 0.182628221274903 0.11182806330225931 0 0.18803964952670299 0.10072938373654571 0 0.19131175995307481 0.1029748129713821 0 0.18091534144246749 0.10714558114728311 0 0.19328483401984431 0.09706686082075866 0 0.18840064917572899 0.085053792795005079 0 0.17454913436333311 0.087840780768783877 0 0.18803964952670299 0.10072938373654571 0 0.17454913436333311 0.087840780768783877 0 0.17192654211676189 0.089672042226678295 0 0.19328483401984431 0.09706686082075866 0 0.17454913436333311 0.087840780768783877 0 0.18840064917572899 0.085053792795005079 0 0.17454913436333311 0.087840780768783877 0 0.18647402101605079 0.07279598704852859 0 0.1858741983741303 0.061894615702290552 0 0.18647402101605079 0.07279598704852859 0 0.16973691186386031 0.06715359219985291 0 0.17454913436333311 0.087840780768783877 0 0.18647402101605079 0.07279598704852859 0 0.16973691186386031 0.06715359219985291 0 0.1558134347068211 0.078614700716810718 0 0.17454913436333311 0.087840780768783877 0 0.16973691186386031 0.06715359219985291 0 0.14933678298690881 0.063106902897618014 0 0.1558134347068211 0.078614700716810718 0 0.16973691186386031 0.06715359219985291 0 0.1558134347068211 0.078614700716810718 0 0.17192654211676189 0.089672042226678295 0 0.1558134347068211 0.078614700716810718 0 0.17454913436333311 0.087840780768783877 0 0.17192654211676189 0.089672042226678295 0 0.1519042238715527 0.09174881124031771 0 0.1558134347068211 0.078614700716810718 0 0.17192654211676189 0.089672042226678295 0 0.1558134347068211 0.078614700716810718 0 0.17454913436333311 0.087840780768783877 0 0.1000204990790293 0.47297903442103528 0 0.10787715624526049 0.48614886891161091 0 0.087890585650676756 0.48494735923216359 0 0.1000204990790293 0.47297903442103528 0 0.10787715624526049 0.48614886891161091 0 0.1137987313515208 0.47165275192106171 0 0.1000204990790293 0.47297903442103528 0 0.1137987313515208 0.47165275192106171 0 0.1059620722627324 0.46661102765075801 0 0.094544067908578722 0.5 0 0.10787715624526049 0.48614886891161091 0 0.087890585650676756 0.48494735923216359 0 0.094544067908578722 0.5 0 0.10787715624526049 0.48614886891161091 0 0.12425562568194699 0.5 0 0.10787715624526049 0.48614886891161091 0 0.12425562568194699 0.5 0 0.1247454383765309 0.48038151532629431 0 0.10787715624526049 0.48614886891161091 0 0.1247454383765309 0.48038151532629431 0 0.1137987313515208 0.47165275192106171 0 0.1247454383765309 0.48038151532629431 0 0.1137987313515208 0.47165275192106171 0 0.1244793495774149 0.46790780246490787 0 0.1137987313515208 0.47165275192106171 0 0.1244793495774149 0.46790780246490787 0 0.1169581240949371 0.46504027529536179 0 0.1244793495774149 0.46790780246490787 0 0.1188393315310767 0.45788284987688449 0 0.1169581240949371 0.46504027529536179 0 0.1188393315310767 0.45788284987688449 0 0.1107150839197359 0.46271769691859338 0 0.1040598748420066 0.45724135513795139 0 0.11734260389519061 0.45316918705236492 0 0.1188393315310767 0.45788284987688449 0 0.11311755974765381 0.45077880204627419 0 0.1137987313515208 0.47165275192106171 0 0.1107150839197359 0.46271769691859338 0 0.1059620722627324 0.46661102765075801 0 0.1188393315310767 0.45788284987688449 0 0.1169581240949371 0.46504027529536179 0 0.1107150839197359 0.46271769691859338 0 0.1137987313515208 0.47165275192106171 0 0.1169581240949371 0.46504027529536179 0 0.1107150839197359 0.46271769691859338 0 0.1215896831021416 0.44003275686815041 0 0.115003558443311 0.4398066694311874 0 0.1169355762349719 0.43458167676297699 0 0.1215896831021416 0.44003275686815041 0 0.1182610614657169 0.44725371706141898 0 0.124398542981994 0.44624595502973408 0 0.1215896831021416 0.44003275686815041 0 0.1182610614657169 0.44725371706141898 0 0.115003558443311 0.4398066694311874 0 0.11734260389519061 0.45316918705236492 0 0.1229810651405317 0.44933989502595689 0 0.13192205221922509 0.45069072096030999 0 0.1182610614657169 0.44725371706141898 0 0.124398542981994 0.44624595502973408 0 0.1229810651405317 0.44933989502595689 0 0.11734260389519061 0.45316918705236492 0 0.1182610614657169 0.44725371706141898 0 0.1229810651405317 0.44933989502595689 0 0.1188393315310767 0.45788284987688449 0 0.11311755974765381 0.45077880204627419 0 0.1054623284405021 0.4502934327460052 0 0.11734260389519061 0.45316918705236492 0 0.11311755974765381 0.45077880204627419 0 0.11540165871743591 0.44920167512317621 0 0.11734260389519061 0.45316918705236492 0 0.1182610614657169 0.44725371706141898 0 0.11540165871743591 0.44920167512317621 0 0.1128854097611819 0.44560499433264622 0 0.1094351401394197 0.44780220736788617 0 0.106275262608341 0.44453160034661943 0 0.11311755974765381 0.45077880204627419 0 0.1128854097611819 0.44560499433264622 0 0.1094351401394197 0.44780220736788617 0 0.11311755974765381 0.45077880204627419 0 0.1128854097611819 0.44560499433264622 0 0.11540165871743591 0.44920167512317621 0 0.1182610614657169 0.44725371706141898 0 0.1128854097611819 0.44560499433264622 0 0.11540165871743591 0.44920167512317621 0 0.1182610614657169 0.44725371706141898 0 0.1128854097611819 0.44560499433264622 0 0.115003558443311 0.4398066694311874 0 0.1128854097611819 0.44560499433264622 0 0.115003558443311 0.4398066694311874 0 0.10797019063001689 0.43833009145068891 0 0.1188393315310767 0.45788284987688449 0 0.093427310834596738 0.44815585024809618 0 0.1188393315310767 0.45788284987688449 0 0.095225383150010223 0.44964972956440608 0 0.093427310834596738 0.44815585024809618 0 0.1188393315310767 0.45788284987688449 0 0.1054623284405021 0.4502934327460052 0 0.093427310834596738 0.44815585024809618 0 0.1023919810617348 0.44110790114161391 0 0.10797019063001689 0.43833009145068891 0 0.1019772645452907 0.43670697337268699 0 0.1023919810617348 0.44110790114161391 0 0.10797019063001689 0.43833009145068891 0 0.106275262608341 0.44453160034661943 0 0.1128854097611819 0.44560499433264622 0 0.10797019063001689 0.43833009145068891 0 0.106275262608341 0.44453160034661943 0 0.1023919810617348 0.44110790114161391 0 0.106275262608341 0.44453160034661943 0 0.10069753704367621 0.44473378765057281 0 0.1054623284405021 0.4502934327460052 0 0.098954643838429612 0.44693099401029712 0 0.10069753704367621 0.44473378765057281 0 0.106275262608341 0.44453160034661943 0 0.1054623284405021 0.4502934327460052 0 0.10069753704367621 0.44473378765057281 0 0.1094351401394197 0.44780220736788617 0 0.106275262608341 0.44453160034661943 0 0.1054623284405021 0.4502934327460052 0 0.11311755974765381 0.45077880204627419 0 0.1094351401394197 0.44780220736788617 0 0.1054623284405021 0.4502934327460052 0 0.1054623284405021 0.4502934327460052 0 0.098954643838429612 0.44693099401029712 0 0.093427310834596738 0.44815585024809618 0 0.095225383150010223 0.44964972956440608 0 0.097453640245557027 0.45418311814720019 0 0.093412634319160984 0.45423987961036599 0 0.095225383150010223 0.44964972956440608 0 0.093412634319160984 0.45423987961036599 0 0.093427310834596738 0.44815585024809618 0 0.098954643838429612 0.44693099401029712 0 0.096231399034943696 0.44454090539651342 0 0.093427310834596738 0.44815585024809618 0 0.095225383150010223 0.44964972956440608 0 0.093427310834596738 0.44815585024809618 0 0.098954643838429612 0.44693099401029712 0 0.10069753704367621 0.44473378765057281 0 0.096231399034943696 0.44454090539651342 0 0.1023919810617348 0.44110790114161391 0 0.10069753704367621 0.44473378765057281 0 0.097532901074088463 0.44006822578532079 0 0.10069753704367621 0.44473378765057281 0 0.096231399034943696 0.44454090539651342 0 0.097532901074088463 0.44006822578532079 0 0.096231399034943696 0.44454090539651342 0 0.097532901074088463 0.44006822578532079 0 0.09232751801454453 0.44168656349252328 0 0.096231399034943696 0.44454090539651342 0 0.09232751801454453 0.44168656349252328 0 0.093427310834596738 0.44815585024809618 0 0.097532901074088463 0.44006822578532079 0 0.093784346383674277 0.43799504840259912 0 0.09232751801454453 0.44168656349252328 0 0.1023919810617348 0.44110790114161391 0 0.097532901074088463 0.44006822578532079 0 0.1019772645452907 0.43670697337268699 0 0.1188393315310767 0.45788284987688449 0 0.095225383150010223 0.44964972956440608 0 0.1040598748420066 0.45724135513795139 0 0.1000204990790293 0.47297903442103528 0 0.1059620722627324 0.46661102765075801 0 0.1002371865032279 0.46430184604713071 0 0.1059620722627324 0.46661102765075801 0 0.1037792572664622 0.46086723176109268 0 0.1002371865032279 0.46430184604713071 0 0.1107150839197359 0.46271769691859338 0 0.1059620722627324 0.46661102765075801 0 0.1037792572664622 0.46086723176109268 0 0.1107150839197359 0.46271769691859338 0 0.1037792572664622 0.46086723176109268 0 0.1040598748420066 0.45724135513795139 0 0.1037792572664622 0.46086723176109268 0 0.1040598748420066 0.45724135513795139 0 0.098346552939197723 0.45814750455953179 0 0.095225383150010223 0.44964972956440608 0 0.1040598748420066 0.45724135513795139 0 0.097453640245557027 0.45418311814720019 0 0.098346552939197723 0.45814750455953179 0 0.092447749371874902 0.46263614325079749 0 0.093412634319160984 0.45423987961036599 0 0.1040598748420066 0.45724135513795139 0 0.098346552939197723 0.45814750455953179 0 0.097453640245557027 0.45418311814720019 0 0.098346552939197723 0.45814750455953179 0 0.097453640245557027 0.45418311814720019 0 0.093412634319160984 0.45423987961036599 0 0.1000204990790293 0.47297903442103528 0 0.1002371865032279 0.46430184604713071 0 0.092447749371874902 0.46263614325079749 0 0.098346552939197723 0.45814750455953179 0 0.1002371865032279 0.46430184604713071 0 0.092447749371874902 0.46263614325079749 0 0.1037792572664622 0.46086723176109268 0 0.098346552939197723 0.45814750455953179 0 0.1002371865032279 0.46430184604713071 0 0.092447749371874902 0.46263614325079749 0 0.079585651239777178 0.46136273043044529 0 0.086000973410962578 0.4728003299553718 0 0.079585651239777178 0.46136273043044529 0 0.085102995354537581 0.44496953875592787 0 0.092447749371874902 0.46263614325079749 0 0.093412634319160984 0.45423987961036599 0 0.088535306045144938 0.45693332046401858 0 0.092447749371874902 0.46263614325079749 0 0.088535306045144938 0.45693332046401858 0 0.079585651239777178 0.46136273043044529 0 0.093412634319160984 0.45423987961036599 0 0.088535306045144938 0.45693332046401858 0 0.088124377225142908 0.45137272920285071 0 0.088535306045144938 0.45693332046401858 0 0.079585651239777178 0.46136273043044529 0 0.088124377225142908 0.45137272920285071 0 0.079585651239777178 0.46136273043044529 0 0.088124377225142908 0.45137272920285071 0 0.085102995354537581 0.44496953875592787 0 0.079585651239777178 0.46136273043044529 0 0.085102995354537581 0.44496953875592787 0 0.081438590948279765 0.44356690884604771 0 0.086083975397657025 0.44205484038995951 0 0.093427310834596738 0.44815585024809618 0 0.085102995354537581 0.44496953875592787 0 0.09232751801454453 0.44168656349252328 0 0.086083975397657025 0.44205484038995951 0 0.087908632645246315 0.43663339931651918 0 0.084262078305937127 0.44054116690840261 0 0.087908632645246315 0.43663339931651918 0 0.086083975397657025 0.44205484038995951 0 0.084262078305937127 0.44054116690840261 0 0.087908632645246315 0.43663339931651918 0 0.086083975397657025 0.44205484038995951 0 0.087908632645246315 0.43663339931651918 0 0.093784346383674277 0.43799504840259912 0 0.09232751801454453 0.44168656349252328 0 0.087908632645246315 0.43663339931651918 0 0.09232751801454453 0.44168656349252328 0 0.086083975397657025 0.44205484038995951 0 0.093427310834596738 0.44815585024809618 0 0.086083975397657025 0.44205484038995951 0 0.093427310834596738 0.44815585024809618 0 0.093427310834596738 0.44815585024809618 0 0.085102995354537581 0.44496953875592787 0 0.093427310834596738 0.44815585024809618 0 0.088124377225142908 0.45137272920285071 0 0.085102995354537581 0.44496953875592787 0 0.093412634319160984 0.45423987961036599 0 0.093427310834596738 0.44815585024809618 0 0.088124377225142908 0.45137272920285071 0 0.086083975397657025 0.44205484038995951 0 0.085102995354537581 0.44496953875592787 0 0.086083975397657025 0.44205484038995951 0 0.083827299417038162 0.44291775647533821 0 0.084262078305937127 0.44054116690840261 0 0.086083975397657025 0.44205484038995951 0 0.085102995354537581 0.44496953875592787 0 0.083827299417038162 0.44291775647533821 0 0.083827299417038162 0.44291775647533821 0 0.081438590948279765 0.44356690884604771 0 0.084262078305937127 0.44054116690840261 0 0.081438590948279765 0.44356690884604771 0 0.084262078305937127 0.44054116690840261 0 0.085102995354537581 0.44496953875592787 0 0.081438590948279765 0.44356690884604771 0 0.085102995354537581 0.44496953875592787 0 0.083827299417038162 0.44291775647533821 0 0.081438590948279765 0.44356690884604771 0 0.086083975397657025 0.44205484038995951 0 0.084262078305937127 0.44054116690840261 0 0.081438590948279765 0.44356690884604771 0 0.070158486495084216 0.44681540620014842 0 0.064560852256419804 0.46165364886069132 0 0.081438590948279765 0.44356690884604771 0 0.064560852256419804 0.46165364886069132 0 0.081438590948279765 0.44356690884604771 0 0.084262078305937127 0.44054116690840261 0 0.066481746186583479 0.43784185355892452 0 0.081438590948279765 0.44356690884604771 0 0.070158486495084216 0.44681540620014842 0 0.066481746186583479 0.43784185355892452 0 0.081438590948279765 0.44356690884604771 0 0.066481746186583479 0.43784185355892452 0 0.06429823923863183 0.44815569540604322 0 0.070158486495084216 0.44681540620014842 0 0.064560852256419804 0.46165364886069132 0 0.06429823923863183 0.44815569540604322 0 0.070158486495084216 0.44681540620014842 0 0.066481746186583479 0.43784185355892452 0 0.079585651239777178 0.46136273043044529 0 0.064560852256419804 0.46165364886069132 0 0.074068307125019009 0.47775592210496343 0 0.079585651239777178 0.46136273043044529 0 0.081438590948279765 0.44356690884604771 0 0.064560852256419804 0.46165364886069132 0 0.079585651239777178 0.46136273043044529 0 0.074068307125019009 0.47775592210496343 0 0.079585651239777178 0.46136273043044529 0 0.074068307125019009 0.47775592210496343 0 0.086000973410962578 0.4728003299553718 0 0.074068307125019009 0.47775592210496343 0 0.086000973410962578 0.4728003299553718 0 0.087890585650676756 0.48494735923216359 0 0.1000204990790293 0.47297903442103528 0 0.086000973410962578 0.4728003299553718 0 0.087890585650676756 0.48494735923216359 0 0.1000204990790293 0.47297903442103528 0 0.092447749371874902 0.46263614325079749 0 0.086000973410962578 0.4728003299553718 0 0.094544067908578722 0.5 0 0.087890585650676756 0.48494735923216359 0 0.064832510135210464 0.5 0 0.074068307125019009 0.47775592210496343 0 0.087890585650676756 0.48494735923216359 0 0.064832510135210464 0.5 0 0.074068307125019009 0.47775592210496343 0 0.064832510135210464 0.5 0 0.047683113564559627 0.47974038887533482 0 0.064832510135210464 0.5 0 0.047683113564559627 0.47974038887533482 0 0.03512095236184215 0.5 0 0.064560852256419804 0.46165364886069132 0 0.047683113564559627 0.47974038887533482 0 0.064560852256419804 0.46165364886069132 0 0.047683113564559627 0.47974038887533482 0 0.039971214405510463 0.46504189993134037 0 0.064560852256419804 0.46165364886069132 0 0.074068307125019009 0.47775592210496343 0 0.047683113564559627 0.47974038887533482 0 0.047683113564559627 0.47974038887533482 0 0.028444472149987191 0.48269433793135608 0 0.039971214405510463 0.46504189993134037 0 0.047683113564559627 0.47974038887533482 0 0.03512095236184215 0.5 0 0.028444472149987191 0.48269433793135608 0 0.03512095236184215 0.5 0 0.028444472149987191 0.48269433793135608 0 0.0054093945884738934 0.5 0 0.028444472149987191 0.48269433793135608 0 0.0139150333246201 0.47033054934536722 0 0.039971214405510463 0.46504189993134037 0 0.028444472149987191 0.48269433793135608 0 0.0139150333246201 0.47033054934536722 0 0.0054093945884738934 0.5 0 -0.0099657085561305949 0.47544558769919709 0 0.0139150333246201 0.47033054934536722 0 0.0054093945884738934 0.5 0 -0.002103054149575386 0.44647914075093459 0 0.013058592833606931 0.44835758938062092 0 0.008530064187811371 0.43273079107797152 0 -0.002103054149575386 0.44647914075093459 0 0.013058592833606931 0.44835758938062092 0 0.00019032937963638021 0.4599463752571149 0 0.0139150333246201 0.47033054934536722 0 0.013058592833606931 0.44835758938062092 0 0.00019032937963638021 0.4599463752571149 0 -0.0099657085561305949 0.47544558769919709 0 0.0139150333246201 0.47033054934536722 0 0.00019032937963638021 0.4599463752571149 0 0.0139150333246201 0.47033054934536722 0 0.031579690212584922 0.44786837464906992 0 0.039971214405510463 0.46504189993134037 0 0.0139150333246201 0.47033054934536722 0 0.013058592833606931 0.44835758938062092 0 0.031579690212584922 0.44786837464906992 0 0.013058592833606931 0.44835758938062092 0 0.031579690212584922 0.44786837464906992 0 0.02726874137235917 0.42853022904652027 0 0.031579690212584922 0.44786837464906992 0 0.053582798672426303 0.44878467417385359 0 0.048019563742130858 0.43271106079965188 0 0.031579690212584922 0.44786837464906992 0 0.039971214405510463 0.46504189993134037 0 0.053582798672426303 0.44878467417385359 0 0.064560852256419804 0.46165364886069132 0 0.039971214405510463 0.46504189993134037 0 0.053582798672426303 0.44878467417385359 0 0.066481746186583479 0.43784185355892452 0 0.053582798672426303 0.44878467417385359 0 0.048019563742130858 0.43271106079965188 0 0.06429823923863183 0.44815569540604322 0 0.064560852256419804 0.46165364886069132 0 0.053582798672426303 0.44878467417385359 0 0.06429823923863183 0.44815569540604322 0 0.066481746186583479 0.43784185355892452 0 0.053582798672426303 0.44878467417385359 0 0.066481746186583479 0.43784185355892452 0 0.048019563742130858 0.43271106079965188 0 0.064811971236826124 0.42438157621702149 0 0.048019563742130858 0.43271106079965188 0 0.045361864167713893 0.40822198552564221 0 0.064811971236826124 0.42438157621702149 0 0.045361864167713893 0.40822198552564221 0 0.064811971236826124 0.42438157621702149 0 0.045361864167713893 0.40822198552564221 0 0.062454856307568217 0.4050720662659924 0 0.064811971236826124 0.42438157621702149 0 0.045361864167713893 0.40822198552564221 0 0.02726874137235917 0.42853022904652027 0 0.02671696600870346 0.41087834905296372 0 0.048019563742130858 0.43271106079965188 0 0.045361864167713893 0.40822198552564221 0 0.02726874137235917 0.42853022904652027 0 0.031579690212584922 0.44786837464906992 0 0.048019563742130858 0.43271106079965188 0 0.02726874137235917 0.42853022904652027 0 0.013058592833606931 0.44835758938062092 0 0.02726874137235917 0.42853022904652027 0 0.008530064187811371 0.43273079107797152 0 0.02726874137235917 0.42853022904652027 0 0.014463340680122181 0.41716446838589172 0 0.008530064187811371 0.43273079107797152 0 0.02726874137235917 0.42853022904652027 0 0.02671696600870346 0.41087834905296372 0 0.014463340680122181 0.41716446838589172 0 0.02671696600870346 0.41087834905296372 0 0.014463340680122181 0.41716446838589172 0 0.016845262980488201 0.40443160667458722 0 0.014463340680122181 0.41716446838589172 0 0.0065146757135608191 0.40661753301827669 0 0.016845262980488201 0.40443160667458722 0 -0.0072800668744587137 0.40727001201776891 0 0.0065146757135608191 0.40661753301827669 0 0.00090433381781004777 0.41979830144503072 0 0.014463340680122181 0.41716446838589172 0 0.0065146757135608191 0.40661753301827669 0 0.00090433381781004777 0.41979830144503072 0 -0.0047535049403858321 0.43159789699643453 0 0.00090433381781004777 0.41979830144503072 0 0.008530064187811371 0.43273079107797152 0 -0.0047535049403858321 0.43159789699643453 0 -0.002103054149575386 0.44647914075093459 0 0.008530064187811371 0.43273079107797152 0 0.014463340680122181 0.41716446838589172 0 0.00090433381781004777 0.41979830144503072 0 0.008530064187811371 0.43273079107797152 0 0.0064616500294893166 0.37590280414288318 0 0.009416086504661688 0.39310551342206812 0 0.018101325451428559 0.3855733108362755 0 -0.0014178203071608399 0.38460551199721982 0 0.0064616500294893166 0.37590280414288318 0 0.009416086504661688 0.39310551342206812 0 0.0064616500294893166 0.37590280414288318 0 0.018101325451428559 0.3855733108362755 0 -0.0022908109905751309 0.39614741140520843 0 -0.0014178203071608399 0.38460551199721982 0 0.009416086504661688 0.39310551342206812 0 -0.0022908109905751309 0.39614741140520843 0 0.0065146757135608191 0.40661753301827669 0 0.009416086504661688 0.39310551342206812 0 0.0065146757135608191 0.40661753301827669 0 0.009416086504661688 0.39310551342206812 0 0.016845262980488201 0.40443160667458722 0 0.009416086504661688 0.39310551342206812 0 0.016845262980488201 0.40443160667458722 0 0.025911757098601589 0.39206239483426258 0 0.02671696600870346 0.41087834905296372 0 0.016845262980488201 0.40443160667458722 0 0.025911757098601589 0.39206239483426258 0 0.025911757098601589 0.39206239483426258 0 0.018101325451428559 0.3855733108362755 0 0.032598551153264058 0.37877463054307131 0 0.0064616500294893166 0.37590280414288318 0 0.018101325451428559 0.3855733108362755 0 0.023934459521394329 0.36557679042293201 0 0.009416086504661688 0.39310551342206812 0 0.025911757098601589 0.39206239483426258 0 0.018101325451428559 0.3855733108362755 0 0.018101325451428559 0.3855733108362755 0 0.032598551153264058 0.37877463054307131 0 0.023934459521394329 0.36557679042293201 0 0.018101325451428559 0.3855733108362755 0 0.023934459521394329 0.36557679042293201 0 0.025911757098601589 0.39206239483426258 0 0.018101325451428559 0.3855733108362755 0 0.032598551153264058 0.37877463054307131 0 0.041704415506315783 0.38983149911183168 0 0.048786604973723932 0.37880506360891208 0 0.025911757098601589 0.39206239483426258 0 0.032598551153264058 0.37877463054307131 0 0.041704415506315783 0.38983149911183168 0 0.045361864167713893 0.40822198552564221 0 0.025911757098601589 0.39206239483426258 0 0.041704415506315783 0.38983149911183168 0 0.045361864167713893 0.40822198552564221 0 0.025911757098601589 0.39206239483426258 0 0.045361864167713893 0.40822198552564221 0 0.02671696600870346 0.41087834905296372 0 0.025911757098601589 0.39206239483426258 0 0.045361864167713893 0.40822198552564221 0 0.055863300138275403 0.39129342104727038 0 0.062454856307568217 0.4050720662659924 0 0.045361864167713893 0.40822198552564221 0 0.041704415506315783 0.38983149911183168 0 0.055863300138275403 0.39129342104727038 0 0.055863300138275403 0.39129342104727038 0 0.062454856307568217 0.4050720662659924 0 0.068709734799570168 0.39216837434323382 0 0.055863300138275403 0.39129342104727038 0 0.048786604973723932 0.37880506360891208 0 0.068997367234018114 0.37225415551510083 0 0.041704415506315783 0.38983149911183168 0 0.055863300138275403 0.39129342104727038 0 0.048786604973723932 0.37880506360891208 0 0.055863300138275403 0.39129342104727038 0 0.068709734799570168 0.39216837434323382 0 0.068997367234018114 0.37225415551510083 0 0.079967047691263046 0.39044283095954768 0 0.068709734799570168 0.39216837434323382 0 0.068997367234018114 0.37225415551510083 0 0.091510873130949313 0.38438235332487752 0 0.068997367234018114 0.37225415551510083 0 0.079967047691263046 0.39044283095954768 0 0.091510873130949313 0.38438235332487752 0 0.068997367234018114 0.37225415551510083 0 0.079967047691263046 0.39044283095954768 0 0.091510873130949313 0.38438235332487752 0 0.088616954159254205 0.39874808472555201 0 0.079967047691263046 0.39044283095954768 0 0.088616954159254205 0.39874808472555201 0 0.07626610262672609 0.4017793979282579 0 0.088616954159254205 0.39874808472555201 0 0.07626610262672609 0.4017793979282579 0 0.083530985061082544 0.41107194197249708 0 0.079967047691263046 0.39044283095954768 0 0.07626610262672609 0.4017793979282579 0 0.068709734799570168 0.39216837434323382 0 0.062454856307568217 0.4050720662659924 0 0.07626610262672609 0.4017793979282579 0 0.068709734799570168 0.39216837434323382 0 0.062454856307568217 0.4050720662659924 0 0.073239059789534489 0.41322303629158302 0 0.064811971236826124 0.42438157621702149 0 0.073239059789534489 0.41322303629158302 0 0.064811971236826124 0.42438157621702149 0 0.080071489278373723 0.42375045261801708 0 0.062454856307568217 0.4050720662659924 0 0.07626610262672609 0.4017793979282579 0 0.073239059789534489 0.41322303629158302 0 0.07626610262672609 0.4017793979282579 0 0.073239059789534489 0.41322303629158302 0 0.083530985061082544 0.41107194197249708 0 0.084262078305937127 0.44054116690840261 0 0.066481746186583479 0.43784185355892452 0 0.064811971236826124 0.42438157621702149 0 0.084262078305937127 0.44054116690840261 0 0.064811971236826124 0.42438157621702149 0 0.084262078305937127 0.44054116690840261 0 0.064811971236826124 0.42438157621702149 0 0.080071489278373723 0.42375045261801708 0 0.087908632645246315 0.43663339931651918 0 0.095553939721924608 0.41391758139548862 0 0.084262078305937127 0.44054116690840261 0 0.080071489278373723 0.42375045261801708 0 0.087908632645246315 0.43663339931651918 0 0.087908632645246315 0.43663339931651918 0 0.086766261676657061 0.4213433438256306 0 0.095553939721924608 0.41391758139548862 0 0.080071489278373723 0.42375045261801708 0 0.087908632645246315 0.43663339931651918 0 0.086766261676657061 0.4213433438256306 0 0.093784346383674277 0.43799504840259912 0 0.087908632645246315 0.43663339931651918 0 0.097874900289356415 0.43402173025087798 0 0.073239059789534489 0.41322303629158302 0 0.080071489278373723 0.42375045261801708 0 0.083530985061082544 0.41107194197249708 0 0.080071489278373723 0.42375045261801708 0 0.083530985061082544 0.41107194197249708 0 0.086766261676657061 0.4213433438256306 0 0.083530985061082544 0.41107194197249708 0 0.086766261676657061 0.4213433438256306 0 0.095553939721924608 0.41391758139548862 0 0.088616954159254205 0.39874808472555201 0 0.083530985061082544 0.41107194197249708 0 0.095553939721924608 0.41391758139548862 0 0.1015786315635645 0.42198417876925798 0 0.1152486304818834 0.4073349582219975 0 0.105920965518771 0.4061898065991712 0 0.095553939721924608 0.41391758139548862 0 0.1015786315635645 0.42198417876925798 0 0.105920965518771 0.4061898065991712 0 0.1015786315635645 0.42198417876925798 0 0.1086019063631971 0.42349779712542579 0 0.1123749112806159 0.41761344748619478 0 0.1015786315635645 0.42198417876925798 0 0.1152486304818834 0.4073349582219975 0 0.087908632645246315 0.43663339931651918 0 0.095553939721924608 0.41391758139548862 0 0.1015786315635645 0.42198417876925798 0 0.087908632645246315 0.43663339931651918 0 0.097874900289356415 0.43402173025087798 0 0.1015786315635645 0.42198417876925798 0 0.097532901074088463 0.44006822578532079 0 0.097874900289356415 0.43402173025087798 0 0.1019772645452907 0.43670697337268699 0 0.097874900289356415 0.43402173025087798 0 0.10456006653822469 0.43093614470729208 0 0.1019772645452907 0.43670697337268699 0 0.097532901074088463 0.44006822578532079 0 0.093784346383674277 0.43799504840259912 0 0.097874900289356415 0.43402173025087798 0 0.097874900289356415 0.43402173025087798 0 0.1015786315635645 0.42198417876925798 0 0.10456006653822469 0.43093614470729208 0 0.087908632645246315 0.43663339931651918 0 0.1015786315635645 0.42198417876925798 0 0.1015786315635645 0.42198417876925798 0 0.1086019063631971 0.42349779712542579 0 0.10456006653822469 0.43093614470729208 0 0.1086019063631971 0.42349779712542579 0 0.10456006653822469 0.43093614470729208 0 0.1101504198181376 0.42805501466225582 0 0.10456006653822469 0.43093614470729208 0 0.1116899195036259 0.43331839687224433 0 0.1101504198181376 0.42805501466225582 0 0.10797019063001689 0.43833009145068891 0 0.10456006653822469 0.43093614470729208 0 0.1116899195036259 0.43331839687224433 0 0.10797019063001689 0.43833009145068891 0 0.10456006653822469 0.43093614470729208 0 0.1019772645452907 0.43670697337268699 0 0.115003558443311 0.4398066694311874 0 0.1169355762349719 0.43458167676297699 0 0.1116899195036259 0.43331839687224433 0 0.115003558443311 0.4398066694311874 0 0.10797019063001689 0.43833009145068891 0 0.1116899195036259 0.43331839687224433 0 0.1116899195036259 0.43331839687224433 0 0.11599818491245741 0.42900734342814112 0 0.1101504198181376 0.42805501466225582 0 0.1169355762349719 0.43458167676297699 0 0.1116899195036259 0.43331839687224433 0 0.11599818491245741 0.42900734342814112 0 0.11599818491245741 0.42900734342814112 0 0.1101504198181376 0.42805501466225582 0 0.1156791772924021 0.42170365692465772 0 0.1086019063631971 0.42349779712542579 0 0.1101504198181376 0.42805501466225582 0 0.1156791772924021 0.42170365692465772 0 0.120476845042085 0.42613263477910163 0 0.1156791772924021 0.42170365692465772 0 0.122428674592785 0.42158317279996321 0 0.11599818491245741 0.42900734342814112 0 0.120476845042085 0.42613263477910163 0 0.1156791772924021 0.42170365692465772 0 0.120476845042085 0.42613263477910163 0 0.122428674592785 0.42158317279996321 0 0.1266918100331631 0.42645261309544819 0 0.120476845042085 0.42613263477910163 0 0.1222055225163956 0.43218842266939311 0 0.1266918100331631 0.42645261309544819 0 0.11599818491245741 0.42900734342814112 0 0.120476845042085 0.42613263477910163 0 0.1222055225163956 0.43218842266939311 0 0.1215896831021416 0.44003275686815041 0 0.1169355762349719 0.43458167676297699 0 0.1222055225163956 0.43218842266939311 0 0.1215896831021416 0.44003275686815041 0 0.1222055225163956 0.43218842266939311 0 0.1265006224580838 0.43739947353239522 0 0.1169355762349719 0.43458167676297699 0 0.11599818491245741 0.42900734342814112 0 0.1222055225163956 0.43218842266939311 0 0.1152486304818834 0.4073349582219975 0 0.1123749112806159 0.41761344748619478 0 0.12143304804051221 0.41494837485089942 0 0.1123749112806159 0.41761344748619478 0 0.1156791772924021 0.42170365692465772 0 0.12143304804051221 0.41494837485089942 0 0.1015786315635645 0.42198417876925798 0 0.1152486304818834 0.4073349582219975 0 0.1123749112806159 0.41761344748619478 0 0.1086019063631971 0.42349779712542579 0 0.1123749112806159 0.41761344748619478 0 0.1156791772924021 0.42170365692465772 0 0.1156791772924021 0.42170365692465772 0 0.122428674592785 0.42158317279996321 0 0.12143304804051221 0.41494837485089942 0 0.122428674592785 0.42158317279996321 0 0.12143304804051221 0.41494837485089942 0 0.1278624925557624 0.41867858434970912 0 0.1152486304818834 0.4073349582219975 0 0.12143304804051221 0.41494837485089942 0 0.1236369375486677 0.4079151890727345 0 0.1236369375486677 0.4079151890727345 0 0.1140243790278805 0.39651055113465411 0 0.13653788492481239 0.40863874894442942 0 0.1152486304818834 0.4073349582219975 0 0.1236369375486677 0.4079151890727345 0 0.1140243790278805 0.39651055113465411 0 0.1152486304818834 0.4073349582219975 0 0.1140243790278805 0.39651055113465411 0 0.105920965518771 0.4061898065991712 0 0.1140243790278805 0.39651055113465411 0 0.1209310315900711 0.38458545827012591 0 0.12709763175005681 0.39493561234101499 0 0.1209310315900711 0.38458545827012591 0 0.11502312824710879 0.37335875512530398 0 0.1280933265969546 0.37722008131990997 0 0.1209310315900711 0.38458545827012591 0 0.10909371857712249 0.38264989872962868 0 0.11502312824710879 0.37335875512530398 0 0.1140243790278805 0.39651055113465411 0 0.1209310315900711 0.38458545827012591 0 0.10909371857712249 0.38264989872962868 0 0.1140243790278805 0.39651055113465411 0 0.10909371857712249 0.38264989872962868 0 0.1034175321477535 0.39079656159925591 0 0.091510873130949313 0.38438235332487752 0 0.10909371857712249 0.38264989872962868 0 0.1031055473827984 0.37277146833957819 0 0.091510873130949313 0.38438235332487752 0 0.10909371857712249 0.38264989872962868 0 0.1034175321477535 0.39079656159925591 0 0.10909371857712249 0.38264989872962868 0 0.1031055473827984 0.37277146833957819 0 0.11502312824710879 0.37335875512530398 0 0.091510873130949313 0.38438235332487752 0 0.1034175321477535 0.39079656159925591 0 0.095553939721924608 0.41391758139548862 0 0.1034175321477535 0.39079656159925591 0 0.091510873130949313 0.38438235332487752 0 0.088616954159254205 0.39874808472555201 0 0.1034175321477535 0.39079656159925591 0 0.095553939721924608 0.41391758139548862 0 0.105920965518771 0.4061898065991712 0 0.1034175321477535 0.39079656159925591 0 0.088616954159254205 0.39874808472555201 0 0.095553939721924608 0.41391758139548862 0 0.1034175321477535 0.39079656159925591 0 0.1140243790278805 0.39651055113465411 0 0.1034175321477535 0.39079656159925591 0 0.1140243790278805 0.39651055113465411 0 0.105920965518771 0.4061898065991712 0 0.1034175321477535 0.39079656159925591 0 0.096550057874425388 0.34482763204872879 0 0.1091128770352254 0.35886864215131009 0 0.11278450319566689 0.34544454307384598 0 0.096550057874425388 0.34482763204872879 0 0.1091128770352254 0.35886864215131009 0 0.090787139923586058 0.36459769236677092 0 0.091510873130949313 0.38438235332487752 0 0.1031055473827984 0.37277146833957819 0 0.090787139923586058 0.36459769236677092 0 0.1091128770352254 0.35886864215131009 0 0.1031055473827984 0.37277146833957819 0 0.090787139923586058 0.36459769236677092 0 0.1091128770352254 0.35886864215131009 0 0.1031055473827984 0.37277146833957819 0 0.11502312824710879 0.37335875512530398 0 0.1091128770352254 0.35886864215131009 0 0.11502312824710879 0.37335875512530398 0 0.1221494098826114 0.36370532908648351 0 0.11502312824710879 0.37335875512530398 0 0.1221494098826114 0.36370532908648351 0 0.1280933265969546 0.37722008131990997 0 0.1221494098826114 0.36370532908648351 0 0.12202554001096221 0.3509503601320586 0 0.13047885529711159 0.35794416735142143 0 0.1091128770352254 0.35886864215131009 0 0.1221494098826114 0.36370532908648351 0 0.12202554001096221 0.3509503601320586 0 0.1091128770352254 0.35886864215131009 0 0.11278450319566689 0.34544454307384598 0 0.12202554001096221 0.3509503601320586 0 0.11278450319566689 0.34544454307384598 0 0.12202554001096221 0.3509503601320586 0 0.12419329639043721 0.33895164794482818 0 0.12419329639043721 0.33895164794482818 0 0.1107417037070402 0.3320167183369529 0 0.1249936154236231 0.32450184210535732 0 0.11278450319566689 0.34544454307384598 0 0.12419329639043721 0.33895164794482818 0 0.1107417037070402 0.3320167183369529 0 0.1107417037070402 0.3320167183369529 0 0.1098375471986701 0.31254788369871528 0 0.1249936154236231 0.32450184210535732 0 0.1098375471986701 0.31254788369871528 0 0.1249936154236231 0.32450184210535732 0 0.13089451695427751 0.30404172687962461 0 0.1107417037070402 0.3320167183369529 0 0.1098375471986701 0.31254788369871528 0 0.09513483455280472 0.32362414748181417 0 0.1098375471986701 0.31254788369871528 0 0.09513483455280472 0.32362414748181417 0 0.08587836988617531 0.30173365117916873 0 0.096550057874425388 0.34482763204872879 0 0.11278450319566689 0.34544454307384598 0 0.1107417037070402 0.3320167183369529 0 0.096550057874425388 0.34482763204872879 0 0.1107417037070402 0.3320167183369529 0 0.09513483455280472 0.32362414748181417 0 0.096550057874425388 0.34482763204872879 0 0.09513483455280472 0.32362414748181417 0 0.075650824226443786 0.33004493851020161 0 0.096550057874425388 0.34482763204872879 0 0.075650824226443786 0.33004493851020161 0 0.073744703319393062 0.35391297297196289 0 0.09513483455280472 0.32362414748181417 0 0.075650824226443786 0.33004493851020161 0 0.08587836988617531 0.30173365117916873 0 0.075650824226443786 0.33004493851020161 0 0.060374497104250517 0.31409808614896312 0 0.08587836988617531 0.30173365117916873 0 0.075650824226443786 0.33004493851020161 0 0.054344622554268779 0.33066160970360559 0 0.060374497104250517 0.31409808614896312 0 0.075650824226443786 0.33004493851020161 0 0.073744703319393062 0.35391297297196289 0 0.059002048507610448 0.3437525455712262 0 0.075650824226443786 0.33004493851020161 0 0.059002048507610448 0.3437525455712262 0 0.054344622554268779 0.33066160970360559 0 0.096550057874425388 0.34482763204872879 0 0.073744703319393062 0.35391297297196289 0 0.090787139923586058 0.36459769236677092 0 0.091510873130949313 0.38438235332487752 0 0.090787139923586058 0.36459769236677092 0 0.068997367234018114 0.37225415551510083 0 0.073744703319393062 0.35391297297196289 0 0.068997367234018114 0.37225415551510083 0 0.045963905001443761 0.35846336123960898 0 0.073744703319393062 0.35391297297196289 0 0.090787139923586058 0.36459769236677092 0 0.068997367234018114 0.37225415551510083 0 0.048786604973723932 0.37880506360891208 0 0.068997367234018114 0.37225415551510083 0 0.045963905001443761 0.35846336123960898 0 0.059002048507610448 0.3437525455712262 0 0.045963905001443761 0.35846336123960898 0 0.04389056850413367 0.34046565824882891 0 0.073744703319393062 0.35391297297196289 0 0.059002048507610448 0.3437525455712262 0 0.045963905001443761 0.35846336123960898 0 0.045963905001443761 0.35846336123960898 0 0.023934459521394329 0.36557679042293201 0 0.029402541921860471 0.34601965577084509 0 0.045963905001443761 0.35846336123960898 0 0.029402541921860471 0.34601965577084509 0 0.04389056850413367 0.34046565824882891 0 0.032598551153264058 0.37877463054307131 0 0.048786604973723932 0.37880506360891208 0 0.045963905001443761 0.35846336123960898 0 0.032598551153264058 0.37877463054307131 0 0.045963905001443761 0.35846336123960898 0 0.023934459521394329 0.36557679042293201 0 0.023934459521394329 0.36557679042293201 0 0.029402541921860471 0.34601965577084509 0 0.023934459521394329 0.36557679042293201 0 0.029402541921860471 0.34601965577084509 0 0.0053995666687935966 0.3573960307483004 0 0.029402541921860471 0.34601965577084509 0 0.0053995666687935966 0.3573960307483004 0 0.0086928153310342343 0.33915368452331762 0 0.0064616500294893166 0.37590280414288318 0 0.023934459521394329 0.36557679042293201 0 0.0053995666687935966 0.3573960307483004 0 -0.002697893735798772 0.33006307357789327 0 -0.002441496602033208 0.31402100451125609 0 0.01420487408540054 0.31717949461160921 0 -0.002697893735798772 0.33006307357789327 0 0.01420487408540054 0.31717949461160921 0 0.0086928153310342343 0.33915368452331762 0 0.0086928153310342343 0.33915368452331762 0 0.034870624322326113 0.32646252111875812 0 0.029402541921860471 0.34601965577084509 0 0.0086928153310342343 0.33915368452331762 0 0.034870624322326113 0.32646252111875812 0 0.01420487408540054 0.31717949461160921 0 0.0086928153310342343 0.33915368452331762 0 0.034870624322326113 0.32646252111875812 0 0.01420487408540054 0.31717949461160921 0 0.02905651135978848 0.31393874969499252 0 0.034870624322326113 0.32646252111875812 0 0.02905651135978848 0.31393874969499252 0 0.034870624322326113 0.32646252111875812 0 0.039350693255746083 0.31043911383176359 0 0.034870624322326113 0.32646252111875812 0 0.060374497104250517 0.31409808614896312 0 0.039350693255746083 0.31043911383176359 0 0.034870624322326113 0.32646252111875812 0 0.039350693255746083 0.31043911383176359 0 0.029402541921860471 0.34601965577084509 0 0.034870624322326113 0.32646252111875812 0 0.04389056850413367 0.34046565824882891 0 0.029402541921860471 0.34601965577084509 0 0.034870624322326113 0.32646252111875812 0 0.034870624322326113 0.32646252111875812 0 0.04389056850413367 0.34046565824882891 0 0.054344622554268779 0.33066160970360559 0 0.059002048507610448 0.3437525455712262 0 0.04389056850413367 0.34046565824882891 0 0.054344622554268779 0.33066160970360559 0 0.034870624322326113 0.32646252111875812 0 0.060374497104250517 0.31409808614896312 0 0.034870624322326113 0.32646252111875812 0 0.054344622554268779 0.33066160970360559 0 0.060374497104250517 0.31409808614896312 0 0.060374497104250517 0.31409808614896312 0 0.056792896132332918 0.30031456178266791 0 0.039350693255746083 0.31043911383176359 0 0.056792896132332918 0.30031456178266791 0 0.062245349119504689 0.28373486266308129 0 0.04383076218916554 0.29441570654476912 0 0.062245349119504689 0.28373486266308129 0 0.04383076218916554 0.29441570654476912 0 0.044612329929548389 0.27876894852262091 0 0.04383076218916554 0.29441570654476912 0 0.028748081013381489 0.27776554701528078 0 0.044612329929548389 0.27876894852262091 0 0.04383076218916554 0.29441570654476912 0 0.027799853775681199 0.3016738692178389 0 0.028748081013381489 0.27776554701528078 0 0.056792896132332918 0.30031456178266791 0 0.04383076218916554 0.29441570654476912 0 0.039350693255746083 0.31043911383176359 0 0.04383076218916554 0.29441570654476912 0 0.039350693255746083 0.31043911383176359 0 0.04383076218916554 0.29441570654476912 0 0.039350693255746083 0.31043911383176359 0 0.027799853775681199 0.3016738692178389 0 0.02905651135978848 0.31393874969499252 0 0.039350693255746083 0.31043911383176359 0 0.027799853775681199 0.3016738692178389 0 0.01420487408540054 0.31717949461160921 0 0.027799853775681199 0.3016738692178389 0 0.013379111527513751 0.29453957565889632 0 0.01420487408540054 0.31717949461160921 0 0.02905651135978848 0.31393874969499252 0 0.027799853775681199 0.3016738692178389 0 0.027799853775681199 0.3016738692178389 0 0.013379111527513751 0.29453957565889632 0 0.028748081013381489 0.27776554701528078 0 -0.003227979543891877 0.2930284770625457 0 0.013379111527513751 0.29453957565889632 0 0.0076965934919400961 0.26915301454252388 0 -0.002441496602033208 0.31402100451125609 0 0.01420487408540054 0.31717949461160921 0 0.013379111527513751 0.29453957565889632 0 -0.003227979543891877 0.2930284770625457 0 -0.002441496602033208 0.31402100451125609 0 0.013379111527513751 0.29453957565889632 0 -0.00045679976148860701 0.24809875771850209 0 0.0168823415007953 0.24231856612335889 0 0.0076965934919400961 0.26915301454252388 0 0.013379111527513751 0.29453957565889632 0 0.0076965934919400961 0.26915301454252388 0 0.028748081013381489 0.27776554701528078 0 0.0076965934919400961 0.26915301454252388 0 0.028748081013381489 0.27776554701528078 0 0.029720614319208541 0.25580432796631258 0 0.0168823415007953 0.24231856612335889 0 0.0076965934919400961 0.26915301454252388 0 0.029720614319208541 0.25580432796631258 0 0.052834710101556888 0.24979866557787231 0 0.029720614319208541 0.25580432796631258 0 0.041193973929258679 0.26584907141815167 0 0.028748081013381489 0.27776554701528078 0 0.041193973929258679 0.26584907141815167 0 0.044612329929548389 0.27876894852262091 0 0.028748081013381489 0.27776554701528078 0 0.029720614319208541 0.25580432796631258 0 0.041193973929258679 0.26584907141815167 0 0.041193973929258679 0.26584907141815167 0 0.044612329929548389 0.27876894852262091 0 0.054077676206758907 0.2692518388338514 0 0.062245349119504689 0.28373486266308129 0 0.054077676206758907 0.2692518388338514 0 0.069108922271933104 0.26465014815908833 0 0.062245349119504689 0.28373486266308129 0 0.044612329929548389 0.27876894852262091 0 0.054077676206758907 0.2692518388338514 0 0.052834710101556888 0.24979866557787231 0 0.041193973929258679 0.26584907141815167 0 0.054077676206758907 0.2692518388338514 0 0.052834710101556888 0.24979866557787231 0 0.054077676206758907 0.2692518388338514 0 0.069108922271933104 0.26465014815908833 0 0.052834710101556888 0.24979866557787231 0 0.073282428511230874 0.24964968076252789 0 0.069108922271933104 0.26465014815908833 0 0.073282428511230874 0.24964968076252789 0 0.069108922271933104 0.26465014815908833 0 0.088802191617374862 0.25605340422718847 0 0.088802191617374862 0.25605340422718847 0 0.082707311160089628 0.2763270218013717 0 0.1094901199821999 0.26534434195910972 0 0.069108922271933104 0.26465014815908833 0 0.088802191617374862 0.25605340422718847 0 0.082707311160089628 0.2763270218013717 0 0.062245349119504689 0.28373486266308129 0 0.069108922271933104 0.26465014815908833 0 0.082707311160089628 0.2763270218013717 0 0.062245349119504689 0.28373486266308129 0 0.082707311160089628 0.2763270218013717 0 0.08587836988617531 0.30173365117916873 0 0.056792896132332918 0.30031456178266791 0 0.062245349119504689 0.28373486266308129 0 0.08587836988617531 0.30173365117916873 0 0.060374497104250517 0.31409808614896312 0 0.08587836988617531 0.30173365117916873 0 0.060374497104250517 0.31409808614896312 0 0.056792896132332918 0.30031456178266791 0 0.08587836988617531 0.30173365117916873 0 0.082707311160089628 0.2763270218013717 0 0.08587836988617531 0.30173365117916873 0 0.1113822426681001 0.28936921620937428 0 0.08587836988617531 0.30173365117916873 0 0.1113822426681001 0.28936921620937428 0 0.1098375471986701 0.31254788369871528 0 0.08587836988617531 0.30173365117916873 0 0.1113822426681001 0.28936921620937428 0 0.1098375471986701 0.31254788369871528 0 0.1113822426681001 0.28936921620937428 0 0.13089451695427751 0.30404172687962461 0 0.1113822426681001 0.28936921620937428 0 0.1368861154500248 0.27700478123958 0 0.1113822426681001 0.28936921620937428 0 0.1094901199821999 0.26534434195910972 0 0.1368861154500248 0.27700478123958 0 0.1061789030124069 0.2432622937135818 0 0.1094901199821999 0.26534434195910972 0 0.13031494490476789 0.25030009388335078 0 0.1061789030124069 0.2432622937135818 0 0.088802191617374862 0.25605340422718847 0 0.1094901199821999 0.26534434195910972 0 0.082707311160089628 0.2763270218013717 0 0.1113822426681001 0.28936921620937428 0 0.1094901199821999 0.26534434195910972 0 0.1368861154500248 0.27700478123958 0 0.16238998823194961 0.26464034626978572 0 0.1368861154500248 0.27700478123958 0 0.15423525617038369 0.29141640373471189 0 0.16238998823194961 0.26464034626978572 0 0.1489771954588234 0.25126435036168582 0 0.1368861154500248 0.27700478123958 0 0.16238998823194961 0.26464034626978572 0 0.1094901199821999 0.26534434195910972 0 0.13031494490476789 0.25030009388335078 0 0.1368861154500248 0.27700478123958 0 0.1489771954588234 0.25126435036168582 0 0.13031494490476789 0.25030009388335078 0 0.1368861154500248 0.27700478123958 0 0.1113822426681001 0.28936921620937428 0 0.1368861154500248 0.27700478123958 0 0.13089451695427751 0.30404172687962461 0 0.13089451695427751 0.30404172687962461 0 0.14778134417134839 0.31116619490335151 0 0.13828648820894079 0.31945424266526812 0 0.14778134417134839 0.31116619490335151 0 0.15423525617038369 0.29141640373471189 0 0.1606635043934358 0.30464607271163441 0 0.13089451695427751 0.30404172687962461 0 0.14778134417134839 0.31116619490335151 0 0.15423525617038369 0.29141640373471189 0 0.14778134417134839 0.31116619490335151 0 0.1606635043934358 0.30464607271163441 0 0.1598072774113807 0.31940683412036408 0 0.1368861154500248 0.27700478123958 0 0.13089451695427751 0.30404172687962461 0 0.15423525617038369 0.29141640373471189 0 0.15423525617038369 0.29141640373471189 0 0.16923664816215339 0.28132333949684801 0 0.17291218494556909 0.29805157482320599 0 0.1606635043934358 0.30464607271163441 0 0.17291218494556909 0.29805157482320599 0 0.17061569204869151 0.31382940343438009 0 0.15423525617038369 0.29141640373471189 0 0.1606635043934358 0.30464607271163441 0 0.17291218494556909 0.29805157482320599 0 0.17291218494556909 0.29805157482320599 0 0.18814063438389769 0.28971675935849339 0 0.1889890768870495 0.30372456739975101 0 0.18112853981807661 0.31171655222312677 0 0.1889890768870495 0.30372456739975101 0 0.18880350820939429 0.32110831253803662 0 0.17291218494556909 0.29805157482320599 0 0.18112853981807661 0.31171655222312677 0 0.17061569204869151 0.31382940343438009 0 0.17291218494556909 0.29805157482320599 0 0.18112853981807661 0.31171655222312677 0 0.1889890768870495 0.30372456739975101 0 0.16923664816215339 0.28132333949684801 0 0.1843827466001271 0.27642007155035248 0 0.18814063438389769 0.28971675935849339 0 0.16923664816215339 0.28132333949684801 0 0.17291218494556909 0.29805157482320599 0 0.18814063438389769 0.28971675935849339 0 0.16923664816215339 0.28132333949684801 0 0.1843827466001271 0.27642007155035248 0 0.16238998823194961 0.26464034626978572 0 0.1843827466001271 0.27642007155035248 0 0.16238998823194961 0.26464034626978572 0 0.1886073565649721 0.26470704830008263 0 0.15423525617038369 0.29141640373471189 0 0.16923664816215339 0.28132333949684801 0 0.16238998823194961 0.26464034626978572 0 0.16655408807399719 0.23978546968821421 0 0.1489771954588234 0.25126435036168582 0 0.16238998823194961 0.26464034626978572 0 0.16238998823194961 0.26464034626978572 0 0.18789386101387501 0.25227591129999283 0 0.16238998823194961 0.26464034626978572 0 0.18789386101387501 0.25227591129999283 0 0.1886073565649721 0.26470704830008263 0 0.16655408807399719 0.23978546968821421 0 0.16238998823194961 0.26464034626978572 0 0.18789386101387501 0.25227591129999283 0 0.18789386101387501 0.25227591129999283 0 0.19979562194139741 0.25924216395701499 0 0.18789386101387501 0.25227591129999283 0 0.1886073565649721 0.26470704830008263 0 0.19979562194139741 0.25924216395701499 0 0.1886073565649721 0.26470704830008263 0 0.19979562194139741 0.25924216395701499 0 0.198525898957185 0.26965058312202739 0 0.20306155191186681 0.24492252111671359 0 0.18789386101387501 0.25227591129999283 0 0.19979562194139741 0.25924216395701499 0 0.1843827466001271 0.27642007155035248 0 0.198525898957185 0.26965058312202739 0 0.1963115899601327 0.28055267195544747 0 0.1843827466001271 0.27642007155035248 0 0.1886073565649721 0.26470704830008263 0 0.198525898957185 0.26965058312202739 0 0.198525898957185 0.26965058312202739 0 0.1963115899601327 0.28055267195544747 0 0.21019953393799701 0.27611949604650671 0 0.198525898957185 0.26965058312202739 0 0.21019953393799701 0.27611949604650671 0 0.21185854473848389 0.26086204692276033 0 0.21019953393799701 0.27611949604650671 0 0.21185854473848389 0.26086204692276033 0 0.22254991240933009 0.2666786425385802 0 0.20306155191186681 0.24492252111671359 0 0.21185854473848389 0.26086204692276033 0 0.21908793363626539 0.25099558894759982 0 0.21185854473848389 0.26086204692276033 0 0.21908793363626539 0.25099558894759982 0 0.22254991240933009 0.2666786425385802 0 0.20306155191186681 0.24492252111671359 0 0.19979562194139741 0.25924216395701499 0 0.21185854473848389 0.26086204692276033 0 0.19979562194139741 0.25924216395701499 0 0.198525898957185 0.26965058312202739 0 0.21185854473848389 0.26086204692276033 0 0.21908793363626539 0.25099558894759982 0 0.2341430801136217 0.25828334698256661 0 0.22254991240933009 0.2666786425385802 0 0.23308743509231389 0.24292412826028709 0 0.21908793363626539 0.25099558894759982 0 0.2341430801136217 0.25828334698256661 0 0.22924314569783269 0.27846314639525072 0 0.22254991240933009 0.2666786425385802 0 0.2411936741170993 0.27207105960747108 0 0.22254991240933009 0.2666786425385802 0 0.2411936741170993 0.27207105960747108 0 0.21019953393799701 0.27611949604650671 0 0.22924314569783269 0.27846314639525072 0 0.22254991240933009 0.2666786425385802 0 0.2341430801136217 0.25828334698256661 0 0.22254991240933009 0.2666786425385802 0 0.2411936741170993 0.27207105960747108 0 0.2411936741170993 0.27207105960747108 0 0.2481335889168135 0.28330884691242919 0 0.25983743582486862 0.2774634766763614 0 0.22924314569783269 0.27846314639525072 0 0.2411936741170993 0.27207105960747108 0 0.2379662003668091 0.29112416314556988 0 0.23308743509231389 0.24292412826028709 0 0.2341430801136217 0.25828334698256661 0 0.25479644531309942 0.25874731555889569 0 0.2341430801136217 0.25828334698256661 0 0.2411936741170993 0.27207105960747108 0 0.25479644531309942 0.25874731555889569 0 0.23308743509231389 0.24292412826028709 0 0.25479644531309942 0.25874731555889569 0 0.2379662003668091 0.29112416314556988 0 0.23294917026242101 0.3140299076450862 0 0.25212780815855879 0.30427278307296041 0 0.23294917026242101 0.3140299076450862 0 0.25212780815855879 0.30427278307296041 0 0.23294917026242101 0.3140299076450862 0 0.2464750028821345 0.31629322417332928 0 0.25212780815855879 0.30427278307296041 0 0.2379662003668091 0.29112416314556988 0 0.25147580858485691 0.29246213415946992 0 0.25212780815855879 0.30427278307296041 0 0.2411936741170993 0.27207105960747108 0 0.2481335889168135 0.28330884691242919 0 0.2379662003668091 0.29112416314556988 0 0.2481335889168135 0.28330884691242919 0 0.2379662003668091 0.29112416314556988 0 0.25147580858485691 0.29246213415946992 0 0.21019953393799701 0.27611949604650671 0 0.22924314569783269 0.27846314639525072 0 0.2199460149830226 0.28942530653044551 0 0.22924314569783269 0.27846314639525072 0 0.2379662003668091 0.29112416314556988 0 0.2199460149830226 0.28942530653044551 0 0.2379662003668091 0.29112416314556988 0 0.2199460149830226 0.28942530653044551 0 0.22613488692581971 0.30001488359325479 0 0.2199460149830226 0.28942530653044551 0 0.22613488692581971 0.30001488359325479 0 0.21367816209102591 0.30548015705191728 0 0.22613488692581971 0.30001488359325479 0 0.21367816209102591 0.30548015705191728 0 0.23294917026242101 0.3140299076450862 0 0.2379662003668091 0.29112416314556988 0 0.22613488692581971 0.30001488359325479 0 0.23294917026242101 0.3140299076450862 0 0.21367816209102591 0.30548015705191728 0 0.20184061962830599 0.29151510069582848 0 0.20027896560870059 0.3131932211153472 0 0.21019953393799701 0.27611949604650671 0 0.2199460149830226 0.28942530653044551 0 0.20184061962830599 0.29151510069582848 0 0.2199460149830226 0.28942530653044551 0 0.21367816209102591 0.30548015705191728 0 0.20184061962830599 0.29151510069582848 0 0.1963115899601327 0.28055267195544747 0 0.21019953393799701 0.27611949604650671 0 0.20184061962830599 0.29151510069582848 0 0.1963115899601327 0.28055267195544747 0 0.20184061962830599 0.29151510069582848 0 0.18814063438389769 0.28971675935849339 0 0.20184061962830599 0.29151510069582848 0 0.18814063438389769 0.28971675935849339 0 0.1889890768870495 0.30372456739975101 0 0.1843827466001271 0.27642007155035248 0 0.1963115899601327 0.28055267195544747 0 0.18814063438389769 0.28971675935849339 0 0.20184061962830599 0.29151510069582848 0 0.1889890768870495 0.30372456739975101 0 0.20027896560870059 0.3131932211153472 0 0.1889890768870495 0.30372456739975101 0 0.20027896560870059 0.3131932211153472 0 0.18880350820939429 0.32110831253803662 0 0.20027896560870059 0.3131932211153472 0 0.1945918944701453 0.33354415678933791 0 0.2137705323662831 0.32378703221721211 0 0.20027896560870059 0.3131932211153472 0 0.18880350820939429 0.32110831253803662 0 0.1945918944701453 0.33354415678933791 0 0.18880350820939429 0.32110831253803662 0 0.1945918944701453 0.33354415678933791 0 0.1945918944701453 0.33354415678933791 0 0.21283460345908689 0.33728957249247599 0 0.2014253527416828 0.34822524732728372 0 0.1945918944701453 0.33354415678933791 0 0.2014253527416828 0.34822524732728372 0 0.18616991142443001 0.34721002188974881 0 0.18880350820939429 0.32110831253803662 0 0.1945918944701453 0.33354415678933791 0 0.17927928769207149 0.33140969182254371 0 0.1945918944701453 0.33354415678933791 0 0.2014253527416828 0.34822524732728372 0 0.1945918944701453 0.33354415678933791 0 0.2137705323662831 0.32378703221721211 0 0.1945918944701453 0.33354415678933791 0 0.21283460345908689 0.33728957249247599 0 0.2137705323662831 0.32378703221721211 0 0.21367816209102591 0.30548015705191728 0 0.20027896560870059 0.3131932211153472 0 0.2137705323662831 0.32378703221721211 0 0.2137705323662831 0.32378703221721211 0 0.23294917026242101 0.3140299076450862 0 0.23159345204349041 0.33124427655857558 0 0.21367816209102591 0.30548015705191728 0 0.2137705323662831 0.32378703221721211 0 0.23294917026242101 0.3140299076450862 0 0.2137705323662831 0.32378703221721211 0 0.23294917026242101 0.3140299076450862 0 0.21283460345908689 0.33728957249247599 0 0.23159345204349041 0.33124427655857558 0 0.22279178567383309 0.34964714956997089 0 0.21283460345908689 0.33728957249247599 0 0.2137705323662831 0.32378703221721211 0 0.23159345204349041 0.33124427655857558 0 0.23159345204349041 0.33124427655857558 0 0.2441582186059838 0.35106905181265002 0 0.25328760085072821 0.3276627351342245 0 0.2441582186059838 0.35106905181265002 0 0.25328760085072821 0.3276627351342245 0 0.23159345204349041 0.33124427655857558 0 0.2464750028821345 0.31629322417332928 0 0.25328760085072821 0.3276627351342245 0 0.23294917026242101 0.3140299076450862 0 0.23159345204349041 0.33124427655857558 0 0.2464750028821345 0.31629322417332928 0 0.2392505884644375 0.36365145247833353 0 0.24653888438195401 0.37346358914553518 0 0.2303515494192592 0.37588407423554782 0 0.2392505884644375 0.36365145247833353 0 0.24653888438195401 0.37346358914553518 0 0.25402406978961162 0.36261616317530643 0 0.2392505884644375 0.36365145247833353 0 0.2441582186059838 0.35106905181265002 0 0.22279178567383309 0.34964714956997089 0 0.2392505884644375 0.36365145247833353 0 0.2441582186059838 0.35106905181265002 0 0.25402406978961162 0.36261616317530643 0 0.2392505884644375 0.36365145247833353 0 0.2441582186059838 0.35106905181265002 0 0.23159345204349041 0.33124427655857558 0 0.2441582186059838 0.35106905181265002 0 0.22279178567383309 0.34964714956997089 0 0.2441582186059838 0.35106905181265002 0 0.22279178567383309 0.34964714956997089 0 0.2392505884644375 0.36365145247833353 0 0.22279178567383309 0.34964714956997089 0 0.22328746142748709 0.36362113023156178 0 0.22279178567383309 0.34964714956997089 0 0.22328746142748709 0.36362113023156178 0 0.21499351919275039 0.35836152858866532 0 0.22328746142748709 0.36362113023156178 0 0.21246947692799881 0.3719525872258449 0 0.2303515494192592 0.37588407423554782 0 0.2392505884644375 0.36365145247833353 0 0.22328746142748709 0.36362113023156178 0 0.2303515494192592 0.37588407423554782 0 0.21246947692799881 0.3719525872258449 0 0.2014253527416828 0.34822524732728372 0 0.21246947692799881 0.3719525872258449 0 0.2044151986632963 0.36613840859117369 0 0.2014253527416828 0.34822524732728372 0 0.21246947692799881 0.3719525872258449 0 0.21499351919275039 0.35836152858866532 0 0.2014253527416828 0.34822524732728372 0 0.22328746142748709 0.36362113023156178 0 0.21246947692799881 0.3719525872258449 0 0.21499351919275039 0.35836152858866532 0 0.21246947692799881 0.3719525872258449 0 0.2044151986632963 0.36613840859117369 0 0.20151166552585659 0.3786464349504986 0 0.22279178567383309 0.34964714956997089 0 0.2014253527416828 0.34822524732728372 0 0.22279178567383309 0.34964714956997089 0 0.21499351919275039 0.35836152858866532 0 0.2014253527416828 0.34822524732728372 0 0.21283460345908689 0.33728957249247599 0 0.22279178567383309 0.34964714956997089 0 0.2014253527416828 0.34822524732728372 0 0.2044151986632963 0.36613840859117369 0 0.2014253527416828 0.34822524732728372 0 0.19497080649345999 0.3561291970457372 0 0.19497080649345999 0.3561291970457372 0 0.18787276314443091 0.36294311037474258 0 0.18616991142443001 0.34721002188974881 0 0.2014253527416828 0.34822524732728372 0 0.18616991142443001 0.34721002188974881 0 0.2014253527416828 0.34822524732728372 0 0.19497080649345999 0.3561291970457372 0 0.18616991142443001 0.34721002188974881 0 0.2044151986632963 0.36613840859117369 0 0.19497080649345999 0.3561291970457372 0 0.18787276314443091 0.36294311037474258 0 0.2044151986632963 0.36613840859117369 0 0.1817894274171345 0.38030518870892482 0 0.2044151986632963 0.36613840859117369 0 0.18787276314443091 0.36294311037474258 0 0.1817894274171345 0.38030518870892482 0 0.1725677247618734 0.36460344294948582 0 0.16297802869493691 0.37517451845219979 0 0.1817894274171345 0.38030518870892482 0 0.18787276314443091 0.36294311037474258 0 0.1725677247618734 0.36460344294948582 0 0.1817894274171345 0.38030518870892482 0 0.18787276314443091 0.36294311037474258 0 0.1725677247618734 0.36460344294948582 0 0.17526209577058011 0.35420651217712851 0 0.1725677247618734 0.36460344294948582 0 0.16027658710314879 0.36270058839374802 0 0.16297802869493691 0.37517451845219979 0 0.1725677247618734 0.36460344294948582 0 0.16027658710314879 0.36270058839374802 0 0.16629171631393649 0.3552598055303926 0 0.16027658710314879 0.36270058839374802 0 0.15092874919807919 0.36937232765597949 0 0.16297802869493691 0.37517451845219979 0 0.16210892424159151 0.34765392183131022 0 0.15733489102512019 0.35292074458697592 0 0.15528228816062489 0.34508264971005792 0 0.16210892424159151 0.34765392183131022 0 0.16657160028533399 0.34365819463525071 0 0.16126458977297109 0.34041202423669609 0 0.16210892424159151 0.34765392183131022 0 0.16126458977297109 0.34041202423669609 0 0.15528228816062489 0.34508264971005792 0 0.16027658710314879 0.36270058839374802 0 0.15733489102512019 0.35292074458697592 0 0.16629171631393649 0.3552598055303926 0 0.16210892424159151 0.34765392183131022 0 0.15733489102512019 0.35292074458697592 0 0.16629171631393649 0.3552598055303926 0 0.16629171631393649 0.3552598055303926 0 0.1682297613437238 0.34939464612525878 0 0.17526209577058011 0.35420651217712851 0 0.1725677247618734 0.36460344294948582 0 0.16629171631393649 0.3552598055303926 0 0.17526209577058011 0.35420651217712851 0 0.1682297613437238 0.34939464612525878 0 0.1709144701071772 0.34619479645221152 0 0.17526209577058011 0.35420651217712851 0 0.16210892424159151 0.34765392183131022 0 0.16629171631393649 0.3552598055303926 0 0.1682297613437238 0.34939464612525878 0 0.16210892424159151 0.34765392183131022 0 0.1682297613437238 0.34939464612525878 0 0.16657160028533399 0.34365819463525071 0 0.1709144701071772 0.34619479645221152 0 0.16657160028533399 0.34365819463525071 0 0.1697926615558539 0.34188779447889328 0 0.1709144701071772 0.34619479645221152 0 0.17358467586848969 0.3442315710843597 0 0.1697926615558539 0.34188779447889328 0 0.1682297613437238 0.34939464612525878 0 0.1709144701071772 0.34619479645221152 0 0.16657160028533399 0.34365819463525071 0 0.1709144701071772 0.34619479645221152 0 0.17358467586848969 0.3442315710843597 0 0.18616991142443001 0.34721002188974881 0 0.1709144701071772 0.34619479645221152 0 0.18616991142443001 0.34721002188974881 0 0.1709144701071772 0.34619479645221152 0 0.17526209577058011 0.35420651217712851 0 0.18616991142443001 0.34721002188974881 0 0.18787276314443091 0.36294311037474258 0 0.17526209577058011 0.35420651217712851 0 0.18616991142443001 0.34721002188974881 0 0.1945918944701453 0.33354415678933791 0 0.17358467586848969 0.3442315710843597 0 0.1945918944701453 0.33354415678933791 0 0.17358467586848969 0.3442315710843597 0 0.18616991142443001 0.34721002188974881 0 0.1945918944701453 0.33354415678933791 0 0.17358467586848969 0.3442315710843597 0 0.17927928769207149 0.33140969182254371 0 0.17927928769207149 0.33140969182254371 0 0.17415225561280501 0.33680813123232589 0 0.17042007967188499 0.32812973638156112 0 0.17358467586848969 0.3442315710843597 0 0.17927928769207149 0.33140969182254371 0 0.17415225561280501 0.33680813123232589 0 0.17358467586848969 0.3442315710843597 0 0.17415225561280501 0.33680813123232589 0 0.17129042773158279 0.34012184389653588 0 0.18112853981807661 0.31171655222312677 0 0.18880350820939429 0.32110831253803662 0 0.17819006757572911 0.3212528685095335 0 0.18880350820939429 0.32110831253803662 0 0.17927928769207149 0.33140969182254371 0 0.17819006757572911 0.3212528685095335 0 0.17927928769207149 0.33140969182254371 0 0.17819006757572911 0.3212528685095335 0 0.17042007967188499 0.32812973638156112 0 0.17819006757572911 0.3212528685095335 0 0.17061569204869151 0.31382940343438009 0 0.17042007967188499 0.32812973638156112 0 0.18112853981807661 0.31171655222312677 0 0.17819006757572911 0.3212528685095335 0 0.17061569204869151 0.31382940343438009 0 0.17061569204869151 0.31382940343438009 0 0.1598072774113807 0.31940683412036408 0 0.17042007967188499 0.32812973638156112 0 0.1598072774113807 0.31940683412036408 0 0.17042007967188499 0.32812973638156112 0 0.16083304880919869 0.33072599197032593 0 0.1598072774113807 0.31940683412036408 0 0.16083304880919869 0.33072599197032593 0 0.14852999537372469 0.32794360532093192 0 0.1606635043934358 0.30464607271163441 0 0.17061569204869151 0.31382940343438009 0 0.1598072774113807 0.31940683412036408 0 0.1676321178891827 0.33755987879056482 0 0.16657160028533399 0.34365819463525071 0 0.16126458977297109 0.34041202423669609 0 0.1676321178891827 0.33755987879056482 0 0.16657160028533399 0.34365819463525071 0 0.1697926615558539 0.34188779447889328 0 0.17358467586848969 0.3442315710843597 0 0.1697926615558539 0.34188779447889328 0 0.17129042773158279 0.34012184389653588 0 0.1676321178891827 0.33755987879056482 0 0.1697926615558539 0.34188779447889328 0 0.17129042773158279 0.34012184389653588 0 0.17415225561280501 0.33680813123232589 0 0.1676321178891827 0.33755987879056482 0 0.17129042773158279 0.34012184389653588 0 0.1676321178891827 0.33755987879056482 0 0.17042007967188499 0.32812973638156112 0 0.16083304880919869 0.33072599197032593 0 0.17415225561280501 0.33680813123232589 0 0.1676321178891827 0.33755987879056482 0 0.17042007967188499 0.32812973638156112 0 0.1676321178891827 0.33755987879056482 0 0.16083304880919869 0.33072599197032593 0 0.16126458977297109 0.34041202423669609 0 0.16083304880919869 0.33072599197032593 0 0.16126458977297109 0.34041202423669609 0 0.15515955925189531 0.33779150848266742 0 0.16126458977297109 0.34041202423669609 0 0.15515955925189531 0.33779150848266742 0 0.15528228816062489 0.34508264971005792 0 0.15515955925189531 0.33779150848266742 0 0.14725668152953761 0.34193999621756771 0 0.15528228816062489 0.34508264971005792 0 0.16083304880919869 0.33072599197032593 0 0.15515955925189531 0.33779150848266742 0 0.14852999537372469 0.32794360532093192 0 0.15515955925189531 0.33779150848266742 0 0.14725668152953761 0.34193999621756771 0 0.14852999537372469 0.32794360532093192 0 0.14725668152953761 0.34193999621756771 0 0.14852999537372469 0.32794360532093192 0 0.13981214092421321 0.33516124858619328 0 0.14725668152953761 0.34193999621756771 0 0.13981214092421321 0.33516124858619328 0 0.14172063133757409 0.34725169649045412 0 0.14852999537372469 0.32794360532093192 0 0.13828648820894079 0.31945424266526812 0 0.13981214092421321 0.33516124858619328 0 0.14778134417134839 0.31116619490335151 0 0.1598072774113807 0.31940683412036408 0 0.14852999537372469 0.32794360532093192 0 0.14778134417134839 0.31116619490335151 0 0.14852999537372469 0.32794360532093192 0 0.13828648820894079 0.31945424266526812 0 0.1249936154236231 0.32450184210535732 0 0.13089451695427751 0.30404172687962461 0 0.13828648820894079 0.31945424266526812 0 0.1249936154236231 0.32450184210535732 0 0.13828648820894079 0.31945424266526812 0 0.13981214092421321 0.33516124858619328 0 0.13981214092421321 0.33516124858619328 0 0.13415275460099541 0.34483131805688622 0 0.14172063133757409 0.34725169649045412 0 0.12419329639043721 0.33895164794482818 0 0.1249936154236231 0.32450184210535732 0 0.13981214092421321 0.33516124858619328 0 0.12419329639043721 0.33895164794482818 0 0.13981214092421321 0.33516124858619328 0 0.13415275460099541 0.34483131805688622 0 0.12202554001096221 0.3509503601320586 0 0.13415275460099541 0.34483131805688622 0 0.13047885529711159 0.35794416735142143 0 0.12202554001096221 0.3509503601320586 0 0.12419329639043721 0.33895164794482818 0 0.13415275460099541 0.34483131805688622 0 0.13415275460099541 0.34483131805688622 0 0.13969674867633741 0.35523808521530598 0 0.14172063133757409 0.34725169649045412 0 0.13969674867633741 0.35523808521530598 0 0.13047885529711159 0.35794416735142143 0 0.14042211738054369 0.364175404209792 0 0.13415275460099541 0.34483131805688622 0 0.13969674867633741 0.35523808521530598 0 0.13047885529711159 0.35794416735142143 0 0.1221494098826114 0.36370532908648351 0 0.13047885529711159 0.35794416735142143 0 0.13193098829325259 0.36737524407095318 0 0.1221494098826114 0.36370532908648351 0 0.13193098829325259 0.36737524407095318 0 0.1280933265969546 0.37722008131990997 0 0.13193098829325259 0.36737524407095318 0 0.13998677584502781 0.37590525450197121 0 0.1280933265969546 0.37722008131990997 0 0.13193098829325259 0.36737524407095318 0 0.14042211738054369 0.364175404209792 0 0.13998677584502781 0.37590525450197121 0 0.13047885529711159 0.35794416735142143 0 0.13193098829325259 0.36737524407095318 0 0.14042211738054369 0.364175404209792 0 0.13969674867633741 0.35523808521530598 0 0.14042211738054369 0.364175404209792 0 0.1495105869734539 0.35921734646312081 0 0.14042211738054369 0.364175404209792 0 0.15092874919807919 0.36937232765597949 0 0.1495105869734539 0.35921734646312081 0 0.14042211738054369 0.364175404209792 0 0.15092874919807919 0.36937232765597949 0 0.13998677584502781 0.37590525450197121 0 0.15092874919807919 0.36937232765597949 0 0.1509803638890907 0.38004468421766019 0 0.16297802869493691 0.37517451845219979 0 0.16027658710314879 0.36270058839374802 0 0.15092874919807919 0.36937232765597949 0 0.1495105869734539 0.35921734646312081 0 0.16027658710314879 0.36270058839374802 0 0.15733489102512019 0.35292074458697592 0 0.1495105869734539 0.35921734646312081 0 0.15733489102512019 0.35292074458697592 0 0.1495105869734539 0.35921734646312081 0 0.1486082338690384 0.3505648467494914 0 0.15733489102512019 0.35292074458697592 0 0.1486082338690384 0.3505648467494914 0 0.15528228816062489 0.34508264971005792 0 0.14725668152953761 0.34193999621756771 0 0.1486082338690384 0.3505648467494914 0 0.15528228816062489 0.34508264971005792 0 0.13969674867633741 0.35523808521530598 0 0.1486082338690384 0.3505648467494914 0 0.14172063133757409 0.34725169649045412 0 0.14725668152953761 0.34193999621756771 0 0.1486082338690384 0.3505648467494914 0 0.14172063133757409 0.34725169649045412 0 0.13969674867633741 0.35523808521530598 0 0.1495105869734539 0.35921734646312081 0 0.1486082338690384 0.3505648467494914 0 0.13653788492481239 0.40863874894442942 0 0.15916365617097261 0.39447196882667579 0 0.14447992086370831 0.39617177325595948 0 0.13653788492481239 0.40863874894442942 0 0.15916365617097261 0.39447196882667579 0 0.13653788492481239 0.40863874894442942 0 0.15782940942045301 0.40752068434063371 0 0.15916365617097261 0.39447196882667579 0 0.14447992086370831 0.39617177325595948 0 0.14394762980682779 0.38774821003699322 0 0.13439648136334151 0.39463305603476029 0 0.14447992086370831 0.39617177325595948 0 0.14394762980682779 0.38774821003699322 0 0.15916365617097261 0.39447196882667579 0 0.1509803638890907 0.38004468421766019 0 0.14394762980682779 0.38774821003699322 0 0.15916365617097261 0.39447196882667579 0 0.1509803638890907 0.38004468421766019 0 0.14394762980682779 0.38774821003699322 0 0.13998677584502781 0.37590525450197121 0 0.15092874919807919 0.36937232765597949 0 0.1509803638890907 0.38004468421766019 0 0.13998677584502781 0.37590525450197121 0 0.14394762980682779 0.38774821003699322 0 0.13467858070882621 0.38526252338493261 0 0.13998677584502781 0.37590525450197121 0 0.14394762980682779 0.38774821003699322 0 0.13467858070882621 0.38526252338493261 0 0.13439648136334151 0.39463305603476029 0 0.13467858070882621 0.38526252338493261 0 0.13998677584502781 0.37590525450197121 0 0.1280933265969546 0.37722008131990997 0 0.13467858070882621 0.38526252338493261 0 0.1280933265969546 0.37722008131990997 0 0.12903941040184999 0.38732734627014881 0 0.13467858070882621 0.38526252338493261 0 0.12903941040184999 0.38732734627014881 0 0.13439648136334151 0.39463305603476029 0 0.1209310315900711 0.38458545827012591 0 0.1280933265969546 0.37722008131990997 0 0.12903941040184999 0.38732734627014881 0 0.1209310315900711 0.38458545827012591 0 0.12903941040184999 0.38732734627014881 0 0.12709763175005681 0.39493561234101499 0 0.1140243790278805 0.39651055113465411 0 0.13653788492481239 0.40863874894442942 0 0.1140243790278805 0.39651055113465411 0 0.12709763175005681 0.39493561234101499 0 0.13653788492481239 0.40863874894442942 0 0.12903941040184999 0.38732734627014881 0 0.12709763175005681 0.39493561234101499 0 0.13439648136334151 0.39463305603476029 0 0.14447992086370831 0.39617177325595948 0 0.13439648136334151 0.39463305603476029 0 0.13653788492481239 0.40863874894442942 0 0.12709763175005681 0.39493561234101499 0 0.13439648136334151 0.39463305603476029 0 0.13653788492481239 0.40863874894442942 0 0.1236369375486677 0.4079151890727345 0 0.13094074526824981 0.41214331221169209 0 0.13653788492481239 0.40863874894442942 0 0.12143304804051221 0.41494837485089942 0 0.1236369375486677 0.4079151890727345 0 0.13094074526824981 0.41214331221169209 0 0.13094074526824981 0.41214331221169209 0 0.1278624925557624 0.41867858434970912 0 0.1375465322792436 0.41948751884352842 0 0.12143304804051221 0.41494837485089942 0 0.13094074526824981 0.41214331221169209 0 0.1278624925557624 0.41867858434970912 0 0.1278624925557624 0.41867858434970912 0 0.1375465322792436 0.41948751884352842 0 0.13260381304029811 0.42407550281396322 0 0.13094074526824981 0.41214331221169209 0 0.1375465322792436 0.41948751884352842 0 0.13653788492481239 0.40863874894442942 0 0.13094074526824981 0.41214331221169209 0 0.13653788492481239 0.40863874894442942 0 0.1265006224580838 0.43739947353239522 0 0.12772441538723031 0.4325190194286152 0 0.13417835961310121 0.43612158399094342 0 0.1222055225163956 0.43218842266939311 0 0.1265006224580838 0.43739947353239522 0 0.12772441538723031 0.4325190194286152 0 0.1222055225163956 0.43218842266939311 0 0.12772441538723031 0.4325190194286152 0 0.1266918100331631 0.42645261309544819 0 0.12772441538723031 0.4325190194286152 0 0.13209632182347239 0.4298701830378866 0 0.13417835961310121 0.43612158399094342 0 0.13209632182347239 0.4298701830378866 0 0.1266918100331631 0.42645261309544819 0 0.13260381304029811 0.42407550281396322 0 0.12772441538723031 0.4325190194286152 0 0.13209632182347239 0.4298701830378866 0 0.1266918100331631 0.42645261309544819 0 0.122428674592785 0.42158317279996321 0 0.1278624925557624 0.41867858434970912 0 0.1266918100331631 0.42645261309544819 0 0.1278624925557624 0.41867858434970912 0 0.1266918100331631 0.42645261309544819 0 0.13260381304029811 0.42407550281396322 0 0.1375465322792436 0.41948751884352842 0 0.13260381304029811 0.42407550281396322 0 0.1375884035666175 0.428564167226135 0 0.1375465322792436 0.41948751884352842 0 0.1375884035666175 0.428564167226135 0 0.14548142709292031 0.42585787480288312 0 0.13209632182347239 0.4298701830378866 0 0.13260381304029811 0.42407550281396322 0 0.1375884035666175 0.428564167226135 0 0.1375884035666175 0.428564167226135 0 0.13417835961310121 0.43612158399094342 0 0.14362396755066931 0.43597233986760509 0 0.13209632182347239 0.4298701830378866 0 0.1375884035666175 0.428564167226135 0 0.13417835961310121 0.43612158399094342 0 0.1375884035666175 0.428564167226135 0 0.14362396755066931 0.43597233986760509 0 0.14548142709292031 0.42585787480288312 0 0.14362396755066931 0.43597233986760509 0 0.14548142709292031 0.42585787480288312 0 0.1547172427024173 0.43036622199957458 0 0.14548142709292031 0.42585787480288312 0 0.1547172427024173 0.43036622199957458 0 0.15253978103920041 0.41725909276361611 0 0.14362396755066931 0.43597233986760509 0 0.1547172427024173 0.43036622199957458 0 0.15354416173244001 0.4401667780195771 0 0.13653788492481239 0.40863874894442942 0 0.15253978103920041 0.41725909276361611 0 0.13653788492481239 0.40863874894442942 0 0.15253978103920041 0.41725909276361611 0 0.15782940942045301 0.40752068434063371 0 0.1375465322792436 0.41948751884352842 0 0.13653788492481239 0.40863874894442942 0 0.15253978103920041 0.41725909276361611 0 0.1375465322792436 0.41948751884352842 0 0.14548142709292031 0.42585787480288312 0 0.15253978103920041 0.41725909276361611 0 0.15253978103920041 0.41725909276361611 0 0.1685416771535892 0.42587943658280147 0 0.15253978103920041 0.41725909276361611 0 0.15782940942045301 0.40752068434063371 0 0.16766030031479251 0.41315302793974518 0 0.15253978103920041 0.41725909276361611 0 0.16766030031479251 0.41315302793974518 0 0.1685416771535892 0.42587943658280147 0 0.15782940942045301 0.40752068434063371 0 0.1703163661589791 0.40775096658552318 0 0.16766030031479251 0.41315302793974518 0 0.16766030031479251 0.41315302793974518 0 0.1685416771535892 0.42587943658280147 0 0.17938427666869611 0.43117651305316063 0 0.1547172427024173 0.43036622199957458 0 0.15253978103920041 0.41725909276361611 0 0.1685416771535892 0.42587943658280147 0 0.1547172427024173 0.43036622199957458 0 0.1685416771535892 0.42587943658280147 0 0.1648188973144297 0.43629446815308343 0 0.1547172427024173 0.43036622199957458 0 0.1648188973144297 0.43629446815308343 0 0.15354416173244001 0.4401667780195771 0 0.1685416771535892 0.42587943658280147 0 0.1648188973144297 0.43629446815308343 0 0.17346573137780069 0.43761776000400932 0 0.16766030031479251 0.41315302793974518 0 0.17938427666869611 0.43117651305316063 0 0.1685416771535892 0.42587943658280147 0 0.17938427666869611 0.43117651305316063 0 0.17346573137780069 0.43761776000400932 0 0.17938427666869611 0.43117651305316063 0 0.17991121041467201 0.41582251771580891 0 0.1880903968092148 0.42454037049544441 0 0.17938427666869611 0.43117651305316063 0 0.1880903968092148 0.42454037049544441 0 0.1896860583983967 0.43370916860306391 0 0.1703163661589791 0.40775096658552318 0 0.17991121041467201 0.41582251771580891 0 0.1917301525395273 0.41163640006467223 0 0.16766030031479251 0.41315302793974518 0 0.17938427666869611 0.43117651305316063 0 0.17991121041467201 0.41582251771580891 0 0.1703163661589791 0.40775096658552318 0 0.1917301525395273 0.41163640006467223 0 0.1703163661589791 0.40775096658552318 0 0.16766030031479251 0.41315302793974518 0 0.17991121041467201 0.41582251771580891 0 0.17991121041467201 0.41582251771580891 0 0.1917301525395273 0.41163640006467223 0 0.1880903968092148 0.42454037049544441 0 0.18090222485771959 0.39713031353827788 0 0.15916365617097261 0.39447196882667579 0 0.1817894274171345 0.38030518870892482 0 0.1703163661589791 0.40775096658552318 0 0.18090222485771959 0.39713031353827788 0 0.1917301525395273 0.41163640006467223 0 0.1703163661589791 0.40775096658552318 0 0.18090222485771959 0.39713031353827788 0 0.15916365617097261 0.39447196882667579 0 0.15782940942045301 0.40752068434063371 0 0.1703163661589791 0.40775096658552318 0 0.15916365617097261 0.39447196882667579 0 0.1509803638890907 0.38004468421766019 0 0.15916365617097261 0.39447196882667579 0 0.16297802869493691 0.37517451845219979 0 0.15916365617097261 0.39447196882667579 0 0.16297802869493691 0.37517451845219979 0 0.1817894274171345 0.38030518870892482 0 0.15916365617097261 0.39447196882667579 0 0.1817894274171345 0.38030518870892482 0 0.2044151986632963 0.36613840859117369 0 0.1817894274171345 0.38030518870892482 0 0.20151166552585659 0.3786464349504986 0 0.18090222485771959 0.39713031353827788 0 0.1817894274171345 0.38030518870892482 0 0.20151152200198449 0.39148704350559338 0 0.1817894274171345 0.38030518870892482 0 0.20151166552585659 0.3786464349504986 0 0.20151152200198449 0.39148704350559338 0 0.20151152200198449 0.39148704350559338 0 0.21314393892007549 0.41552183354382111 0 0.1917301525395273 0.41163640006467223 0 0.18090222485771959 0.39713031353827788 0 0.20151152200198449 0.39148704350559338 0 0.1917301525395273 0.41163640006467223 0 0.20151152200198449 0.39148704350559338 0 0.2235136011143104 0.39567992712440819 0 0.21314393892007549 0.41552183354382111 0 0.21246947692799881 0.3719525872258449 0 0.2235136011143104 0.39567992712440819 0 0.21246947692799881 0.3719525872258449 0 0.20151152200198449 0.39148704350559338 0 0.2235136011143104 0.39567992712440819 0 0.21246947692799881 0.3719525872258449 0 0.20151166552585659 0.3786464349504986 0 0.20151152200198449 0.39148704350559338 0 0.21246947692799881 0.3719525872258449 0 0.2303515494192592 0.37588407423554782 0 0.2235136011143104 0.39567992712440819 0 0.2303515494192592 0.37588407423554782 0 0.2235136011143104 0.39567992712440819 0 0.24170880391933269 0.38623454309854049 0 0.2235136011143104 0.39567992712440819 0 0.237782570355107 0.40114960963928781 0 0.24170880391933269 0.38623454309854049 0 0.2235136011143104 0.39567992712440819 0 0.237782570355107 0.40114960963928781 0 0.2345577253006236 0.41940726702297088 0 0.237782570355107 0.40114960963928781 0 0.24170880391933269 0.38623454309854049 0 0.25135015108616149 0.40327670131123172 0 0.24170880391933269 0.38623454309854049 0 0.2556952063680451 0.38386696904535539 0 0.25135015108616149 0.40327670131123172 0 0.24653888438195401 0.37346358914553518 0 0.2303515494192592 0.37588407423554782 0 0.24170880391933269 0.38623454309854049 0 0.24653888438195401 0.37346358914553518 0 0.24170880391933269 0.38623454309854049 0 0.2556952063680451 0.38386696904535539 0 0.2345577253006236 0.41940726702297088 0 0.2433069435062806 0.43820420109490621 0 0.25518678493650132 0.42315031542777748 0 0.2345577253006236 0.41940726702297088 0 0.23183948213517469 0.43310157209770889 0 0.2433069435062806 0.43820420109490621 0 0.2345577253006236 0.41940726702297088 0 0.2433069435062806 0.43820420109490621 0 0.237782570355107 0.40114960963928781 0 0.2345577253006236 0.41940726702297088 0 0.25135015108616149 0.40327670131123172 0 0.2345577253006236 0.41940726702297088 0 0.25518678493650132 0.42315031542777748 0 0.25135015108616149 0.40327670131123172 0 0.2345577253006236 0.41940726702297088 0 0.25518678493650132 0.42315031542777748 0 0.2235136011143104 0.39567992712440819 0 0.2345577253006236 0.41940726702297088 0 0.2235136011143104 0.39567992712440819 0 0.2345577253006236 0.41940726702297088 0 0.21314393892007549 0.41552183354382111 0 0.2345577253006236 0.41940726702297088 0 0.21314393892007549 0.41552183354382111 0 0.2345577253006236 0.41940726702297088 0 0.21876273856249501 0.43341095621122461 0 0.21314393892007549 0.41552183354382111 0 0.2345577253006236 0.41940726702297088 0 0.23183948213517469 0.43310157209770889 0 0.21876273856249501 0.43341095621122461 0 0.23183948213517469 0.43310157209770889 0 0.21876273856249501 0.43341095621122461 0 0.2330568259314845 0.44554646961275679 0 0.21876273856249501 0.43341095621122461 0 0.21314393892007549 0.41552183354382111 0 0.2001613070930762 0.42991979269707442 0 0.21876273856249501 0.43341095621122461 0 0.2001613070930762 0.42991979269707442 0 0.20686131526354801 0.44251816667734778 0 0.21314393892007549 0.41552183354382111 0 0.1917301525395273 0.41163640006467223 0 0.21314393892007549 0.41552183354382111 0 0.1917301525395273 0.41163640006467223 0 0.2001613070930762 0.42991979269707442 0 0.1917301525395273 0.41163640006467223 0 0.2001613070930762 0.42991979269707442 0 0.1880903968092148 0.42454037049544441 0 0.2001613070930762 0.42991979269707442 0 0.1880903968092148 0.42454037049544441 0 0.1896860583983967 0.43370916860306391 0 0.19110825302259979 0.44919999816657602 0 0.2054263885261525 0.45445814062951118 0 0.20686131526354801 0.44251816667734778 0 0.2001613070930762 0.42991979269707442 0 0.19110825302259979 0.44919999816657602 0 0.20686131526354801 0.44251816667734778 0 0.2001613070930762 0.42991979269707442 0 0.1896860583983967 0.43370916860306391 0 0.19110825302259979 0.44919999816657602 0 0.19110825302259979 0.44919999816657602 0 0.202832229376504 0.46722348327999103 0 0.17433568754939971 0.46253871787078149 0 0.202832229376504 0.46722348327999103 0 0.18712274534143911 0.47567908493576272 0 0.17433568754939971 0.46253871787078149 0 0.19110825302259979 0.44919999816657602 0 0.202832229376504 0.46722348327999103 0 0.202832229376504 0.46722348327999103 0 0.17433568754939971 0.46253871787078149 0 0.19110825302259979 0.44919999816657602 0 0.202832229376504 0.46722348327999103 0 0.2054263885261525 0.45445814062951118 0 0.202832229376504 0.46722348327999103 0 0.21708059299894489 0.46956588122572041 0 0.202832229376504 0.46722348327999103 0 0.21182185444297999 0.46103986999147539 0 0.21708059299894489 0.46956588122572041 0 0.202832229376504 0.46722348327999103 0 0.2054263885261525 0.45445814062951118 0 0.21182185444297999 0.46103986999147539 0 0.2054263885261525 0.45445814062951118 0 0.21182185444297999 0.46103986999147539 0 0.21556897121155219 0.44984959125037349 0 0.21182185444297999 0.46103986999147539 0 0.21556897121155219 0.44984959125037349 0 0.22032245147458859 0.45918306600819558 0 0.21182185444297999 0.46103986999147539 0 0.22032245147458859 0.45918306600819558 0 0.21708059299894489 0.46956588122572041 0 0.21876273856249501 0.43341095621122461 0 0.20686131526354801 0.44251816667734778 0 0.21556897121155219 0.44984959125037349 0 0.2054263885261525 0.45445814062951118 0 0.20686131526354801 0.44251816667734778 0 0.21556897121155219 0.44984959125037349 0 0.21876273856249501 0.43341095621122461 0 0.21556897121155219 0.44984959125037349 0 0.2330568259314845 0.44554646961275679 0 0.21556897121155219 0.44984959125037349 0 0.2330568259314845 0.44554646961275679 0 0.22032245147458859 0.45918306600819558 0 0.2330568259314845 0.44554646961275679 0 0.22514469347440269 0.46745392417885911 0 0.2330568259314845 0.44554646961275679 0 0.22032245147458859 0.45918306600819558 0 0.22514469347440269 0.46745392417885911 0 0.2330568259314845 0.44554646961275679 0 0.22514469347440269 0.46745392417885911 0 0.2401234601966469 0.46031849031141853 0 0.22032245147458859 0.45918306600819558 0 0.22514469347440269 0.46745392417885911 0 0.21708059299894489 0.46956588122572041 0 0.2401234601966469 0.46031849031141853 0 0.24934609946196951 0.44939437401392812 0 0.25548302501487369 0.46602845938910809 0 0.22514469347440269 0.46745392417885911 0 0.2401234601966469 0.46031849031141853 0 0.24016389067191399 0.47333711593539551 0 0.2401234601966469 0.46031849031141853 0 0.24016389067191399 0.47333711593539551 0 0.25548302501487369 0.46602845938910809 0 0.2330568259314845 0.44554646961275679 0 0.24934609946196951 0.44939437401392812 0 0.2433069435062806 0.43820420109490621 0 0.2330568259314845 0.44554646961275679 0 0.2401234601966469 0.46031849031141853 0 0.24934609946196951 0.44939437401392812 0 0.24934609946196951 0.44939437401392812 0 0.2433069435062806 0.43820420109490621 0 0.25657020209691261 0.4363073245030949 0 0.23183948213517469 0.43310157209770889 0 0.2330568259314845 0.44554646961275679 0 0.2433069435062806 0.43820420109490621 0 0.24868927653467349 0.5 0 0.2317546194840461 0.49100622959802881 0 0.2241528066439176 0.499999999999998 0 0.24868927653467349 0.5 0 0.23885091342229189 0.4846947694858364 0 0.2317546194840461 0.49100622959802881 0 0.24868927653467349 0.5 0 0.23885091342229189 0.4846947694858364 0 0.25400721293082079 0.48339841047847848 0 0.24016389067191399 0.47333711593539551 0 0.25400721293082079 0.48339841047847848 0 0.25548302501487369 0.46602845938910809 0 0.23885091342229189 0.4846947694858364 0 0.24016389067191399 0.47333711593539551 0 0.25400721293082079 0.48339841047847848 0 0.23885091342229189 0.4846947694858364 0 0.24016389067191399 0.47333711593539551 0 0.22984753980202649 0.48097499975934588 0 0.22514469347440269 0.46745392417885911 0 0.21723256101732061 0.48936137874496127 0 0.21708059299894489 0.46956588122572041 0 0.22514469347440269 0.46745392417885911 0 0.21723256101732061 0.48936137874496127 0 0.22514469347440269 0.46745392417885911 0 0.22984753980202649 0.48097499975934588 0 0.21723256101732061 0.48936137874496127 0 0.22514469347440269 0.46745392417885911 0 0.24016389067191399 0.47333711593539551 0 0.22984753980202649 0.48097499975934588 0 0.22984753980202649 0.48097499975934588 0 0.2317546194840461 0.49100622959802881 0 0.21723256101732061 0.48936137874496127 0 0.23885091342229189 0.4846947694858364 0 0.22984753980202649 0.48097499975934588 0 0.2317546194840461 0.49100622959802881 0 0.2241528066439176 0.499999999999998 0 0.21723256101732061 0.48936137874496127 0 0.2317546194840461 0.49100622959802881 0 0.2241528066439176 0.499999999999998 0 0.21723256101732061 0.48936137874496127 0 0.2241528066439176 0.499999999999998 0 0.21339029900205189 0.49999999999999861 0 0.21723256101732061 0.48936137874496127 0 0.21339029900205189 0.49999999999999861 0 0.21723256101732061 0.48936137874496127 0 0.19884097375665441 0.48873219220183389 0 0.21339029900205189 0.49999999999999861 0 0.21723256101732061 0.48936137874496127 0 0.21723256101732061 0.48936137874496127 0 0.2015071273729796 0.48024903479063719 0 0.19884097375665441 0.48873219220183389 0 0.202832229376504 0.46722348327999103 0 0.21723256101732061 0.48936137874496127 0 0.21708059299894489 0.46956588122572041 0 0.202832229376504 0.46722348327999103 0 0.21723256101732061 0.48936137874496127 0 0.2015071273729796 0.48024903479063719 0 0.202832229376504 0.46722348327999103 0 0.21723256101732061 0.48936137874496127 0 0.202832229376504 0.46722348327999103 0 0.2015071273729796 0.48024903479063719 0 0.18712274534143911 0.47567908493576272 0 0.19884097375665441 0.48873219220183389 0 0.179959686038486 0.48663466737278799 0 0.18712274534143911 0.47567908493576272 0 0.2015071273729796 0.48024903479063719 0 0.19884097375665441 0.48873219220183389 0 0.18712274534143911 0.47567908493576272 0 0.21339029900205189 0.49999999999999861 0 0.19884097375665441 0.48873219220183389 0 0.18367874122868361 0.5 0 0.19884097375665441 0.48873219220183389 0 0.18367874122868361 0.5 0 0.179959686038486 0.48663466737278799 0 0.18367874122868361 0.5 0 0.179959686038486 0.48663466737278799 0 0.15396718345531529 0.5 0 0.16966337292403769 0.47733684913445928 0 0.15396718345531529 0.5 0 0.15202304578310599 0.48217947956811258 0 0.179959686038486 0.48663466737278799 0 0.16966337292403769 0.47733684913445928 0 0.15396718345531529 0.5 0 0.16966337292403769 0.47733684913445928 0 0.14425135222755719 0.46760984950567192 0 0.16966337292403769 0.47733684913445928 0 0.15852238960582241 0.46633484224312149 0 0.14425135222755719 0.46760984950567192 0 0.179959686038486 0.48663466737278799 0 0.16966337292403769 0.47733684913445928 0 0.18712274534143911 0.47567908493576272 0 0.16966337292403769 0.47733684913445928 0 0.18712274534143911 0.47567908493576272 0 0.17433568754939971 0.46253871787078149 0 0.17938427666869611 0.43117651305316063 0 0.1896860583983967 0.43370916860306391 0 0.19110825302259979 0.44919999816657602 0 0.17938427666869611 0.43117651305316063 0 0.19110825302259979 0.44919999816657602 0 0.19110825302259979 0.44919999816657602 0 0.17224834025836511 0.44758187456296478 0 0.17346573137780069 0.43761776000400932 0 0.17938427666869611 0.43117651305316063 0 0.19110825302259979 0.44919999816657602 0 0.17346573137780069 0.43761776000400932 0 0.19110825302259979 0.44919999816657602 0 0.17433568754939971 0.46253871787078149 0 0.17224834025836511 0.44758187456296478 0 0.1648188973144297 0.43629446815308343 0 0.17224834025836511 0.44758187456296478 0 0.16163837731418429 0.44560935898097559 0 0.1648188973144297 0.43629446815308343 0 0.17224834025836511 0.44758187456296478 0 0.17346573137780069 0.43761776000400932 0 0.17224834025836511 0.44758187456296478 0 0.1670679236550755 0.45246282178606961 0 0.16163837731418429 0.44560935898097559 0 0.1670679236550755 0.45246282178606961 0 0.16163837731418429 0.44560935898097559 0 0.1600492894983529 0.45412133572955632 0 0.16163837731418429 0.44560935898097559 0 0.1600492894983529 0.45412133572955632 0 0.1503101419341086 0.4503737051320878 0 0.1648188973144297 0.43629446815308343 0 0.16163837731418429 0.44560935898097559 0 0.15354416173244001 0.4401667780195771 0 0.17433568754939971 0.46253871787078149 0 0.14583914572229509 0.45785395246157318 0 0.17433568754939971 0.46253871787078149 0 0.1600492894983529 0.45412133572955632 0 0.14583914572229509 0.45785395246157318 0 0.16966337292403769 0.47733684913445928 0 0.17433568754939971 0.46253871787078149 0 0.15852238960582241 0.46633484224312149 0 0.17433568754939971 0.46253871787078149 0 0.15852238960582241 0.46633484224312149 0 0.14583914572229509 0.45785395246157318 0 0.17433568754939971 0.46253871787078149 0 0.17224834025836511 0.44758187456296478 0 0.1670679236550755 0.45246282178606961 0 0.17433568754939971 0.46253871787078149 0 0.1670679236550755 0.45246282178606961 0 0.1600492894983529 0.45412133572955632 0 0.15852238960582241 0.46633484224312149 0 0.14583914572229509 0.45785395246157318 0 0.14425135222755719 0.46760984950567192 0 0.1600492894983529 0.45412133572955632 0 0.14583914572229509 0.45785395246157318 0 0.1503101419341086 0.4503737051320878 0 0.15354416173244001 0.4401667780195771 0 0.1503101419341086 0.4503737051320878 0 0.14410616956296191 0.44488154650171108 0 0.16163837731418429 0.44560935898097559 0 0.15354416173244001 0.4401667780195771 0 0.1503101419341086 0.4503737051320878 0 0.14583914572229509 0.45785395246157318 0 0.1503101419341086 0.4503737051320878 0 0.14183644989740571 0.44948160151429661 0 0.1503101419341086 0.4503737051320878 0 0.14183644989740571 0.44948160151429661 0 0.14410616956296191 0.44488154650171108 0 0.14183644989740571 0.44948160151429661 0 0.14410616956296191 0.44488154650171108 0 0.13700474004843749 0.44360808251580081 0 0.14362396755066931 0.43597233986760509 0 0.15354416173244001 0.4401667780195771 0 0.14410616956296191 0.44488154650171108 0 0.14362396755066931 0.43597233986760509 0 0.14410616956296191 0.44488154650171108 0 0.13700474004843749 0.44360808251580081 0 0.13417835961310121 0.43612158399094342 0 0.13700474004843749 0.44360808251580081 0 0.12907535236810691 0.44263310498920122 0 0.13417835961310121 0.43612158399094342 0 0.14362396755066931 0.43597233986760509 0 0.13700474004843749 0.44360808251580081 0 0.14183644989740571 0.44948160151429661 0 0.13700474004843749 0.44360808251580081 0 0.13192205221922509 0.45069072096030999 0 0.14583914572229509 0.45785395246157318 0 0.14183644989740571 0.44948160151429661 0 0.13192205221922509 0.45069072096030999 0 0.13700474004843749 0.44360808251580081 0 0.13192205221922509 0.45069072096030999 0 0.12907535236810691 0.44263310498920122 0 0.124398542981994 0.44624595502973408 0 0.13192205221922509 0.45069072096030999 0 0.12907535236810691 0.44263310498920122 0 0.124398542981994 0.44624595502973408 0 0.1229810651405317 0.44933989502595689 0 0.13192205221922509 0.45069072096030999 0 0.1215896831021416 0.44003275686815041 0 0.124398542981994 0.44624595502973408 0 0.12907535236810691 0.44263310498920122 0 0.1215896831021416 0.44003275686815041 0 0.1265006224580838 0.43739947353239522 0 0.12907535236810691 0.44263310498920122 0 0.1265006224580838 0.43739947353239522 0 0.13417835961310121 0.43612158399094342 0 0.12907535236810691 0.44263310498920122 0 0.1188393315310767 0.45788284987688449 0 0.14583914572229509 0.45785395246157318 0 0.14425135222755719 0.46760984950567192 0 0.1244793495774149 0.46790780246490787 0 0.1188393315310767 0.45788284987688449 0 0.14425135222755719 0.46760984950567192 0 0.11734260389519061 0.45316918705236492 0 0.14583914572229509 0.45785395246157318 0 0.1188393315310767 0.45788284987688449 0 0.14425135222755719 0.46760984950567192 0 0.11734260389519061 0.45316918705236492 0 0.1188393315310767 0.45788284987688449 0 0.14583914572229509 0.45785395246157318 0 0.11734260389519061 0.45316918705236492 0 0.14583914572229509 0.45785395246157318 0 0.13192205221922509 0.45069072096030999 0 0.1247454383765309 0.48038151532629431 0 0.1244793495774149 0.46790780246490787 0 0.13342160367675421 0.47491759673229839 0 0.1244793495774149 0.46790780246490787 0 0.14425135222755719 0.46760984950567192 0 0.13342160367675421 0.47491759673229839 0 0.14425135222755719 0.46760984950567192 0 0.13342160367675421 0.47491759673229839 0 0.1402102745255136 0.4837712196323195 0 0.1247454383765309 0.48038151532629431 0 0.13342160367675421 0.47491759673229839 0 0.1402102745255136 0.4837712196323195 0 0.12425562568194699 0.5 0 0.1402102745255136 0.4837712196323195 0 0.15396718345531529 0.5 0 0.12425562568194699 0.5 0 0.1247454383765309 0.48038151532629431 0 0.1402102745255136 0.4837712196323195 0 0.1402102745255136 0.4837712196323195 0 0.15396718345531529 0.5 0 0.15202304578310599 0.48217947956811258 0 0.16966337292403769 0.47733684913445928 0 0.14425135222755719 0.46760984950567192 0 0.15202304578310599 0.48217947956811258 0 0.14425135222755719 0.46760984950567192 0 0.1402102745255136 0.4837712196323195 0 0.15202304578310599 0.48217947956811258 0 0.36060514261377552 0.46811496206060221 0 0.33691760844310559 0.46563777681798008 0 0.34145191441035849 0.48405748103030127 0 0.36476383865284812 0.48692827439718361 0 0.36060514261377552 0.46811496206060221 0 0.34145191441035849 0.48405748103030127 0 0.36060514261377552 0.46811496206060221 0 0.34145191441035849 0.48405748103030127 0 0.35060878783754418 0.5 0 0.36476383865284812 0.48692827439718361 0 0.34145191441035849 0.48405748103030127 0 0.35060878783754418 0.5 0 0.36476383865284812 0.48692827439718361 0 0.37891888946814728 0.50000000000000244 0 0.36476383865284812 0.48692827439718361 0 0.37998895414337919 0.4751771938420204 0 0.37891888946814728 0.50000000000000244 0 0.36476383865284812 0.48692827439718361 0 0.36060514261377552 0.46811496206060221 0 0.37998895414337919 0.4751771938420204 0 0.36060514261377552 0.46811496206060221 0 0.37975837081719249 0.4521724430909031 0 0.37998895414337919 0.4751771938420204 0 0.36060514261377552 0.46811496206060221 0 0.3636144052830419 0.44679468724494759 0 0.37975837081719249 0.4521724430909031 0 0.36060514261377552 0.46811496206060221 0 0.37975837081719249 0.4521724430909031 0 0.3636144052830419 0.44679468724494759 0 0.36991230095174382 0.4310731343881733 0 0.37960902688801779 0.43901969975997629 0 0.3636144052830419 0.44679468724494759 0 0.37975837081719249 0.4521724430909031 0 0.37960902688801779 0.43901969975997629 0 0.3636144052830419 0.44679468724494759 0 0.34399967504104367 0.44791411548447119 0 0.35503569972110333 0.432766096774168 0 0.36060514261377552 0.46811496206060221 0 0.34399967504104367 0.44791411548447119 0 0.33691760844310559 0.46563777681798008 0 0.36060514261377552 0.46811496206060221 0 0.3636144052830419 0.44679468724494759 0 0.34399967504104367 0.44791411548447119 0 0.34399967504104367 0.44791411548447119 0 0.33691760844310559 0.46563777681798008 0 0.32605903037676381 0.45519395633645549 0 0.34399967504104367 0.44791411548447119 0 0.32166320228326972 0.44040223680186991 0 0.32605903037676381 0.45519395633645549 0 0.34399967504104367 0.44791411548447119 0 0.32166320228326972 0.44040223680186991 0 0.33664454005216121 0.42998054301358152 0 0.32166320228326972 0.44040223680186991 0 0.32605903037676381 0.45519395633645549 0 0.30917180746584683 0.45433236563959811 0 0.33691760844310559 0.46563777681798008 0 0.32605903037676381 0.45519395633645549 0 0.31854285865055298 0.46768328693835798 0 0.32605903037676381 0.45519395633645549 0 0.31854285865055298 0.46768328693835798 0 0.30917180746584683 0.45433236563959811 0 0.33691760844310559 0.46563777681798008 0 0.31854285865055298 0.46768328693835798 0 0.32490368375302492 0.48024595693141359 0 0.31854285865055298 0.46768328693835798 0 0.32490368375302492 0.48024595693141359 0 0.30547422382052591 0.47723745293052711 0 0.33691760844310559 0.46563777681798008 0 0.32490368375302492 0.48024595693141359 0 0.34145191441035849 0.48405748103030127 0 0.35060878783754418 0.5 0 0.34145191441035849 0.48405748103030127 0 0.32229868620694119 0.50000000000000033 0 0.32490368375302492 0.48024595693141359 0 0.34145191441035849 0.48405748103030127 0 0.32229868620694119 0.50000000000000033 0 0.34145191441035849 0.48405748103030127 0 0.32229868620694119 0.50000000000000033 0 0.32490368375302492 0.48024595693141359 0 0.32229868620694119 0.50000000000000033 0 0.30547422382052591 0.47723745293052711 0 0.32229868620694119 0.50000000000000033 0 0.29776221631618532 0.5 0 0.30547422382052591 0.47723745293052711 0 0.30547422382052591 0.47723745293052711 0 0.27661634943003321 0.47767716520874659 0 0.29013799441471411 0.45889723348643052 0 0.29776221631618532 0.5 0 0.30547422382052591 0.47723745293052711 0 0.27661634943003321 0.47767716520874659 0 0.29776221631618532 0.5 0 0.27322574642542929 0.5 0 0.27661634943003321 0.47767716520874659 0 0.27322574642542929 0.5 0 0.27661634943003321 0.47767716520874659 0 0.25400721293082079 0.48339841047847848 0 0.27661634943003321 0.47767716520874659 0 0.25400721293082079 0.48339841047847848 0 0.25548302501487369 0.46602845938910809 0 0.24868927653467349 0.5 0 0.27322574642542929 0.5 0 0.25400721293082079 0.48339841047847848 0 0.24934609946196951 0.44939437401392812 0 0.26523267375125592 0.44735792041654598 0 0.25657020209691261 0.4363073245030949 0 0.24934609946196951 0.44939437401392812 0 0.26523267375125592 0.44735792041654598 0 0.25548302501487369 0.46602845938910809 0 0.26523267375125592 0.44735792041654598 0 0.25548302501487369 0.46602845938910809 0 0.27145633656003409 0.46079586638597569 0 0.27661634943003321 0.47767716520874659 0 0.27145633656003409 0.46079586638597569 0 0.29013799441471411 0.45889723348643052 0 0.27661634943003321 0.47767716520874659 0 0.25548302501487369 0.46602845938910809 0 0.27145633656003409 0.46079586638597569 0 0.26523267375125592 0.44735792041654598 0 0.27145633656003409 0.46079586638597569 0 0.28216863094666988 0.44387509110376722 0 0.26523267375125592 0.44735792041654598 0 0.28216863094666988 0.44387509110376722 0 0.27581584457237879 0.42689336383258492 0 0.28216863094666988 0.44387509110376722 0 0.29013799441471411 0.45889723348643052 0 0.29968730643125291 0.4351463793250277 0 0.27145633656003409 0.46079586638597569 0 0.28216863094666988 0.44387509110376722 0 0.29013799441471411 0.45889723348643052 0 0.30547422382052591 0.47723745293052711 0 0.29013799441471411 0.45889723348643052 0 0.30917180746584683 0.45433236563959811 0 0.31854285865055298 0.46768328693835798 0 0.30547422382052591 0.47723745293052711 0 0.30917180746584683 0.45433236563959811 0 0.32166320228326972 0.44040223680186991 0 0.30917180746584683 0.45433236563959811 0 0.29968730643125291 0.4351463793250277 0 0.29013799441471411 0.45889723348643052 0 0.30917180746584683 0.45433236563959811 0 0.29968730643125291 0.4351463793250277 0 0.29968730643125291 0.4351463793250277 0 0.30864669118090948 0.41383401410955978 0 0.31887799247608639 0.42529410181579907 0 0.29968730643125291 0.4351463793250277 0 0.30864669118090948 0.41383401410955978 0 0.29226504118239433 0.41846191722748077 0 0.30864669118090948 0.41383401410955978 0 0.29226504118239433 0.41846191722748077 0 0.29901954636349382 0.40119026007031372 0 0.29226504118239433 0.41846191722748077 0 0.27581584457237879 0.42689336383258492 0 0.28192463512690258 0.40508036333332098 0 0.29226504118239433 0.41846191722748077 0 0.28192463512690258 0.40508036333332098 0 0.29901954636349382 0.40119026007031372 0 0.29968730643125291 0.4351463793250277 0 0.29226504118239433 0.41846191722748077 0 0.27581584457237879 0.42689336383258492 0 0.28216863094666988 0.44387509110376722 0 0.29968730643125291 0.4351463793250277 0 0.27581584457237879 0.42689336383258492 0 0.26523267375125592 0.44735792041654598 0 0.27581584457237879 0.42689336383258492 0 0.25657020209691261 0.4363073245030949 0 0.27581584457237879 0.42689336383258492 0 0.26638774403779841 0.41041151085089761 0 0.25518678493650132 0.42315031542777748 0 0.27581584457237879 0.42689336383258492 0 0.26638774403779841 0.41041151085089761 0 0.28192463512690258 0.40508036333332098 0 0.26638774403779841 0.41041151085089761 0 0.25518678493650132 0.42315031542777748 0 0.25135015108616149 0.40327670131123172 0 0.27581584457237879 0.42689336383258492 0 0.25518678493650132 0.42315031542777748 0 0.27581584457237879 0.42689336383258492 0 0.25518678493650132 0.42315031542777748 0 0.25657020209691261 0.4363073245030949 0 0.2433069435062806 0.43820420109490621 0 0.25518678493650132 0.42315031542777748 0 0.25657020209691261 0.4363073245030949 0 0.2556952063680451 0.38386696904535539 0 0.26766130446704789 0.39365681034957301 0 0.26822994145482593 0.37598957834156832 0 0.2556952063680451 0.38386696904535539 0 0.26822994145482593 0.37598957834156832 0 0.25868215289894841 0.37058059202568427 0 0.24653888438195401 0.37346358914553518 0 0.2556952063680451 0.38386696904535539 0 0.25868215289894841 0.37058059202568427 0 0.26638774403779841 0.41041151085089761 0 0.25135015108616149 0.40327670131123172 0 0.26766130446704789 0.39365681034957301 0 0.2556952063680451 0.38386696904535539 0 0.25135015108616149 0.40327670131123172 0 0.26766130446704789 0.39365681034957301 0 0.26638774403779841 0.41041151085089761 0 0.26766130446704789 0.39365681034957301 0 0.28192463512690258 0.40508036333332098 0 0.26766130446704789 0.39365681034957301 0 0.28225520493925021 0.38585317945115127 0 0.28192463512690258 0.40508036333332098 0 0.26766130446704789 0.39365681034957301 0 0.26822994145482593 0.37598957834156832 0 0.28225520493925021 0.38585317945115127 0 0.26822994145482593 0.37598957834156832 0 0.28225520493925021 0.38585317945115127 0 0.27887930539968853 0.36711064423996409 0 0.28225520493925021 0.38585317945115127 0 0.29889531817865722 0.38579792108570859 0 0.2967707753374314 0.37004279375307197 0 0.28225520493925021 0.38585317945115127 0 0.29901954636349382 0.40119026007031372 0 0.29889531817865722 0.38579792108570859 0 0.28225520493925021 0.38585317945115127 0 0.28192463512690258 0.40508036333332098 0 0.29901954636349382 0.40119026007031372 0 0.30864669118090948 0.41383401410955978 0 0.29901954636349382 0.40119026007031372 0 0.31982947416377322 0.40365885011308728 0 0.29901954636349382 0.40119026007031372 0 0.3138174906644759 0.39048837051818641 0 0.31982947416377322 0.40365885011308728 0 0.29901954636349382 0.40119026007031372 0 0.29889531817865722 0.38579792108570859 0 0.3138174906644759 0.39048837051818641 0 0.29889531817865722 0.38579792108570859 0 0.30894502245977529 0.37860389421856461 0 0.2967707753374314 0.37004279375307197 0 0.29889531817865722 0.38579792108570859 0 0.30894502245977529 0.37860389421856461 0 0.3138174906644759 0.39048837051818641 0 0.30894502245977529 0.37860389421856461 0 0.3138174906644759 0.39048837051818641 0 0.324767393942194 0.37905302083012948 0 0.3138174906644759 0.39048837051818641 0 0.324767393942194 0.37905302083012948 0 0.33131024611220827 0.3950845197087105 0 0.324767393942194 0.37905302083012948 0 0.34062010001180748 0.38313439718543152 0 0.33131024611220827 0.3950845197087105 0 0.324767393942194 0.37905302083012948 0 0.34062010001180748 0.38313439718543152 0 0.33713871532412309 0.37153539477519482 0 0.34062010001180748 0.38313439718543152 0 0.33131024611220827 0.3950845197087105 0 0.3453626099945129 0.39263595471542317 0 0.34062010001180748 0.38313439718543152 0 0.34951130027900251 0.37577069412301051 0 0.33713871532412309 0.37153539477519482 0 0.33131024611220827 0.3950845197087105 0 0.32962684517861018 0.41431797763616152 0 0.34592728946356349 0.40424909108063423 0 0.33131024611220827 0.3950845197087105 0 0.3453626099945129 0.39263595471542317 0 0.34592728946356349 0.40424909108063423 0 0.3138174906644759 0.39048837051818641 0 0.33131024611220827 0.3950845197087105 0 0.31982947416377322 0.40365885011308728 0 0.33131024611220827 0.3950845197087105 0 0.31982947416377322 0.40365885011308728 0 0.32962684517861018 0.41431797763616152 0 0.30864669118090948 0.41383401410955978 0 0.31982947416377322 0.40365885011308728 0 0.32962684517861018 0.41431797763616152 0 0.30864669118090948 0.41383401410955978 0 0.31887799247608639 0.42529410181579907 0 0.32962684517861018 0.41431797763616152 0 0.32166320228326972 0.44040223680186991 0 0.31887799247608639 0.42529410181579907 0 0.33664454005216121 0.42998054301358152 0 0.32166320228326972 0.44040223680186991 0 0.29968730643125291 0.4351463793250277 0 0.31887799247608639 0.42529410181579907 0 0.31887799247608639 0.42529410181579907 0 0.33664454005216121 0.42998054301358152 0 0.32962684517861018 0.41431797763616152 0 0.33664454005216121 0.42998054301358152 0 0.32962684517861018 0.41431797763616152 0 0.34916530638956911 0.41801768456679228 0 0.32962684517861018 0.41431797763616152 0 0.34916530638956911 0.41801768456679228 0 0.34592728946356349 0.40424909108063423 0 0.34916530638956911 0.41801768456679228 0 0.3631759860134241 0.40694551203187862 0 0.34592728946356349 0.40424909108063423 0 0.34916530638956911 0.41801768456679228 0 0.3631759860134241 0.40694551203187862 0 0.36328152447317708 0.42000590794169779 0 0.34399967504104367 0.44791411548447119 0 0.33664454005216121 0.42998054301358152 0 0.35503569972110333 0.432766096774168 0 0.33664454005216121 0.42998054301358152 0 0.34916530638956911 0.41801768456679228 0 0.35503569972110333 0.432766096774168 0 0.34916530638956911 0.41801768456679228 0 0.35503569972110333 0.432766096774168 0 0.36328152447317708 0.42000590794169779 0 0.36991230095174382 0.4310731343881733 0 0.36328152447317708 0.42000590794169779 0 0.38607477727830308 0.41478578845014358 0 0.3636144052830419 0.44679468724494759 0 0.35503569972110333 0.432766096774168 0 0.36991230095174382 0.4310731343881733 0 0.35503569972110333 0.432766096774168 0 0.36991230095174382 0.4310731343881733 0 0.36328152447317708 0.42000590794169779 0 0.3631759860134241 0.40694551203187862 0 0.37379874889456249 0.40161552675933948 0 0.38607477727830308 0.41478578845014358 0 0.3631759860134241 0.40694551203187862 0 0.36328152447317708 0.42000590794169779 0 0.38607477727830308 0.41478578845014358 0 0.3631759860134241 0.40694551203187862 0 0.37379874889456249 0.40161552675933948 0 0.36612114056116157 0.39374635160519089 0 0.3631759860134241 0.40694551203187862 0 0.36612114056116157 0.39374635160519089 0 0.35558806234955659 0.3974444311664006 0 0.37379874889456249 0.40161552675933948 0 0.36612114056116157 0.39374635160519089 0 0.37982309172536127 0.39098445495014511 0 0.36612114056116157 0.39374635160519089 0 0.3629644650463052 0.37762479443786312 0 0.37982309172536127 0.39098445495014511 0 0.36612114056116157 0.39374635160519089 0 0.3629644650463052 0.37762479443786312 0 0.35468392422812173 0.3875483130819995 0 0.3629644650463052 0.37762479443786312 0 0.37357140617241957 0.36718312145014648 0 0.37982309172536127 0.39098445495014511 0 0.3629644650463052 0.37762479443786312 0 0.35468392422812173 0.3875483130819995 0 0.34951130027900251 0.37577069412301051 0 0.34062010001180748 0.38313439718543152 0 0.35468392422812173 0.3875483130819995 0 0.34951130027900251 0.37577069412301051 0 0.34062010001180748 0.38313439718543152 0 0.35468392422812173 0.3875483130819995 0 0.3453626099945129 0.39263595471542317 0 0.3453626099945129 0.39263595471542317 0 0.34592728946356349 0.40424909108063423 0 0.35558806234955659 0.3974444311664006 0 0.3631759860134241 0.40694551203187862 0 0.34592728946356349 0.40424909108063423 0 0.35558806234955659 0.3974444311664006 0 0.36612114056116157 0.39374635160519089 0 0.35468392422812173 0.3875483130819995 0 0.35558806234955659 0.3974444311664006 0 0.35468392422812173 0.3875483130819995 0 0.3453626099945129 0.39263595471542317 0 0.35558806234955659 0.3974444311664006 0 0.34831003664583837 0.34995845970604422 0 0.35955762982039141 0.34338171621056279 0 0.33203009783282922 0.34347859898742861 0 0.35678580581456348 0.35124815094646239 0 0.35098653296369131 0.35725388825957949 0 0.36141834976596482 0.36061132039512911 0 0.35678580581456348 0.35124815094646239 0 0.34831003664583837 0.34995845970604422 0 0.35098653296369131 0.35725388825957949 0 0.35678580581456348 0.35124815094646239 0 0.34831003664583837 0.34995845970604422 0 0.35955762982039141 0.34338171621056279 0 0.35678580581456348 0.35124815094646239 0 0.35955762982039141 0.34338171621056279 0 0.35098653296369131 0.35725388825957949 0 0.34462725474717981 0.36433603712797608 0 0.34219011679771638 0.35442994412618678 0 0.34831003664583837 0.34995845970604422 0 0.35098653296369131 0.35725388825957949 0 0.34219011679771638 0.35442994412618678 0 0.35098653296369131 0.35725388825957949 0 0.34462725474717981 0.36433603712797608 0 0.35290098033724637 0.36591841038506739 0 0.3629644650463052 0.37762479443786312 0 0.35290098033724637 0.36591841038506739 0 0.36141834976596482 0.36061132039512911 0 0.34951130027900251 0.37577069412301051 0 0.34462725474717981 0.36433603712797608 0 0.33713871532412309 0.37153539477519482 0 0.34951130027900251 0.37577069412301051 0 0.34462725474717981 0.36433603712797608 0 0.35290098033724637 0.36591841038506739 0 0.3629644650463052 0.37762479443786312 0 0.34951130027900251 0.37577069412301051 0 0.35290098033724637 0.36591841038506739 0 0.35098653296369131 0.35725388825957949 0 0.35290098033724637 0.36591841038506739 0 0.36141834976596482 0.36061132039512911 0 0.3629644650463052 0.37762479443786312 0 0.37357140617241957 0.36718312145014648 0 0.36141834976596482 0.36061132039512911 0 0.35678580581456348 0.35124815094646239 0 0.36141834976596482 0.36061132039512911 0 0.36742536691436151 0.34335402581617369 0 0.37357140617241957 0.36718312145014648 0 0.36742536691436151 0.34335402581617369 0 0.37357140617241957 0.36718312145014648 0 0.36141834976596482 0.36061132039512911 0 0.36742536691436151 0.34335402581617369 0 0.37357140617241957 0.36718312145014648 0 0.36742536691436151 0.34335402581617369 0 0.37705885677686402 0.34802478277143373 0 0.35678580581456348 0.35124815094646239 0 0.36742536691436151 0.34335402581617369 0 0.35955762982039141 0.34338171621056279 0 0.36742536691436151 0.34335402581617369 0 0.37024984897477742 0.3346375532621817 0 0.36400470723331729 0.33076091338875169 0 0.36742536691436151 0.34335402581617369 0 0.37024984897477742 0.3346375532621817 0 0.37562048186836272 0.33698045384266889 0 0.36742536691436151 0.34335402581617369 0 0.37562048186836272 0.33698045384266889 0 0.37705885677686402 0.34802478277143373 0 0.37024984897477742 0.3346375532621817 0 0.36400470723331729 0.33076091338875169 0 0.37406167390447881 0.3274544228833185 0 0.37024984897477742 0.3346375532621817 0 0.37406167390447881 0.3274544228833185 0 0.37562048186836272 0.33698045384266889 0 0.36742536691436151 0.34335402581617369 0 0.36400470723331729 0.33076091338875169 0 0.36400470723331729 0.33076091338875169 0 0.35955762982039141 0.34338171621056279 0 0.35500850325027677 0.33468489238247812 0 0.36400470723331729 0.33076091338875169 0 0.35955762982039141 0.34338171621056279 0 0.36742536691436151 0.34335402581617369 0 0.36400470723331729 0.33076091338875169 0 0.35955762982039141 0.34338171621056279 0 0.36742536691436151 0.34335402581617369 0 0.35955762982039141 0.34338171621056279 0 0.36400470723331729 0.33076091338875169 0 0.36987104182985742 0.31411225959773248 0 0.36400470723331729 0.33076091338875169 0 0.36987104182985742 0.31411225959773248 0 0.37171991395950832 0.32150651330000279 0 0.36987104182985742 0.31411225959773248 0 0.36159323701479512 0.32157999627283113 0 0.34910571625683001 0.30439499195562197 0 0.36400470723331729 0.33076091338875169 0 0.36987104182985742 0.31411225959773248 0 0.36159323701479512 0.32157999627283113 0 0.36987104182985742 0.31411225959773248 0 0.37236793078022012 0.31528069483935561 0 0.37888721078459908 0.3130509633099946 0 0.36987104182985742 0.31411225959773248 0 0.37236793078022012 0.31528069483935561 0 0.37236793078022012 0.31528069483935561 0 0.37171991395950832 0.32150651330000279 0 0.37829421604966718 0.31992427579085542 0 0.36987104182985742 0.31411225959773248 0 0.37236793078022012 0.31528069483935561 0 0.37171991395950832 0.32150651330000279 0 0.36400470723331729 0.33076091338875169 0 0.37171991395950832 0.32150651330000279 0 0.37406167390447881 0.3274544228833185 0 0.37171991395950832 0.32150651330000279 0 0.37406167390447881 0.3274544228833185 0 0.37829421604966718 0.31992427579085542 0 0.36400470723331729 0.33076091338875169 0 0.36159323701479512 0.32157999627283113 0 0.36400470723331729 0.33076091338875169 0 0.36159323701479512 0.32157999627283113 0 0.35341971752540902 0.32567984263489902 0 0.36159323701479512 0.32157999627283113 0 0.34840910771359901 0.31803072828422252 0 0.34910571625683001 0.30439499195562197 0 0.36159323701479512 0.32157999627283113 0 0.35341971752540902 0.32567984263489902 0 0.34840910771359901 0.31803072828422252 0 0.34840910771359901 0.31803072828422252 0 0.34550696215680909 0.33051027313453912 0 0.3378249513962453 0.32053250245062598 0 0.35341971752540902 0.32567984263489902 0 0.34840910771359901 0.31803072828422252 0 0.34550696215680909 0.33051027313453912 0 0.35955762982039141 0.34338171621056279 0 0.34639928239541562 0.33766513067375969 0 0.33203009783282922 0.34347859898742861 0 0.35955762982039141 0.34338171621056279 0 0.33203009783282922 0.34347859898742861 0 0.35955762982039141 0.34338171621056279 0 0.35500850325027677 0.33468489238247812 0 0.34639928239541562 0.33766513067375969 0 0.36400470723331729 0.33076091338875169 0 0.35341971752540902 0.32567984263489902 0 0.35500850325027677 0.33468489238247812 0 0.35341971752540902 0.32567984263489902 0 0.35500850325027677 0.33468489238247812 0 0.34550696215680909 0.33051027313453912 0 0.35500850325027677 0.33468489238247812 0 0.34550696215680909 0.33051027313453912 0 0.34639928239541562 0.33766513067375969 0 0.34550696215680909 0.33051027313453912 0 0.34639928239541562 0.33766513067375969 0 0.3398932189167716 0.33627017265378928 0 0.34639928239541562 0.33766513067375969 0 0.3398932189167716 0.33627017265378928 0 0.33203009783282922 0.34347859898742861 0 0.34550696215680909 0.33051027313453912 0 0.3398932189167716 0.33627017265378928 0 0.33395851707038199 0.33150259155817391 0 0.3398932189167716 0.33627017265378928 0 0.33395851707038199 0.33150259155817391 0 0.33203009783282922 0.34347859898742861 0 0.33395851707038199 0.33150259155817391 0 0.33203009783282922 0.34347859898742861 0 0.32317642099488458 0.33767718378869771 0 0.34840910771359901 0.31803072828422252 0 0.3378249513962453 0.32053250245062598 0 0.33788771437796378 0.31076268021101738 0 0.34550696215680909 0.33051027313453912 0 0.33395851707038199 0.33150259155817391 0 0.3378249513962453 0.32053250245062598 0 0.33395851707038199 0.33150259155817391 0 0.3378249513962453 0.32053250245062598 0 0.32575840583934318 0.31617745405110459 0 0.3378249513962453 0.32053250245062598 0 0.32575840583934318 0.31617745405110459 0 0.33788771437796378 0.31076268021101738 0 0.32575840583934318 0.31617745405110459 0 0.31603159915659829 0.32534643897363069 0 0.32317642099488458 0.33767718378869771 0 0.32575840583934318 0.31617745405110459 0 0.32317642099488458 0.33767718378869771 0 0.32575840583934318 0.31617745405110459 0 0.31384960707452397 0.31611391219425072 0 0.31749720813885429 0.30553275195131518 0 0.32575840583934318 0.31617745405110459 0 0.31603159915659829 0.32534643897363069 0 0.31384960707452397 0.31611391219425072 0 0.33203009783282922 0.34347859898742861 0 0.30450256584526691 0.34357548176429392 0 0.33395851707038199 0.33150259155817391 0 0.32575840583934318 0.31617745405110459 0 0.32317642099488458 0.33767718378869771 0 0.32317642099488458 0.33767718378869771 0 0.30450256584526691 0.34357548176429392 0 0.30997642359054661 0.3325779308477167 0 0.33203009783282922 0.34347859898742861 0 0.32317642099488458 0.33767718378869771 0 0.30450256584526691 0.34357548176429392 0 0.31603159915659829 0.32534643897363069 0 0.32317642099488458 0.33767718378869771 0 0.30997642359054661 0.3325779308477167 0 0.31472721786719338 0.35520199827663212 0 0.32175414839601069 0.35074333070048408 0 0.30450256584526691 0.34357548176429392 0 0.33203009783282922 0.34347859898742861 0 0.32175414839601069 0.35074333070048408 0 0.30450256584526691 0.34357548176429392 0 0.32540611497981847 0.35815274486230508 0 0.32175414839601069 0.35074333070048408 0 0.33210474545494512 0.35330782961176083 0 0.31472721786719338 0.35520199827663212 0 0.32540611497981847 0.35815274486230508 0 0.32175414839601069 0.35074333070048408 0 0.33203009783282922 0.34347859898742861 0 0.32175414839601069 0.35074333070048408 0 0.33210474545494512 0.35330782961176083 0 0.33203009783282922 0.34347859898742861 0 0.33210474545494512 0.35330782961176083 0 0.34219011679771638 0.35442994412618678 0 0.34831003664583837 0.34995845970604422 0 0.33203009783282922 0.34347859898742861 0 0.34219011679771638 0.35442994412618678 0 0.32540611497981847 0.35815274486230508 0 0.33210474545494512 0.35330782961176083 0 0.33503588278129948 0.36110789109881819 0 0.33210474545494512 0.35330782961176083 0 0.34219011679771638 0.35442994412618678 0 0.33503588278129948 0.36110789109881819 0 0.34462725474717981 0.36433603712797608 0 0.34219011679771638 0.35442994412618678 0 0.33503588278129948 0.36110789109881819 0 0.34462725474717981 0.36433603712797608 0 0.33713871532412309 0.37153539477519482 0 0.33503588278129948 0.36110789109881819 0 0.32540611497981847 0.35815274486230508 0 0.33503588278129948 0.36110789109881819 0 0.32740530394157041 0.36781978912901198 0 0.33713871532412309 0.37153539477519482 0 0.33503588278129948 0.36110789109881819 0 0.32740530394157041 0.36781978912901198 0 0.324767393942194 0.37905302083012948 0 0.33713871532412309 0.37153539477519482 0 0.32740530394157041 0.36781978912901198 0 0.30894502245977529 0.37860389421856461 0 0.324767393942194 0.37905302083012948 0 0.31467640852982021 0.36628219278398277 0 0.324767393942194 0.37905302083012948 0 0.32740530394157041 0.36781978912901198 0 0.31467640852982021 0.36628219278398277 0 0.32540611497981847 0.35815274486230508 0 0.32740530394157041 0.36781978912901198 0 0.31467640852982021 0.36628219278398277 0 0.31472721786719338 0.35520199827663212 0 0.32540611497981847 0.35815274486230508 0 0.31467640852982021 0.36628219278398277 0 0.30318948509799998 0.35862960298851398 0 0.29105379003614501 0.35418987775493138 0 0.2967707753374314 0.37004279375307197 0 0.31467640852982021 0.36628219278398277 0 0.30318948509799998 0.35862960298851398 0 0.2967707753374314 0.37004279375307197 0 0.30894502245977529 0.37860389421856461 0 0.31467640852982021 0.36628219278398277 0 0.2967707753374314 0.37004279375307197 0 0.31472721786719338 0.35520199827663212 0 0.31467640852982021 0.36628219278398277 0 0.30318948509799998 0.35862960298851398 0 0.31472721786719338 0.35520199827663212 0 0.30318948509799998 0.35862960298851398 0 0.30450256584526691 0.34357548176429392 0 0.30318948509799998 0.35862960298851398 0 0.29105379003614501 0.35418987775493138 0 0.30450256584526691 0.34357548176429392 0 0.29105379003614501 0.35418987775493138 0 0.27697503385770461 0.34367236454115913 0 0.30450256584526691 0.34357548176429392 0 0.28225520493925021 0.38585317945115127 0 0.2967707753374314 0.37004279375307197 0 0.27887930539968853 0.36711064423996409 0 0.29105379003614501 0.35418987775493138 0 0.2967707753374314 0.37004279375307197 0 0.27887930539968853 0.36711064423996409 0 0.26822994145482593 0.37598957834156832 0 0.27887930539968853 0.36711064423996409 0 0.26548429477282781 0.36578528851326342 0 0.27887930539968853 0.36711064423996409 0 0.26760600432106418 0.35262946478379359 0 0.26548429477282781 0.36578528851326342 0 0.26760600432106418 0.35262946478379359 0 0.27697503385770461 0.34367236454115913 0 0.26875640844520099 0.33572066531583472 0 0.29105379003614501 0.35418987775493138 0 0.27887930539968853 0.36711064423996409 0 0.26760600432106418 0.35262946478379359 0 0.29105379003614501 0.35418987775493138 0 0.26760600432106418 0.35262946478379359 0 0.29105379003614501 0.35418987775493138 0 0.26760600432106418 0.35262946478379359 0 0.27697503385770461 0.34367236454115913 0 0.2441582186059838 0.35106905181265002 0 0.26760600432106418 0.35262946478379359 0 0.2441582186059838 0.35106905181265002 0 0.26760600432106418 0.35262946478379359 0 0.25402406978961162 0.36261616317530643 0 0.2441582186059838 0.35106905181265002 0 0.26760600432106418 0.35262946478379359 0 0.25806788935899488 0.34167717255064062 0 0.24653888438195401 0.37346358914553518 0 0.25402406978961162 0.36261616317530643 0 0.25868215289894841 0.37058059202568427 0 0.26822994145482593 0.37598957834156832 0 0.25868215289894841 0.37058059202568427 0 0.26548429477282781 0.36578528851326342 0 0.25402406978961162 0.36261616317530643 0 0.25868215289894841 0.37058059202568427 0 0.26548429477282781 0.36578528851326342 0 0.26760600432106418 0.35262946478379359 0 0.25402406978961162 0.36261616317530643 0 0.26548429477282781 0.36578528851326342 0 0.25328760085072821 0.3276627351342245 0 0.26241698309547418 0.30425641845579982 0 0.2464750028821345 0.31629322417332928 0 0.25328760085072821 0.3276627351342245 0 0.26241698309547418 0.30425641845579982 0 0.26536093914457259 0.32117653907809091 0 0.25328760085072821 0.3276627351342245 0 0.26241698309547418 0.30425641845579982 0 0.26760600432106418 0.35262946478379359 0 0.25806788935899488 0.34167717255064062 0 0.26875640844520099 0.33572066531583472 0 0.2441582186059838 0.35106905181265002 0 0.25328760085072821 0.3276627351342245 0 0.25806788935899488 0.34167717255064062 0 0.25328760085072821 0.3276627351342245 0 0.25806788935899488 0.34167717255064062 0 0.26875640844520099 0.33572066531583472 0 0.26536093914457259 0.32117653907809091 0 0.25328760085072821 0.3276627351342245 0 0.26875640844520099 0.33572066531583472 0 0.27697503385770461 0.34367236454115913 0 0.26875640844520099 0.33572066531583472 0 0.28513191142155092 0.3345674953787719 0 0.26875640844520099 0.33572066531583472 0 0.27667346592581038 0.32739618990488212 0 0.28513191142155092 0.3345674953787719 0 0.26536093914457259 0.32117653907809091 0 0.27667346592581038 0.32739618990488212 0 0.28051811446584363 0.31909783990881352 0 0.26536093914457259 0.32117653907809091 0 0.26875640844520099 0.33572066531583472 0 0.27667346592581038 0.32739618990488212 0 0.26536093914457259 0.32117653907809091 0 0.27527439138472048 0.31171294031659841 0 0.26903431474627382 0.31020293444152569 0 0.28051811446584363 0.31909783990881352 0 0.28398027848970081 0.30752530001003608 0 0.27527439138472048 0.31171294031659841 0 0.26536093914457259 0.32117653907809091 0 0.28051811446584363 0.31909783990881352 0 0.27527439138472048 0.31171294031659841 0 0.28051811446584363 0.31909783990881352 0 0.28752132068597569 0.3249814651302747 0 0.28926242015486853 0.31673765098512963 0 0.28051811446584363 0.31909783990881352 0 0.28926242015486853 0.31673765098512963 0 0.28398027848970081 0.30752530001003608 0 0.27667346592581038 0.32739618990488212 0 0.28051811446584363 0.31909783990881352 0 0.28752132068597569 0.3249814651302747 0 0.28752132068597569 0.3249814651302747 0 0.29660263439535839 0.32057828470514921 0 0.29693937775242257 0.33151132989890247 0 0.28752132068597569 0.3249814651302747 0 0.29660263439535839 0.32057828470514921 0 0.28926242015486853 0.31673765098512963 0 0.29660263439535839 0.32057828470514921 0 0.28926242015486853 0.31673765098512963 0 0.29530548730488448 0.30975824861210077 0 0.27697503385770461 0.34367236454115913 0 0.28513191142155092 0.3345674953787719 0 0.30450256584526691 0.34357548176429392 0 0.27697503385770461 0.34367236454115913 0 0.30450256584526691 0.34357548176429392 0 0.28513191142155092 0.3345674953787719 0 0.30450256584526691 0.34357548176429392 0 0.29693937775242257 0.33151132989890247 0 0.27667346592581038 0.32739618990488212 0 0.28752132068597569 0.3249814651302747 0 0.28513191142155092 0.3345674953787719 0 0.28752132068597569 0.3249814651302747 0 0.28513191142155092 0.3345674953787719 0 0.29693937775242257 0.33151132989890247 0 0.30450256584526691 0.34357548176429392 0 0.29693937775242257 0.33151132989890247 0 0.30997642359054661 0.3325779308477167 0 0.29693937775242257 0.33151132989890247 0 0.30997642359054661 0.3325779308477167 0 0.30739713828369292 0.32418571398638379 0 0.29660263439535839 0.32057828470514921 0 0.30376676617338222 0.31574782390081901 0 0.30739713828369292 0.32418571398638379 0 0.29660263439535839 0.32057828470514921 0 0.30376676617338222 0.31574782390081901 0 0.29530548730488448 0.30975824861210077 0 0.29660263439535839 0.32057828470514921 0 0.29693937775242257 0.33151132989890247 0 0.30739713828369292 0.32418571398638379 0 0.31603159915659829 0.32534643897363069 0 0.31384960707452397 0.31611391219425072 0 0.30739713828369292 0.32418571398638379 0 0.31603159915659829 0.32534643897363069 0 0.30997642359054661 0.3325779308477167 0 0.30739713828369292 0.32418571398638379 0 0.31384960707452397 0.31611391219425072 0 0.30376676617338222 0.31574782390081901 0 0.30739713828369292 0.32418571398638379 0 0.31384960707452397 0.31611391219425072 0 0.30376676617338222 0.31574782390081901 0 0.30495218048185518 0.30578385863691371 0 0.31384960707452397 0.31611391219425072 0 0.30495218048185518 0.30578385863691371 0 0.31749720813885429 0.30553275195131518 0 0.30495218048185518 0.30578385863691371 0 0.30768099375433888 0.29845776127813478 0 0.31749720813885429 0.30553275195131518 0 0.30495218048185518 0.30578385863691371 0 0.30768099375433888 0.29845776127813478 0 0.29941513536675601 0.29701308748916472 0 0.30495218048185518 0.30578385863691371 0 0.29941513536675601 0.29701308748916472 0 0.29230677080670209 0.30007880571255469 0 0.30376676617338222 0.31574782390081901 0 0.30495218048185518 0.30578385863691371 0 0.29530548730488448 0.30975824861210077 0 0.30495218048185518 0.30578385863691371 0 0.29530548730488448 0.30975824861210077 0 0.29230677080670209 0.30007880571255469 0 0.29577434489380477 0.28785766669573748 0 0.32000232444739107 0.29486523161409062 0 0.3122365113016205 0.2871418103938092 0 0.29613263191943839 0.27960589647410689 0 0.30768099375433888 0.29845776127813478 0 0.29577434489380477 0.28785766669573748 0 0.32000232444739107 0.29486523161409062 0 0.3122365113016205 0.2871418103938092 0 0.29577434489380477 0.28785766669573748 0 0.32000232444739107 0.29486523161409062 0 0.3122365113016205 0.2871418103938092 0 0.29577434489380477 0.28785766669573748 0 0.29613263191943839 0.27960589647410689 0 0.30768099375433888 0.29845776127813478 0 0.29941513536675601 0.29701308748916472 0 0.29577434489380477 0.28785766669573748 0 0.29577434489380477 0.28785766669573748 0 0.27154636534022109 0.28085010177737518 0 0.28305005426612001 0.27934070704835068 0 0.29577434489380477 0.28785766669573748 0 0.2814252557470921 0.29066263468177173 0 0.27154636534022109 0.28085010177737518 0 0.29577434489380477 0.28785766669573748 0 0.27154636534022109 0.28085010177737518 0 0.29577434489380477 0.28785766669573748 0 0.28305005426612001 0.27934070704835068 0 0.29613263191943839 0.27960589647410689 0 0.29941513536675601 0.29701308748916472 0 0.29577434489380477 0.28785766669573748 0 0.29388589403382359 0.29458863076001879 0 0.29577434489380477 0.28785766669573748 0 0.29388589403382359 0.29458863076001879 0 0.28804732506803138 0.29340496314261849 0 0.29388589403382359 0.29458863076001879 0 0.28804732506803138 0.29340496314261849 0 0.29230677080670209 0.30007880571255469 0 0.28804732506803138 0.29340496314261849 0 0.2814252557470921 0.29066263468177173 0 0.28014456917465791 0.29747557708967132 0 0.29577434489380477 0.28785766669573748 0 0.28804732506803138 0.29340496314261849 0 0.2814252557470921 0.29066263468177173 0 0.29530548730488448 0.30975824861210077 0 0.29230677080670209 0.30007880571255469 0 0.28398027848970081 0.30752530001003608 0 0.28926242015486853 0.31673765098512963 0 0.29530548730488448 0.30975824861210077 0 0.28398027848970081 0.30752530001003608 0 0.29941513536675601 0.29701308748916472 0 0.29388589403382359 0.29458863076001879 0 0.29230677080670209 0.30007880571255469 0 0.28804732506803138 0.29340496314261849 0 0.29230677080670209 0.30007880571255469 0 0.28014456917465791 0.29747557708967132 0 0.29230677080670209 0.30007880571255469 0 0.28398027848970081 0.30752530001003608 0 0.28014456917465791 0.29747557708967132 0 0.28398027848970081 0.30752530001003608 0 0.27527439138472048 0.31171294031659841 0 0.27308494536032812 0.3036658399156138 0 0.26903431474627382 0.31020293444152569 0 0.27308494536032812 0.3036658399156138 0 0.26241698309547418 0.30425641845579982 0 0.27527439138472048 0.31171294031659841 0 0.26903431474627382 0.31020293444152569 0 0.27308494536032812 0.3036658399156138 0 0.27308494536032812 0.3036658399156138 0 0.27372362374355452 0.29538211438404632 0 0.26241698309547418 0.30425641845579982 0 0.28398027848970081 0.30752530001003608 0 0.27308494536032812 0.3036658399156138 0 0.28014456917465791 0.29747557708967132 0 0.27308494536032812 0.3036658399156138 0 0.28014456917465791 0.29747557708967132 0 0.27372362374355452 0.29538211438404632 0 0.26241698309547418 0.30425641845579982 0 0.27154636534022109 0.28085010177737518 0 0.27372362374355452 0.29538211438404632 0 0.26241698309547418 0.30425641845579982 0 0.27154636534022109 0.28085010177737518 0 0.2814252557470921 0.29066263468177173 0 0.28014456917465791 0.29747557708967132 0 0.27372362374355452 0.29538211438404632 0 0.2814252557470921 0.29066263468177173 0 0.27372362374355452 0.29538211438404632 0 0.27154636534022109 0.28085010177737518 0 0.26288552605676219 0.2819343521612887 0 0.26276159014077821 0.28701387251179961 0 0.27154636534022109 0.28085010177737518 0 0.26276159014077821 0.28701387251179961 0 0.26241698309547418 0.30425641845579982 0 0.27154636534022109 0.28085010177737518 0 0.26276159014077821 0.28701387251179961 0 0.25742819329288802 0.29216085456581198 0 0.26241698309547418 0.30425641845579982 0 0.26288552605676219 0.2819343521612887 0 0.26276159014077821 0.28701387251179961 0 0.25983665547550933 0.28462290590006289 0 0.26276159014077821 0.28701387251179961 0 0.25983665547550933 0.28462290590006289 0 0.25742819329288802 0.29216085456581198 0 0.25983665547550933 0.28462290590006289 0 0.25593439748886748 0.2845032295061336 0 0.26044558350243507 0.27972140394084422 0 0.26288552605676219 0.2819343521612887 0 0.25983665547550933 0.28462290590006289 0 0.26044558350243507 0.27972140394084422 0 0.2481335889168135 0.28330884691242919 0 0.25593439748886748 0.2845032295061336 0 0.25147580858485691 0.29246213415946992 0 0.2481335889168135 0.28330884691242919 0 0.25593439748886748 0.2845032295061336 0 0.25983743582486862 0.2774634766763614 0 0.25983665547550933 0.28462290590006289 0 0.25593439748886748 0.2845032295061336 0 0.25742819329288802 0.29216085456581198 0 0.25593439748886748 0.2845032295061336 0 0.25742819329288802 0.29216085456581198 0 0.25147580858485691 0.29246213415946992 0 0.25742819329288802 0.29216085456581198 0 0.25147580858485691 0.29246213415946992 0 0.25586219828294438 0.29828804756351063 0 0.26536093914457259 0.32117653907809091 0 0.26903431474627382 0.31020293444152569 0 0.26241698309547418 0.30425641845579982 0 0.25212780815855879 0.30427278307296041 0 0.25586219828294438 0.29828804756351063 0 0.26241698309547418 0.30425641845579982 0 0.2464750028821345 0.31629322417332928 0 0.25212780815855879 0.30427278307296041 0 0.26241698309547418 0.30425641845579982 0 0.25147580858485691 0.29246213415946992 0 0.25212780815855879 0.30427278307296041 0 0.25586219828294438 0.29828804756351063 0 0.25742819329288802 0.29216085456581198 0 0.25586219828294438 0.29828804756351063 0 0.26241698309547418 0.30425641845579982 0 0.25479644531309942 0.25874731555889569 0 0.27018169502340272 0.25675489516824068 0 0.26447930193717117 0.24706052181301319 0 0.2411936741170993 0.27207105960747108 0 0.25479644531309942 0.25874731555889569 0 0.25983743582486862 0.2774634766763614 0 0.25479644531309942 0.25874731555889569 0 0.2745512245865207 0.27314610985245719 0 0.25479644531309942 0.25874731555889569 0 0.25983743582486862 0.2774634766763614 0 0.2745512245865207 0.27314610985245719 0 0.25479644531309942 0.25874731555889569 0 0.25983743582486862 0.2774634766763614 0 0.2411936741170993 0.27207105960747108 0 0.25983743582486862 0.2774634766763614 0 0.26288552605676219 0.2819343521612887 0 0.25983743582486862 0.2774634766763614 0 0.27154636534022109 0.28085010177737518 0 0.25593439748886748 0.2845032295061336 0 0.26044558350243507 0.27972140394084422 0 0.25983743582486862 0.2774634766763614 0 0.26288552605676219 0.2819343521612887 0 0.26044558350243507 0.27972140394084422 0 0.25983743582486862 0.2774634766763614 0 0.26044558350243507 0.27972140394084422 0 0.25983743582486862 0.2774634766763614 0 0.25983743582486862 0.2774634766763614 0 0.27154636534022109 0.28085010177737518 0 0.25983743582486862 0.2774634766763614 0 0.27154636534022109 0.28085010177737518 0 0.2745512245865207 0.27314610985245719 0 0.27154636534022109 0.28085010177737518 0 0.2745512245865207 0.27314610985245719 0 0.2745512245865207 0.27314610985245719 0 0.28305005426612001 0.27934070704835068 0 0.27154636534022109 0.28085010177737518 0 0.2745512245865207 0.27314610985245719 0 0.28305005426612001 0.27934070704835068 0 0.25479644531309942 0.25874731555889569 0 0.2745512245865207 0.27314610985245719 0 0.27018169502340272 0.25675489516824068 0 0.2745512245865207 0.27314610985245719 0 0.27018169502340272 0.25675489516824068 0 0.28464777945004982 0.24726011295131869 0 0.2745512245865207 0.27314610985245719 0 0.28464777945004982 0.24726011295131869 0 0.27018169502340272 0.25675489516824068 0 0.26447930193717117 0.24706052181301319 0 0.28464777945004982 0.24726011295131869 0 0.28991305252898231 0.2636024250513902 0 0.30764032109628908 0.26142441456623822 0 0.28464777945004982 0.24726011295131869 0 0.30764032109628908 0.26142441456623822 0 0.28464777945004982 0.24726011295131869 0 0.2745512245865207 0.27314610985245719 0 0.28991305252898231 0.2636024250513902 0 0.28464777945004982 0.24726011295131869 0 0.2745512245865207 0.27314610985245719 0 0.28305005426612001 0.27934070704835068 0 0.28852654441001041 0.27314568327404309 0 0.2745512245865207 0.27314610985245719 0 0.28991305252898231 0.2636024250513902 0 0.28852654441001041 0.27314568327404309 0 0.28991305252898231 0.2636024250513902 0 0.28852654441001041 0.27314568327404309 0 0.29898575874899042 0.27003327794391058 0 0.28305005426612001 0.27934070704835068 0 0.28852654441001041 0.27314568327404309 0 0.29613263191943839 0.27960589647410689 0 0.28852654441001041 0.27314568327404309 0 0.29613263191943839 0.27960589647410689 0 0.29898575874899042 0.27003327794391058 0 0.3122365113016205 0.2871418103938092 0 0.29613263191943839 0.27960589647410689 0 0.31149501162204252 0.27624007220551938 0 0.29613263191943839 0.27960589647410689 0 0.29898575874899042 0.27003327794391058 0 0.31149501162204252 0.27624007220551938 0 0.29898575874899042 0.27003327794391058 0 0.31149501162204252 0.27624007220551938 0 0.30764032109628908 0.26142441456623822 0 0.28991305252898231 0.2636024250513902 0 0.29898575874899042 0.27003327794391058 0 0.30764032109628908 0.26142441456623822 0 0.30764032109628908 0.26142441456623822 0 0.30317071187591821 0.2415907003000354 0 0.28464777945004982 0.24726011295131869 0 0.30764032109628908 0.26142441456623822 0 0.3334012240429397 0.25253706275929022 0 0.3306328627425239 0.27558871618116498 0 0.30764032109628908 0.26142441456623822 0 0.3334012240429397 0.25253706275929022 0 0.31898891744699359 0.24255199555300319 0 0.3334012240429397 0.25253706275929022 0 0.3306328627425239 0.27558871618116498 0 0.3334012240429397 0.25253706275929022 0 0.3306328627425239 0.27558871618116498 0 0.34768202669497139 0.27261557912995499 0 0.31149501162204252 0.27624007220551938 0 0.30764032109628908 0.26142441456623822 0 0.3306328627425239 0.27558871618116498 0 0.31149501162204252 0.27624007220551938 0 0.3306328627425239 0.27558871618116498 0 0.32236745349243329 0.28403661121588708 0 0.30764032109628908 0.26142441456623822 0 0.3306328627425239 0.27558871618116498 0 0.3122365113016205 0.2871418103938092 0 0.31149501162204252 0.27624007220551938 0 0.32236745349243329 0.28403661121588708 0 0.3306328627425239 0.27558871618116498 0 0.32236745349243329 0.28403661121588708 0 0.3283403906838025 0.29467772431351169 0 0.3122365113016205 0.2871418103938092 0 0.3283403906838025 0.29467772431351169 0 0.3122365113016205 0.2871418103938092 0 0.32000232444739107 0.29486523161409062 0 0.3283403906838025 0.29467772431351169 0 0.3122365113016205 0.2871418103938092 0 0.32236745349243329 0.28403661121588708 0 0.3283403906838025 0.29467772431351169 0 0.32575840583934318 0.31617745405110459 0 0.31749720813885429 0.30553275195131518 0 0.3283403906838025 0.29467772431351169 0 0.32575840583934318 0.31617745405110459 0 0.3283403906838025 0.29467772431351169 0 0.30768099375433888 0.29845776127813478 0 0.32000232444739107 0.29486523161409062 0 0.31749720813885429 0.30553275195131518 0 0.32000232444739107 0.29486523161409062 0 0.31749720813885429 0.30553275195131518 0 0.3283403906838025 0.29467772431351169 0 0.33788771437796378 0.31076268021101738 0 0.3283403906838025 0.29467772431351169 0 0.34910571625683001 0.30439499195562197 0 0.3283403906838025 0.29467772431351169 0 0.34910571625683001 0.30439499195562197 0 0.32575840583934318 0.31617745405110459 0 0.33788771437796378 0.31076268021101738 0 0.3283403906838025 0.29467772431351169 0 0.3306328627425239 0.27558871618116498 0 0.3283403906838025 0.29467772431351169 0 0.3283403906838025 0.29467772431351169 0 0.35347179975325682 0.28965839135503901 0 0.34910571625683001 0.30439499195562197 0 0.3306328627425239 0.27558871618116498 0 0.3283403906838025 0.29467772431351169 0 0.35347179975325682 0.28965839135503901 0 0.3306328627425239 0.27558871618116498 0 0.35347179975325682 0.28965839135503901 0 0.34840910771359901 0.31803072828422252 0 0.33788771437796378 0.31076268021101738 0 0.34910571625683001 0.30439499195562197 0 0.35347179975325682 0.28965839135503901 0 0.34910571625683001 0.30439499195562197 0 0.36331469068602229 0.29826837814668261 0 0.36987104182985742 0.31411225959773248 0 0.37784494341043229 0.29148233206906088 0 0.36987104182985742 0.31411225959773248 0 0.34910571625683001 0.30439499195562197 0 0.36331469068602229 0.29826837814668261 0 0.36987104182985742 0.31411225959773248 0 0.36331469068602229 0.29826837814668261 0 0.37784494341043229 0.29148233206906088 0 0.36987104182985742 0.31411225959773248 0 0.34910571625683001 0.30439499195562197 0 0.35347179975325682 0.28965839135503901 0 0.36331469068602229 0.29826837814668261 0 0.36531863586591728 0.28026688887500628 0 0.36331469068602229 0.29826837814668261 0 0.36531863586591728 0.28026688887500628 0 0.37784494341043229 0.29148233206906088 0 0.36531863586591728 0.28026688887500628 0 0.36055835291572802 0.26308739056951458 0 0.38581884499100683 0.26885240454038911 0 0.37296084668648471 0.25017597579261153 0 0.36055835291572802 0.26308739056951458 0 0.38581884499100683 0.26885240454038911 0 0.37296084668648471 0.25017597579261153 0 0.36055835291572802 0.26308739056951458 0 0.35124264266190919 0.24984344898164279 0 0.3334012240429397 0.25253706275929022 0 0.34768202669497139 0.27261557912995499 0 0.35124264266190919 0.24984344898164279 0 0.36055835291572802 0.26308739056951458 0 0.34768202669497139 0.27261557912995499 0 0.35124264266190919 0.24984344898164279 0 0.35347179975325682 0.28965839135503901 0 0.36531863586591728 0.28026688887500628 0 0.34768202669497139 0.27261557912995499 0 0.3306328627425239 0.27558871618116498 0 0.35347179975325682 0.28965839135503901 0 0.34768202669497139 0.27261557912995499 0 0.36531863586591728 0.28026688887500628 0 0.36055835291572802 0.26308739056951458 0 0.34768202669497139 0.27261557912995499 0 0.40188080654803232 0.2776023554826279 0 0.38581884499100683 0.26885240454038911 0 0.39311437846497288 0.29017295073602339 0 0.40188080654803232 0.2776023554826279 0 0.39831624924643538 0.26229927609847459 0 0.41754972192440581 0.26539065949369828 0 0.40188080654803232 0.2776023554826279 0 0.39831624924643538 0.26229927609847459 0 0.38581884499100683 0.26885240454038911 0 0.40188080654803232 0.2776023554826279 0 0.39831624924643538 0.26229927609847459 0 0.41754972192440581 0.26539065949369828 0 0.39475169194483772 0.2469961967143216 0 0.39831624924643538 0.26229927609847459 0 0.38581884499100683 0.26885240454038911 0 0.39475169194483772 0.2469961967143216 0 0.41754972192440581 0.26539065949369828 0 0.40324908199546572 0.24572053366433869 0 0.39475169194483772 0.2469961967143216 0 0.39831624924643538 0.26229927609847459 0 0.41754972192440581 0.26539065949369828 0 0.39475169194483772 0.2469961967143216 0 0.38581884499100683 0.26885240454038911 0 0.39426155780227179 0.24489199104221671 0 0.39475169194483772 0.2469961967143216 0 0.39831624924643538 0.26229927609847459 0 0.39475169194483772 0.2469961967143216 0 0.38581884499100683 0.26885240454038911 0 0.39426155780227179 0.24489199104221671 0 0.37296084668648471 0.25017597579261153 0 0.38581884499100683 0.26885240454038911 0 0.39426155780227179 0.24489199104221671 0 0.36531863586591728 0.28026688887500628 0 0.38581884499100683 0.26885240454038911 0 0.37784494341043229 0.29148233206906088 0 0.38581884499100683 0.26885240454038911 0 0.37784494341043229 0.29148233206906088 0 0.38581884499100683 0.26885240454038911 0 0.37784494341043229 0.29148233206906088 0 0.39311437846497288 0.29017295073602339 0 0.37784494341043229 0.29148233206906088 0 0.38180067092855391 0.30492214058087558 0 0.39311437846497288 0.29017295073602339 0 0.36987104182985742 0.31411225959773248 0 0.37784494341043229 0.29148233206906088 0 0.38180067092855391 0.30492214058087558 0 0.38180067092855391 0.30492214058087558 0 0.39855946809656317 0.30877905059785038 0 0.3868353930143052 0.31762316280845643 0 0.38180067092855391 0.30492214058087558 0 0.3868353930143052 0.31762316280845643 0 0.37888721078459908 0.3130509633099946 0 0.36987104182985742 0.31411225959773248 0 0.38180067092855391 0.30492214058087558 0 0.37888721078459908 0.3130509633099946 0 0.39855946809656317 0.30877905059785038 0 0.39311437846497288 0.29017295073602339 0 0.40832250331611047 0.29415632449360463 0 0.38180067092855391 0.30492214058087558 0 0.39855946809656317 0.30877905059785038 0 0.39311437846497288 0.29017295073602339 0 0.40188080654803232 0.2776023554826279 0 0.39311437846497288 0.29017295073602339 0 0.40832250331611047 0.29415632449360463 0 0.40832250331611047 0.29415632449360463 0 0.42505229860940652 0.29547975150156353 0 0.41849409781561669 0.28108204439235268 0 0.40188080654803232 0.2776023554826279 0 0.40832250331611047 0.29415632449360463 0 0.41849409781561669 0.28108204439235268 0 0.40832250331611047 0.29415632449360463 0 0.42505229860940652 0.29547975150156353 0 0.42036855643704801 0.31409791267988008 0 0.39855946809656317 0.30877905059785038 0 0.40832250331611047 0.29415632449360463 0 0.42036855643704801 0.31409791267988008 0 0.42505229860940652 0.29547975150156353 0 0.43960330169865253 0.30082321362748321 0 0.42036855643704801 0.31409791267988008 0 0.43960330169865253 0.30082321362748321 0 0.44680995060428208 0.31727471296522652 0 0.42036855643704801 0.31409791267988008 0 0.4371036032212805 0.28477317109891348 0 0.42505229860940652 0.29547975150156353 0 0.43960330169865253 0.30082321362748321 0 0.4371036032212805 0.28477317109891348 0 0.42505229860940652 0.29547975150156353 0 0.41849409781561669 0.28108204439235268 0 0.43355368764224789 0.2675609508203588 0 0.41849409781561669 0.28108204439235268 0 0.41754972192440581 0.26539065949369828 0 0.4371036032212805 0.28477317109891348 0 0.43355368764224789 0.2675609508203588 0 0.41849409781561669 0.28108204439235268 0 0.40188080654803232 0.2776023554826279 0 0.41849409781561669 0.28108204439235268 0 0.41754972192440581 0.26539065949369828 0 0.41754972192440581 0.26539065949369828 0 0.42743082246516367 0.24234920195874701 0 0.41425832284588698 0.24473024553476841 0 0.41754972192440581 0.26539065949369828 0 0.40324908199546572 0.24572053366433869 0 0.41425832284588698 0.24473024553476841 0 0.43355368764224789 0.2675609508203588 0 0.41754972192440581 0.26539065949369828 0 0.42743082246516367 0.24234920195874701 0 0.43355368764224789 0.2675609508203588 0 0.44839491761012079 0.25987937558512281 0 0.42743082246516367 0.24234920195874701 0 0.44839491761012079 0.25987937558512281 0 0.42743082246516367 0.24234920195874701 0 0.4371036032212805 0.28477317109891348 0 0.43355368764224789 0.2675609508203588 0 0.45078234659161698 0.27215137207639162 0 0.43355368764224789 0.2675609508203588 0 0.44839491761012079 0.25987937558512281 0 0.45078234659161698 0.27215137207639162 0 0.46265063576831178 0.26523275908078181 0 0.45473029318629732 0.29125373602300431 0 0.45078234659161698 0.27215137207639162 0 0.46265063576831178 0.26523275908078181 0 0.45473029318629732 0.29125373602300431 0 0.46845980818267341 0.27813802698931589 0 0.46265063576831178 0.26523275908078181 0 0.45473029318629732 0.29125373602300431 0 0.45078234659161698 0.27215137207639162 0 0.46265063576831178 0.26523275908078181 0 0.44839491761012079 0.25987937558512281 0 0.45078234659161698 0.27215137207639162 0 0.46265063576831178 0.26523275908078181 0 0.44839491761012079 0.25987937558512281 0 0.45898644360448321 0.25161141212264609 0 0.45465161684046379 0.24106262467519779 0 0.46265063576831178 0.26523275908078181 0 0.47024860419903641 0.24027088914948219 0 0.45898644360448321 0.25161141212264609 0 0.46265063576831178 0.26523275908078181 0 0.47024860419903641 0.24027088914948219 0 0.44839491761012079 0.25987937558512281 0 0.45898644360448321 0.25161141212264609 0 0.46265063576831178 0.26523275908078181 0 0.46265063576831178 0.26523275908078181 0 0.48132531788415628 0.25434636286545259 0 0.47764709756720358 0.26976716611761992 0 0.46265063576831178 0.26523275908078181 0 0.48132531788415628 0.25434636286545259 0 0.46265063576831178 0.26523275908078181 0 0.48132531788415628 0.25434636286545259 0 0.47024860419903641 0.24027088914948219 0 0.46845980818267341 0.27813802698931589 0 0.47764709756720358 0.26976716611761992 0 0.47881120620888068 0.2862984467358578 0 0.46845980818267341 0.27813802698931589 0 0.46265063576831178 0.26523275908078181 0 0.47764709756720358 0.26976716611761992 0 0.47764709756720358 0.26976716611761992 0 0.5 0.27064244229947132 0 0.47881120620888068 0.2862984467358578 0 0.48132531788415628 0.25434636286545259 0 0.47764709756720358 0.26976716611761992 0 0.5 0.27064244229947132 0 0.48132531788415628 0.25434636286545259 0 0.5 0.27064244229947132 0 0.50000000000000111 0.24345996665012401 0 0.5 0.29782491794881849 0 0.47881120620888068 0.2862984467358578 0 0.47594508542081748 0.31354785149017611 0 0.5 0.29782491794881849 0 0.47594508542081748 0.31354785149017611 0 0.5 0.32500739359816577 0 0.5 0.27064244229947132 0 0.5 0.29782491794881849 0 0.47881120620888068 0.2862984467358578 0 0.47881120620888068 0.2862984467358578 0 0.45473029318629732 0.29125373602300431 0 0.47594508542081748 0.31354785149017611 0 0.45473029318629732 0.29125373602300431 0 0.44680995060428208 0.31727471296522652 0 0.47594508542081748 0.31354785149017611 0 0.46845980818267341 0.27813802698931589 0 0.47881120620888068 0.2862984467358578 0 0.45473029318629732 0.29125373602300431 0 0.4371036032212805 0.28477317109891348 0 0.45078234659161698 0.27215137207639162 0 0.45473029318629732 0.29125373602300431 0 0.4371036032212805 0.28477317109891348 0 0.45473029318629732 0.29125373602300431 0 0.43960330169865253 0.30082321362748321 0 0.45473029318629732 0.29125373602300431 0 0.44680995060428208 0.31727471296522652 0 0.45473029318629732 0.29125373602300431 0 0.43960330169865253 0.30082321362748321 0 0.44680995060428208 0.31727471296522652 0 0.46125341493808408 0.33755337199932051 0 0.44175527617149812 0.35415248570721403 0 0.43296777524656521 0.33397721177079082 0 0.44680995060428208 0.31727471296522652 0 0.46125341493808408 0.33755337199932051 0 0.43296777524656521 0.33397721177079082 0 0.44680995060428208 0.31727471296522652 0 0.46125341493808408 0.33755337199932051 0 0.47594508542081748 0.31354785149017611 0 0.46125341493808408 0.33755337199932051 0 0.47594508542081748 0.31354785149017611 0 0.48320632505638339 0.3387538366075773 0 0.48320632505638339 0.3387538366075773 0 0.5 0.32500739359816577 0 0.5 0.35218986924751311 0 0.47594508542081748 0.31354785149017611 0 0.48320632505638339 0.3387538366075773 0 0.5 0.32500739359816577 0 0.5 0.35218986924751311 0 0.47414461551512038 0.36578110707218681 0 0.5 0.37937234489686039 0 0.48320632505638339 0.3387538366075773 0 0.5 0.35218986924751311 0 0.47414461551512038 0.36578110707218681 0 0.46125341493808408 0.33755337199932051 0 0.48320632505638339 0.3387538366075773 0 0.47414461551512038 0.36578110707218681 0 0.47414461551512038 0.36578110707218681 0 0.44175527617149812 0.35415248570721403 0 0.45091655078911469 0.37597315894969929 0 0.46125341493808408 0.33755337199932051 0 0.47414461551512038 0.36578110707218681 0 0.44175527617149812 0.35415248570721403 0 0.44175527617149812 0.35415248570721403 0 0.42707096617957402 0.37265563066282792 0 0.45091655078911469 0.37597315894969929 0 0.44175527617149812 0.35415248570721403 0 0.42707096617957402 0.37265563066282792 0 0.42136945645042723 0.35201395161697069 0 0.42707096617957402 0.37265563066282792 0 0.40759431339172131 0.36447724332388542 0 0.42136945645042723 0.35201395161697069 0 0.42707096617957402 0.37265563066282792 0 0.40759431339172131 0.36447724332388542 0 0.40628010701252443 0.37878471013220932 0 0.40684612149614469 0.3505267668385329 0 0.42136945645042723 0.35201395161697069 0 0.41233944710200499 0.33676313920228412 0 0.40759431339172131 0.36447724332388542 0 0.40684612149614469 0.3505267668385329 0 0.42136945645042723 0.35201395161697069 0 0.44175527617149812 0.35415248570721403 0 0.42136945645042723 0.35201395161697069 0 0.43296777524656521 0.33397721177079082 0 0.43296777524656521 0.33397721177079082 0 0.42036855643704801 0.31409791267988008 0 0.41233944710200499 0.33676313920228412 0 0.42136945645042723 0.35201395161697069 0 0.43296777524656521 0.33397721177079082 0 0.41233944710200499 0.33676313920228412 0 0.44680995060428208 0.31727471296522652 0 0.43296777524656521 0.33397721177079082 0 0.42036855643704801 0.31409791267988008 0 0.42036855643704801 0.31409791267988008 0 0.41233944710200499 0.33676313920228412 0 0.39951802099987621 0.32501274997842322 0 0.41233944710200499 0.33676313920228412 0 0.39459766156106818 0.34058743953724491 0 0.39951802099987621 0.32501274997842322 0 0.40684612149614469 0.3505267668385329 0 0.41233944710200499 0.33676313920228412 0 0.39459766156106818 0.34058743953724491 0 0.39459766156106818 0.34058743953724491 0 0.39951802099987621 0.32501274997842322 0 0.38967434075116247 0.32636097048647378 0 0.39855946809656317 0.30877905059785038 0 0.39951802099987621 0.32501274997842322 0 0.3868353930143052 0.31762316280845643 0 0.39855946809656317 0.30877905059785038 0 0.42036855643704801 0.31409791267988008 0 0.39951802099987621 0.32501274997842322 0 0.39951802099987621 0.32501274997842322 0 0.3868353930143052 0.31762316280845643 0 0.38967434075116247 0.32636097048647378 0 0.3868353930143052 0.31762316280845643 0 0.38967434075116247 0.32636097048647378 0 0.38163101397351079 0.32695055050311772 0 0.3868353930143052 0.31762316280845643 0 0.38163101397351079 0.32695055050311772 0 0.37829421604966718 0.31992427579085542 0 0.37406167390447881 0.3274544228833185 0 0.38163101397351079 0.32695055050311772 0 0.37829421604966718 0.31992427579085542 0 0.3868353930143052 0.31762316280845643 0 0.37829421604966718 0.31992427579085542 0 0.37888721078459908 0.3130509633099946 0 0.37236793078022012 0.31528069483935561 0 0.37829421604966718 0.31992427579085542 0 0.37888721078459908 0.3130509633099946 0 0.39459766156106818 0.34058743953724491 0 0.38359168902238638 0.34194311149900791 0 0.38526290708758582 0.33424804473584102 0 0.39459766156106818 0.34058743953724491 0 0.38967434075116247 0.32636097048647378 0 0.38526290708758582 0.33424804473584102 0 0.38967434075116247 0.32636097048647378 0 0.38163101397351079 0.32695055050311772 0 0.38526290708758582 0.33424804473584102 0 0.38163101397351079 0.32695055050311772 0 0.38526290708758582 0.33424804473584102 0 0.37562048186836272 0.33698045384266889 0 0.37406167390447881 0.3274544228833185 0 0.38163101397351079 0.32695055050311772 0 0.37562048186836272 0.33698045384266889 0 0.38359168902238638 0.34194311149900791 0 0.38526290708758582 0.33424804473584102 0 0.37562048186836272 0.33698045384266889 0 0.38359168902238638 0.34194311149900791 0 0.37562048186836272 0.33698045384266889 0 0.37705885677686402 0.34802478277143373 0 0.37357140617241957 0.36718312145014648 0 0.37705885677686402 0.34802478277143373 0 0.3849778100383508 0.35145077165486449 0 0.38359168902238638 0.34194311149900791 0 0.37705885677686402 0.34802478277143373 0 0.3849778100383508 0.35145077165486449 0 0.39459766156106818 0.34058743953724491 0 0.38359168902238638 0.34194311149900791 0 0.3849778100383508 0.35145077165486449 0 0.37357140617241957 0.36718312145014648 0 0.3849778100383508 0.35145077165486449 0 0.39431352093568123 0.3600699569549457 0 0.37357140617241957 0.36718312145014648 0 0.39027664229035391 0.37211775608999809 0 0.38381963064928681 0.37994275227746371 0 0.37357140617241957 0.36718312145014648 0 0.39027664229035391 0.37211775608999809 0 0.39431352093568123 0.3600699569549457 0 0.40759431339172131 0.36447724332388542 0 0.39027664229035391 0.37211775608999809 0 0.39431352093568123 0.3600699569549457 0 0.40759431339172131 0.36447724332388542 0 0.39027664229035391 0.37211775608999809 0 0.40628010701252443 0.37878471013220932 0 0.40684612149614469 0.3505267668385329 0 0.39459766156106818 0.34058743953724491 0 0.39431352093568123 0.3600699569549457 0 0.39459766156106818 0.34058743953724491 0 0.3849778100383508 0.35145077165486449 0 0.39431352093568123 0.3600699569549457 0 0.40759431339172131 0.36447724332388542 0 0.40684612149614469 0.3505267668385329 0 0.39431352093568123 0.3600699569549457 0 0.39160738240901238 0.38948567661956518 0 0.40559927181894001 0.40644602604503638 0 0.41728680866128359 0.39114672023299257 0 0.39209739589830089 0.40229247889624448 0 0.39160738240901238 0.38948567661956518 0 0.40559927181894001 0.40644602604503638 0 0.39160738240901238 0.38948567661956518 0 0.41728680866128359 0.39114672023299257 0 0.40628010701252443 0.37878471013220932 0 0.39160738240901238 0.38948567661956518 0 0.41728680866128359 0.39114672023299257 0 0.39027664229035391 0.37211775608999809 0 0.39160738240901238 0.38948567661956518 0 0.40628010701252443 0.37878471013220932 0 0.39160738240901238 0.38948567661956518 0 0.38381963064928681 0.37994275227746371 0 0.37982309172536127 0.39098445495014511 0 0.39027664229035391 0.37211775608999809 0 0.39160738240901238 0.38948567661956518 0 0.38381963064928681 0.37994275227746371 0 0.37357140617241957 0.36718312145014648 0 0.38381963064928681 0.37994275227746371 0 0.37982309172536127 0.39098445495014511 0 0.37357140617241957 0.36718312145014648 0 0.37982309172536127 0.39098445495014511 0 0.37982309172536127 0.39098445495014511 0 0.38607477727830308 0.41478578845014358 0 0.39209739589830089 0.40229247889624448 0 0.37982309172536127 0.39098445495014511 0 0.38607477727830308 0.41478578845014358 0 0.37379874889456249 0.40161552675933948 0 0.37982309172536127 0.39098445495014511 0 0.38607477727830308 0.41478578845014358 0 0.39209739589830089 0.40229247889624448 0 0.39160738240901238 0.38948567661956518 0 0.37982309172536127 0.39098445495014511 0 0.38607477727830308 0.41478578845014358 0 0.39232646283124478 0.43858712195014232 0 0.37960902688801779 0.43901969975997629 0 0.38607477727830308 0.41478578845014358 0 0.39232646283124478 0.43858712195014232 0 0.36991230095174382 0.4310731343881733 0 0.38607477727830308 0.41478578845014358 0 0.37960902688801779 0.43901969975997629 0 0.38607477727830308 0.41478578845014358 0 0.39676254958729901 0.43396547058526941 0 0.39232646283124478 0.43858712195014232 0 0.39676254958729901 0.43396547058526941 0 0.40209533532913372 0.43436445271029372 0 0.40559927181894001 0.40644602604503638 0 0.39676254958729901 0.43396547058526941 0 0.40209533532913372 0.43436445271029372 0 0.39232646283124478 0.43858712195014232 0 0.39676254958729901 0.43396547058526941 0 0.40209533532913372 0.43436445271029372 0 0.40209533532913372 0.43436445271029372 0 0.40559927181894001 0.40644602604503638 0 0.38607477727830308 0.41478578845014358 0 0.39676254958729901 0.43396547058526941 0 0.40559927181894001 0.40644602604503638 0 0.39209739589830089 0.40229247889624448 0 0.38607477727830308 0.41478578845014358 0 0.40559927181894001 0.40644602604503638 0 0.40559927181894001 0.40644602604503638 0 0.41598796006165822 0.42215848993843669 0 0.42882645614608073 0.41207601578050329 0 0.40209533532913372 0.43436445271029372 0 0.40559927181894001 0.40644602604503638 0 0.41598796006165822 0.42215848993843669 0 0.40209533532913372 0.43436445271029372 0 0.41598796006165822 0.42215848993843669 0 0.43029663994641398 0.4364743849276026 0 0.40209533532913372 0.43436445271029372 0 0.43029663994641398 0.4364743849276026 0 0.41598796006165822 0.42215848993843669 0 0.43029663994641398 0.4364743849276026 0 0.42882645614608073 0.41207601578050329 0 0.43029663994641398 0.4364743849276026 0 0.42882645614608073 0.41207601578050329 0 0.45141365150290202 0.4161634763341393 0 0.42882645614608073 0.41207601578050329 0 0.41728680866128359 0.39114672023299257 0 0.44296623491355491 0.39280776384642002 0 0.41728680866128359 0.39114672023299257 0 0.44296623491355491 0.39280776384642002 0 0.40559927181894001 0.40644602604503638 0 0.42882645614608073 0.41207601578050329 0 0.41728680866128359 0.39114672023299257 0 0.42707096617957402 0.37265563066282792 0 0.41728680866128359 0.39114672023299257 0 0.40628010701252443 0.37878471013220932 0 0.42707096617957402 0.37265563066282792 0 0.41728680866128359 0.39114672023299257 0 0.44296623491355491 0.39280776384642002 0 0.42707096617957402 0.37265563066282792 0 0.45091655078911469 0.37597315894969929 0 0.44296623491355491 0.39280776384642002 0 0.44296623491355491 0.39280776384642002 0 0.46864566116582629 0.39446880745984753 0 0.45141365150290202 0.4161634763341393 0 0.44296623491355491 0.39280776384642002 0 0.46864566116582629 0.39446880745984753 0 0.47414461551512038 0.36578110707218681 0 0.45091655078911469 0.37597315894969929 0 0.46864566116582629 0.39446880745984753 0 0.45091655078911469 0.37597315894969929 0 0.44296623491355491 0.39280776384642002 0 0.46864566116582629 0.39446880745984753 0 0.47414461551512038 0.36578110707218681 0 0.46864566116582629 0.39446880745984753 0 0.48229920589397568 0.38271764361018301 0 0.46864566116582629 0.39446880745984753 0 0.48229920589397568 0.38271764361018301 0 0.49432508741809772 0.39612985107327492 0 0.46864566116582629 0.39446880745984753 0 0.49432508741809772 0.39612985107327492 0 0.48512157582406262 0.40650393581778282 0 0.46864566116582629 0.39446880745984753 0 0.49432508741809772 0.39612985107327492 0 0.49432508741809772 0.39612985107327492 0 0.5 0.37937234489686039 0 0.49999999999999539 0.40655482054620801 0 0.49432508741809772 0.39612985107327492 0 0.49999999999999539 0.40655482054620801 0 0.48512157582406262 0.40650393581778282 0 0.47414461551512038 0.36578110707218681 0 0.48229920589397568 0.38271764361018301 0 0.5 0.37937234489686039 0 0.48229920589397568 0.38271764361018301 0 0.49432508741809772 0.39612985107327492 0 0.5 0.37937234489686039 0 0.48962448614092208 0.43212946911127531 0 0.5 0.42412209496160053 0 0.49999999999999578 0.44168936937699299 0 0.48962448614092208 0.43212946911127531 0 0.5 0.42412209496160053 0 0.47924897228184332 0.42256956884555602 0 0.5 0.42412209496160053 0 0.49999999999999539 0.40655482054620801 0 0.47924897228184332 0.42256956884555602 0 0.49999999999999539 0.40655482054620801 0 0.48512157582406262 0.40650393581778282 0 0.47924897228184332 0.42256956884555602 0 0.49999999999999539 0.40655482054620801 0 0.47924897228184332 0.42256956884555602 0 0.46864566116582629 0.39446880745984753 0 0.48512157582406262 0.40650393581778282 0 0.47924897228184332 0.42256956884555602 0 0.47924897228184332 0.42256956884555602 0 0.45849794456369453 0.43858431714490831 0 0.48962448614092208 0.43212946911127531 0 0.47924897228184332 0.42256956884555602 0 0.47924897228184521 0.44013684326095182 0 0.47924897228184332 0.42256956884555602 0 0.45849794456369453 0.43858431714490831 0 0.47924897228184521 0.44013684326095182 0 0.47924897228184332 0.42256956884555602 0 0.45141365150290202 0.4161634763341393 0 0.45849794456369453 0.43858431714490831 0 0.46864566116582629 0.39446880745984753 0 0.47924897228184332 0.42256956884555602 0 0.45141365150290202 0.4161634763341393 0 0.42882645614608073 0.41207601578050329 0 0.44296623491355491 0.39280776384642002 0 0.45141365150290202 0.4161634763341393 0 0.43029663994641398 0.4364743849276026 0 0.45141365150290202 0.4161634763341393 0 0.45849794456369453 0.43858431714490831 0 0.43029663994641398 0.4364743849276026 0 0.44015819837462111 0.45273814234726267 0 0.45849794456369453 0.43858431714490831 0 0.43029663994641398 0.4364743849276026 0 0.45849794456369453 0.43858431714490831 0 0.44015819837462111 0.45273814234726267 0 0.45849794456369453 0.43858431714490831 0 0.44015819837462111 0.45273814234726267 0 0.46913047330295871 0.46426103403096142 0 0.4430514933199674 0.47403299272245891 0 0.44015819837462111 0.45273814234726267 0 0.45849794456369453 0.43858431714490831 0 0.46913047330295871 0.46426103403096142 0 0.46913047330295871 0.46426103403096142 0 0.49999999999999578 0.44168936937699299 0 0.5 0.5 0 0.47924897228184521 0.44013684326095182 0 0.46913047330295871 0.46426103403096142 0 0.49999999999999578 0.44168936937699299 0 0.45849794456369453 0.43858431714490831 0 0.47924897228184521 0.44013684326095182 0 0.45849794456369453 0.43858431714490831 0 0.47924897228184521 0.44013684326095182 0 0.46913047330295871 0.46426103403096142 0 0.47924897228184521 0.44013684326095182 0 0.49999999999999578 0.44168936937699299 0 0.48962448614092208 0.43212946911127531 0 0.47924897228184521 0.44013684326095182 0 0.49999999999999578 0.44168936937699299 0 0.46913047330295871 0.46426103403096142 0 0.5 0.5 0 0.46200534196736781 0.5 0 0.46200534196736781 0.5 0 0.4430514933199674 0.47403299272245891 0 0.42776224665573293 0.48439415060481072 0 0.46913047330295871 0.46426103403096142 0 0.46200534196736781 0.5 0 0.4430514933199674 0.47403299272245891 0 0.46200534196736781 0.5 0 0.42776224665573293 0.48439415060481072 0 0.40845723980930249 0.49999999999999828 0 0.42776224665573293 0.48439415060481072 0 0.40845723980930249 0.49999999999999828 0 0.40347870599648222 0.48104579275198162 0 0.42181845218554931 0.46689196754961898 0 0.39857814838418498 0.46238845545014118 0 0.40347870599648222 0.48104579275198162 0 0.42776224665573293 0.48439415060481072 0 0.42181845218554931 0.46689196754961898 0 0.40347870599648222 0.48104579275198162 0 0.42181845218554931 0.46689196754961898 0 0.40347870599648222 0.48104579275198162 0 0.4430514933199674 0.47403299272245891 0 0.42776224665573293 0.48439415060481072 0 0.42181845218554931 0.46689196754961898 0 0.44015819837462111 0.45273814234726267 0 0.4430514933199674 0.47403299272245891 0 0.42181845218554931 0.46689196754961898 0 0.44015819837462111 0.45273814234726267 0 0.41520548757617298 0.44865841945199231 0 0.42181845218554931 0.46689196754961898 0 0.44015819837462111 0.45273814234726267 0 0.42181845218554931 0.46689196754961898 0 0.43029663994641398 0.4364743849276026 0 0.44015819837462111 0.45273814234726267 0 0.41520548757617298 0.44865841945199231 0 0.40209533532913372 0.43436445271029372 0 0.43029663994641398 0.4364743849276026 0 0.41520548757617298 0.44865841945199231 0 0.41520548757617298 0.44865841945199231 0 0.42181845218554931 0.46689196754961898 0 0.39857814838418498 0.46238845545014118 0 0.40209533532913372 0.43436445271029372 0 0.39857814838418498 0.46238845545014118 0 0.39857814838418498 0.46238845545014118 0 0.39232646283124478 0.43858712195014232 0 0.40209533532913372 0.43436445271029372 0 0.41520548757617298 0.44865841945199231 0 0.39857814838418498 0.46238845545014118 0 0.40209533532913372 0.43436445271029372 0 0.39857814838418498 0.46238845545014118 0 0.39232646283124478 0.43858712195014232 0 0.39857814838418498 0.46238845545014118 0 0.39232646283124478 0.43858712195014232 0 0.37975837081719249 0.4521724430909031 0 0.39232646283124478 0.43858712195014232 0 0.37975837081719249 0.4521724430909031 0 0.37960902688801779 0.43901969975997629 0 0.39857814838418498 0.46238845545014118 0 0.37975837081719249 0.4521724430909031 0 0.37998895414337919 0.4751771938420204 0 0.37891888946814728 0.50000000000000244 0 0.39545982513490302 0.48723441918459831 0 0.37998895414337919 0.4751771938420204 0 0.37891888946814728 0.50000000000000244 0 0.39545982513490302 0.48723441918459831 0 0.37891888946814728 0.50000000000000244 0 0.39545982513490302 0.48723441918459831 0 0.39385766520773491 0.500000000000004 0 0.40845723980930249 0.49999999999999828 0 0.40347870599648222 0.48104579275198162 0 0.40845723980930249 0.49999999999999828 0 0.40031335903710419 0.49207005298414308 0 0.40347870599648222 0.48104579275198162 0 0.39545982513490302 0.48723441918459831 0 0.39385766520773491 0.500000000000004 0 0.39545982513490302 0.48723441918459831 0 0.39385766520773491 0.500000000000004 0 0.40031335903710419 0.49207005298414308 0 0.40845723980930249 0.49999999999999828 0 0.39385766520773491 0.500000000000004 0 0.40031335903710419 0.49207005298414308 0 0.39545982513490302 0.48723441918459831 0 0.40031335903710419 0.49207005298414308 0 0.40347870599648222 0.48104579275198162 0 0.39857814838418498 0.46238845545014118 0 0.39545982513490302 0.48723441918459831 0 0.40347870599648222 0.48104579275198162 0 0.39545982513490302 0.48723441918459831 0 0.40347870599648222 0.48104579275198162 0 0.39857814838418498 0.46238845545014118 0 0.37998895414337919 0.4751771938420204 0 0.39545982513490302 0.48723441918459831 0 0.39857814838418498 0.46238845545014118 0 0.40347870599648222 0.48104579275198162 0 0.39857814838418498 0.46238845545014118 0 0.39545982513490302 0.48723441918459831 0 0.3251701127539588 0.07670865926215692 0 0.32223566914419932 0.089710260142596254 0 0.34419921751893567 0.09040503999502586 0 0.32223566914419932 0.089710260142596254 0 0.34419921751893567 0.09040503999502586 0 0.33310627217157551 0.064632767628747159 0 0.34419921751893567 0.09040503999502586 0 0.33310627217157551 0.064632767628747159 0 0.3251701127539588 0.07670865926215692 0 0.34419921751893567 0.09040503999502586 0 0.33310627217157551 0.064632767628747159 0 0.34419921751893567 0.09040503999502586 0 0.34632257687819468 0.073824676714281889 0 0.34345748295944378 0.063209885041838887 0 0.33310627217157551 0.064632767628747159 0 0.34632257687819468 0.073824676714281889 0 0.3251701127539588 0.07670865926215692 0 0.31856057207364979 0.063660162402345177 0 0.30774883286143401 0.07513506614207012 0 0.33310627217157551 0.064632767628747159 0 0.3251701127539588 0.07670865926215692 0 0.31856057207364979 0.063660162402345177 0 0.3251701127539588 0.07670865926215692 0 0.32223566914419932 0.089710260142596254 0 0.30774883286143401 0.07513506614207012 0 0.32223566914419932 0.089710260142596254 0 0.31591613234123589 0.10296532836048319 0 0.30027212076946302 0.089015480290167481 0 0.31591613234123589 0.10296532836048319 0 0.3235055528938629 0.11568337333176019 0 0.32935229489477291 0.1022830433641653 0 0.32223566914419932 0.089710260142596254 0 0.31591613234123589 0.10296532836048319 0 0.32935229489477291 0.1022830433641653 0 0.31591613234123589 0.10296532836048319 0 0.3235055528938629 0.11568337333176019 0 0.3036301023352681 0.11022442911188859 0 0.3235055528938629 0.11568337333176019 0 0.33808454579379787 0.1208319537353893 0 0.32716002178730552 0.1319335824544717 0 0.3235055528938629 0.11568337333176019 0 0.33808454579379787 0.1208319537353893 0 0.33816415064235372 0.10917868755689419 0 0.33808454579379787 0.1208319537353893 0 0.33816415064235372 0.10917868755689419 0 0.35033179458985719 0.11155920541702399 0 0.32223566914419932 0.089710260142596254 0 0.32935229489477291 0.1022830433641653 0 0.34419921751893567 0.09040503999502586 0 0.32935229489477291 0.1022830433641653 0 0.33816415064235372 0.10917868755689419 0 0.34419921751893567 0.09040503999502586 0 0.3235055528938629 0.11568337333176019 0 0.32935229489477291 0.1022830433641653 0 0.33816415064235372 0.10917868755689419 0 0.35339629107495402 0.11177262788410081 0 0.34419921751893567 0.09040503999502586 0 0.35033179458985719 0.11155920541702399 0 0.35339629107495402 0.11177262788410081 0 0.34419921751893567 0.09040503999502586 0 0.35339629107495402 0.11177262788410081 0 0.36676581101795308 0.1057346461690969 0 0.34419921751893567 0.09040503999502586 0 0.33816415064235372 0.10917868755689419 0 0.35033179458985719 0.11155920541702399 0 0.34419921751893567 0.09040503999502586 0 0.35033179458985719 0.11155920541702399 0 0.34778801014286009 0.13274084722197321 0 0.33808454579379787 0.1208319537353893 0 0.35033179458985719 0.11155920541702399 0 0.34778801014286009 0.13274084722197321 0 0.35033179458985719 0.11155920541702399 0 0.35598689978338838 0.120327213078831 0 0.34778801014286009 0.13274084722197321 0 0.35339629107495402 0.11177262788410081 0 0.35598689978338838 0.120327213078831 0 0.36338728626206701 0.11600757243024561 0 0.35033179458985719 0.11155920541702399 0 0.35339629107495402 0.11177262788410081 0 0.35598689978338838 0.120327213078831 0 0.35598689978338838 0.120327213078831 0 0.36338728626206701 0.11600757243024561 0 0.36503111684720357 0.1295558124408113 0 0.35339629107495402 0.11177262788410081 0 0.36338728626206701 0.11600757243024561 0 0.36676581101795308 0.1057346461690969 0 0.36338728626206701 0.11600757243024561 0 0.36676581101795308 0.1057346461690969 0 0.37857746106597362 0.11443442834108709 0 0.36338728626206701 0.11600757243024561 0 0.36503111684720357 0.1295558124408113 0 0.37857746106597362 0.11443442834108709 0 0.36676581101795308 0.1057346461690969 0 0.36856668309973922 0.091175863718561775 0 0.38869302306912329 0.099781084704444634 0 0.36676581101795308 0.1057346461690969 0 0.36856668309973922 0.091175863718561775 0 0.34419921751893567 0.09040503999502586 0 0.36856668309973922 0.091175863718561775 0 0.3585020428049116 0.078128773291039719 0 0.37219205993716498 0.075271695478946812 0 0.36856668309973922 0.091175863718561775 0 0.34419921751893567 0.09040503999502586 0 0.3585020428049116 0.078128773291039719 0 0.36856668309973922 0.091175863718561775 0 0.34419921751893567 0.09040503999502586 0 0.34419921751893567 0.09040503999502586 0 0.3585020428049116 0.078128773291039719 0 0.34632257687819468 0.073824676714281889 0 0.34345748295944378 0.063209885041838887 0 0.34632257687819468 0.073824676714281889 0 0.35338926161307532 0.063070195316053554 0 0.3585020428049116 0.078128773291039719 0 0.34632257687819468 0.073824676714281889 0 0.35338926161307532 0.063070195316053554 0 0.3585020428049116 0.078128773291039719 0 0.35338926161307532 0.063070195316053554 0 0.36648624704833799 0.063930408331226873 0 0.3585020428049116 0.078128773291039719 0 0.36648624704833799 0.063930408331226873 0 0.37219205993716498 0.075271695478946812 0 0.36648624704833799 0.063930408331226873 0 0.37219205993716498 0.075271695478946812 0 0.37943166366568348 0.064165601201817898 0 0.37023196750437543 0.053157849020564363 0 0.36758585316530151 0.04307837352455287 0 0.38629219858503311 0.054385830409766772 0 0.36648624704833799 0.063930408331226873 0 0.37023196750437543 0.053157849020564363 0 0.37943166366568348 0.064165601201817898 0 0.36648624704833799 0.063930408331226873 0 0.36018106914550929 0.055415846390789253 0 0.37023196750437543 0.053157849020564363 0 0.35338926161307532 0.063070195316053554 0 0.36648624704833799 0.063930408331226873 0 0.36018106914550929 0.055415846390789253 0 0.36018106914550929 0.055415846390789253 0 0.36417112801091722 0.049361897593354541 0 0.37023196750437543 0.053157849020564363 0 0.36018106914550929 0.055415846390789253 0 0.36417112801091722 0.049361897593354541 0 0.35826866359657861 0.045324084269206193 0 0.36417112801091722 0.049361897593354541 0 0.37023196750437543 0.053157849020564363 0 0.36758585316530151 0.04307837352455287 0 0.37023196750437543 0.053157849020564363 0 0.36758585316530151 0.04307837352455287 0 0.36758585316530151 0.04307837352455287 0 0.35242691957667532 0.033452211770763407 0 0.36079764876796439 0.01722101019201094 0 0.36417112801091722 0.049361897593354541 0 0.36758585316530151 0.04307837352455287 0 0.35826866359657861 0.045324084269206193 0 0.36758585316530151 0.04307837352455287 0 0.35826866359657861 0.045324084269206193 0 0.35242691957667532 0.033452211770763407 0 0.36758585316530151 0.04307837352455287 0 0.35826866359657861 0.045324084269206193 0 0.35826866359657861 0.045324084269206193 0 0.35242691957667532 0.033452211770763407 0 0.34877818116498011 0.044382577184581218 0 0.35242691957667532 0.033452211770763407 0 0.3406285056852581 0.030232861520943611 0 0.34153509313355113 0.038971217231398188 0 0.35242691957667532 0.033452211770763407 0 0.34877818116498011 0.044382577184581218 0 0.34153509313355113 0.038971217231398188 0 0.34877818116498011 0.044382577184581218 0 0.34105063041119582 0.045922334801940648 0 0.34153509313355113 0.038971217231398188 0 0.34877818116498011 0.044382577184581218 0 0.34552969098706132 0.052991952606200862 0 0.34105063041119582 0.045922334801940648 0 0.34877818116498011 0.044382577184581218 0 0.34552969098706132 0.052991952606200862 0 0.35322937330144089 0.052236931153366209 0 0.35338926161307532 0.063070195316053554 0 0.34552969098706132 0.052991952606200862 0 0.35322937330144089 0.052236931153366209 0 0.34345748295944378 0.063209885041838887 0 0.35338926161307532 0.063070195316053554 0 0.34552969098706132 0.052991952606200862 0 0.35338926161307532 0.063070195316053554 0 0.36018106914550929 0.055415846390789253 0 0.35322937330144089 0.052236931153366209 0 0.35826866359657861 0.045324084269206193 0 0.34877818116498011 0.044382577184581218 0 0.35322937330144089 0.052236931153366209 0 0.36018106914550929 0.055415846390789253 0 0.35826866359657861 0.045324084269206193 0 0.35322937330144089 0.052236931153366209 0 0.36079764876796439 0.01722101019201094 0 0.38508021846864099 0.01048925277870697 0 0.37483061222028102 -0.0032252882618771998 0 0.36079764876796439 0.01722101019201094 0 0.37483061222028102 -0.0032252882618771998 0 0.35400944437062698 -0.0086363531405309717 0 0.36758585316530151 0.04307837352455287 0 0.36079764876796439 0.01722101019201094 0 0.3777272165743325 0.026584446307561332 0 0.36079764876796439 0.01722101019201094 0 0.38508021846864099 0.01048925277870697 0 0.3777272165743325 0.026584446307561332 0 0.36758585316530151 0.04307837352455287 0 0.36079764876796439 0.01722101019201094 0 0.36079764876796439 0.01722101019201094 0 0.34695908807460801 0.023394978431357221 0 0.34329327054355702 0.0132778534706247 0 0.35242691957667532 0.033452211770763407 0 0.36079764876796439 0.01722101019201094 0 0.34695908807460801 0.023394978431357221 0 0.35242691957667532 0.033452211770763407 0 0.34695908807460801 0.023394978431357221 0 0.3406285056852581 0.030232861520943611 0 0.36079764876796439 0.01722101019201094 0 0.35400944437062698 -0.0086363531405309717 0 0.36079764876796439 0.01722101019201094 0 0.34487597080080412 0.0013759612954862509 0 0.35400944437062698 -0.0086363531405309717 0 0.36079764876796439 0.01722101019201094 0 0.34487597080080412 0.0013759612954862509 0 0.34329327054355702 0.0132778534706247 0 0.34487597080080412 0.0013759612954862509 0 0.3334474114775503 0.0062169574195121658 0 0.34329327054355702 0.0132778534706247 0 0.34487597080080412 0.0013759612954862509 0 0.3334474114775503 0.0062169574195121658 0 0.33453715787545402 -0.0061599611328663102 0 0.3334474114775503 0.0062169574195121658 0 0.34329327054355702 0.0132778534706247 0 0.33349322538625059 0.01566595647101697 0 0.3334474114775503 0.0062169574195121658 0 0.33349322538625059 0.01566595647101697 0 0.326625617697829 0.013734644523270469 0 0.33349322538625059 0.01566595647101697 0 0.32680109079736253 0.022143259403650362 0 0.326625617697829 0.013734644523270469 0 0.33349322538625059 0.01566595647101697 0 0.33764909579958541 0.022790955202443459 0 0.32680109079736253 0.022143259403650362 0 0.34695908807460801 0.023394978431357221 0 0.34329327054355702 0.0132778534706247 0 0.33764909579958541 0.022790955202443459 0 0.34329327054355702 0.0132778534706247 0 0.33349322538625059 0.01566595647101697 0 0.33764909579958541 0.022790955202443459 0 0.33764909579958541 0.022790955202443459 0 0.3406285056852581 0.030232861520943611 0 0.33194431932647439 0.028710276432398599 0 0.34695908807460801 0.023394978431357221 0 0.33764909579958541 0.022790955202443459 0 0.3406285056852581 0.030232861520943611 0 0.33764909579958541 0.022790955202443459 0 0.33194431932647439 0.028710276432398599 0 0.32680109079736253 0.022143259403650362 0 0.33194431932647439 0.028710276432398599 0 0.32680109079736253 0.022143259403650362 0 0.32370440315086479 0.031734162287212188 0 0.3159903966876012 0.025452142787676039 0 0.32680109079736253 0.022143259403650362 0 0.32370440315086479 0.031734162287212188 0 0.3159903966876012 0.025452142787676039 0 0.32370440315086479 0.031734162287212188 0 0.30992827284934149 0.034978144597183687 0 0.3159903966876012 0.025452142787676039 0 0.31920057890309772 0.016035965492662781 0 0.3077134461258062 0.016757883405179148 0 0.31920057890309772 0.016035965492662781 0 0.32680109079736253 0.022143259403650362 0 0.326625617697829 0.013734644523270469 0 0.3159903966876012 0.025452142787676039 0 0.31920057890309772 0.016035965492662781 0 0.32680109079736253 0.022143259403650362 0 0.3334474114775503 0.0062169574195121658 0 0.326625617697829 0.013734644523270469 0 0.32324091575886382 0.0071625842632203523 0 0.31920057890309772 0.016035965492662781 0 0.326625617697829 0.013734644523270469 0 0.32324091575886382 0.0071625842632203523 0 0.31920057890309772 0.016035965492662781 0 0.3147943296310447 0.0086731194911488906 0 0.3077134461258062 0.016757883405179148 0 0.31920057890309772 0.016035965492662781 0 0.3147943296310447 0.0086731194911488906 0 0.32324091575886382 0.0071625842632203523 0 0.3147943296310447 0.0086731194911488906 0 0.32041722914701948 -0.0018902658603662571 0 0.3110389812754043 -0.003034109782157705 0 0.3147943296310447 0.0086731194911488906 0 0.32324091575886382 0.0071625842632203523 0 0.32041722914701948 -0.0018902658603662571 0 0.32324091575886382 0.0071625842632203523 0 0.32041722914701948 -0.0018902658603662571 0 0.32742983789552321 -0.00076994107897217277 0 0.3334474114775503 0.0062169574195121658 0 0.32324091575886382 0.0071625842632203523 0 0.32742983789552321 -0.00076994107897217277 0 0.33310627217157551 0.064632767628747159 0 0.33498690214366261 0.050984346416019413 0 0.32201332682421568 0.038860495262468361 0 0.34345748295944378 0.063209885041838887 0 0.34552969098706132 0.052991952606200862 0 0.33498690214366261 0.050984346416019413 0 0.34345748295944378 0.063209885041838887 0 0.33310627217157551 0.064632767628747159 0 0.33498690214366261 0.050984346416019413 0 0.34552969098706132 0.052991952606200862 0 0.33498690214366261 0.050984346416019413 0 0.34105063041119582 0.045922334801940648 0 0.33498690214366261 0.050984346416019413 0 0.34105063041119582 0.045922334801940648 0 0.33442328462672383 0.042281580571503552 0 0.34105063041119582 0.045922334801940648 0 0.34153509313355113 0.038971217231398188 0 0.33442328462672383 0.042281580571503552 0 0.3406285056852581 0.030232861520943611 0 0.34153509313355113 0.038971217231398188 0 0.33214257948690601 0.035589758274878161 0 0.34153509313355113 0.038971217231398188 0 0.33214257948690601 0.035589758274878161 0 0.33442328462672383 0.042281580571503552 0 0.33214257948690601 0.035589758274878161 0 0.33442328462672383 0.042281580571503552 0 0.32201332682421568 0.038860495262468361 0 0.3406285056852581 0.030232861520943611 0 0.33194431932647439 0.028710276432398599 0 0.33214257948690601 0.035589758274878161 0 0.33194431932647439 0.028710276432398599 0 0.33214257948690601 0.035589758274878161 0 0.32370440315086479 0.031734162287212188 0 0.33498690214366261 0.050984346416019413 0 0.33442328462672383 0.042281580571503552 0 0.32201332682421568 0.038860495262468361 0 0.32370440315086479 0.031734162287212188 0 0.3071459827836196 0.052374464936521647 0 0.30992827284934149 0.034978144597183687 0 0.32370440315086479 0.031734162287212188 0 0.32201332682421568 0.038860495262468361 0 0.3071459827836196 0.052374464936521647 0 0.32370440315086479 0.031734162287212188 0 0.3071459827836196 0.052374464936521647 0 0.33214257948690601 0.035589758274878161 0 0.32370440315086479 0.031734162287212188 0 0.32201332682421568 0.038860495262468361 0 0.33310627217157551 0.064632767628747159 0 0.32201332682421568 0.038860495262468361 0 0.32201332682421568 0.038860495262468361 0 0.32020653846326519 0.054881972557520593 0 0.3071459827836196 0.052374464936521647 0 0.33310627217157551 0.064632767628747159 0 0.32201332682421568 0.038860495262468361 0 0.32020653846326519 0.054881972557520593 0 0.33310627217157551 0.064632767628747159 0 0.31856057207364979 0.063660162402345177 0 0.32020653846326519 0.054881972557520593 0 0.31856057207364979 0.063660162402345177 0 0.32020653846326519 0.054881972557520593 0 0.3071459827836196 0.052374464936521647 0 0.31856057207364979 0.063660162402345177 0 0.3071459827836196 0.052374464936521647 0 0.31856057207364979 0.063660162402345177 0 0.3071459827836196 0.052374464936521647 0 0.30654566632696911 0.065379319042016548 0 0.3071459827836196 0.052374464936521647 0 0.29272727758917289 0.07034758268712929 0 0.3071459827836196 0.052374464936521647 0 0.30992827284934149 0.034978144597183687 0 0.2906413280851281 0.036056178314707921 0 0.3071459827836196 0.052374464936521647 0 0.2906413280851281 0.036056178314707921 0 0.30992827284934149 0.034978144597183687 0 0.2906413280851281 0.036056178314707921 0 0.30434598039540872 0.027277682181096712 0 0.3071459827836196 0.052374464936521647 0 0.2906413280851281 0.036056178314707921 0 0.28167681474417522 0.057020669878974937 0 0.3071459827836196 0.052374464936521647 0 0.28167681474417522 0.057020669878974937 0 0.29272727758917289 0.07034758268712929 0 0.30691493272438269 0.0052758208176783084 0 0.29917648593500762 0.0091830457688004876 0 0.2974061074109331 -0.0033338883359669579 0 0.3147943296310447 0.0086731194911488906 0 0.30691493272438269 0.0052758208176783084 0 0.3110389812754043 -0.003034109782157705 0 0.3147943296310447 0.0086731194911488906 0 0.30691493272438269 0.0052758208176783084 0 0.3077134461258062 0.016757883405179148 0 0.29917648593500762 0.0091830457688004876 0 0.3077134461258062 0.016757883405179148 0 0.29361989631601648 0.019822638578126401 0 0.30691493272438269 0.0052758208176783084 0 0.29917648593500762 0.0091830457688004876 0 0.3077134461258062 0.016757883405179148 0 0.3077134461258062 0.016757883405179148 0 0.30434598039540872 0.027277682181096712 0 0.29361989631601648 0.019822638578126401 0 0.3159903966876012 0.025452142787676039 0 0.3077134461258062 0.016757883405179148 0 0.30434598039540872 0.027277682181096712 0 0.3159903966876012 0.025452142787676039 0 0.30992827284934149 0.034978144597183687 0 0.30434598039540872 0.027277682181096712 0 0.2906413280851281 0.036056178314707921 0 0.27432563148699762 0.018338512856476249 0 0.27945097921065187 0.020364273618274101 0 0.2906413280851281 0.036056178314707921 0 0.30434598039540872 0.027277682181096712 0 0.29361989631601648 0.019822638578126401 0 0.2906413280851281 0.036056178314707921 0 0.27432563148699762 0.018338512856476249 0 0.2906413280851281 0.036056178314707921 0 0.29361989631601648 0.019822638578126401 0 0.27945097921065187 0.020364273618274101 0 0.29361989631601648 0.019822638578126401 0 0.28326447811533417 0.01157192552768857 0 0.27945097921065187 0.020364273618274101 0 0.28326447811533417 0.01157192552768857 0 0.29022804709789918 0.0073927743789855491 0 0.27757565750313329 -0.0057304083282169217 0 0.29917648593500762 0.0091830457688004876 0 0.29361989631601648 0.019822638578126401 0 0.29022804709789918 0.0073927743789855491 0 0.29361989631601648 0.019822638578126401 0 0.28326447811533417 0.01157192552768857 0 0.29022804709789918 0.0073927743789855491 0 0.29917648593500762 0.0091830457688004876 0 0.29022804709789918 0.0073927743789855491 0 0.2974061074109331 -0.0033338883359669579 0 0.26673170150550152 0.00064825062450301653 0 0.27498653882609769 0.013443989989233591 0 0.27757565750313329 -0.0057304083282169217 0 0.27498653882609769 0.013443989989233591 0 0.27757565750313329 -0.0057304083282169217 0 0.28326447811533417 0.01157192552768857 0 0.27498653882609769 0.013443989989233591 0 0.27757565750313329 -0.0057304083282169217 0 0.26673170150550152 0.00064825062450301653 0 0.27498653882609769 0.013443989989233591 0 0.2635740996266393 0.0092945889259785676 0 0.26673170150550152 0.00064825062450301653 0 0.27498653882609769 0.013443989989233591 0 0.28326447811533417 0.01157192552768857 0 0.27498653882609769 0.013443989989233591 0 0.27945097921065187 0.020364273618274101 0 0.27432563148699762 0.018338512856476249 0 0.2635740996266393 0.0092945889259785676 0 0.27498653882609769 0.013443989989233591 0 0.27432563148699762 0.018338512856476249 0 0.2635740996266393 0.0092945889259785676 0 0.27432563148699762 0.018338512856476249 0 0.26461712110510449 0.016815878076237009 0 0.2635740996266393 0.0092945889259785676 0 0.27432563148699762 0.018338512856476249 0 0.26878046530194988 0.029691927586818091 0 0.25650491799959352 0.036507515543757703 0 0.27432563148699762 0.018338512856476249 0 0.26878046530194988 0.029691927586818091 0 0.27094448098348528 0.043378510868404052 0 0.27432563148699762 0.018338512856476249 0 0.27094448098348528 0.043378510868404052 0 0.27432563148699762 0.018338512856476249 0 0.25998509299434769 0.022886916478296972 0 0.26461712110510449 0.016815878076237009 0 0.27498653882609769 0.013443989989233591 0 0.27432563148699762 0.018338512856476249 0 0.27945097921065187 0.020364273618274101 0 0.27498653882609769 0.013443989989233591 0 0.27945097921065187 0.020364273618274101 0 0.27498653882609769 0.013443989989233591 0 0.27432563148699762 0.018338512856476249 0 0.27432563148699762 0.018338512856476249 0 0.25650491799959352 0.036507515543757703 0 0.27432563148699762 0.018338512856476249 0 0.25998509299434769 0.022886916478296972 0 0.25650491799959352 0.036507515543757703 0 0.2488208660698156 0.024893742846385462 0 0.25998509299434769 0.022886916478296972 0 0.25650491799959352 0.036507515543757703 0 0.2488208660698156 0.024893742846385462 0 0.25998509299434769 0.022886916478296972 0 0.25392424779940193 0.013803051573067391 0 0.25998509299434769 0.022886916478296972 0 0.26461712110510449 0.016815878076237009 0 0.25392424779940193 0.013803051573067391 0 0.26461712110510449 0.016815878076237009 0 0.2635740996266393 0.0092945889259785676 0 0.25392424779940193 0.013803051573067391 0 0.2635740996266393 0.0092945889259785676 0 0.25392424779940193 0.013803051573067391 0 0.25539330519756809 0.0004604523674139167 0 0.24619606834605909 0.0052377862522218566 0 0.25392424779940193 0.013803051573067391 0 0.25539330519756809 0.0004604523674139167 0 0.26673170150550152 0.00064825062450301653 0 0.2635740996266393 0.0092945889259785676 0 0.25539330519756809 0.0004604523674139167 0 0.28167681474417522 0.057020669878974937 0 0.262813415225922 0.055456230599151772 0 0.26953178610404671 0.066647803057972174 0 0.28167681474417522 0.057020669878974937 0 0.27094448098348528 0.043378510868404052 0 0.262813415225922 0.055456230599151772 0 0.2906413280851281 0.036056178314707921 0 0.27432563148699762 0.018338512856476249 0 0.27094448098348528 0.043378510868404052 0 0.2906413280851281 0.036056178314707921 0 0.28167681474417522 0.057020669878974937 0 0.27094448098348528 0.043378510868404052 0 0.2394740471611039 0.053871238845297917 0 0.25650491799959352 0.036507515543757703 0 0.25571699748515131 0.049496503273623808 0 0.27094448098348528 0.043378510868404052 0 0.25650491799959352 0.036507515543757703 0 0.25571699748515131 0.049496503273623808 0 0.26878046530194988 0.029691927586818091 0 0.27094448098348528 0.043378510868404052 0 0.25650491799959352 0.036507515543757703 0 0.24884812605565171 0.05826902051150757 0 0.25571699748515131 0.049496503273623808 0 0.262813415225922 0.055456230599151772 0 0.27094448098348528 0.043378510868404052 0 0.25571699748515131 0.049496503273623808 0 0.262813415225922 0.055456230599151772 0 0.24884812605565171 0.05826902051150757 0 0.262813415225922 0.055456230599151772 0 0.25692606960439601 0.069333301825933891 0 0.24800882400270011 0.067846839465396949 0 0.24884812605565171 0.05826902051150757 0 0.25692606960439601 0.069333301825933891 0 0.24510103268691749 0.076001689946383469 0 0.25692606960439601 0.069333301825933891 0 0.25716355122997991 0.087651813314684204 0 0.24510103268691749 0.076001689946383469 0 0.24800882400270011 0.067846839465396949 0 0.25692606960439601 0.069333301825933891 0 0.25692606960439601 0.069333301825933891 0 0.26953178610404671 0.066647803057972174 0 0.26805392904367398 0.077548810946722196 0 0.262813415225922 0.055456230599151772 0 0.25692606960439601 0.069333301825933891 0 0.26953178610404671 0.066647803057972174 0 0.25692606960439601 0.069333301825933891 0 0.25716355122997991 0.087651813314684204 0 0.26805392904367398 0.077548810946722196 0 0.25716355122997991 0.087651813314684204 0 0.27830857239472678 0.088320700437737293 0 0.25716355122997991 0.087651813314684204 0 0.27830857239472678 0.088320700437737293 0 0.26805392904367398 0.077548810946722196 0 0.25716355122997991 0.087651813314684204 0 0.27830857239472678 0.088320700437737293 0 0.26727326196086809 0.1020763692836902 0 0.27830857239472678 0.088320700437737293 0 0.26805392904367398 0.077548810946722196 0 0.27813967309231968 0.073066634171871814 0 0.28167681474417522 0.057020669878974937 0 0.26953178610404671 0.066647803057972174 0 0.27813967309231968 0.073066634171871814 0 0.26953178610404671 0.066647803057972174 0 0.26805392904367398 0.077548810946722196 0 0.27813967309231968 0.073066634171871814 0 0.27830857239472678 0.088320700437737293 0 0.27813967309231968 0.073066634171871814 0 0.29272727758917289 0.07034758268712929 0 0.28167681474417522 0.057020669878974937 0 0.27813967309231968 0.073066634171871814 0 0.29272727758917289 0.07034758268712929 0 0.27830857239472678 0.088320700437737293 0 0.30027212076946302 0.089015480290167481 0 0.27830857239472678 0.088320700437737293 0 0.30027212076946302 0.089015480290167481 0 0.28888197014263789 0.1013956877255834 0 0.27830857239472678 0.088320700437737293 0 0.29272727758917289 0.07034758268712929 0 0.30027212076946302 0.089015480290167481 0 0.27830857239472678 0.088320700437737293 0 0.29272727758917289 0.07034758268712929 0 0.32223566914419932 0.089710260142596254 0 0.30027212076946302 0.089015480290167481 0 0.32223566914419932 0.089710260142596254 0 0.30027212076946302 0.089015480290167481 0 0.30774883286143401 0.07513506614207012 0 0.29272727758917289 0.07034758268712929 0 0.30027212076946302 0.089015480290167481 0 0.30774883286143401 0.07513506614207012 0 0.3071459827836196 0.052374464936521647 0 0.29272727758917289 0.07034758268712929 0 0.30654566632696911 0.065379319042016548 0 0.31856057207364979 0.063660162402345177 0 0.30774883286143401 0.07513506614207012 0 0.30654566632696911 0.065379319042016548 0 0.29272727758917289 0.07034758268712929 0 0.30774883286143401 0.07513506614207012 0 0.30654566632696911 0.065379319042016548 0 0.3036301023352681 0.11022442911188859 0 0.29594959839325519 0.1220025925311113 0 0.30646171384198639 0.12816887978164249 0 0.3235055528938629 0.11568337333176019 0 0.3036301023352681 0.11022442911188859 0 0.30646171384198639 0.12816887978164249 0 0.30027212076946302 0.089015480290167481 0 0.3036301023352681 0.11022442911188859 0 0.28888197014263789 0.1013956877255834 0 0.31591613234123589 0.10296532836048319 0 0.30027212076946302 0.089015480290167481 0 0.3036301023352681 0.11022442911188859 0 0.3036301023352681 0.11022442911188859 0 0.28888197014263789 0.1013956877255834 0 0.28984643880382888 0.11391212465973589 0 0.27830857239472678 0.088320700437737293 0 0.28888197014263789 0.1013956877255834 0 0.27759447922305269 0.102300292138243 0 0.28888197014263789 0.1013956877255834 0 0.28221875368247551 0.10834926947088031 0 0.27759447922305269 0.102300292138243 0 0.28888197014263789 0.1013956877255834 0 0.28221875368247551 0.10834926947088031 0 0.28984643880382888 0.11391212465973589 0 0.28221875368247551 0.10834926947088031 0 0.28984643880382888 0.11391212465973589 0 0.28001656231402239 0.1180285928905638 0 0.3036301023352681 0.11022442911188859 0 0.28984643880382888 0.11391212465973589 0 0.29594959839325519 0.1220025925311113 0 0.28984643880382888 0.11391212465973589 0 0.29594959839325519 0.1220025925311113 0 0.28705416155151181 0.1235799167985355 0 0.28705416155151181 0.1235799167985355 0 0.28001656231402239 0.1180285928905638 0 0.27869408403231938 0.12912450756314961 0 0.28984643880382888 0.11391212465973589 0 0.28705416155151181 0.1235799167985355 0 0.28001656231402239 0.1180285928905638 0 0.28001656231402239 0.1180285928905638 0 0.27179274644952989 0.12159424188978581 0 0.27869408403231938 0.12912450756314961 0 0.28221875368247551 0.10834926947088031 0 0.28001656231402239 0.1180285928905638 0 0.27128983793455541 0.1113594337733238 0 0.28001656231402239 0.1180285928905638 0 0.27128983793455541 0.1113594337733238 0 0.27179274644952989 0.12159424188978581 0 0.27128983793455541 0.1113594337733238 0 0.26518573681769569 0.1190276846564338 0 0.26073669164644431 0.1108882927048976 0 0.27128983793455541 0.1113594337733238 0 0.27179274644952989 0.12159424188978581 0 0.26518573681769569 0.1190276846564338 0 0.27179274644952989 0.12159424188978581 0 0.26518573681769569 0.1190276846564338 0 0.26437425350213761 0.1257716527260245 0 0.27830857239472678 0.088320700437737293 0 0.27759447922305269 0.102300292138243 0 0.26727326196086809 0.1020763692836902 0 0.28221875368247551 0.10834926947088031 0 0.27128983793455541 0.1113594337733238 0 0.27759447922305269 0.102300292138243 0 0.27128983793455541 0.1113594337733238 0 0.26727326196086809 0.1020763692836902 0 0.26073669164644431 0.1108882927048976 0 0.27128983793455541 0.1113594337733238 0 0.27759447922305269 0.102300292138243 0 0.26727326196086809 0.1020763692836902 0 0.27830857239472678 0.088320700437737293 0 0.26727326196086809 0.1020763692836902 0 0.25716355122997991 0.087651813314684204 0 0.26727326196086809 0.1020763692836902 0 0.25647320428212161 0.1026232910582171 0 0.26727326196086809 0.1020763692836902 0 0.25647320428212161 0.1026232910582171 0 0.26073669164644431 0.1108882927048976 0 0.24964033317715059 0.1130154559540677 0 0.25647320428212161 0.1026232910582171 0 0.26073669164644431 0.1108882927048976 0 0.24964033317715059 0.1130154559540677 0 0.24611891882383971 0.1006270183858942 0 0.25647320428212161 0.1026232910582171 0 0.24611891882383971 0.1006270183858942 0 0.25716355122997991 0.087651813314684204 0 0.25647320428212161 0.1026232910582171 0 0.26073669164644431 0.1108882927048976 0 0.25777762031448642 0.12882524828628061 0 0.26518573681769569 0.1190276846564338 0 0.26073669164644431 0.1108882927048976 0 0.25777762031448642 0.12882524828628061 0 0.24964033317715059 0.1130154559540677 0 0.26073669164644431 0.1108882927048976 0 0.25777762031448642 0.12882524828628061 0 0.26518573681769569 0.1190276846564338 0 0.25777762031448642 0.12882524828628061 0 0.26437425350213761 0.1257716527260245 0 0.25777762031448642 0.12882524828628061 0 0.25484921835653429 0.14657629581153281 0 0.24498662208429181 0.13092789129870561 0 0.25777762031448642 0.12882524828628061 0 0.25484921835653429 0.14657629581153281 0 0.25777762031448642 0.12882524828628061 0 0.26877114673166569 0.13194669517140159 0 0.25484921835653429 0.14657629581153281 0 0.25777762031448642 0.12882524828628061 0 0.26437425350213761 0.1257716527260245 0 0.26877114673166569 0.13194669517140159 0 0.27179274644952989 0.12159424188978581 0 0.26437425350213761 0.1257716527260245 0 0.26877114673166569 0.13194669517140159 0 0.26877114673166569 0.13194669517140159 0 0.27579764954618519 0.14275312355239861 0 0.25484921835653429 0.14657629581153281 0 0.27179274644952989 0.12159424188978581 0 0.26877114673166569 0.13194669517140159 0 0.27869408403231938 0.12912450756314961 0 0.26877114673166569 0.13194669517140159 0 0.27869408403231938 0.12912450756314961 0 0.27579764954618519 0.14275312355239861 0 0.27579764954618519 0.14275312355239861 0 0.27787831773205662 0.16237961729270001 0 0.28800453427130879 0.14945279939107009 0 0.27579764954618519 0.14275312355239861 0 0.25484921835653429 0.14657629581153281 0 0.27787831773205662 0.16237961729270001 0 0.25484921835653429 0.14657629581153281 0 0.27787831773205662 0.16237961729270001 0 0.25484921835653429 0.14657629581153281 0 0.25138800100100789 0.1675571019492901 0 0.25484921835653429 0.14657629581153281 0 0.25138800100100789 0.1675571019492901 0 0.27787831773205662 0.16237961729270001 0 0.25138800100100789 0.1675571019492901 0 0.26324340392666229 0.17647444589560851 0 0.27787831773205662 0.16237961729270001 0 0.2479267836454804 0.18853790808704729 0 0.25138800100100789 0.1675571019492901 0 0.26324340392666229 0.17647444589560851 0 0.2479267836454804 0.18853790808704729 0 0.26324340392666229 0.17647444589560851 0 0.25862611253905499 0.19132824549361821 0 0.26324340392666229 0.17647444589560851 0 0.25862611253905499 0.19132824549361821 0 0.26706841629520051 0.1902644509568166 0 0.26324340392666229 0.17647444589560851 0 0.27787831773205662 0.16237961729270001 0 0.28473151016634213 0.17771335493440421 0 0.26324340392666229 0.17647444589560851 0 0.27594466163120268 0.18598773850140279 0 0.28473151016634213 0.17771335493440421 0 0.26324340392666229 0.17647444589560851 0 0.27594466163120268 0.18598773850140279 0 0.26706841629520051 0.1902644509568166 0 0.27787831773205662 0.16237961729270001 0 0.29958915086103288 0.17956973525730341 0 0.30159101918436992 0.1618642382924399 0 0.27787831773205662 0.16237961729270001 0 0.30159101918436992 0.1618642382924399 0 0.28800453427130879 0.14945279939107009 0 0.27787831773205662 0.16237961729270001 0 0.29958915086103288 0.17956973525730341 0 0.27787831773205662 0.16237961729270001 0 0.28473151016634213 0.17771335493440421 0 0.29958915086103288 0.17956973525730341 0 0.28354507237646481 0.18555627614686021 0 0.28473151016634213 0.17771335493440421 0 0.29006625775371941 0.18675299395591849 0 0.27594466163120268 0.18598773850140279 0 0.28354507237646481 0.18555627614686021 0 0.28473151016634213 0.17771335493440421 0 0.29321510954106661 0.18285561533329811 0 0.29006625775371941 0.18675299395591849 0 0.29847351938317201 0.18738637718556639 0 0.28473151016634213 0.17771335493440421 0 0.29321510954106661 0.18285561533329811 0 0.29006625775371941 0.18675299395591849 0 0.28473151016634213 0.17771335493440421 0 0.29321510954106661 0.18285561533329811 0 0.29958915086103288 0.17956973525730341 0 0.29847351938317201 0.18738637718556639 0 0.29958915086103288 0.17956973525730341 0 0.31153220091520201 0.17833263618893491 0 0.29321510954106661 0.18285561533329811 0 0.29847351938317201 0.18738637718556639 0 0.29958915086103288 0.17956973525730341 0 0.29958915086103288 0.17956973525730341 0 0.31153220091520201 0.17833263618893491 0 0.30676384039041787 0.17019614001661959 0 0.29958915086103288 0.17956973525730341 0 0.31153220091520201 0.17833263618893491 0 0.30159101918436992 0.1618642382924399 0 0.31134165033730521 0.15069704763502051 0 0.31792382955787502 0.16194549409206729 0 0.31153220091520201 0.17833263618893491 0 0.30676384039041787 0.17019614001661959 0 0.31792382955787502 0.16194549409206729 0 0.29958915086103288 0.17956973525730341 0 0.30159101918436992 0.1618642382924399 0 0.30676384039041787 0.17019614001661959 0 0.30159101918436992 0.1618642382924399 0 0.30676384039041787 0.17019614001661959 0 0.31792382955787502 0.16194549409206729 0 0.30159101918436992 0.1618642382924399 0 0.31134165033730521 0.15069704763502051 0 0.30017496241644648 0.1449312257473902 0 0.31134165033730521 0.15069704763502051 0 0.30017496241644648 0.1449312257473902 0 0.31389076131671823 0.1402578175227448 0 0.30017496241644648 0.1449312257473902 0 0.30646171384198639 0.12816887978164249 0 0.31389076131671823 0.1402578175227448 0 0.30017496241644648 0.1449312257473902 0 0.30646171384198639 0.12816887978164249 0 0.29010060662607462 0.13434309344404821 0 0.29594959839325519 0.1220025925311113 0 0.30646171384198639 0.12816887978164249 0 0.29010060662607462 0.13434309344404821 0 0.29594959839325519 0.1220025925311113 0 0.28705416155151181 0.1235799167985355 0 0.29010060662607462 0.13434309344404821 0 0.28705416155151181 0.1235799167985355 0 0.27869408403231938 0.12912450756314961 0 0.29010060662607462 0.13434309344404821 0 0.27869408403231938 0.12912450756314961 0 0.27579764954618519 0.14275312355239861 0 0.29010060662607462 0.13434309344404821 0 0.27579764954618519 0.14275312355239861 0 0.29010060662607462 0.13434309344404821 0 0.28800453427130879 0.14945279939107009 0 0.30159101918436992 0.1618642382924399 0 0.30017496241644648 0.1449312257473902 0 0.28800453427130879 0.14945279939107009 0 0.30017496241644648 0.1449312257473902 0 0.29010060662607462 0.13434309344404821 0 0.28800453427130879 0.14945279939107009 0 0.26347511011625557 0.23421692359664059 0 0.28344559839917172 0.22989717206790211 0 0.28464777945004982 0.24726011295131869 0 0.26447930193717117 0.24706052181301319 0 0.26347511011625557 0.23421692359664059 0 0.28464777945004982 0.24726011295131869 0 0.26347511011625557 0.23421692359664059 0 0.28464777945004982 0.24726011295131869 0 0.24929547978304939 0.2383233617899719 0 0.25479644531309942 0.25874731555889569 0 0.26447930193717117 0.24706052181301319 0 0.24929547978304939 0.2383233617899719 0 0.25479644531309942 0.25874731555889569 0 0.24929547978304939 0.2383233617899719 0 0.26447930193717117 0.24706052181301319 0 0.26347511011625557 0.23421692359664059 0 0.26347511011625557 0.23421692359664059 0 0.25417444182490823 0.22520000528801451 0 0.26506743464690768 0.2233814107598199 0 0.24929547978304939 0.2383233617899719 0 0.26347511011625557 0.23421692359664059 0 0.25417444182490823 0.22520000528801451 0 0.25417444182490823 0.22520000528801451 0 0.26506743464690768 0.2233814107598199 0 0.25858958950485539 0.2150296993538279 0 0.26347511011625557 0.23421692359664059 0 0.27443969487511077 0.22461498409190789 0 0.28344559839917172 0.22989717206790211 0 0.26506743464690768 0.2233814107598199 0 0.27443969487511077 0.22461498409190789 0 0.2772495411151058 0.215634818799331 0 0.26347511011625557 0.23421692359664059 0 0.26506743464690768 0.2233814107598199 0 0.27443969487511077 0.22461498409190789 0 0.27443969487511077 0.22461498409190789 0 0.28314569051796568 0.221738829657777 0 0.28344559839917172 0.22989717206790211 0 0.27443969487511077 0.22461498409190789 0 0.2772495411151058 0.215634818799331 0 0.28314569051796568 0.221738829657777 0 0.2772495411151058 0.215634818799331 0 0.26917356077725829 0.2088428177729536 0 0.28426398013317938 0.20368646114373279 0 0.26917356077725829 0.2088428177729536 0 0.27422942029243741 0.19698159227608511 0 0.28426398013317938 0.20368646114373279 0 0.26506743464690768 0.2233814107598199 0 0.2772495411151058 0.215634818799331 0 0.26917356077725829 0.2088428177729536 0 0.26506743464690768 0.2233814107598199 0 0.26917356077725829 0.2088428177729536 0 0.25858958950485539 0.2150296993538279 0 0.25417444182490823 0.22520000528801451 0 0.25858958950485539 0.2150296993538279 0 0.2509697907780245 0.2154724319508407 0 0.25858958950485539 0.2150296993538279 0 0.2509697907780245 0.2154724319508407 0 0.25382484201740502 0.20971433286650901 0 0.25382484201740502 0.20971433286650901 0 0.26007545235268409 0.2068640893892211 0 0.2546123745411078 0.20102907767462311 0 0.25858958950485539 0.2150296993538279 0 0.25382484201740502 0.20971433286650901 0 0.26007545235268409 0.2068640893892211 0 0.24446556628995289 0.20951871422480439 0 0.25382484201740502 0.20971433286650901 0 0.2546123745411078 0.20102907767462311 0 0.26917356077725829 0.2088428177729536 0 0.25858958950485539 0.2150296993538279 0 0.26007545235268409 0.2068640893892211 0 0.26917356077725829 0.2088428177729536 0 0.26007545235268409 0.2068640893892211 0 0.26417689492279378 0.19970451927819161 0 0.26417689492279378 0.19970451927819161 0 0.2546123745411078 0.20102907767462311 0 0.25862611253905499 0.19132824549361821 0 0.26007545235268409 0.2068640893892211 0 0.26417689492279378 0.19970451927819161 0 0.2546123745411078 0.20102907767462311 0 0.2479267836454804 0.18853790808704729 0 0.2546123745411078 0.20102907767462311 0 0.25862611253905499 0.19132824549361821 0 0.26417689492279378 0.19970451927819161 0 0.25862611253905499 0.19132824549361821 0 0.26706841629520051 0.1902644509568166 0 0.27594466163120268 0.18598773850140279 0 0.26706841629520051 0.1902644509568166 0 0.27422942029243741 0.19698159227608511 0 0.26917356077725829 0.2088428177729536 0 0.26417689492279378 0.19970451927819161 0 0.27422942029243741 0.19698159227608511 0 0.26417689492279378 0.19970451927819161 0 0.26706841629520051 0.1902644509568166 0 0.27422942029243741 0.19698159227608511 0 0.27422942029243741 0.19698159227608511 0 0.28407642329006327 0.192560709041768 0 0.28426398013317938 0.20368646114373279 0 0.27594466163120268 0.18598773850140279 0 0.28354507237646481 0.18555627614686021 0 0.28407642329006327 0.192560709041768 0 0.27594466163120268 0.18598773850140279 0 0.27422942029243741 0.19698159227608511 0 0.28407642329006327 0.192560709041768 0 0.29177893526288762 0.19453188074557071 0 0.30224405266238558 0.20214600422779819 0 0.28426398013317938 0.20368646114373279 0 0.29006625775371941 0.18675299395591849 0 0.28407642329006327 0.192560709041768 0 0.29177893526288762 0.19453188074557071 0 0.28354507237646481 0.18555627614686021 0 0.29006625775371941 0.18675299395591849 0 0.28407642329006327 0.192560709041768 0 0.28407642329006327 0.192560709041768 0 0.29177893526288762 0.19453188074557071 0 0.28426398013317938 0.20368646114373279 0 0.29006625775371941 0.18675299395591849 0 0.29847351938317201 0.18738637718556639 0 0.29177893526288762 0.19453188074557071 0 0.29847351938317201 0.18738637718556639 0 0.29177893526288762 0.19453188074557071 0 0.30224405266238558 0.20214600422779819 0 0.29847351938317201 0.18738637718556639 0 0.31153220091520201 0.17833263618893491 0 0.30224405266238558 0.20214600422779819 0 0.31153220091520201 0.17833263618893491 0 0.30224405266238558 0.20214600422779819 0 0.31153220091520201 0.17833263618893491 0 0.30224405266238558 0.20214600422779819 0 0.32116928687732749 0.1953375323335626 0 0.30224405266238558 0.20214600422779819 0 0.29295590440956731 0.2259593722666608 0 0.30224405266238558 0.20214600422779819 0 0.29295590440956731 0.2259593722666608 0 0.31456274487646341 0.22772239080203641 0 0.30224405266238558 0.20214600422779819 0 0.28426398013317938 0.20368646114373279 0 0.28849557239822338 0.21538659477075911 0 0.30224405266238558 0.20214600422779819 0 0.28849557239822338 0.21538659477075911 0 0.29295590440956731 0.2259593722666608 0 0.2772495411151058 0.215634818799331 0 0.28849557239822338 0.21538659477075911 0 0.28314569051796568 0.221738829657777 0 0.2772495411151058 0.215634818799331 0 0.28426398013317938 0.20368646114373279 0 0.28849557239822338 0.21538659477075911 0 0.28344559839917172 0.22989717206790211 0 0.29295590440956731 0.2259593722666608 0 0.28464777945004982 0.24726011295131869 0 0.28849557239822338 0.21538659477075911 0 0.28314569051796568 0.221738829657777 0 0.29295590440956731 0.2259593722666608 0 0.28314569051796568 0.221738829657777 0 0.28344559839917172 0.22989717206790211 0 0.29295590440956731 0.2259593722666608 0 0.29295590440956731 0.2259593722666608 0 0.30317071187591821 0.2415907003000354 0 0.31456274487646341 0.22772239080203641 0 0.29295590440956731 0.2259593722666608 0 0.31456274487646341 0.22772239080203641 0 0.30764032109628908 0.26142441456623822 0 0.30317071187591821 0.2415907003000354 0 0.31898891744699359 0.24255199555300319 0 0.30317071187591821 0.2415907003000354 0 0.31898891744699359 0.24255199555300319 0 0.31456274487646341 0.22772239080203641 0 0.29295590440956731 0.2259593722666608 0 0.30317071187591821 0.2415907003000354 0 0.28464777945004982 0.24726011295131869 0 0.29295590440956731 0.2259593722666608 0 0.28464777945004982 0.24726011295131869 0 0.3334012240429397 0.25253706275929022 0 0.31898891744699359 0.24255199555300319 0 0.33616958534335922 0.22948540933741579 0 0.3334012240429397 0.25253706275929022 0 0.33616958534335922 0.22948540933741579 0 0.35124264266190919 0.24984344898164279 0 0.3334012240429397 0.25253706275929022 0 0.33616958534335922 0.22948540933741579 0 0.31898891744699359 0.24255199555300319 0 0.31456274487646341 0.22772239080203641 0 0.33616958534335922 0.22948540933741579 0 0.31456274487646341 0.22772239080203641 0 0.33616958534335922 0.22948540933741579 0 0.31456274487646341 0.22772239080203641 0 0.33616958534335922 0.22948540933741579 0 0.32271613661112908 0.2113972213570913 0 0.33616958534335922 0.22948540933741579 0 0.32271613661112908 0.2113972213570913 0 0.3394350132961117 0.20229477008464361 0 0.33616958534335922 0.22948540933741579 0 0.3394350132961117 0.20229477008464361 0 0.33616958534335922 0.22948540933741579 0 0.3394350132961117 0.20229477008464361 0 0.35470152768993518 0.2146819460376235 0 0.30224405266238558 0.20214600422779819 0 0.31456274487646341 0.22772239080203641 0 0.32271613661112908 0.2113972213570913 0 0.30224405266238558 0.20214600422779819 0 0.32271613661112908 0.2113972213570913 0 0.32116928687732749 0.1953375323335626 0 0.32271613661112908 0.2113972213570913 0 0.32116928687732749 0.1953375323335626 0 0.3394350132961117 0.20229477008464361 0 0.32116928687732749 0.1953375323335626 0 0.3394350132961117 0.20229477008464361 0 0.32711632108203442 0.1767183835104025 0 0.3394350132961117 0.20229477008464361 0 0.34270044124886712 0.17510413083187201 0 0.35375823954206331 0.19588126528346289 0 0.36930572258313232 0.19374500101723621 0 0.35310881299101499 0.180201147328477 0 0.3394350132961117 0.20229477008464361 0 0.35375823954206331 0.19588126528346289 0 0.34270044124886712 0.17510413083187201 0 0.36930572258313232 0.19374500101723621 0 0.36777371559861199 0.20707940532438501 0 0.38550263217524988 0.2072888547059952 0 0.35375823954206331 0.19588126528346289 0 0.36930572258313232 0.19374500101723621 0 0.36777371559861199 0.20707940532438501 0 0.36777371559861199 0.20707940532438501 0 0.35470152768993518 0.2146819460376235 0 0.37503515917165547 0.2178429626468166 0 0.35375823954206331 0.19588126528346289 0 0.36777371559861199 0.20707940532438501 0 0.35470152768993518 0.2146819460376235 0 0.3394350132961117 0.20229477008464361 0 0.35375823954206331 0.19588126528346289 0 0.35470152768993518 0.2146819460376235 0 0.33616958534335922 0.22948540933741579 0 0.35470152768993518 0.2146819460376235 0 0.35668382028797407 0.23115927630107011 0 0.33616958534335922 0.22948540933741579 0 0.35668382028797407 0.23115927630107011 0 0.35470152768993518 0.2146819460376235 0 0.35668382028797407 0.23115927630107011 0 0.37719805523258892 0.23283314326472521 0 0.35668382028797407 0.23115927630107011 0 0.37719805523258892 0.23283314326472521 0 0.35470152768993518 0.2146819460376235 0 0.37719805523258892 0.23283314326472521 0 0.37503515917165547 0.2178429626468166 0 0.35470152768993518 0.2146819460376235 0 0.37719805523258892 0.23283314326472521 0 0.37296084668648471 0.25017597579261153 0 0.35668382028797407 0.23115927630107011 0 0.35124264266190919 0.24984344898164279 0 0.37296084668648471 0.25017597579261153 0 0.35668382028797407 0.23115927630107011 0 0.37719805523258892 0.23283314326472521 0 0.33616958534335922 0.22948540933741579 0 0.35668382028797407 0.23115927630107011 0 0.35124264266190919 0.24984344898164279 0 0.33680370405100007 0.14232727060978889 0 0.34524422569586299 0.1539224890269226 0 0.34778801014286009 0.13274084722197321 0 0.33680370405100007 0.14232727060978889 0 0.3243154582005473 0.1455583519951992 0 0.33300090825723011 0.16114246567361171 0 0.33680370405100007 0.14232727060978889 0 0.33300090825723011 0.16114246567361171 0 0.34524422569586299 0.1539224890269226 0 0.33680370405100007 0.14232727060978889 0 0.32716002178730552 0.1319335824544717 0 0.34778801014286009 0.13274084722197321 0 0.33808454579379787 0.1208319537353893 0 0.32716002178730552 0.1319335824544717 0 0.34778801014286009 0.13274084722197321 0 0.33680370405100007 0.14232727060978889 0 0.32716002178730552 0.1319335824544717 0 0.3243154582005473 0.1455583519951992 0 0.3235055528938629 0.11568337333176019 0 0.30646171384198639 0.12816887978164249 0 0.32716002178730552 0.1319335824544717 0 0.30646171384198639 0.12816887978164249 0 0.32716002178730552 0.1319335824544717 0 0.31389076131671823 0.1402578175227448 0 0.32716002178730552 0.1319335824544717 0 0.31389076131671823 0.1402578175227448 0 0.3243154582005473 0.1455583519951992 0 0.3243154582005473 0.1455583519951992 0 0.31792382955787502 0.16194549409206729 0 0.3243154582005473 0.1455583519951992 0 0.31792382955787502 0.16194549409206729 0 0.33300090825723011 0.16114246567361171 0 0.31134165033730521 0.15069704763502051 0 0.3243154582005473 0.1455583519951992 0 0.31792382955787502 0.16194549409206729 0 0.31134165033730521 0.15069704763502051 0 0.31389076131671823 0.1402578175227448 0 0.3243154582005473 0.1455583519951992 0 0.31153220091520201 0.17833263618893491 0 0.31792382955787502 0.16194549409206729 0 0.31792382955787502 0.16194549409206729 0 0.32711632108203442 0.1767183835104025 0 0.33300090825723011 0.16114246567361171 0 0.31153220091520201 0.17833263618893491 0 0.31792382955787502 0.16194549409206729 0 0.32711632108203442 0.1767183835104025 0 0.31153220091520201 0.17833263618893491 0 0.32116928687732749 0.1953375323335626 0 0.32711632108203442 0.1767183835104025 0 0.31153220091520201 0.17833263618893491 0 0.32711632108203442 0.1767183835104025 0 0.3394350132961117 0.20229477008464361 0 0.32711632108203442 0.1767183835104025 0 0.34270044124886712 0.17510413083187201 0 0.32711632108203442 0.1767183835104025 0 0.34270044124886712 0.17510413083187201 0 0.34270044124886712 0.17510413083187201 0 0.33300090825723011 0.16114246567361171 0 0.34524422569586299 0.1539224890269226 0 0.32711632108203442 0.1767183835104025 0 0.34270044124886712 0.17510413083187201 0 0.33300090825723011 0.16114246567361171 0 0.34270044124886712 0.17510413083187201 0 0.35352383699142781 0.16450452237243859 0 0.36454203098319382 0.17284170957519879 0 0.35352383699142781 0.16450452237243859 0 0.36457796316227448 0.15206783779406299 0 0.34524422569586299 0.1539224890269226 0 0.34270044124886712 0.17510413083187201 0 0.35352383699142781 0.16450452237243859 0 0.34524422569586299 0.1539224890269226 0 0.34270044124886712 0.17510413083187201 0 0.34524422569586299 0.1539224890269226 0 0.35375823954206331 0.19588126528346289 0 0.34270044124886712 0.17510413083187201 0 0.35310881299101499 0.180201147328477 0 0.34270044124886712 0.17510413083187201 0 0.36454203098319382 0.17284170957519879 0 0.34270044124886712 0.17510413083187201 0 0.35310881299101499 0.180201147328477 0 0.36454203098319382 0.17284170957519879 0 0.35310881299101499 0.180201147328477 0 0.36454203098319382 0.17284170957519879 0 0.37413170705986171 0.18202247175139341 0 0.36930572258313232 0.19374500101723621 0 0.35310881299101499 0.180201147328477 0 0.37413170705986171 0.18202247175139341 0 0.36930572258313232 0.19374500101723621 0 0.35310881299101499 0.180201147328477 0 0.35352383699142781 0.16450452237243859 0 0.36454203098319382 0.17284170957519879 0 0.36457796316227448 0.15206783779406299 0 0.36454203098319382 0.17284170957519879 0 0.36457796316227448 0.15206783779406299 0 0.38295141871969979 0.15521936366627781 0 0.34524422569586299 0.1539224890269226 0 0.34778801014286009 0.13274084722197321 0 0.36457796316227448 0.15206783779406299 0 0.34524422569586299 0.1539224890269226 0 0.34778801014286009 0.13274084722197321 0 0.35598689978338838 0.120327213078831 0 0.34778801014286009 0.13274084722197321 0 0.36503111684720357 0.1295558124408113 0 0.36457796316227448 0.15206783779406299 0 0.34778801014286009 0.13274084722197321 0 0.36503111684720357 0.1295558124408113 0 0.36503111684720357 0.1295558124408113 0 0.38038504458532868 0.13969129167781161 0 0.37857746106597362 0.11443442834108709 0 0.36457796316227448 0.15206783779406299 0 0.36503111684720357 0.1295558124408113 0 0.38038504458532868 0.13969129167781161 0 0.38038504458532868 0.13969129167781161 0 0.3964629856877116 0.1308017081484576 0 0.37857746106597362 0.11443442834108709 0 0.38038504458532868 0.13969129167781161 0 0.3964629856877116 0.1308017081484576 0 0.4001336861471142 0.15072961123787651 0 0.3964629856877116 0.1308017081484576 0 0.4001336861471142 0.15072961123787651 0 0.4160787729281078 0.1341438121161917 0 0.4001336861471142 0.15072961123787651 0 0.38295141871969979 0.15521936366627781 0 0.39442348400904542 0.16121128257113279 0 0.38038504458532868 0.13969129167781161 0 0.4001336861471142 0.15072961123787651 0 0.36457796316227448 0.15206783779406299 0 0.38038504458532868 0.13969129167781161 0 0.38295141871969979 0.15521936366627781 0 0.38038504458532868 0.13969129167781161 0 0.4001336861471142 0.15072961123787651 0 0.38295141871969979 0.15521936366627781 0 0.36454203098319382 0.17284170957519879 0 0.38638362071752053 0.17057928831852531 0 0.36454203098319382 0.17284170957519879 0 0.38295141871969979 0.15521936366627781 0 0.38638362071752053 0.17057928831852531 0 0.38295141871969979 0.15521936366627781 0 0.38638362071752053 0.17057928831852531 0 0.39442348400904542 0.16121128257113279 0 0.36454203098319382 0.17284170957519879 0 0.37413170705986171 0.18202247175139341 0 0.38638362071752053 0.17057928831852531 0 0.37413170705986171 0.18202247175139341 0 0.38884908659171069 0.18362539253437271 0 0.38158605135790108 0.19047449542062339 0 0.37413170705986171 0.18202247175139341 0 0.38638362071752053 0.17057928831852531 0 0.38884908659171069 0.18362539253437271 0 0.38884908659171069 0.18362539253437271 0 0.39757988484374779 0.17632506805428899 0 0.40000673758698202 0.1862573670962836 0 0.38638362071752053 0.17057928831852531 0 0.38884908659171069 0.18362539253437271 0 0.39757988484374779 0.17632506805428899 0 0.39757988484374779 0.17632506805428899 0 0.40822521045184712 0.16831686706185181 0 0.40658018587911682 0.17286599220275481 0 0.39757988484374779 0.17632506805428899 0 0.40000673758698202 0.1862573670962836 0 0.40658018587911682 0.17286599220275481 0 0.38638362071752053 0.17057928831852531 0 0.39442348400904542 0.16121128257113279 0 0.40822521045184712 0.16831686706185181 0 0.4001336861471142 0.15072961123787651 0 0.39442348400904542 0.16121128257113279 0 0.40822521045184712 0.16831686706185181 0 0.38638362071752053 0.17057928831852531 0 0.39757988484374779 0.17632506805428899 0 0.40822521045184712 0.16831686706185181 0 0.38638362071752053 0.17057928831852531 0 0.40822521045184712 0.16831686706185181 0 0.4001336861471142 0.15072961123787651 0 0.40822521045184712 0.16831686706185181 0 0.41988232770889922 0.16176793079794261 0 0.41988232770889922 0.16176793079794261 0 0.40658018587911682 0.17286599220275481 0 0.4169120479738545 0.17790707684821511 0 0.41988232770889922 0.16176793079794261 0 0.40658018587911682 0.17286599220275481 0 0.40822521045184712 0.16831686706185181 0 0.41988232770889922 0.16176793079794261 0 0.40658018587911682 0.17286599220275481 0 0.40000673758698202 0.1862573670962836 0 0.4169120479738545 0.17790707684821511 0 0.40000673758698202 0.1862573670962836 0 0.4169120479738545 0.17790707684821511 0 0.41217586008042062 0.18928538751745311 0 0.40000673758698202 0.1862573670962836 0 0.40658018587911682 0.17286599220275481 0 0.4169120479738545 0.17790707684821511 0 0.4169120479738545 0.17790707684821511 0 0.42179337414104978 0.1873299527900941 0 0.41217586008042062 0.18928538751745311 0 0.42179337414104978 0.1873299527900941 0 0.43381735836072671 0.16955678660014589 0 0.43285592964768838 0.18955491479054981 0 0.4169120479738545 0.17790707684821511 0 0.42179337414104978 0.1873299527900941 0 0.43381735836072671 0.16955678660014589 0 0.4169120479738545 0.17790707684821511 0 0.43381735836072671 0.16955678660014589 0 0.43381735836072671 0.16955678660014589 0 0.43285592964768838 0.18955491479054981 0 0.44262737155310561 0.18422838270644329 0 0.41988232770889922 0.16176793079794261 0 0.4169120479738545 0.17790707684821511 0 0.43381735836072671 0.16955678660014589 0 0.41988232770889922 0.16176793079794261 0 0.43381735836072671 0.16955678660014589 0 0.43836793621871151 0.1578824591974016 0 0.41988232770889922 0.16176793079794261 0 0.43381735836072671 0.16955678660014589 0 0.41988232770889922 0.16176793079794261 0 0.43921635595959668 0.14563742824622661 0 0.4160787729281078 0.1341438121161917 0 0.41882778568592949 0.1480696955995594 0 0.43921635595959668 0.14563742824622661 0 0.41988232770889922 0.16176793079794261 0 0.43921635595959668 0.14563742824622661 0 0.43836793621871151 0.1578824591974016 0 0.41988232770889922 0.16176793079794261 0 0.41882778568592949 0.1480696955995594 0 0.43921635595959668 0.14563742824622661 0 0.4160787729281078 0.1341438121161917 0 0.43921635595959668 0.14563742824622661 0 0.43266561040999202 0.1239020186607535 0 0.4160787729281078 0.1341438121161917 0 0.43266561040999202 0.1239020186607535 0 0.41997509748501582 0.1203905887435416 0 0.3964629856877116 0.1308017081484576 0 0.4160787729281078 0.1341438121161917 0 0.40713996371203381 0.115009397369321 0 0.4001336861471142 0.15072961123787651 0 0.41988232770889922 0.16176793079794261 0 0.4001336861471142 0.15072961123787651 0 0.41988232770889922 0.16176793079794261 0 0.41882778568592949 0.1480696955995594 0 0.4001336861471142 0.15072961123787651 0 0.4160787729281078 0.1341438121161917 0 0.41882778568592949 0.1480696955995594 0 0.39599280232076117 0.2399787202183967 0 0.39426155780227179 0.24489199104221671 0 0.38988209498876158 0.2260904228741058 0 0.39426155780227179 0.24489199104221671 0 0.39005234077762319 0.23388199368363119 0 0.38988209498876158 0.2260904228741058 0 0.39426155780227179 0.24489199104221671 0 0.38988209498876158 0.2260904228741058 0 0.40324908199546572 0.24572053366433869 0 0.39599280232076117 0.2399787202183967 0 0.39706378351583399 0.24439686040981831 0 0.40324908199546572 0.24572053366433869 0 0.40340776937371292 0.23729279559464411 0 0.39599280232076117 0.2399787202183967 0 0.40340776937371292 0.23729279559464411 0 0.39599280232076117 0.2399787202183967 0 0.3989373485008606 0.23204524175487939 0 0.40324908199546572 0.24572053366433869 0 0.39706378351583399 0.24439686040981831 0 0.39475169194483772 0.2469961967143216 0 0.39426155780227179 0.24489199104221671 0 0.39475169194483772 0.2469961967143216 0 0.39599280232076117 0.2399787202183967 0 0.39426155780227179 0.24489199104221671 0 0.39599280232076117 0.2399787202183967 0 0.39426155780227179 0.24489199104221671 0 0.39706378351583399 0.24439686040981831 0 0.39426155780227179 0.24489199104221671 0 0.39706378351583399 0.24439686040981831 0 0.39475169194483772 0.2469961967143216 0 0.39426155780227179 0.24489199104221671 0 0.37719805523258892 0.23283314326472521 0 0.37296084668648471 0.25017597579261153 0 0.39426155780227179 0.24489199104221671 0 0.37719805523258892 0.23283314326472521 0 0.39426155780227179 0.24489199104221671 0 0.39005234077762319 0.23388199368363119 0 0.37719805523258892 0.23283314326472521 0 0.39005234077762319 0.23388199368363119 0 0.37719805523258892 0.23283314326472521 0 0.38988209498876158 0.2260904228741058 0 0.39005234077762319 0.23388199368363119 0 0.37719805523258892 0.23283314326472521 0 0.37719805523258892 0.23283314326472521 0 0.38988209498876158 0.2260904228741058 0 0.37503515917165547 0.2178429626468166 0 0.38988209498876158 0.2260904228741058 0 0.3989373485008606 0.23204524175487939 0 0.40646672732020672 0.22481902833237119 0 0.38988209498876158 0.2260904228741058 0 0.38550263217524988 0.2072888547059952 0 0.40646672732020672 0.22481902833237119 0 0.39599280232076117 0.2399787202183967 0 0.38988209498876158 0.2260904228741058 0 0.3989373485008606 0.23204524175487939 0 0.40340776937371292 0.23729279559464411 0 0.3989373485008606 0.23204524175487939 0 0.40646672732020672 0.22481902833237119 0 0.4030572530758596 0.2076630844450694 0 0.38550263217524988 0.2072888547059952 0 0.39340651798425152 0.1960936645651217 0 0.38550263217524988 0.2072888547059952 0 0.40646672732020672 0.22481902833237119 0 0.4030572530758596 0.2076630844450694 0 0.38550263217524988 0.2072888547059952 0 0.40646672732020672 0.22481902833237119 0 0.36777371559861199 0.20707940532438501 0 0.38550263217524988 0.2072888547059952 0 0.37503515917165547 0.2178429626468166 0 0.38988209498876158 0.2260904228741058 0 0.38550263217524988 0.2072888547059952 0 0.38988209498876158 0.2260904228741058 0 0.38550263217524988 0.2072888547059952 0 0.37503515917165547 0.2178429626468166 0 0.36930572258313232 0.19374500101723621 0 0.38550263217524988 0.2072888547059952 0 0.38550263217524988 0.2072888547059952 0 0.38158605135790108 0.19047449542062339 0 0.39340651798425152 0.1960936645651217 0 0.38550263217524988 0.2072888547059952 0 0.38158605135790108 0.19047449542062339 0 0.36930572258313232 0.19374500101723621 0 0.38550263217524988 0.2072888547059952 0 0.38158605135790108 0.19047449542062339 0 0.36930572258313232 0.19374500101723621 0 0.37413170705986171 0.18202247175139341 0 0.38158605135790108 0.19047449542062339 0 0.38884908659171069 0.18362539253437271 0 0.38158605135790108 0.19047449542062339 0 0.39340651798425152 0.1960936645651217 0 0.38884908659171069 0.18362539253437271 0 0.40000673758698202 0.1862573670962836 0 0.39340651798425152 0.1960936645651217 0 0.4030572530758596 0.2076630844450694 0 0.39340651798425152 0.1960936645651217 0 0.40528134283174622 0.19548043504178469 0 0.40000673758698202 0.1862573670962836 0 0.39340651798425152 0.1960936645651217 0 0.40528134283174622 0.19548043504178469 0 0.40000673758698202 0.1862573670962836 0 0.40528134283174622 0.19548043504178469 0 0.41217586008042062 0.18928538751745311 0 0.40528134283174622 0.19548043504178469 0 0.41217586008042062 0.18928538751745311 0 0.41776034543121732 0.19810267158499559 0 0.4030572530758596 0.2076630844450694 0 0.40528134283174622 0.19548043504178469 0 0.41776034543121732 0.19810267158499559 0 0.42179337414104978 0.1873299527900941 0 0.41217586008042062 0.18928538751745311 0 0.41776034543121732 0.19810267158499559 0 0.42179337414104978 0.1873299527900941 0 0.41776034543121732 0.19810267158499559 0 0.43285592964768838 0.18955491479054981 0 0.43285592964768838 0.18955491479054981 0 0.43271846109677609 0.20478541913373419 0 0.44669461910893082 0.19520818654536179 0 0.41776034543121732 0.19810267158499559 0 0.43285592964768838 0.18955491479054981 0 0.43271846109677609 0.20478541913373419 0 0.43271846109677609 0.20478541913373419 0 0.41867971790270042 0.21169832073403941 0 0.43257164579279272 0.22279988155402081 0 0.41776034543121732 0.19810267158499559 0 0.43271846109677609 0.20478541913373419 0 0.41867971790270042 0.21169832073403941 0 0.4030572530758596 0.2076630844450694 0 0.41867971790270042 0.21169832073403941 0 0.40646672732020672 0.22481902833237119 0 0.4030572530758596 0.2076630844450694 0 0.41776034543121732 0.19810267158499559 0 0.41867971790270042 0.21169832073403941 0 0.41867971790270042 0.21169832073403941 0 0.40646672732020672 0.22481902833237119 0 0.43257164579279272 0.22279988155402081 0 0.40646672732020672 0.22481902833237119 0 0.42743082246516367 0.24234920195874701 0 0.40646672732020672 0.22481902833237119 0 0.43257164579279272 0.22279988155402081 0 0.42743082246516367 0.24234920195874701 0 0.43257164579279272 0.22279988155402081 0 0.42743082246516367 0.24234920195874701 0 0.4423395933030797 0.23862107087322351 0 0.40646672732020672 0.22481902833237119 0 0.42743082246516367 0.24234920195874701 0 0.41425832284588698 0.24473024553476841 0 0.40340776937371292 0.23729279559464411 0 0.40646672732020672 0.22481902833237119 0 0.41425832284588698 0.24473024553476841 0 0.40324908199546572 0.24572053366433869 0 0.40340776937371292 0.23729279559464411 0 0.41425832284588698 0.24473024553476841 0 0.45898644360448321 0.25161141212264609 0 0.45465161684046379 0.24106262467519779 0 0.47024860419903641 0.24027088914948219 0 0.44839491761012079 0.25987937558512281 0 0.42743082246516367 0.24234920195874701 0 0.4423395933030797 0.23862107087322351 0 0.44839491761012079 0.25987937558512281 0 0.45465161684046379 0.24106262467519779 0 0.4423395933030797 0.23862107087322351 0 0.45465161684046379 0.24106262467519779 0 0.4423395933030797 0.23862107087322351 0 0.44864896380685743 0.22701427059302909 0 0.43257164579279272 0.22279988155402081 0 0.44864896380685743 0.22701427059302909 0 0.44811078867642229 0.21185617906075219 0 0.43257164579279272 0.22279988155402081 0 0.4423395933030797 0.23862107087322351 0 0.44864896380685743 0.22701427059302909 0 0.44864896380685743 0.22701427059302909 0 0.46198278798820952 0.22038062787836721 0 0.44811078867642229 0.21185617906075219 0 0.45465161684046379 0.24106262467519779 0 0.44864896380685743 0.22701427059302909 0 0.46198278798820952 0.22038062787836721 0 0.45465161684046379 0.24106262467519779 0 0.46198278798820952 0.22038062787836721 0 0.47024860419903641 0.24027088914948219 0 0.46198278798820952 0.22038062787836721 0 0.44811078867642229 0.21185617906075219 0 0.46162192037968008 0.20253418223439271 0 0.46198278798820952 0.22038062787836721 0 0.46162192037968008 0.20253418223439271 0 0.47112834997204822 0.20736462443897921 0 0.43271846109677609 0.20478541913373419 0 0.43257164579279272 0.22279988155402081 0 0.44811078867642229 0.21185617906075219 0 0.44811078867642229 0.21185617906075219 0 0.44669461910893082 0.19520818654536179 0 0.46162192037968008 0.20253418223439271 0 0.43271846109677609 0.20478541913373419 0 0.44811078867642229 0.21185617906075219 0 0.44669461910893082 0.19520818654536179 0 0.43285592964768838 0.18955491479054981 0 0.44669461910893082 0.19520818654536179 0 0.44262737155310561 0.18422838270644329 0 0.46162192037968008 0.20253418223439271 0 0.48046579982942622 0.1956304991792871 0 0.45714157909507652 0.1825936428897163 0 0.44669461910893082 0.19520818654536179 0 0.46162192037968008 0.20253418223439271 0 0.45714157909507652 0.1825936428897163 0 0.48046579982942622 0.1956304991792871 0 0.45714157909507652 0.1825936428897163 0 0.48046579982942622 0.1956304991792871 0 0.48544454106048412 0.19034714928688259 0 0.47784657262976021 0.21530901921818241 0 0.46162192037968008 0.20253418223439271 0 0.48046579982942622 0.1956304991792871 0 0.47112834997204822 0.20736462443897921 0 0.48544454106048412 0.19034714928688259 0 0.47784657262976021 0.21530901921818241 0 0.48046579982942622 0.1956304991792871 0 0.4805430104620354 0.18825996031838271 0 0.4729343483683624 0.18354574719714239 0 0.48046579982942622 0.1956304991792871 0 0.4805430104620354 0.18825996031838271 0 0.48544454106048412 0.19034714928688259 0 0.48824233671931327 0.20483603178877449 0 0.5 0.21375302292256909 0 0.5 0.18404607919501439 0 0.48544454106048412 0.19034714928688259 0 0.48824233671931327 0.20483603178877449 0 0.5 0.18404607919501439 0 0.48824233671931327 0.20483603178877449 0 0.5 0.21375302292256909 0 0.47784657262976021 0.21530901921818241 0 0.48544454106048412 0.19034714928688259 0 0.48824233671931327 0.20483603178877449 0 0.47784657262976021 0.21530901921818241 0 0.48046579982942622 0.1956304991792871 0 0.47112834997204822 0.20736462443897921 0 0.47784657262976021 0.21530901921818241 0 0.46198278798820952 0.22038062787836721 0 0.47112834997204822 0.20736462443897921 0 0.47784657262976021 0.21530901921818241 0 0.47784657262976021 0.21530901921818241 0 0.48623541117035041 0.2314997200304551 0 0.47024860419903641 0.24027088914948219 0 0.46198278798820952 0.22038062787836721 0 0.47784657262976021 0.21530901921818241 0 0.47024860419903641 0.24027088914948219 0 0.47784657262976021 0.21530901921818241 0 0.47024860419903641 0.24027088914948219 0 0.5 0.21375302292256909 0 0.47784657262976021 0.21530901921818241 0 0.48623541117035041 0.2314997200304551 0 0.5 0.21375302292256909 0 0.48623541117035041 0.2314997200304551 0 0.50000000000000111 0.24345996665012401 0 0.48132531788415628 0.25434636286545259 0 0.50000000000000111 0.24345996665012401 0 0.48132531788415628 0.25434636286545259 0 0.48623541117035041 0.2314997200304551 0 0.50000000000000111 0.24345996665012401 0 0.48132531788415628 0.25434636286545259 0 0.48623541117035041 0.2314997200304551 0 0.47024860419903641 0.24027088914948219 0 0.46275241100747111 0.1552644676533651 0 0.45855038421029398 0.12950692569451 0 0.46937106519737859 0.1395994724032725 0 0.46275241100747111 0.1552644676533651 0 0.45855038421029398 0.12950692569451 0 0.46275241100747111 0.1552644676533651 0 0.45855038421029398 0.12950692569451 0 0.4506387543802346 0.15003952321593539 0 0.46275241100747111 0.1552644676533651 0 0.4692946612570188 0.15203295712744291 0 0.46937106519737859 0.1395994724032725 0 0.46275241100747111 0.1552644676533651 0 0.4506387543802346 0.15003952321593539 0 0.44828488468409983 0.1624106271267573 0 0.46275241100747111 0.1552644676533651 0 0.47129846091184052 0.16121871765102991 0 0.4692946612570188 0.15203295712744291 0 0.46275241100747111 0.1552644676533651 0 0.4692946612570188 0.15203295712744291 0 0.46052565031494203 0.12785894863933051 0 0.46937106519737859 0.1395994724032725 0 0.46052565031494203 0.12785894863933051 0 0.45855038421029398 0.12950692569451 0 0.46937106519737859 0.1395994724032725 0 0.46052565031494203 0.12785894863933051 0 0.47295450229811747 0.12736825850859149 0 0.46937106519737859 0.1395994724032725 0 0.45855038421029398 0.12950692569451 0 0.44646826871520501 0.12868054826244071 0 0.45766131432832408 0.124057113997791 0 0.45855038421029398 0.12950692569451 0 0.45766131432832408 0.124057113997791 0 0.46052565031494203 0.12785894863933051 0 0.45855038421029398 0.12950692569451 0 0.45766131432832408 0.124057113997791 0 0.46052565031494203 0.12785894863933051 0 0.45766131432832408 0.124057113997791 0 0.46052565031494203 0.12785894863933051 0 0.45855038421029398 0.12950692569451 0 0.45855038421029398 0.12950692569451 0 0.44646826871520501 0.12868054826244071 0 0.43921635595959668 0.14563742824622661 0 0.44646826871520501 0.12868054826244071 0 0.43921635595959668 0.14563742824622661 0 0.43266561040999202 0.1239020186607535 0 0.45855038421029398 0.12950692569451 0 0.43921635595959668 0.14563742824622661 0 0.45855038421029398 0.12950692569451 0 0.43921635595959668 0.14563742824622661 0 0.4506387543802346 0.15003952321593539 0 0.43921635595959668 0.14563742824622661 0 0.4506387543802346 0.15003952321593539 0 0.43836793621871151 0.1578824591974016 0 0.43381735836072671 0.16955678660014589 0 0.44828488468409983 0.1624106271267573 0 0.45385790775550089 0.17000587057635899 0 0.43381735836072671 0.16955678660014589 0 0.43836793621871151 0.1578824591974016 0 0.44828488468409983 0.1624106271267573 0 0.43381735836072671 0.16955678660014589 0 0.44828488468409983 0.1624106271267573 0 0.4506387543802346 0.15003952321593539 0 0.43836793621871151 0.1578824591974016 0 0.44828488468409983 0.1624106271267573 0 0.43381735836072671 0.16955678660014589 0 0.45714157909507652 0.1825936428897163 0 0.43381735836072671 0.16955678660014589 0 0.45714157909507652 0.1825936428897163 0 0.45385790775550089 0.17000587057635899 0 0.43381735836072671 0.16955678660014589 0 0.44262737155310561 0.18422838270644329 0 0.45714157909507652 0.1825936428897163 0 0.44669461910893082 0.19520818654536179 0 0.44262737155310561 0.18422838270644329 0 0.45714157909507652 0.1825936428897163 0 0.45714157909507652 0.1825936428897163 0 0.46539543485981988 0.1714656489073503 0 0.4729343483683624 0.18354574719714239 0 0.45714157909507652 0.1825936428897163 0 0.45385790775550089 0.17000587057635899 0 0.46539543485981988 0.1714656489073503 0 0.46275241100747111 0.1552644676533651 0 0.46539543485981988 0.1714656489073503 0 0.46275241100747111 0.1552644676533651 0 0.45385790775550089 0.17000587057635899 0 0.46539543485981988 0.1714656489073503 0 0.46275241100747111 0.1552644676533651 0 0.46539543485981988 0.1714656489073503 0 0.47129846091184052 0.16121871765102991 0 0.46275241100747111 0.1552644676533651 0 0.44828488468409983 0.1624106271267573 0 0.46275241100747111 0.1552644676533651 0 0.44828488468409983 0.1624106271267573 0 0.45385790775550089 0.17000587057635899 0 0.46539543485981988 0.1714656489073503 0 0.47129846091184052 0.16121871765102991 0 0.47693045578692311 0.17255307605818021 0 0.47129846091184052 0.16121871765102991 0 0.47973318408864601 0.1622840570616926 0 0.47693045578692311 0.17255307605818021 0 0.47973318408864601 0.1622840570616926 0 0.47693045578692311 0.17255307605818021 0 0.4844700244477852 0.16683367115523939 0 0.47129846091184052 0.16121871765102991 0 0.47973318408864601 0.1622840570616926 0 0.47899597766638169 0.1535249845197488 0 0.47973318408864601 0.1622840570616926 0 0.48779127767811248 0.15741622293761731 0 0.47899597766638169 0.1535249845197488 0 0.47973318408864601 0.1622840570616926 0 0.48779127767811248 0.15741622293761731 0 0.4844700244477852 0.16683367115523939 0 0.48046579982942622 0.1956304991792871 0 0.45714157909507652 0.1825936428897163 0 0.4729343483683624 0.18354574719714239 0 0.46539543485981988 0.1714656489073503 0 0.4729343483683624 0.18354574719714239 0 0.47693045578692311 0.17255307605818021 0 0.47693045578692311 0.17255307605818021 0 0.48014101017436828 0.18224713064474241 0 0.48485269519403679 0.17652972036312431 0 0.4729343483683624 0.18354574719714239 0 0.47693045578692311 0.17255307605818021 0 0.48014101017436828 0.18224713064474241 0 0.47693045578692311 0.17255307605818021 0 0.48485269519403679 0.17652972036312431 0 0.4844700244477852 0.16683367115523939 0 0.4805430104620354 0.18825996031838271 0 0.48544454106048412 0.19034714928688259 0 0.48014101017436828 0.18224713064474241 0 0.48544454106048412 0.19034714928688259 0 0.48014101017436828 0.18224713064474241 0 0.48485269519403679 0.17652972036312431 0 0.4805430104620354 0.18825996031838271 0 0.4729343483683624 0.18354574719714239 0 0.48014101017436828 0.18224713064474241 0 0.48544454106048412 0.19034714928688259 0 0.49304250949120793 0.1653852793555827 0 0.48544454106048412 0.19034714928688259 0 0.48485269519403679 0.17652972036312431 0 0.49304250949120793 0.1653852793555827 0 0.48544454106048412 0.19034714928688259 0 0.5 0.18404607919501439 0 0.49304250949120793 0.1653852793555827 0 0.5 0.18404607919501439 0 0.49304250949120793 0.1653852793555827 0 0.5 0.1543391354674595 0 0.48779127767811248 0.15741622293761731 0 0.4844700244477852 0.16683367115523939 0 0.49304250949120793 0.1653852793555827 0 0.48485269519403679 0.17652972036312431 0 0.4844700244477852 0.16683367115523939 0 0.49304250949120793 0.1653852793555827 0 0.48779127767811248 0.15741622293761731 0 0.49304250949120793 0.1653852793555827 0 0.5 0.1543391354674595 0 0.5 0.1543391354674595 0 0.48612032565125862 0.145128408423775 0 0.5 0.12463219173990479 0 0.48779127767811248 0.15741622293761731 0 0.5 0.1543391354674595 0 0.48612032565125862 0.145128408423775 0 0.48779127767811248 0.15741622293761731 0 0.48612032565125862 0.145128408423775 0 0.47899597766638169 0.1535249845197488 0 0.48612032565125862 0.145128408423775 0 0.47899597766638169 0.1535249845197488 0 0.47708809965894378 0.14418166742803259 0 0.47708809965894378 0.14418166742803259 0 0.4692946612570188 0.15203295712744291 0 0.46937106519737859 0.1395994724032725 0 0.47129846091184052 0.16121871765102991 0 0.47899597766638169 0.1535249845197488 0 0.4692946612570188 0.15203295712744291 0 0.47899597766638169 0.1535249845197488 0 0.47708809965894378 0.14418166742803259 0 0.4692946612570188 0.15203295712744291 0 0.47295450229811747 0.12736825850859149 0 0.46937106519737859 0.1395994724032725 0 0.48165846852268129 0.13062251466592381 0 0.47708809965894378 0.14418166742803259 0 0.46937106519737859 0.1395994724032725 0 0.48165846852268129 0.13062251466592381 0 0.48612032565125862 0.145128408423775 0 0.47708809965894378 0.14418166742803259 0 0.48165846852268129 0.13062251466592381 0 0.48612032565125862 0.145128408423775 0 0.48165846852268129 0.13062251466592381 0 0.5 0.12463219173990479 0 0.48165846852268129 0.13062251466592381 0 0.5 0.12463219173990479 0 0.48026282515746821 0.11139209832583929 0 0.5 0.12463219173990479 0 0.499999999999996 0.094925248012350028 0 0.48026282515746821 0.11139209832583929 0 0.499999999999996 0.094925248012350028 0 0.48026282515746821 0.11139209832583929 0 0.499999999999996 0.094925248012350028 0 0.48026282515746821 0.11139209832583929 0 0.48815983807484931 0.088578673168666106 0 0.48026282515746821 0.11139209832583929 0 0.48815983807484931 0.088578673168666106 0 0.47355511878882067 0.087109343402924366 0 0.48026282515746821 0.11139209832583929 0 0.47355511878882067 0.087109343402924366 0 0.46536994713531549 0.1113142392015396 0 0.46052565031494203 0.12785894863933051 0 0.48026282515746821 0.11139209832583929 0 0.47295450229811747 0.12736825850859149 0 0.48165846852268129 0.13062251466592381 0 0.48026282515746821 0.11139209832583929 0 0.46052565031494203 0.12785894863933051 0 0.47295450229811747 0.12736825850859149 0 0.48026282515746821 0.11139209832583929 0 0.48698124642795731 0.072187916668607605 0 0.47335531734086439 0.058282008977394259 0 0.49999999999999972 0.059632270854868448 0 0.5 0.077278759433609179 0 0.48698124642795731 0.072187916668607605 0 0.49999999999999972 0.059632270854868448 0 0.499999999999996 0.094925248012350028 0 0.5 0.077278759433609179 0 0.48815983807484931 0.088578673168666106 0 0.5 0.077278759433609179 0 0.48698124642795731 0.072187916668607605 0 0.48815983807484931 0.088578673168666106 0 0.48698124642795731 0.072187916668607605 0 0.48815983807484931 0.088578673168666106 0 0.47355511878882067 0.087109343402924366 0 0.48698124642795731 0.072187916668607605 0 0.47355511878882067 0.087109343402924366 0 0.47335531734086439 0.058282008977394259 0 0.47355511878882067 0.087109343402924366 0 0.45036086123059482 0.079306869399208363 0 0.47335531734086439 0.058282008977394259 0 0.45036086123059482 0.079306869399208363 0 0.44671063468172922 0.056931747099917253 0 0.47335531734086439 0.058282008977394259 0 0.47355511878882067 0.087109343402924366 0 0.45036086123059482 0.079306869399208363 0 0.4540110877794597 0.1016819916984996 0 0.45036086123059482 0.079306869399208363 0 0.4540110877794597 0.1016819916984996 0 0.45036086123059482 0.079306869399208363 0 0.44123096843970161 0.10224910737300159 0 0.42480062255107931 0.080441100748211647 0 0.45036086123059482 0.079306869399208363 0 0.44671063468172922 0.056931747099917253 0 0.45036086123059482 0.079306869399208363 0 0.43169930796130868 0.062521054991320768 0 0.44671063468172922 0.056931747099917253 0 0.46536994713531549 0.1113142392015396 0 0.45766131432832408 0.124057113997791 0 0.4540110877794597 0.1016819916984996 0 0.46052565031494203 0.12785894863933051 0 0.48026282515746821 0.11139209832583929 0 0.46536994713531549 0.1113142392015396 0 0.46052565031494203 0.12785894863933051 0 0.46536994713531549 0.1113142392015396 0 0.45766131432832408 0.124057113997791 0 0.45766131432832408 0.124057113997791 0 0.4540110877794597 0.1016819916984996 0 0.47355511878882067 0.087109343402924366 0 0.46536994713531549 0.1113142392015396 0 0.4540110877794597 0.1016819916984996 0 0.45036086123059482 0.079306869399208363 0 0.4540110877794597 0.1016819916984996 0 0.44123096843970161 0.10224910737300159 0 0.45766131432832408 0.124057113997791 0 0.4540110877794597 0.1016819916984996 0 0.44123096843970161 0.10224910737300159 0 0.44646826871520501 0.12868054826244071 0 0.45766131432832408 0.124057113997791 0 0.44123096843970161 0.10224910737300159 0 0.45766131432832408 0.124057113997791 0 0.44123096843970161 0.10224910737300159 0 0.44646826871520501 0.12868054826244071 0 0.44123096843970161 0.10224910737300159 0 0.43266561040999202 0.1239020186607535 0 0.44123096843970161 0.10224910737300159 0 0.43266561040999202 0.1239020186607535 0 0.42401604288992989 0.1085071268279002 0 0.43266561040999202 0.1239020186607535 0 0.41997509748501582 0.1203905887435416 0 0.42401604288992989 0.1085071268279002 0 0.4160787729281078 0.1341438121161917 0 0.40713996371203381 0.115009397369321 0 0.41997509748501582 0.1203905887435416 0 0.40713996371203381 0.115009397369321 0 0.41997509748501582 0.1203905887435416 0 0.42401604288992989 0.1085071268279002 0 0.42401604288992989 0.1085071268279002 0 0.42480062255107931 0.080441100748211647 0 0.40821995683740958 0.093554286132913611 0 0.40713996371203381 0.115009397369321 0 0.42401604288992989 0.1085071268279002 0 0.40821995683740958 0.093554286132913611 0 0.44123096843970161 0.10224910737300159 0 0.42401604288992989 0.1085071268279002 0 0.42480062255107931 0.080441100748211647 0 0.44123096843970161 0.10224910737300159 0 0.42480062255107931 0.080441100748211647 0 0.45036086123059482 0.079306869399208363 0 0.42480062255107931 0.080441100748211647 0 0.43169930796130868 0.062521054991320768 0 0.42480062255107931 0.080441100748211647 0 0.40525483380169419 0.075292157762171213 0 0.40837027666245712 0.058633094123421672 0 0.42480062255107931 0.080441100748211647 0 0.40837027666245712 0.058633094123421672 0 0.42480062255107931 0.080441100748211647 0 0.43169930796130868 0.062521054991320768 0 0.40837027666245712 0.058633094123421672 0 0.42480062255107931 0.080441100748211647 0 0.40821995683740958 0.093554286132913611 0 0.40525483380169419 0.075292157762171213 0 0.40821995683740958 0.093554286132913611 0 0.38906263648307299 0.080108820612626502 0 0.38869302306912329 0.099781084704444634 0 0.40821995683740958 0.093554286132913611 0 0.40525483380169419 0.075292157762171213 0 0.38906263648307299 0.080108820612626502 0 0.40525483380169419 0.075292157762171213 0 0.39582067647445213 0.063723487193682621 0 0.40837027666245712 0.058633094123421672 0 0.40525483380169419 0.075292157762171213 0 0.39582067647445213 0.063723487193682621 0 0.38906263648307299 0.080108820612626502 0 0.37219205993716498 0.075271695478946812 0 0.37943166366568348 0.064165601201817898 0 0.38906263648307299 0.080108820612626502 0 0.39582067647445213 0.063723487193682621 0 0.37943166366568348 0.064165601201817898 0 0.38906263648307299 0.080108820612626502 0 0.36856668309973922 0.091175863718561775 0 0.38906263648307299 0.080108820612626502 0 0.38869302306912329 0.099781084704444634 0 0.36856668309973922 0.091175863718561775 0 0.37219205993716498 0.075271695478946812 0 0.38906263648307299 0.080108820612626502 0 0.36676581101795308 0.1057346461690969 0 0.38869302306912329 0.099781084704444634 0 0.37857746106597362 0.11443442834108709 0 0.40713996371203381 0.115009397369321 0 0.38869302306912329 0.099781084704444634 0 0.37857746106597362 0.11443442834108709 0 0.3964629856877116 0.1308017081484576 0 0.40713996371203381 0.115009397369321 0 0.37857746106597362 0.11443442834108709 0 0.40713996371203381 0.115009397369321 0 0.40821995683740958 0.093554286132913611 0 0.38869302306912329 0.099781084704444634 0 0.3962468425673602 0.020387808022567271 0 0.39223809636181761 0.037136473661093218 0 0.4073902842130529 0.02273491125974408 0 0.39223809636181761 0.037136473661093218 0 0.4168903395583336 0.03119457379763356 0 0.4073902842130529 0.02273491125974408 0 0.40520721882240163 0.0014214866639597949 0 0.38508021846864099 0.01048925277870697 0 0.38918258590183552 -0.0026976306611802081 0 0.3962468425673602 0.020387808022567271 0 0.40520721882240163 0.0014214866639597949 0 0.38508021846864099 0.01048925277870697 0 0.3962468425673602 0.020387808022567271 0 0.40520721882240163 0.0014214866639597949 0 0.4073902842130529 0.02273491125974408 0 0.38508021846864099 0.01048925277870697 0 0.38918258590183552 -0.0026976306611802081 0 0.37483061222028102 -0.0032252882618771998 0 0.3962468425673602 0.020387808022567271 0 0.3777272165743325 0.026584446307561332 0 0.39223809636181761 0.037136473661093218 0 0.3962468425673602 0.020387808022567271 0 0.38508021846864099 0.01048925277870697 0 0.3777272165743325 0.026584446307561332 0 0.36758585316530151 0.04307837352455287 0 0.38629219858503311 0.054385830409766772 0 0.39223809636181761 0.037136473661093218 0 0.36758585316530151 0.04307837352455287 0 0.3777272165743325 0.026584446307561332 0 0.39223809636181761 0.037136473661093218 0 0.36758585316530151 0.04307837352455287 0 0.39223809636181761 0.037136473661093218 0 0.39582067647445213 0.063723487193682621 0 0.37943166366568348 0.064165601201817898 0 0.38629219858503311 0.054385830409766772 0 0.37023196750437543 0.053157849020564363 0 0.37943166366568348 0.064165601201817898 0 0.38629219858503311 0.054385830409766772 0 0.38629219858503311 0.054385830409766772 0 0.40507639736687873 0.046926887985732017 0 0.39582067647445213 0.063723487193682621 0 0.40507639736687873 0.046926887985732017 0 0.40837027666245712 0.058633094123421672 0 0.39582067647445213 0.063723487193682621 0 0.38629219858503311 0.054385830409766772 0 0.40507639736687873 0.046926887985732017 0 0.39223809636181761 0.037136473661093218 0 0.4168903395583336 0.03119457379763356 0 0.40507639736687873 0.046926887985732017 0 0.39223809636181761 0.037136473661093218 0 0.4168903395583336 0.03119457379763356 0 0.38629219858503311 0.054385830409766772 0 0.40507639736687873 0.046926887985732017 0 0.39223809636181761 0.037136473661093218 0 0.40507639736687873 0.046926887985732017 0 0.41677948643846269 0.049411784382238831 0 0.4238605961487244 0.039467945561697262 0 0.40507639736687873 0.046926887985732017 0 0.4238605961487244 0.039467945561697262 0 0.40507639736687873 0.046926887985732017 0 0.4238605961487244 0.039467945561697262 0 0.4168903395583336 0.03119457379763356 0 0.43169930796130868 0.062521054991320768 0 0.40837027666245712 0.058633094123421672 0 0.42201787839567267 0.054877534002771587 0 0.40507639736687873 0.046926887985732017 0 0.40837027666245712 0.058633094123421672 0 0.41677948643846269 0.049411784382238831 0 0.41677948643846269 0.049411784382238831 0 0.42201787839567267 0.054877534002771587 0 0.42541547726044893 0.048010295067569757 0 0.40837027666245712 0.058633094123421672 0 0.41677948643846269 0.049411784382238831 0 0.42201787839567267 0.054877534002771587 0 0.43169930796130868 0.062521054991320768 0 0.42201787839567267 0.054877534002771587 0 0.43066536400394689 0.052620793676523281 0 0.42201787839567267 0.054877534002771587 0 0.42541547726044893 0.048010295067569757 0 0.43066536400394689 0.052620793676523281 0 0.43066536400394689 0.052620793676523281 0 0.43544044859917408 0.045387087374614117 0 0.43834213496236352 0.05650766000204506 0 0.42541547726044893 0.048010295067569757 0 0.43066536400394689 0.052620793676523281 0 0.43544044859917408 0.045387087374614117 0 0.43169930796130868 0.062521054991320768 0 0.43066536400394689 0.052620793676523281 0 0.43834213496236352 0.05650766000204506 0 0.4238605961487244 0.039467945561697262 0 0.44264479493056991 0.032009003137661932 0 0.4238605961487244 0.039467945561697262 0 0.43544044859917408 0.045387087374614117 0 0.44264479493056991 0.032009003137661932 0 0.4238605961487244 0.039467945561697262 0 0.4415425827548497 0.02525267393417437 0 0.44264479493056991 0.032009003137661932 0 0.4238605961487244 0.039467945561697262 0 0.4168903395583336 0.03119457379763356 0 0.4415425827548497 0.02525267393417437 0 0.41677948643846269 0.049411784382238831 0 0.42541547726044893 0.048010295067569757 0 0.4238605961487244 0.039467945561697262 0 0.42541547726044893 0.048010295067569757 0 0.4238605961487244 0.039467945561697262 0 0.43544044859917408 0.045387087374614117 0 0.4168903395583336 0.03119457379763356 0 0.4415425827548497 0.02525267393417437 0 0.4168903395583336 0.03119457379763356 0 0.41988132856337268 0.021231976550549109 0 0.4415425827548497 0.02525267393417437 0 0.43011253625763962 0.015959042215875852 0 0.41988132856337268 0.021231976550549109 0 0.4415425827548497 0.02525267393417437 0 0.43011253625763962 0.015959042215875852 0 0.44074541859956101 0.020366225044380529 0 0.4415425827548497 0.02525267393417437 0 0.4168903395583336 0.03119457379763356 0 0.41988132856337268 0.021231976550549109 0 0.4073902842130529 0.02273491125974408 0 0.40520721882240163 0.0014214866639597949 0 0.41988132856337268 0.021231976550549109 0 0.4073902842130529 0.02273491125974408 0 0.40520721882240163 0.0014214866639597949 0 0.41988132856337268 0.021231976550549109 0 0.42086793596656102 0.0064170593988270566 0 0.40520721882240163 0.0014214866639597949 0 0.42086793596656102 0.0064170593988270566 0 0.42047429866427738 -0.0068315321490049642 0 0.40520721882240163 0.0014214866639597949 0 0.41988132856337268 0.021231976550549109 0 0.42086793596656102 0.0064170593988270566 0 0.43015353095520131 0.003109299378886275 0 0.42047429866427738 -0.0068315321490049642 0 0.43011253625763962 0.015959042215875852 0 0.41988132856337268 0.021231976550549109 0 0.42086793596656102 0.0064170593988270566 0 0.43011253625763962 0.015959042215875852 0 0.42086793596656102 0.0064170593988270566 0 0.43015353095520131 0.003109299378886275 0 0.43011253625763962 0.015959042215875852 0 0.43015353095520131 0.003109299378886275 0 0.43888057010584752 0.0098352325992379294 0 0.43011253625763962 0.015959042215875852 0 0.43888057010584752 0.0098352325992379294 0 0.44074541859956101 0.020366225044380529 0 0.43015353095520131 0.003109299378886275 0 0.43888057010584752 0.0098352325992379294 0 0.44171072718576571 -0.0022804043020929221 0 0.43888057010584752 0.0098352325992379294 0 0.45370628908512189 0.0021863991578644289 0 0.44171072718576571 -0.0022804043020929221 0 0.44912923038456098 0.015169648994456849 0 0.43888057010584752 0.0098352325992379294 0 0.45370628908512189 0.0021863991578644289 0 0.44912923038456098 0.015169648994456849 0 0.43888057010584752 0.0098352325992379294 0 0.44074541859956101 0.020366225044380529 0 0.4415425827548497 0.02525267393417437 0 0.46748153754238692 0.02214668027291742 0 0.44264479493056991 0.032009003137661932 0 0.44912923038456098 0.015169648994456849 0 0.44074541859956101 0.020366225044380529 0 0.4415425827548497 0.02525267393417437 0 0.44074541859956101 0.020366225044380529 0 0.4415425827548497 0.02525267393417437 0 0.4415425827548497 0.02525267393417437 0 0.44264479493056991 0.032009003137661932 0 0.46748153754238692 0.02214668027291742 0 0.44264479493056991 0.032009003137661932 0 0.4415425827548497 0.02525267393417437 0 0.46748153754238692 0.02214668027291742 0 0.47077129137742463 0.018207714236626999 0 0.4415425827548497 0.02525267393417437 0 0.47077129137742463 0.018207714236626999 0 0.44912923038456098 0.015169648994456849 0 0.4415425827548497 0.02525267393417437 0 0.47077129137742463 0.018207714236626999 0 0.44912923038456098 0.015169648994456849 0 0.45370628908512189 0.0021863991578644289 0 0.47077129137742463 0.018207714236626999 0 0.45370628908512189 0.0021863991578644289 0 0.47077129137742463 0.018207714236626999 0 0.46863363181920192 -0.01289288257594918 0 0.44671063468172922 0.056931747099917253 0 0.43834213496236352 0.05650766000204506 0 0.43169930796130868 0.062521054991320768 0 0.44671063468172922 0.056931747099917253 0 0.43834213496236352 0.05650766000204506 0 0.43544044859917408 0.045387087374614117 0 0.44671063468172922 0.056931747099917253 0 0.43834213496236352 0.05650766000204506 0 0.43544044859917408 0.045387087374614117 0 0.44671063468172922 0.056931747099917253 0 0.44264479493056991 0.032009003137661932 0 0.44671063468172922 0.056931747099917253 0 0.44264479493056991 0.032009003137661932 0 0.44671063468172922 0.056931747099917253 0 0.44264479493056991 0.032009003137661932 0 0.46089423732682799 0.041762497015041887 0 0.46748153754238692 0.02214668027291742 0 0.44264479493056991 0.032009003137661932 0 0.46089423732682799 0.041762497015041887 0 0.46748153754238692 0.02214668027291742 0 0.46089423732682799 0.041762497015041887 0 0.47131444651218818 0.033269203495752367 0 0.44671063468172922 0.056931747099917253 0 0.46089423732682799 0.041762497015041887 0 0.47335531734086439 0.058282008977394259 0 0.44671063468172922 0.056931747099917253 0 0.47335531734086439 0.058282008977394259 0 0.46089423732682799 0.041762497015041887 0 0.47335531734086439 0.058282008977394259 0 0.48005051766351953 0.04255529551149409 0 0.46089423732682799 0.041762497015041887 0 0.48005051766351953 0.04255529551149409 0 0.47131444651218818 0.033269203495752367 0 0.48005051766351953 0.04255529551149409 0 0.47131444651218818 0.033269203495752367 0 0.47926591800576412 0.026872980099500721 0 0.48005051766351953 0.04255529551149409 0 0.5 0.035397512696974331 0 0.49999999999999972 0.059632270854868448 0 0.48005051766351953 0.04255529551149409 0 0.5 0.035397512696974331 0 0.47926591800576412 0.026872980099500721 0 0.47335531734086439 0.058282008977394259 0 0.48005051766351953 0.04255529551149409 0 0.49999999999999972 0.059632270854868448 0 0.47335531734086439 0.058282008977394259 0 0.49999999999999972 0.059632270854868448 0 0.47077129137742463 0.018207714236626999 0 0.48595192379982532 -0.0027195376031737772 0 0.46863363181920192 -0.01289288257594918 0 0.46748153754238692 0.02214668027291742 0 0.47077129137742463 0.018207714236626999 0 0.47926591800576412 0.026872980099500721 0 0.47077129137742463 0.018207714236626999 0 0.47926591800576412 0.026872980099500721 0 0.4999999999999995 0.01116275453908021 0 0.46748153754238692 0.02214668027291742 0 0.47131444651218818 0.033269203495752367 0 0.47926591800576412 0.026872980099500721 0 0.5 0.035397512696974331 0 0.47926591800576412 0.026872980099500721 0 0.4999999999999995 0.01116275453908021 0 0.47077129137742463 0.018207714236626999 0 0.4999999999999995 0.01116275453908021 0 0.47077129137742463 0.018207714236626999 0 0.4999999999999995 0.01116275453908021 0 0.48595192379982532 -0.0027195376031737772 0 0.4999999999999995 0.01116275453908021 0 0.5 -0.01415219599085343 0 0.48595192379982532 -0.0027195376031737772 0 0.5 -0.01415219599085343 0 0.48595192379982532 -0.0027195376031737772 0 0.48517229582843258 -0.026603481394717621 0 0.48595192379982532 -0.0027195376031737772 0 0.48517229582843258 -0.026603481394717621 0 0.46863363181920192 -0.01289288257594918 0 0.48517229582843258 -0.026603481394717621 0 0.46816532604007788 -0.040632185147867629 0 0.46863363181920192 -0.01289288257594918 0 0.5 -0.01415219599085343 0 0.48517229582843258 -0.026603481394717621 0 0.5 -0.039467146520787089 0 0.48517229582843258 -0.026603481394717621 0 0.5 -0.039467146520787089 0 0.4849462994629698 -0.050486901740315497 0 0.5 -0.039467146520787089 0 0.4849462994629698 -0.050486901740315497 0 0.5 -0.064782097050720688 0 0.4849462994629698 -0.050486901740315497 0 0.5 -0.064782097050720688 0 0.47392878669949312 -0.066462489930159047 0 0.4849462994629698 -0.050486901740315497 0 0.46816532604007788 -0.040632185147867629 0 0.47392878669949312 -0.066462489930159047 0 0.48517229582843258 -0.026603481394717621 0 0.4849462994629698 -0.050486901740315497 0 0.46816532604007788 -0.040632185147867629 0 0.46816532604007788 -0.040632185147867629 0 0.43978163573772278 -0.04811781819454565 0 0.45286331313166273 -0.026382326622079011 0 0.46816532604007788 -0.040632185147867629 0 0.43978163573772278 -0.04811781819454565 0 0.46816532604007788 -0.040632185147867629 0 0.47392878669949312 -0.066462489930159047 0 0.44907396312286751 -0.069385630297683062 0 0.46816532604007788 -0.040632185147867629 0 0.43978163573772278 -0.04811781819454565 0 0.44907396312286751 -0.069385630297683062 0 0.43978163573772278 -0.04811781819454565 0 0.44907396312286751 -0.069385630297683062 0 0.42542554438817642 -0.065901334411233858 0 0.43978163573772278 -0.04811781819454565 0 0.45286331313166273 -0.026382326622079011 0 0.4322930450935133 -0.031222142996883601 0 0.45286331313166273 -0.026382326622079011 0 0.43558858432518283 -0.01403933179583068 0 0.4322930450935133 -0.031222142996883601 0 0.45286331313166273 -0.026382326622079011 0 0.45029646686457381 -0.012021965388574181 0 0.43558858432518283 -0.01403933179583068 0 0.44171072718576571 -0.0022804043020929221 0 0.45029646686457381 -0.012021965388574181 0 0.43558858432518283 -0.01403933179583068 0 0.45370628908512189 0.0021863991578644289 0 0.44171072718576571 -0.0022804043020929221 0 0.45029646686457381 -0.012021965388574181 0 0.45370628908512189 0.0021863991578644289 0 0.45029646686457381 -0.012021965388574181 0 0.46863363181920192 -0.01289288257594918 0 0.46816532604007788 -0.040632185147867629 0 0.45286331313166273 -0.026382326622079011 0 0.46863363181920192 -0.01289288257594918 0 0.45286331313166273 -0.026382326622079011 0 0.45029646686457381 -0.012021965388574181 0 0.46863363181920192 -0.01289288257594918 0 0.47771759986457918 -0.1015007943958381 0 0.45543519972915869 -0.112904541211022 0 0.47603611405951729 -0.12930964176090359 0 0.5 -0.1180197418599844 0 0.47771759986457918 -0.1015007943958381 0 0.47603611405951729 -0.12930964176090359 0 0.5 -0.1180197418599844 0 0.47771759986457918 -0.1015007943958381 0 0.49999999999999972 -0.090097047580654274 0 0.47771759986457918 -0.1015007943958381 0 0.49999999999999972 -0.090097047580654274 0 0.48281754435643998 -0.083245920807577894 0 0.47392878669949312 -0.066462489930159047 0 0.46236129704258999 -0.089637202388040099 0 0.47771759986457918 -0.1015007943958381 0 0.48281754435643998 -0.083245920807577894 0 0.46236129704258999 -0.089637202388040099 0 0.47771759986457918 -0.1015007943958381 0 0.48281754435643998 -0.083245920807577894 0 0.49999999999999972 -0.090097047580654274 0 0.48281754435643998 -0.083245920807577894 0 0.49999999999999972 -0.090097047580654274 0 0.5 -0.064782097050720688 0 0.48281754435643998 -0.083245920807577894 0 0.5 -0.064782097050720688 0 0.47392878669949312 -0.066462489930159047 0 0.47392878669949312 -0.066462489930159047 0 0.44907396312286751 -0.069385630297683062 0 0.46236129704258999 -0.089637202388040099 0 0.44907396312286751 -0.069385630297683062 0 0.44322919271445549 -0.092657207644501985 0 0.46236129704258999 -0.089637202388040099 0 0.44907396312286751 -0.069385630297683062 0 0.44322919271445549 -0.092657207644501985 0 0.43062595923755692 -0.082291174367433106 0 0.47771759986457918 -0.1015007943958381 0 0.46236129704258999 -0.089637202388040099 0 0.45543519972915869 -0.112904541211022 0 0.47771759986457918 -0.1015007943958381 0 0.45543519972915869 -0.112904541211022 0 0.44322919271445549 -0.092657207644501985 0 0.46236129704258999 -0.089637202388040099 0 0.45543519972915869 -0.112904541211022 0 0.44322919271445549 -0.092657207644501985 0 0.43855837306642798 -0.1080324901882849 0 0.45543519972915869 -0.112904541211022 0 0.45543519972915869 -0.112904541211022 0 0.43315279959373831 -0.124308288026206 0 0.45427359165162989 -0.13221938313771769 0 0.43855837306642798 -0.1080324901882849 0 0.45543519972915869 -0.112904541211022 0 0.43315279959373831 -0.124308288026206 0 0.45543519972915869 -0.112904541211022 0 0.43315279959373831 -0.124308288026206 0 0.45543519972915869 -0.112904541211022 0 0.45427359165162989 -0.13221938313771769 0 0.47603611405951729 -0.12930964176090359 0 0.41847776586514829 -0.1205027145127768 0 0.4225029403855407 -0.1084893480013609 0 0.40491864636271441 -0.1158684379440905 0 0.41847776586514829 -0.1205027145127768 0 0.40491864636271441 -0.1158684379440905 0 0.41333667711859989 -0.13334478407944969 0 0.41847776586514829 -0.1205027145127768 0 0.43315279959373831 -0.124308288026206 0 0.4225029403855407 -0.1084893480013609 0 0.43855837306642798 -0.1080324901882849 0 0.43315279959373831 -0.124308288026206 0 0.4225029403855407 -0.1084893480013609 0 0.43855837306642798 -0.1080324901882849 0 0.4225029403855407 -0.1084893480013609 0 0.42837744724006599 -0.095714502405651478 0 0.4225029403855407 -0.1084893480013609 0 0.42837744724006599 -0.095714502405651478 0 0.41517209537544542 -0.090884886177662286 0 0.44322919271445549 -0.092657207644501985 0 0.43855837306642798 -0.1080324901882849 0 0.42837744724006599 -0.095714502405651478 0 0.41517209537544542 -0.090884886177662286 0 0.40491864636271441 -0.1158684379440905 0 0.41664341334505473 -0.082559060690858554 0 0.40404621684257758 -0.10503461437565299 0 0.4225029403855407 -0.1084893480013609 0 0.41517209537544542 -0.090884886177662286 0 0.40491864636271441 -0.1158684379440905 0 0.41517209537544542 -0.090884886177662286 0 0.40404621684257758 -0.10503461437565299 0 0.40491864636271441 -0.1158684379440905 0 0.41664341334505473 -0.082559060690858554 0 0.41517209537544542 -0.090884886177662286 0 0.42542554438817642 -0.065901334411233858 0 0.41664341334505473 -0.082559060690858554 0 0.40309867632766888 -0.08961091289720495 0 0.40404621684257758 -0.10503461437565299 0 0.41517209537544542 -0.090884886177662286 0 0.42542554438817642 -0.065901334411233858 0 0.41664341334505473 -0.082559060690858554 0 0.41517209537544542 -0.090884886177662286 0 0.40404621684257758 -0.10503461437565299 0 0.40628705698729589 -0.079786108910246636 0 0.41664341334505473 -0.082559060690858554 0 0.40309867632766888 -0.08961091289720495 0 0.42837744724006599 -0.095714502405651478 0 0.41517209537544542 -0.090884886177662286 0 0.43062595923755692 -0.082291174367433106 0 0.41517209537544542 -0.090884886177662286 0 0.43062595923755692 -0.082291174367433106 0 0.42542554438817642 -0.065901334411233858 0 0.44322919271445549 -0.092657207644501985 0 0.42837744724006599 -0.095714502405651478 0 0.43062595923755692 -0.082291174367433106 0 0.44907396312286751 -0.069385630297683062 0 0.43062595923755692 -0.082291174367433106 0 0.42542554438817642 -0.065901334411233858 0 0.41664341334505473 -0.082559060690858554 0 0.42542554438817642 -0.065901334411233858 0 0.41323063795445453 -0.071010797732605685 0 0.42542554438817642 -0.065901334411233858 0 0.41323063795445453 -0.071010797732605685 0 0.41139794543536801 -0.055603451241223588 0 0.40628705698729589 -0.079786108910246636 0 0.41664341334505473 -0.082559060690858554 0 0.41323063795445453 -0.071010797732605685 0 0.40628705698729589 -0.079786108910246636 0 0.41323063795445453 -0.071010797732605685 0 0.40201900451642558 -0.070684468761756963 0 0.41323063795445453 -0.071010797732605685 0 0.40201900451642558 -0.070684468761756963 0 0.41139794543536801 -0.055603451241223588 0 0.40201900451642558 -0.070684468761756963 0 0.38301425513301302 -0.063089084287901581 0 0.39369658880114078 -0.082540716480953208 0 0.40201900451642558 -0.070684468761756963 0 0.38301425513301302 -0.063089084287901581 0 0.41139794543536801 -0.055603451241223588 0 0.40628705698729589 -0.079786108910246636 0 0.40201900451642558 -0.070684468761756963 0 0.39369658880114078 -0.082540716480953208 0 0.38301425513301302 -0.063089084287901581 0 0.38010515746826001 -0.077531488326077355 0 0.39369658880114078 -0.082540716480953208 0 0.38301425513301302 -0.063089084287901581 0 0.38010515746826001 -0.077531488326077355 0 0.37326295489687872 -0.065148887466720387 0 0.38010515746826001 -0.077531488326077355 0 0.3820981654951936 -0.097154980192335316 0 0.366769228386706 -0.083792389152377009 0 0.38010515746826001 -0.077531488326077355 0 0.39369658880114078 -0.082540716480953208 0 0.3820981654951936 -0.097154980192335316 0 0.39369658880114078 -0.082540716480953208 0 0.39457007330597033 -0.097211567552756922 0 0.3820981654951936 -0.097154980192335316 0 0.39369658880114078 -0.082540716480953208 0 0.40309867632766888 -0.08961091289720495 0 0.39457007330597033 -0.097211567552756922 0 0.40628705698729589 -0.079786108910246636 0 0.39369658880114078 -0.082540716480953208 0 0.40309867632766888 -0.08961091289720495 0 0.40309867632766888 -0.08961091289720495 0 0.40404621684257758 -0.10503461437565299 0 0.39457007330597033 -0.097211567552756922 0 0.40404621684257758 -0.10503461437565299 0 0.39457007330597033 -0.097211567552756922 0 0.38991071906327079 -0.1117166138176381 0 0.3820981654951936 -0.097154980192335316 0 0.38023966326167252 -0.11330538131350559 0 0.37067898754218148 -0.10985541132720381 0 0.3820981654951936 -0.097154980192335316 0 0.38991071906327079 -0.1117166138176381 0 0.38023966326167252 -0.11330538131350559 0 0.39457007330597033 -0.097211567552756922 0 0.3820981654951936 -0.097154980192335316 0 0.38991071906327079 -0.1117166138176381 0 0.38991071906327079 -0.1117166138176381 0 0.38023966326167252 -0.11330538131350559 0 0.37987158441525398 -0.1234628086985507 0 0.37987158441525398 -0.1234628086985507 0 0.37067898754218148 -0.10985541132720381 0 0.37458874669765702 -0.13591843350203059 0 0.38991071906327079 -0.1117166138176381 0 0.37987158441525398 -0.1234628086985507 0 0.39144902034010037 -0.12751016806044749 0 0.38023966326167252 -0.11330538131350559 0 0.37987158441525398 -0.1234628086985507 0 0.37067898754218148 -0.10985541132720381 0 0.40404621684257758 -0.10503461437565299 0 0.38991071906327079 -0.1117166138176381 0 0.39144902034010037 -0.12751016806044749 0 0.40404621684257758 -0.10503461437565299 0 0.39144902034010037 -0.12751016806044749 0 0.40404621684257758 -0.10503461437565299 0 0.40491864636271441 -0.1158684379440905 0 0.39144902034010037 -0.12751016806044749 0 0.40690400901487722 -0.01777226967841904 0 0.41498006976050239 -0.031066529940111592 0 0.42414089415393391 -0.0206187591883213 0 0.40690400901487722 -0.01777226967841904 0 0.41498006976050239 -0.031066529940111592 0 0.39761718052554867 -0.03865785775830019 0 0.40520721882240163 0.0014214866639597949 0 0.40690400901487722 -0.01777226967841904 0 0.42047429866427738 -0.0068315321490049642 0 0.40690400901487722 -0.01777226967841904 0 0.42047429866427738 -0.0068315321490049642 0 0.42414089415393391 -0.0206187591883213 0 0.42047429866427738 -0.0068315321490049642 0 0.43558858432518283 -0.01403933179583068 0 0.42414089415393391 -0.0206187591883213 0 0.43015353095520131 0.003109299378886275 0 0.44171072718576571 -0.0022804043020929221 0 0.43558858432518283 -0.01403933179583068 0 0.43015353095520131 0.003109299378886275 0 0.42047429866427738 -0.0068315321490049642 0 0.43558858432518283 -0.01403933179583068 0 0.43558858432518283 -0.01403933179583068 0 0.4322930450935133 -0.031222142996883601 0 0.42414089415393391 -0.0206187591883213 0 0.41498006976050239 -0.031066529940111592 0 0.4322930450935133 -0.031222142996883601 0 0.42414089415393391 -0.0206187591883213 0 0.41498006976050239 -0.031066529940111592 0 0.4322930450935133 -0.031222142996883601 0 0.42154454644630168 -0.041809454280721733 0 0.43978163573772278 -0.04811781819454565 0 0.4322930450935133 -0.031222142996883601 0 0.42154454644630168 -0.041809454280721733 0 0.43978163573772278 -0.04811781819454565 0 0.41139794543536801 -0.055603451241223588 0 0.42154454644630168 -0.041809454280721733 0 0.43978163573772278 -0.04811781819454565 0 0.41139794543536801 -0.055603451241223588 0 0.43978163573772278 -0.04811781819454565 0 0.42542554438817642 -0.065901334411233858 0 0.41139794543536801 -0.055603451241223588 0 0.41139794543536801 -0.055603451241223588 0 0.41138493554193017 -0.041784323305089272 0 0.39761718052554867 -0.03865785775830019 0 0.41498006976050239 -0.031066529940111592 0 0.41138493554193017 -0.041784323305089272 0 0.39761718052554867 -0.03865785775830019 0 0.41498006976050239 -0.031066529940111592 0 0.42154454644630168 -0.041809454280721733 0 0.41138493554193017 -0.041784323305089272 0 0.41139794543536801 -0.055603451241223588 0 0.42154454644630168 -0.041809454280721733 0 0.41138493554193017 -0.041784323305089272 0 0.41139794543536801 -0.055603451241223588 0 0.39761718052554867 -0.03865785775830019 0 0.38738572183543662 -0.047646499193282649 0 0.38301425513301302 -0.063089084287901581 0 0.41139794543536801 -0.055603451241223588 0 0.38738572183543662 -0.047646499193282649 0 0.38301425513301302 -0.063089084287901581 0 0.41139794543536801 -0.055603451241223588 0 0.38301425513301302 -0.063089084287901581 0 0.38738572183543662 -0.047646499193282649 0 0.37731002260151908 -0.052937122138599517 0 0.37731002260151908 -0.052937122138599517 0 0.37585899934045952 -0.038199493109218823 0 0.37232286151752197 -0.053503717423022283 0 0.38301425513301302 -0.063089084287901581 0 0.37731002260151908 -0.052937122138599517 0 0.37326295489687872 -0.065148887466720387 0 0.39761718052554867 -0.03865785775830019 0 0.37585899934045952 -0.038199493109218823 0 0.39053310908143057 -0.01838900322262952 0 0.39761718052554867 -0.03865785775830019 0 0.38738572183543662 -0.047646499193282649 0 0.37585899934045952 -0.038199493109218823 0 0.38738572183543662 -0.047646499193282649 0 0.37731002260151908 -0.052937122138599517 0 0.37585899934045952 -0.038199493109218823 0 0.37585899934045952 -0.038199493109218823 0 0.39053310908143057 -0.01838900322262952 0 0.37585899934045952 -0.038199493109218823 0 0.39053310908143057 -0.01838900322262952 0 0.37617515567774917 -0.023259398468530919 0 0.40690400901487722 -0.01777226967841904 0 0.39761718052554867 -0.03865785775830019 0 0.39053310908143057 -0.01838900322262952 0 0.40520721882240163 0.0014214866639597949 0 0.39053310908143057 -0.01838900322262952 0 0.40520721882240163 0.0014214866639597949 0 0.40690400901487722 -0.01777226967841904 0 0.39053310908143057 -0.01838900322262952 0 0.40520721882240163 0.0014214866639597949 0 0.39053310908143057 -0.01838900322262952 0 0.38918258590183552 -0.0026976306611802081 0 0.39053310908143057 -0.01838900322262952 0 0.37617515567774917 -0.023259398468530919 0 0.37483061222028102 -0.0032252882618771998 0 0.39053310908143057 -0.01838900322262952 0 0.38918258590183552 -0.0026976306611802081 0 0.37483061222028102 -0.0032252882618771998 0 0.37483061222028102 -0.0032252882618771998 0 0.36336407338611038 -0.022266929594022499 0 0.37483061222028102 -0.0032252882618771998 0 0.36336407338611038 -0.022266929594022499 0 0.35400944437062698 -0.0086363531405309717 0 0.37617515567774917 -0.023259398468530919 0 0.37483061222028102 -0.0032252882618771998 0 0.36336407338611038 -0.022266929594022499 0 0.3700187038017963 -0.03036708906154803 0 0.36336407338611038 -0.022266929594022499 0 0.36452906287258319 -0.03844913382838698 0 0.37585899934045952 -0.038199493109218823 0 0.37617515567774917 -0.023259398468530919 0 0.3700187038017963 -0.03036708906154803 0 0.37617515567774917 -0.023259398468530919 0 0.3700187038017963 -0.03036708906154803 0 0.36336407338611038 -0.022266929594022499 0 0.35400944437062698 -0.0086363531405309717 0 0.34324703014063818 -0.019630668665571459 0 0.34722123997328969 -0.034493716473073047 0 0.35400944437062698 -0.0086363531405309717 0 0.34722123997328969 -0.034493716473073047 0 0.36336407338611038 -0.022266929594022499 0 0.35400944437062698 -0.0086363531405309717 0 0.34722123997328969 -0.034493716473073047 0 0.35400944437062698 -0.0086363531405309717 0 0.34390461745197859 -0.0095095256375640428 0 0.34324703014063818 -0.019630668665571459 0 0.34487597080080412 0.0013759612954862509 0 0.35400944437062698 -0.0086363531405309717 0 0.34390461745197859 -0.0095095256375640428 0 0.34487597080080412 0.0013759612954862509 0 0.34390461745197859 -0.0095095256375640428 0 0.33453715787545402 -0.0061599611328663102 0 0.3334474114775503 0.0062169574195121658 0 0.33453715787545402 -0.0061599611328663102 0 0.32742983789552321 -0.00076994107897217277 0 0.33453715787545402 -0.0061599611328663102 0 0.32742983789552321 -0.00076994107897217277 0 0.32550647521872811 -0.0091790200843608147 0 0.33453715787545402 -0.0061599611328663102 0 0.33343959521438399 -0.01901292580588388 0 0.32550647521872811 -0.0091790200843608147 0 0.34390461745197859 -0.0095095256375640428 0 0.33453715787545402 -0.0061599611328663102 0 0.33343959521438399 -0.01901292580588388 0 0.34390461745197859 -0.0095095256375640428 0 0.34324703014063818 -0.019630668665571459 0 0.33343959521438399 -0.01901292580588388 0 0.34324703014063818 -0.019630668665571459 0 0.33898512867120267 -0.02791590998965409 0 0.33343959521438399 -0.01901292580588388 0 0.34324703014063818 -0.019630668665571459 0 0.33898512867120267 -0.02791590998965409 0 0.34722123997328969 -0.034493716473073047 0 0.33898512867120267 -0.02791590998965409 0 0.33237598323868328 -0.029656202547745331 0 0.3365424914994638 -0.0348333421678804 0 0.33237598323868328 -0.029656202547745331 0 0.33343959521438399 -0.01901292580588388 0 0.32413432036969059 -0.02640615727672764 0 0.33898512867120267 -0.02791590998965409 0 0.33237598323868328 -0.029656202547745331 0 0.33343959521438399 -0.01901292580588388 0 0.33237598323868328 -0.029656202547745331 0 0.32413432036969059 -0.02640615727672764 0 0.3279626833204195 -0.036689686876387358 0 0.32284491842308699 -0.017657241252241621 0 0.32413432036969059 -0.02640615727672764 0 0.31570621787336423 -0.021358293688819051 0 0.33343959521438399 -0.01901292580588388 0 0.32284491842308699 -0.017657241252241621 0 0.32413432036969059 -0.02640615727672764 0 0.32413432036969059 -0.02640615727672764 0 0.31570621787336423 -0.021358293688819051 0 0.3154175968614466 -0.032930595456165883 0 0.31570621787336423 -0.021358293688819051 0 0.3154175968614466 -0.032930595456165883 0 0.30641997361471562 -0.026000366072471141 0 0.32284491842308699 -0.017657241252241621 0 0.31570621787336423 -0.021358293688819051 0 0.31717699121542409 -0.01110362957231944 0 0.31570621787336423 -0.021358293688819051 0 0.31717699121542409 -0.01110362957231944 0 0.3077140193076891 -0.012129388207655601 0 0.31717699121542409 -0.01110362957231944 0 0.32041722914701948 -0.0018902658603662571 0 0.3110389812754043 -0.003034109782157705 0 0.31717699121542409 -0.01110362957231944 0 0.32041722914701948 -0.0018902658603662571 0 0.32550647521872811 -0.0091790200843608147 0 0.32041722914701948 -0.0018902658603662571 0 0.32742983789552321 -0.00076994107897217277 0 0.32550647521872811 -0.0091790200843608147 0 0.33343959521438399 -0.01901292580588388 0 0.32284491842308699 -0.017657241252241621 0 0.32550647521872811 -0.0091790200843608147 0 0.32284491842308699 -0.017657241252241621 0 0.31717699121542409 -0.01110362957231944 0 0.32550647521872811 -0.0091790200843608147 0 0.32801712843521541 -0.059272496990669971 0 0.31611933006519122 -0.069588702858381979 0 0.30982757691804391 -0.054719679112938298 0 0.32103898236995437 -0.048947934569146423 0 0.32801712843521541 -0.059272496990669971 0 0.30982757691804391 -0.054719679112938298 0 0.32103898236995437 -0.048947934569146423 0 0.3154175968614466 -0.032930595456165883 0 0.3279626833204195 -0.036689686876387358 0 0.32103898236995437 -0.048947934569146423 0 0.3154175968614466 -0.032930595456165883 0 0.30164796996605692 -0.037541704693316108 0 0.32413432036969059 -0.02640615727672764 0 0.3154175968614466 -0.032930595456165883 0 0.3279626833204195 -0.036689686876387358 0 0.33616742229372382 -0.045411194952542158 0 0.34043197327237018 -0.060350800924363492 0 0.34722123997328969 -0.034493716473073047 0 0.32103898236995437 -0.048947934569146423 0 0.3279626833204195 -0.036689686876387358 0 0.33616742229372382 -0.045411194952542158 0 0.33237598323868328 -0.029656202547745331 0 0.3279626833204195 -0.036689686876387358 0 0.3365424914994638 -0.0348333421678804 0 0.3279626833204195 -0.036689686876387358 0 0.3365424914994638 -0.0348333421678804 0 0.33616742229372382 -0.045411194952542158 0 0.33898512867120267 -0.02791590998965409 0 0.3365424914994638 -0.0348333421678804 0 0.34722123997328969 -0.034493716473073047 0 0.3365424914994638 -0.0348333421678804 0 0.33616742229372382 -0.045411194952542158 0 0.34722123997328969 -0.034493716473073047 0 0.32103898236995437 -0.048947934569146423 0 0.32801712843521541 -0.059272496990669971 0 0.34043197327237018 -0.060350800924363492 0 0.32103898236995437 -0.048947934569146423 0 0.34043197327237018 -0.060350800924363492 0 0.32103898236995437 -0.048947934569146423 0 0.33616742229372382 -0.045411194952542158 0 0.34043197327237018 -0.060350800924363492 0 0.32801712843521541 -0.059272496990669971 0 0.34043197327237018 -0.060350800924363492 0 0.33224559926391661 -0.064420848120152918 0 0.34043197327237018 -0.060350800924363492 0 0.34722123997328969 -0.034493716473073047 0 0.35042265031705522 -0.052574122786785651 0 0.36452906287258319 -0.03844913382838698 0 0.3533623285774985 -0.063391141289755856 0 0.36452906287258319 -0.03844913382838698 0 0.3533623285774985 -0.063391141289755856 0 0.34654764770369739 -0.060197579357586947 0 0.35042265031705522 -0.052574122786785651 0 0.3533623285774985 -0.063391141289755856 0 0.34043197327237018 -0.060350800924363492 0 0.35189753455193967 -0.041308570926167791 0 0.34043197327237018 -0.060350800924363492 0 0.35042265031705522 -0.052574122786785651 0 0.35189753455193967 -0.041308570926167791 0 0.34043197327237018 -0.060350800924363492 0 0.34654764770369739 -0.060197579357586947 0 0.34591721731977121 -0.063506051721314655 0 0.34043197327237018 -0.060350800924363492 0 0.34654764770369739 -0.060197579357586947 0 0.35042265031705522 -0.052574122786785651 0 0.34654764770369739 -0.060197579357586947 0 0.34591721731977121 -0.063506051721314655 0 0.3533623285774985 -0.063391141289755856 0 0.36285946923123052 -0.057729366977550392 0 0.36118488959948852 -0.058009982995808083 0 0.3533623285774985 -0.063391141289755856 0 0.36336407338611038 -0.022266929594022499 0 0.35189753455193967 -0.041308570926167791 0 0.34043197327237018 -0.060350800924363492 0 0.34722123997328969 -0.034493716473073047 0 0.35189753455193967 -0.041308570926167791 0 0.36336407338611038 -0.022266929594022499 0 0.34722123997328969 -0.034493716473073047 0 0.35189753455193967 -0.041308570926167791 0 0.35042265031705522 -0.052574122786785651 0 0.35189753455193967 -0.041308570926167791 0 0.36452906287258319 -0.03844913382838698 0 0.37585899934045952 -0.038199493109218823 0 0.36452906287258319 -0.03844913382838698 0 0.36118488959948852 -0.058009982995808083 0 0.36336407338611038 -0.022266929594022499 0 0.35189753455193967 -0.041308570926167791 0 0.36452906287258319 -0.03844913382838698 0 0.37585899934045952 -0.038199493109218823 0 0.3700187038017963 -0.03036708906154803 0 0.36452906287258319 -0.03844913382838698 0 0.36452906287258319 -0.03844913382838698 0 0.36118488959948852 -0.058009982995808083 0 0.3533623285774985 -0.063391141289755856 0 0.37585899934045952 -0.038199493109218823 0 0.36285946923123052 -0.057729366977550392 0 0.37232286151752197 -0.053503717423022283 0 0.37585899934045952 -0.038199493109218823 0 0.36118488959948852 -0.058009982995808083 0 0.37585899934045952 -0.038199493109218823 0 0.36285946923123052 -0.057729366977550392 0 0.36118488959948852 -0.058009982995808083 0 0.37731002260151908 -0.052937122138599517 0 0.37232286151752197 -0.053503717423022283 0 0.37326295489687872 -0.065148887466720387 0 0.36285946923123052 -0.057729366977550392 0 0.37232286151752197 -0.053503717423022283 0 0.37326295489687872 -0.065148887466720387 0 0.36285946923123052 -0.057729366977550392 0 0.366769228386706 -0.083792389152377009 0 0.3533623285774985 -0.063391141289755856 0 0.38010515746826001 -0.077531488326077355 0 0.37326295489687872 -0.065148887466720387 0 0.366769228386706 -0.083792389152377009 0 0.36285946923123052 -0.057729366977550392 0 0.366769228386706 -0.083792389152377009 0 0.36285946923123052 -0.057729366977550392 0 0.37326295489687872 -0.065148887466720387 0 0.366769228386706 -0.083792389152377009 0 0.35472628492517028 -0.082813913775014417 0 0.3533623285774985 -0.063391141289755856 0 0.34219559428241392 -0.08833314875112451 0 0.366769228386706 -0.083792389152377009 0 0.35472628492517028 -0.082813913775014417 0 0.35657798845406269 -0.095738975906800333 0 0.35472628492517028 -0.082813913775014417 0 0.35657798845406269 -0.095738975906800333 0 0.34219559428241392 -0.08833314875112451 0 0.3533623285774985 -0.063391141289755856 0 0.34288986304649871 -0.06982307142136121 0 0.34219559428241392 -0.08833314875112451 0 0.3533623285774985 -0.063391141289755856 0 0.34219559428241392 -0.08833314875112451 0 0.366769228386706 -0.083792389152377009 0 0.35472628492517028 -0.082813913775014417 0 0.3533623285774985 -0.063391141289755856 0 0.34591721731977121 -0.063506051721314655 0 0.3533623285774985 -0.063391141289755856 0 0.34288986304649871 -0.06982307142136121 0 0.3627578547229815 -0.12184069637690161 0 0.37067898754218148 -0.10985541132720381 0 0.37458874669765702 -0.13591843350203059 0 0.37067898754218148 -0.10985541132720381 0 0.37458874669765702 -0.13591843350203059 0 0.3627578547229815 -0.12184069637690161 0 0.37067898754218148 -0.10985541132720381 0 0.35671918285896342 -0.11034005430409539 0 0.366769228386706 -0.083792389152377009 0 0.37067898754218148 -0.10985541132720381 0 0.35657798845406269 -0.095738975906800333 0 0.3820981654951936 -0.097154980192335316 0 0.366769228386706 -0.083792389152377009 0 0.37067898754218148 -0.10985541132720381 0 0.366769228386706 -0.083792389152377009 0 0.37067898754218148 -0.10985541132720381 0 0.37067898754218148 -0.10985541132720381 0 0.35657798845406269 -0.095738975906800333 0 0.35671918285896342 -0.11034005430409539 0 0.34856973263139202 -0.10263892539360191 0 0.34235915177399029 -0.10674230277101129 0 0.34219559428241392 -0.08833314875112451 0 0.35657798845406269 -0.095738975906800333 0 0.34856973263139202 -0.10263892539360191 0 0.34219559428241392 -0.08833314875112451 0 0.34856973263139202 -0.10263892539360191 0 0.35671918285896342 -0.11034005430409539 0 0.34827501298156149 -0.1117623219786721 0 0.34856973263139202 -0.10263892539360191 0 0.34827501298156149 -0.1117623219786721 0 0.34235915177399029 -0.10674230277101129 0 0.35657798845406269 -0.095738975906800333 0 0.34856973263139202 -0.10263892539360191 0 0.35671918285896342 -0.11034005430409539 0 0.35671918285896342 -0.11034005430409539 0 0.34827501298156149 -0.1117623219786721 0 0.35162532653232098 -0.1205092895820129 0 0.34827501298156149 -0.1117623219786721 0 0.35162532653232098 -0.1205092895820129 0 0.34135144686336899 -0.1168228851956904 0 0.34827501298156149 -0.1117623219786721 0 0.34135144686336899 -0.1168228851956904 0 0.34235915177399029 -0.10674230277101129 0 0.35162532653232098 -0.1205092895820129 0 0.34135144686336899 -0.1168228851956904 0 0.33890931312075429 -0.12769283774235499 0 0.3627578547229815 -0.12184069637690161 0 0.35671918285896342 -0.11034005430409539 0 0.35162532653232098 -0.1205092895820129 0 0.3627578547229815 -0.12184069637690161 0 0.35162532653232098 -0.1205092895820129 0 0.36017702998378442 -0.132580293169165 0 0.33391982760488931 -0.1206495985463488 0 0.32357630724885272 -0.12556578424159451 0 0.33890931312075429 -0.12769283774235499 0 0.33391982760488931 -0.1206495985463488 0 0.33102885998732923 -0.11327515621249321 0 0.32357630724885272 -0.12556578424159451 0 0.33391982760488931 -0.1206495985463488 0 0.34135144686336899 -0.1168228851956904 0 0.33890931312075429 -0.12769283774235499 0 0.34135144686336899 -0.1168228851956904 0 0.33102885998732923 -0.11327515621249321 0 0.34235915177399029 -0.10674230277101129 0 0.33391982760488931 -0.1206495985463488 0 0.34135144686336899 -0.1168228851956904 0 0.33102885998732923 -0.11327515621249321 0 0.33102885998732923 -0.11327515621249321 0 0.34235915177399029 -0.10674230277101129 0 0.34219559428241392 -0.08833314875112451 0 0.33102885998732923 -0.11327515621249321 0 0.32986057319370132 -0.099234122638936884 0 0.34219559428241392 -0.08833314875112451 0 0.33102885998732923 -0.11327515621249321 0 0.34219559428241392 -0.08833314875112451 0 0.33102885998732923 -0.11327515621249321 0 0.32986057319370132 -0.099234122638936884 0 0.32669819662808358 -0.1059795171565176 0 0.31606482024947358 -0.10080795022647859 0 0.32669819662808358 -0.1059795171565176 0 0.31072624066612847 -0.108271811970148 0 0.32986057319370132 -0.099234122638936884 0 0.32263504817964289 -0.095775470757274342 0 0.33066239602409658 -0.092097134243642353 0 0.32263504817964289 -0.095775470757274342 0 0.31606482024947358 -0.10080795022647859 0 0.32669819662808358 -0.1059795171565176 0 0.32986057319370132 -0.099234122638936884 0 0.32263504817964289 -0.095775470757274342 0 0.32669819662808358 -0.1059795171565176 0 0.32263504817964289 -0.095775470757274342 0 0.31606482024947358 -0.10080795022647859 0 0.31371822176395731 -0.093826472470611849 0 0.33102885998732923 -0.11327515621249321 0 0.32669819662808358 -0.1059795171565176 0 0.32357630724885272 -0.12556578424159451 0 0.32669819662808358 -0.1059795171565176 0 0.30768385391032421 -0.12198561337150859 0 0.32357630724885272 -0.12556578424159451 0 0.32669819662808358 -0.1059795171565176 0 0.30768385391032421 -0.12198561337150859 0 0.31072624066612847 -0.108271811970148 0 0.32669819662808358 -0.1059795171565176 0 0.30768385391032421 -0.12198561337150859 0 0.34043197327237018 -0.060350800924363492 0 0.33477514488702298 -0.069742469547517366 0 0.33513957277737011 -0.080514731761045899 0 0.34043197327237018 -0.060350800924363492 0 0.34288986304649871 -0.06982307142136121 0 0.33513957277737011 -0.080514731761045899 0 0.34043197327237018 -0.060350800924363492 0 0.33513957277737011 -0.080514731761045899 0 0.33477514488702298 -0.069742469547517366 0 0.33513957277737011 -0.080514731761045899 0 0.32504359350271972 -0.076672055352358326 0 0.33477514488702298 -0.069742469547517366 0 0.32504359350271972 -0.076672055352358326 0 0.32575815046105788 -0.068317625018060893 0 0.32801712843521541 -0.059272496990669971 0 0.33224559926391661 -0.064420848120152918 0 0.32575815046105788 -0.068317625018060893 0 0.34043197327237018 -0.060350800924363492 0 0.33224559926391661 -0.064420848120152918 0 0.33477514488702298 -0.069742469547517366 0 0.33224559926391661 -0.064420848120152918 0 0.33477514488702298 -0.069742469547517366 0 0.32575815046105788 -0.068317625018060893 0 0.34043197327237018 -0.060350800924363492 0 0.34591721731977121 -0.063506051721314655 0 0.34288986304649871 -0.06982307142136121 0 0.34043197327237018 -0.060350800924363492 0 0.33477514488702298 -0.069742469547517366 0 0.34288986304649871 -0.06982307142136121 0 0.34219559428241392 -0.08833314875112451 0 0.33513957277737011 -0.080514731761045899 0 0.34219559428241392 -0.08833314875112451 0 0.33358152733925539 -0.086814851592564732 0 0.33513957277737011 -0.080514731761045899 0 0.32986057319370132 -0.099234122638936884 0 0.34219559428241392 -0.08833314875112451 0 0.33066239602409658 -0.092097134243642353 0 0.34219559428241392 -0.08833314875112451 0 0.33358152733925539 -0.086814851592564732 0 0.33066239602409658 -0.092097134243642353 0 0.33358152733925539 -0.086814851592564732 0 0.33066239602409658 -0.092097134243642353 0 0.32632854627314112 -0.086314391614446137 0 0.33513957277737011 -0.080514731761045899 0 0.32632854627314112 -0.086314391614446137 0 0.32504359350271972 -0.076672055352358326 0 0.33358152733925539 -0.086814851592564732 0 0.33513957277737011 -0.080514731761045899 0 0.32632854627314112 -0.086314391614446137 0 0.32632854627314112 -0.086314391614446137 0 0.31829944138502919 -0.081255762723034225 0 0.32504359350271972 -0.076672055352358326 0 0.32632854627314112 -0.086314391614446137 0 0.31824221605892522 -0.089044908469904024 0 0.31829944138502919 -0.081255762723034225 0 0.32263504817964289 -0.095775470757274342 0 0.33066239602409658 -0.092097134243642353 0 0.32632854627314112 -0.086314391614446137 0 0.32263504817964289 -0.095775470757274342 0 0.32632854627314112 -0.086314391614446137 0 0.31824221605892522 -0.089044908469904024 0 0.32263504817964289 -0.095775470757274342 0 0.31371822176395731 -0.093826472470611849 0 0.31824221605892522 -0.089044908469904024 0 0.31371822176395731 -0.093826472470611849 0 0.31824221605892522 -0.089044908469904024 0 0.31283508787689213 -0.086082111836929889 0 0.31824221605892522 -0.089044908469904024 0 0.31283508787689213 -0.086082111836929889 0 0.31829944138502919 -0.081255762723034225 0 0.31283508787689213 -0.086082111836929889 0 0.31829944138502919 -0.081255762723034225 0 0.31122787453330658 -0.07983240620618498 0 0.31829944138502919 -0.081255762723034225 0 0.31611933006519122 -0.069588702858381979 0 0.31122787453330658 -0.07983240620618498 0 0.31829944138502919 -0.081255762723034225 0 0.32504359350271972 -0.076672055352358326 0 0.31611933006519122 -0.069588702858381979 0 0.32504359350271972 -0.076672055352358326 0 0.32575815046105788 -0.068317625018060893 0 0.31611933006519122 -0.069588702858381979 0 0.32801712843521541 -0.059272496990669971 0 0.32575815046105788 -0.068317625018060893 0 0.31611933006519122 -0.069588702858381979 0 0.31611933006519122 -0.069588702858381979 0 0.30636969812315101 -0.06511315702933905 0 0.30982757691804391 -0.054719679112938298 0 0.31611933006519122 -0.069588702858381979 0 0.30636969812315101 -0.06511315702933905 0 0.30831478517377781 -0.072905151701277746 0 0.30636969812315101 -0.06511315702933905 0 0.30309908992900819 -0.071794626567706327 0 0.30831478517377781 -0.072905151701277746 0 0.30636969812315101 -0.06511315702933905 0 0.29851962414946709 -0.066781623072556417 0 0.30309908992900819 -0.071794626567706327 0 0.30636969812315101 -0.06511315702933905 0 0.29851962414946709 -0.066781623072556417 0 0.30023319195687193 -0.05613514242887839 0 0.29851962414946709 -0.066781623072556417 0 0.30309908992900819 -0.071794626567706327 0 0.29667122818225478 -0.076155670860092589 0 0.30309908992900819 -0.071794626567706327 0 0.30475793321823169 -0.078196865844776337 0 0.29667122818225478 -0.076155670860092589 0 0.31611933006519122 -0.069588702858381979 0 0.30831478517377781 -0.072905151701277746 0 0.31122787453330658 -0.07983240620618498 0 0.30831478517377781 -0.072905151701277746 0 0.31122787453330658 -0.07983240620618498 0 0.30475793321823169 -0.078196865844776337 0 0.30309908992900819 -0.071794626567706327 0 0.30831478517377781 -0.072905151701277746 0 0.30475793321823169 -0.078196865844776337 0 0.31283508787689213 -0.086082111836929889 0 0.31122787453330658 -0.07983240620618498 0 0.30625885878452702 -0.084304566213983911 0 0.31122787453330658 -0.07983240620618498 0 0.30625885878452702 -0.084304566213983911 0 0.30475793321823169 -0.078196865844776337 0 0.30793889355477438 -0.090126744098998957 0 0.30078861001286389 -0.090524596628801038 0 0.30580840449333058 -0.099034546291636383 0 0.31371822176395731 -0.093826472470611849 0 0.31283508787689213 -0.086082111836929889 0 0.30793889355477438 -0.090126744098998957 0 0.31283508787689213 -0.086082111836929889 0 0.30625885878452702 -0.084304566213983911 0 0.30793889355477438 -0.090126744098998957 0 0.30625885878452702 -0.084304566213983911 0 0.30793889355477438 -0.090126744098998957 0 0.30078861001286389 -0.090524596628801038 0 0.30625885878452702 -0.084304566213983911 0 0.30078861001286389 -0.090524596628801038 0 0.30027525327402182 -0.083089001566617471 0 0.30078861001286389 -0.090524596628801038 0 0.30027525327402182 -0.083089001566617471 0 0.29344014151757852 -0.088490853873786121 0 0.30475793321823169 -0.078196865844776337 0 0.30027525327402182 -0.083089001566617471 0 0.29667122818225478 -0.076155670860092589 0 0.30625885878452702 -0.084304566213983911 0 0.30475793321823169 -0.078196865844776337 0 0.30027525327402182 -0.083089001566617471 0 0.30027525327402182 -0.083089001566617471 0 0.29488058876543682 -0.083288237989582778 0 0.29667122818225478 -0.076155670860092589 0 0.29488058876543682 -0.083288237989582778 0 0.29035658370986478 -0.080342821453746563 0 0.29344014151757852 -0.088490853873786121 0 0.29488058876543682 -0.083288237989582778 0 0.29035658370986478 -0.080342821453746563 0 0.29667122818225478 -0.076155670860092589 0 0.29035658370986478 -0.080342821453746563 0 0.29344014151757852 -0.088490853873786121 0 0.28566055225847098 -0.084771031995013665 0 0.30027525327402182 -0.083089001566617471 0 0.29488058876543682 -0.083288237989582778 0 0.29344014151757852 -0.088490853873786121 0 0.30078861001286389 -0.090524596628801038 0 0.29344014151757852 -0.088490853873786121 0 0.29467037244859812 -0.097371978400965245 0 0.29344014151757852 -0.088490853873786121 0 0.2854580176461865 -0.092621106130597652 0 0.29467037244859812 -0.097371978400965245 0 0.2854580176461865 -0.092621106130597652 0 0.28566055225847098 -0.084771031995013665 0 0.27986543477431391 -0.086261617532237281 0 0.29344014151757852 -0.088490853873786121 0 0.2854580176461865 -0.092621106130597652 0 0.28566055225847098 -0.084771031995013665 0 0.29035658370986478 -0.080342821453746563 0 0.28566055225847098 -0.084771031995013665 0 0.28505297151300307 -0.078652677919730116 0 0.28566055225847098 -0.084771031995013665 0 0.28039163010127433 -0.080981702875132053 0 0.27986543477431391 -0.086261617532237281 0 0.28566055225847098 -0.084771031995013665 0 0.28505297151300307 -0.078652677919730116 0 0.28039163010127433 -0.080981702875132053 0 0.28505297151300307 -0.078652677919730116 0 0.27877882114896618 -0.075993334503977703 0 0.28039163010127433 -0.080981702875132053 0 0.28505297151300307 -0.078652677919730116 0 0.28424013029957462 -0.073331796736299457 0 0.27877882114896618 -0.075993334503977703 0 0.29035658370986478 -0.080342821453746563 0 0.28505297151300307 -0.078652677919730116 0 0.28924837058261238 -0.075254223686453375 0 0.28505297151300307 -0.078652677919730116 0 0.28424013029957462 -0.073331796736299457 0 0.28924837058261238 -0.075254223686453375 0 0.28424013029957462 -0.073331796736299457 0 0.29157759131041883 -0.070123689808902281 0 0.28924837058261238 -0.075254223686453375 0 0.28424013029957462 -0.073331796736299457 0 0.28530778385359101 -0.06727309973086093 0 0.28011134195846182 -0.070882212784966703 0 0.28530778385359101 -0.06727309973086093 0 0.27945641469191501 -0.066429826971628053 0 0.28011134195846182 -0.070882212784966703 0 0.28530778385359101 -0.06727309973086093 0 0.29316694539509808 -0.061367451740419923 0 0.28419966021282772 -0.06065224108950934 0 0.28530778385359101 -0.06727309973086093 0 0.27945641469191501 -0.066429826971628053 0 0.28419966021282772 -0.06065224108950934 0 0.28424013029957462 -0.073331796736299457 0 0.28530778385359101 -0.06727309973086093 0 0.29157759131041883 -0.070123689808902281 0 0.29851962414946709 -0.066781623072556417 0 0.29157759131041883 -0.070123689808902281 0 0.29316694539509808 -0.061367451740419923 0 0.28530778385359101 -0.06727309973086093 0 0.29157759131041883 -0.070123689808902281 0 0.29316694539509808 -0.061367451740419923 0 0.29851962414946709 -0.066781623072556417 0 0.29157759131041883 -0.070123689808902281 0 0.29667122818225478 -0.076155670860092589 0 0.29035658370986478 -0.080342821453746563 0 0.29667122818225478 -0.076155670860092589 0 0.28924837058261238 -0.075254223686453375 0 0.29157759131041883 -0.070123689808902281 0 0.29667122818225478 -0.076155670860092589 0 0.28924837058261238 -0.075254223686453375 0 0.30768385391032421 -0.12198561337150859 0 0.29833469148203029 -0.1088484420501465 0 0.28671149698374149 -0.11936311413411541 0 0.30768385391032421 -0.12198561337150859 0 0.29833469148203029 -0.1088484420501465 0 0.31072624066612847 -0.108271811970148 0 0.29833469148203029 -0.1088484420501465 0 0.30580840449333058 -0.099034546291636383 0 0.29467037244859812 -0.097371978400965245 0 0.31606482024947358 -0.10080795022647859 0 0.31072624066612847 -0.108271811970148 0 0.30580840449333058 -0.099034546291636383 0 0.29833469148203029 -0.1088484420501465 0 0.31072624066612847 -0.108271811970148 0 0.30580840449333058 -0.099034546291636383 0 0.31371822176395731 -0.093826472470611849 0 0.30793889355477438 -0.090126744098998957 0 0.30580840449333058 -0.099034546291636383 0 0.31606482024947358 -0.10080795022647859 0 0.31371822176395731 -0.093826472470611849 0 0.30580840449333058 -0.099034546291636383 0 0.30078861001286389 -0.090524596628801038 0 0.30580840449333058 -0.099034546291636383 0 0.29467037244859812 -0.097371978400965245 0 0.2854580176461865 -0.092621106130597652 0 0.29467037244859812 -0.097371978400965245 0 0.28488716210635878 -0.104712092755279 0 0.29833469148203029 -0.1088484420501465 0 0.29467037244859812 -0.097371978400965245 0 0.28488716210635878 -0.104712092755279 0 0.29833469148203029 -0.1088484420501465 0 0.28488716210635878 -0.104712092755279 0 0.28671149698374149 -0.11936311413411541 0 0.28488716210635878 -0.104712092755279 0 0.28671149698374149 -0.11936311413411541 0 0.27265955686690602 -0.1117355404009364 0 0.27265955686690602 -0.1117355404009364 0 0.25927729542194961 -0.1196636360353731 0 0.27244737573272332 -0.12569327867375521 0 0.28671149698374149 -0.11936311413411541 0 0.27265955686690602 -0.1117355404009364 0 0.27244737573272332 -0.12569327867375521 0 0.27265955686690602 -0.1117355404009364 0 0.27331580736206679 -0.096063077292059609 0 0.26035100727627342 -0.1056805779295667 0 0.28488716210635878 -0.104712092755279 0 0.27265955686690602 -0.1117355404009364 0 0.27331580736206679 -0.096063077292059609 0 0.2854580176461865 -0.092621106130597652 0 0.28488716210635878 -0.104712092755279 0 0.27331580736206679 -0.096063077292059609 0 0.25015999641617842 -0.096977429205485174 0 0.26035100727627342 -0.1056805779295667 0 0.24582995645715619 -0.1154111646723136 0 0.27331580736206679 -0.096063077292059609 0 0.26154251339132067 -0.095093519977036994 0 0.26035100727627342 -0.1056805779295667 0 0.26154251339132067 -0.095093519977036994 0 0.25015999641617842 -0.096977429205485174 0 0.26035100727627342 -0.1056805779295667 0 0.25927729542194961 -0.1196636360353731 0 0.24582995645715619 -0.1154111646723136 0 0.24822779734363501 -0.13312164547455721 0 0.27265955686690602 -0.1117355404009364 0 0.26035100727627342 -0.1056805779295667 0 0.25927729542194961 -0.1196636360353731 0 0.26035100727627342 -0.1056805779295667 0 0.25927729542194961 -0.1196636360353731 0 0.24582995645715619 -0.1154111646723136 0 0.27172044066295442 -0.071121783121632559 0 0.27293135031692167 -0.07559843121764899 0 0.26676126199925421 -0.073488696192584066 0 0.27172044066295442 -0.071121783121632559 0 0.27293135031692167 -0.07559843121764899 0 0.27551240893106382 -0.071802357545089887 0 0.27293135031692167 -0.07559843121764899 0 0.26676126199925421 -0.073488696192584066 0 0.26971257295111212 -0.080770393439847071 0 0.27172044066295442 -0.071121783121632559 0 0.26676126199925421 -0.073488696192584066 0 0.26936293126928978 -0.069213777103823343 0 0.26670662997032968 -0.068064292578290331 0 0.27096088325293222 -0.065118938200359563 0 0.27011685860573059 -0.066917927255602097 0 0.26676126199925421 -0.073488696192584066 0 0.26670662997032968 -0.068064292578290331 0 0.26936293126928978 -0.069213777103823343 0 0.26670662997032968 -0.068064292578290331 0 0.26936293126928978 -0.069213777103823343 0 0.27011685860573059 -0.066917927255602097 0 0.26670662997032968 -0.068064292578290331 0 0.27096088325293222 -0.065118938200359563 0 0.27134651686205902 -0.062290768346227848 0 0.27096088325293222 -0.065118938200359563 0 0.27325801066304323 -0.064542181428648454 0 0.27370390695334351 -0.066699558161670072 0 0.27096088325293222 -0.065118938200359563 0 0.27325801066304323 -0.064542181428648454 0 0.27134651686205902 -0.062290768346227848 0 0.27325801066304323 -0.064542181428648454 0 0.27468306573658852 -0.062566766115793759 0 0.27134651686205902 -0.062290768346227848 0 0.27172044066295442 -0.071121783121632559 0 0.26936293126928978 -0.069213777103823343 0 0.2717607143400918 -0.068018508995995819 0 0.26936293126928978 -0.069213777103823343 0 0.27011685860573059 -0.066917927255602097 0 0.2717607143400918 -0.068018508995995819 0 0.27096088325293222 -0.065118938200359563 0 0.27011685860573059 -0.066917927255602097 0 0.2717607143400918 -0.068018508995995819 0 0.2717607143400918 -0.068018508995995819 0 0.27381837047385971 -0.069108248278064735 0 0.27370390695334351 -0.066699558161670072 0 0.27096088325293222 -0.065118938200359563 0 0.2717607143400918 -0.068018508995995819 0 0.27370390695334351 -0.066699558161670072 0 0.27172044066295442 -0.071121783121632559 0 0.2717607143400918 -0.068018508995995819 0 0.27381837047385971 -0.069108248278064735 0 0.27381837047385971 -0.069108248278064735 0 0.27641796277912639 -0.068322663308829676 0 0.27551240893106382 -0.071802357545089887 0 0.27381837047385971 -0.069108248278064735 0 0.27370390695334351 -0.066699558161670072 0 0.27641796277912639 -0.068322663308829676 0 0.27370390695334351 -0.066699558161670072 0 0.27641796277912639 -0.068322663308829676 0 0.27590533366611469 -0.065013776111558647 0 0.27641796277912639 -0.068322663308829676 0 0.27590533366611469 -0.065013776111558647 0 0.27945641469191501 -0.066429826971628053 0 0.27325801066304323 -0.064542181428648454 0 0.27468306573658852 -0.062566766115793759 0 0.27590533366611469 -0.065013776111558647 0 0.27325801066304323 -0.064542181428648454 0 0.27370390695334351 -0.066699558161670072 0 0.27590533366611469 -0.065013776111558647 0 0.27468306573658852 -0.062566766115793759 0 0.27590533366611469 -0.065013776111558647 0 0.27793622246995359 -0.061945290425676258 0 0.27945641469191501 -0.066429826971628053 0 0.27793622246995359 -0.061945290425676258 0 0.28419966021282772 -0.06065224108950934 0 0.27590533366611469 -0.065013776111558647 0 0.27945641469191501 -0.066429826971628053 0 0.27793622246995359 -0.061945290425676258 0 0.27641796277912639 -0.068322663308829676 0 0.27945641469191501 -0.066429826971628053 0 0.28011134195846182 -0.070882212784966703 0 0.27641796277912639 -0.068322663308829676 0 0.28011134195846182 -0.070882212784966703 0 0.27551240893106382 -0.071802357545089887 0 0.28424013029957462 -0.073331796736299457 0 0.28011134195846182 -0.070882212784966703 0 0.27877882114896618 -0.075993334503977703 0 0.28011134195846182 -0.070882212784966703 0 0.27551240893106382 -0.071802357545089887 0 0.27877882114896618 -0.075993334503977703 0 0.27172044066295442 -0.071121783121632559 0 0.27381837047385971 -0.069108248278064735 0 0.27551240893106382 -0.071802357545089887 0 0.27293135031692167 -0.07559843121764899 0 0.27551240893106382 -0.071802357545089887 0 0.27877882114896618 -0.075993334503977703 0 0.27293135031692167 -0.07559843121764899 0 0.27877882114896618 -0.075993334503977703 0 0.2757793416480791 -0.081003264538342182 0 0.27877882114896618 -0.075993334503977703 0 0.28039163010127433 -0.080981702875132053 0 0.2757793416480791 -0.081003264538342182 0 0.28039163010127433 -0.080981702875132053 0 0.2757793416480791 -0.081003264538342182 0 0.27986543477431391 -0.086261617532237281 0 0.2757793416480791 -0.081003264538342182 0 0.27986543477431391 -0.086261617532237281 0 0.2729962405958864 -0.086414107661209938 0 0.2854580176461865 -0.092621106130597652 0 0.27331580736206679 -0.096063077292059609 0 0.27986543477431391 -0.086261617532237281 0 0.27331580736206679 -0.096063077292059609 0 0.27986543477431391 -0.086261617532237281 0 0.2729962405958864 -0.086414107661209938 0 0.27331580736206679 -0.096063077292059609 0 0.26697828601309148 -0.088881807853664105 0 0.2729962405958864 -0.086414107661209938 0 0.27331580736206679 -0.096063077292059609 0 0.26154251339132067 -0.095093519977036994 0 0.26697828601309148 -0.088881807853664105 0 0.26697828601309148 -0.088881807853664105 0 0.26971257295111212 -0.080770393439847071 0 0.26229844403200342 -0.081328722889057195 0 0.26697828601309148 -0.088881807853664105 0 0.2729962405958864 -0.086414107661209938 0 0.26971257295111212 -0.080770393439847071 0 0.26676126199925421 -0.073488696192584066 0 0.26971257295111212 -0.080770393439847071 0 0.26229844403200342 -0.081328722889057195 0 0.27293135031692167 -0.07559843121764899 0 0.2757793416480791 -0.081003264538342182 0 0.26971257295111212 -0.080770393439847071 0 0.2757793416480791 -0.081003264538342182 0 0.2729962405958864 -0.086414107661209938 0 0.26971257295111212 -0.080770393439847071 0 0.26229844403200342 -0.081328722889057195 0 0.2569074698889931 -0.08786470760440937 0 0.25446499988308319 -0.081012334980481548 0 0.26229844403200342 -0.081328722889057195 0 0.25446499988308319 -0.081012334980481548 0 0.25896607345648692 -0.07595439726335701 0 0.26697828601309148 -0.088881807853664105 0 0.26229844403200342 -0.081328722889057195 0 0.2569074698889931 -0.08786470760440937 0 0.26154251339132067 -0.095093519977036994 0 0.26697828601309148 -0.088881807853664105 0 0.2569074698889931 -0.08786470760440937 0 0.25015999641617842 -0.096977429205485174 0 0.2569074698889931 -0.08786470760440937 0 0.24463848379058739 -0.088536849521758776 0 0.26154251339132067 -0.095093519977036994 0 0.25015999641617842 -0.096977429205485174 0 0.2569074698889931 -0.08786470760440937 0 0.2569074698889931 -0.08786470760440937 0 0.25446499988308319 -0.081012334980481548 0 0.24463848379058739 -0.088536849521758776 0 0.25796362690946112 -0.057686533446679122 0 0.27134651686205902 -0.062290768346227848 0 0.24847867700442311 -0.068190649201586517 0 0.27134651686205902 -0.062290768346227848 0 0.24677311034462801 -0.075651298964641206 0 0.24847867700442311 -0.068190649201586517 0 0.26670662997032968 -0.068064292578290331 0 0.2598017689426747 -0.073289671249718136 0 0.24677311034462801 -0.075651298964641206 0 0.27134651686205902 -0.062290768346227848 0 0.24677311034462801 -0.075651298964641206 0 0.26670662997032968 -0.068064292578290331 0 0.27134651686205902 -0.062290768346227848 0 0.24677311034462801 -0.075651298964641206 0 0.25446499988308319 -0.081012334980481548 0 0.25896607345648692 -0.07595439726335701 0 0.24677311034462801 -0.075651298964641206 0 0.25896607345648692 -0.07595439726335701 0 0.2598017689426747 -0.073289671249718136 0 0.24677311034462801 -0.075651298964641206 0 0.26676126199925421 -0.073488696192584066 0 0.26229844403200342 -0.081328722889057195 0 0.25896607345648692 -0.07595439726335701 0 0.26676126199925421 -0.073488696192584066 0 0.26670662997032968 -0.068064292578290331 0 0.2598017689426747 -0.073289671249718136 0 0.26676126199925421 -0.073488696192584066 0 0.25896607345648692 -0.07595439726335701 0 0.2598017689426747 -0.073289671249718136 0 0.25090223679437568 -0.057488120824325008 0 0.25796362690946112 -0.057686533446679122 0 0.24847867700442311 -0.068190649201586517 0 0.25796362690946112 -0.057686533446679122 0 0.27134651686205902 -0.062290768346227848 0 0.26220768466941918 -0.044185100329275737 0 0.25090223679437568 -0.057488120824325008 0 0.25271720777739931 -0.049505738923643537 0 0.25796362690946112 -0.057686533446679122 0 0.25271720777739931 -0.049505738923643537 0 0.25796362690946112 -0.057686533446679122 0 0.26220768466941918 -0.044185100329275737 0 0.27134651686205902 -0.062290768346227848 0 0.26220768466941918 -0.044185100329275737 0 0.27583638042541542 -0.054659490359181287 0 0.27359637886637173 -0.038942651192385783 0 0.28340947956647461 -0.048934309697336358 0 0.27134651686205902 -0.062290768346227848 0 0.27583638042541542 -0.054659490359181287 0 0.26220768466941918 -0.044185100329275737 0 0.27583638042541542 -0.054659490359181287 0 0.27793622246995359 -0.061945290425676258 0 0.28419966021282772 -0.06065224108950934 0 0.27583638042541542 -0.054659490359181287 0 0.28419966021282772 -0.06065224108950934 0 0.28340947956647461 -0.048934309697336358 0 0.27134651686205902 -0.062290768346227848 0 0.27583638042541542 -0.054659490359181287 0 0.2752591367359295 -0.060231463225204708 0 0.27468306573658852 -0.062566766115793759 0 0.27134651686205902 -0.062290768346227848 0 0.2752591367359295 -0.060231463225204708 0 0.27583638042541542 -0.054659490359181287 0 0.27793622246995359 -0.061945290425676258 0 0.2752591367359295 -0.060231463225204708 0 0.27468306573658852 -0.062566766115793759 0 0.27793622246995359 -0.061945290425676258 0 0.2752591367359295 -0.060231463225204708 0 0.27359637886637173 -0.038942651192385783 0 0.28033505144223458 -0.026165824816597211 0 0.28340947956647461 -0.048934309697336358 0 0.27583638042541542 -0.054659490359181287 0 0.27359637886637173 -0.038942651192385783 0 0.26220768466941918 -0.044185100329275737 0 0.26220768466941918 -0.044185100329275737 0 0.25183449102707761 -0.026615894658384251 0 0.24858064332193749 -0.040711471060813291 0 0.27359637886637173 -0.038942651192385783 0 0.26220768466941918 -0.044185100329275737 0 0.25183449102707761 -0.026615894658384251 0 0.26220768466941918 -0.044185100329275737 0 0.25183449102707761 -0.026615894658384251 0 0.25271720777739931 -0.049505738923643537 0 0.26220768466941918 -0.044185100329275737 0 0.24858064332193749 -0.040711471060813291 0 0.25183449102707761 -0.026615894658384251 0 0.25847686418490468 -0.012147488740227121 0 0.28033505144223458 -0.026165824816597211 0 0.25183449102707761 -0.026615894658384251 0 0.2491152472639678 -0.02665883590558818 0 0.25183449102707761 -0.026615894658384251 0 0.25054830565431291 -0.02443746667138855 0 0.25183449102707761 -0.026615894658384251 0 0.25054830565431291 -0.02443746667138855 0 0.2491152472639678 -0.02665883590558818 0 0.25183449102707761 -0.026615894658384251 0 0.25054830565431291 -0.02443746667138855 0 0.25847686418490468 -0.012147488740227121 0 0.25054830565431291 -0.02443746667138855 0 0.25847686418490468 -0.012147488740227121 0 0.25054830565431291 -0.02443746667138855 0 0.2546313662703803 -0.0098854803269232232 0 0.24772306794153229 -0.0049010006205228709 0 0.25539330519756809 0.0004604523674139167 0 0.2546313662703803 -0.0098854803269232232 0 0.25847686418490468 -0.012147488740227121 0 0.25539330519756809 0.0004604523674139167 0 0.2546313662703803 -0.0098854803269232232 0 0.24772306794153229 -0.0049010006205228709 0 0.25054830565431291 -0.02443746667138855 0 0.2546313662703803 -0.0098854803269232232 0 0.25847686418490468 -0.012147488740227121 0 0.2546313662703803 -0.0098854803269232232 0 0.25847686418490468 -0.012147488740227121 0 0.26673170150550152 0.00064825062450301653 0 0.25539330519756809 0.0004604523674139167 0 0.25847686418490468 -0.012147488740227121 0 0.26673170150550152 0.00064825062450301653 0 0.25847686418490468 -0.012147488740227121 0 0.26673170150550152 0.00064825062450301653 0 0.25847686418490468 -0.012147488740227121 0 0.27073724984342729 -0.01053361327240207 0 0.27073724984342729 -0.01053361327240207 0 0.27757565750313329 -0.0057304083282169217 0 0.28033505144223458 -0.026165824816597211 0 0.26673170150550152 0.00064825062450301653 0 0.27073724984342729 -0.01053361327240207 0 0.27757565750313329 -0.0057304083282169217 0 0.27359637886637173 -0.038942651192385783 0 0.25183449102707761 -0.026615894658384251 0 0.28033505144223458 -0.026165824816597211 0 0.27757565750313329 -0.0057304083282169217 0 0.28033505144223458 -0.026165824816597211 0 0.25847686418490468 -0.012147488740227121 0 0.27073724984342729 -0.01053361327240207 0 0.28033505144223458 -0.026165824816597211 0 0.25183449102707761 -0.026615894658384251 0 0.28033505144223458 -0.026165824816597211 0 0.25847686418490468 -0.012147488740227121 0 0.28033505144223458 -0.026165824816597211 0 0.28033505144223458 -0.026165824816597211 0 0.28225695756215952 -0.0261354748174853 0 0.28853131854626618 -0.036959236899362528 0 0.28033505144223458 -0.026165824816597211 0 0.28225695756215952 -0.0261354748174853 0 0.28909480904710277 -0.021344077497555399 0 0.28225695756215952 -0.0261354748174853 0 0.29704185569596081 -0.025901997416795539 0 0.30164796996605692 -0.037541704693316108 0 0.28033505144223458 -0.026165824816597211 0 0.28225695756215952 -0.0261354748174853 0 0.28033505144223458 -0.026165824816597211 0 0.28909480904710277 -0.021344077497555399 0 0.28793198141442639 -0.014093997571583019 0 0.28909480904710277 -0.021344077497555399 0 0.28793198141442639 -0.014093997571583019 0 0.29773774821542148 -0.016719712093930882 0 0.28909480904710277 -0.021344077497555399 0 0.29704185569596081 -0.025901997416795539 0 0.29773774821542148 -0.016719712093930882 0 0.28225695756215952 -0.0261354748174853 0 0.28909480904710277 -0.021344077497555399 0 0.29704185569596081 -0.025901997416795539 0 0.28225695756215952 -0.0261354748174853 0 0.29704185569596081 -0.025901997416795539 0 0.29022804709789918 0.0073927743789855491 0 0.27757565750313329 -0.0057304083282169217 0 0.2974061074109331 -0.0033338883359669579 0 0.27757565750313329 -0.0057304083282169217 0 0.28793198141442639 -0.014093997571583019 0 0.2974061074109331 -0.0033338883359669579 0 0.27757565750313329 -0.0057304083282169217 0 0.28033505144223458 -0.026165824816597211 0 0.28793198141442639 -0.014093997571583019 0 0.28793198141442639 -0.014093997571583019 0 0.2974061074109331 -0.0033338883359669579 0 0.29773774821542148 -0.016719712093930882 0 0.2974061074109331 -0.0033338883359669579 0 0.3077140193076891 -0.012129388207655601 0 0.29773774821542148 -0.016719712093930882 0 0.31717699121542409 -0.01110362957231944 0 0.3077140193076891 -0.012129388207655601 0 0.3110389812754043 -0.003034109782157705 0 0.2974061074109331 -0.0033338883359669579 0 0.3077140193076891 -0.012129388207655601 0 0.3110389812754043 -0.003034109782157705 0 0.30691493272438269 0.0052758208176783084 0 0.2974061074109331 -0.0033338883359669579 0 0.3110389812754043 -0.003034109782157705 0 0.29704185569596081 -0.025901997416795539 0 0.30641997361471562 -0.026000366072471141 0 0.30164796996605692 -0.037541704693316108 0 0.29704185569596081 -0.025901997416795539 0 0.29773774821542148 -0.016719712093930882 0 0.30641997361471562 -0.026000366072471141 0 0.3077140193076891 -0.012129388207655601 0 0.29773774821542148 -0.016719712093930882 0 0.30641997361471562 -0.026000366072471141 0 0.31570621787336423 -0.021358293688819051 0 0.3077140193076891 -0.012129388207655601 0 0.30641997361471562 -0.026000366072471141 0 0.32103898236995437 -0.048947934569146423 0 0.30164796996605692 -0.037541704693316108 0 0.30164796996605692 -0.037541704693316108 0 0.30982757691804391 -0.054719679112938298 0 0.29536673750986708 -0.046438615220836192 0 0.3154175968614466 -0.032930595456165883 0 0.30641997361471562 -0.026000366072471141 0 0.30164796996605692 -0.037541704693316108 0 0.32103898236995437 -0.048947934569146423 0 0.30164796996605692 -0.037541704693316108 0 0.30982757691804391 -0.054719679112938298 0 0.30636969812315101 -0.06511315702933905 0 0.30982757691804391 -0.054719679112938298 0 0.30023319195687193 -0.05613514242887839 0 0.29851962414946709 -0.066781623072556417 0 0.30023319195687193 -0.05613514242887839 0 0.29316694539509808 -0.061367451740419923 0 0.30982757691804391 -0.054719679112938298 0 0.30023319195687193 -0.05613514242887839 0 0.29536673750986708 -0.046438615220836192 0 0.29127520292822789 -0.054705552035396038 0 0.28340947956647461 -0.048934309697336358 0 0.29536673750986708 -0.046438615220836192 0 0.30023319195687193 -0.05613514242887839 0 0.29127520292822789 -0.054705552035396038 0 0.29536673750986708 -0.046438615220836192 0 0.30023319195687193 -0.05613514242887839 0 0.29127520292822789 -0.054705552035396038 0 0.29316694539509808 -0.061367451740419923 0 0.29127520292822789 -0.054705552035396038 0 0.29316694539509808 -0.061367451740419923 0 0.28419966021282772 -0.06065224108950934 0 0.29127520292822789 -0.054705552035396038 0 0.28419966021282772 -0.06065224108950934 0 0.28340947956647461 -0.048934309697336358 0 0.28033505144223458 -0.026165824816597211 0 0.28340947956647461 -0.048934309697336358 0 0.28225695756215952 -0.0261354748174853 0 0.30164796996605692 -0.037541704693316108 0 0.28033505144223458 -0.026165824816597211 0 0.28340947956647461 -0.048934309697336358 0 0.28853131854626618 -0.036959236899362528 0 0.28225695756215952 -0.0261354748174853 0 0.30164796996605692 -0.037541704693316108 0 0.28853131854626618 -0.036959236899362528 0 0.28340947956647461 -0.048934309697336358 0 0.28853131854626618 -0.036959236899362528 0 0.29536673750986708 -0.046438615220836192 0 0.30164796996605692 -0.037541704693316108 0 0.28853131854626618 -0.036959236899362528 0 0.29536673750986708 -0.046438615220836192 0 0.28766553738945588 -0.20015353613689191 0 0.29481517507126448 -0.2254929831664543 0 0.27900346477422677 -0.21697689629932501 0 0.28766553738945588 -0.20015353613689191 0 0.30294258932563062 -0.2031039212668013 0 0.29481517507126448 -0.2254929831664543 0 0.28766553738945588 -0.20015353613689191 0 0.29870361677606111 -0.18757055861618241 0 0.2828857095446965 -0.1772429575850521 0 0.28766553738945588 -0.20015353613689191 0 0.30294258932563062 -0.2031039212668013 0 0.29870361677606111 -0.18757055861618241 0 0.30294258932563062 -0.2031039212668013 0 0.29870361677606111 -0.18757055861618241 0 0.31455690740735331 -0.1921709664007836 0 0.30294258932563062 -0.2031039212668013 0 0.29481517507126448 -0.2254929831664543 0 0.32322664815369628 -0.21667955276404699 0 0.29481517507126448 -0.2254929831664543 0 0.32322664815369628 -0.21667955276404699 0 0.29481517507126448 -0.2254929831664543 0 0.32322664815369628 -0.21667955276404699 0 0.31732183485810961 -0.23453356571267439 0 0.30849589603726119 -0.24755155563553849 0 0.29481517507126448 -0.2254929831664543 0 0.31732183485810961 -0.23453356571267439 0 0.30849589603726119 -0.24755155563553849 0 0.29053066305545472 -0.24930972454324049 0 0.29481517507126448 -0.2254929831664543 0 0.29053066305545472 -0.24930972454324049 0 0.29481517507126448 -0.2254929831664543 0 0.26640370198883279 -0.23430641356886209 0 0.26640370198883279 -0.23430641356886209 0 0.2639100076133416 -0.21155465306461549 0 0.27900346477422677 -0.21697689629932501 0 0.29481517507126448 -0.2254929831664543 0 0.26640370198883279 -0.23430641356886209 0 0.29481517507126448 -0.2254929831664543 0 0.26640370198883279 -0.23430641356886209 0 0.27900346477422677 -0.21697689629932501 0 0.29053066305545472 -0.24930972454324049 0 0.26640370198883279 -0.23430641356886209 0 0.2749983627915108 -0.25641595150652408 0 0.26640370198883279 -0.23430641356886209 0 0.2749983627915108 -0.25641595150652408 0 0.25655956082222359 -0.25080388744885951 0 0.26640370198883279 -0.23430641356886209 0 0.25655956082222359 -0.25080388744885951 0 0.23799222890640129 -0.2431198439712699 0 0.26640370198883279 -0.23430641356886209 0 0.23799222890640129 -0.2431198439712699 0 0.26640370198883279 -0.23430641356886209 0 0.2639100076133416 -0.21155465306461549 0 0.24100276054523589 -0.2185255786401053 0 0.2639100076133416 -0.21155465306461549 0 0.2493615313569888 -0.20579470911091521 0 0.24100276054523589 -0.2185255786401053 0 0.2639100076133416 -0.21155465306461549 0 0.26093768072361978 -0.196698135079723 0 0.2493615313569888 -0.20579470911091521 0 0.28766553738945588 -0.20015353613689191 0 0.2639100076133416 -0.21155465306461549 0 0.27900346477422677 -0.21697689629932501 0 0.28766553738945588 -0.20015353613689191 0 0.2669555297610533 -0.18328914678454791 0 0.28766553738945588 -0.20015353613689191 0 0.26093768072361978 -0.196698135079723 0 0.2669555297610533 -0.18328914678454791 0 0.28766553738945588 -0.20015353613689191 0 0.2639100076133416 -0.21155465306461549 0 0.26093768072361978 -0.196698135079723 0 0.26093768072361978 -0.196698135079723 0 0.2669555297610533 -0.18328914678454791 0 0.2455533254540628 -0.19141220492223349 0 0.26093768072361978 -0.196698135079723 0 0.2455533254540628 -0.19141220492223349 0 0.2493615313569888 -0.20579470911091521 0 0.25064082575704588 -0.1700039020164818 0 0.27040560359017629 -0.16939104763708951 0 0.2669555297610533 -0.18328914678454791 0 0.25064082575704588 -0.1700039020164818 0 0.2669555297610533 -0.18328914678454791 0 0.25064082575704588 -0.1700039020164818 0 0.2669555297610533 -0.18328914678454791 0 0.24793574579121491 -0.1722810130817983 0 0.2669555297610533 -0.18328914678454791 0 0.2455533254540628 -0.19141220492223349 0 0.2669555297610533 -0.18328914678454791 0 0.24793574579121491 -0.1722810130817983 0 0.2455533254540628 -0.19141220492223349 0 0.25064082575704588 -0.1700039020164818 0 0.2517969940147583 -0.15104916485636141 0 0.26965516847480531 -0.15399780580149061 0 0.25064082575704588 -0.1700039020164818 0 0.26965516847480531 -0.15399780580149061 0 0.25064082575704588 -0.1700039020164818 0 0.27040560359017629 -0.16939104763708951 0 0.26965516847480531 -0.15399780580149061 0 0.27040560359017629 -0.16939104763708951 0 0.26965516847480531 -0.15399780580149061 0 0.28270314847870992 -0.16199338504702351 0 0.27040560359017629 -0.16939104763708951 0 0.2828857095446965 -0.1772429575850521 0 0.28270314847870992 -0.16199338504702351 0 0.28766553738945588 -0.20015353613689191 0 0.2669555297610533 -0.18328914678454791 0 0.2828857095446965 -0.1772429575850521 0 0.2669555297610533 -0.18328914678454791 0 0.2828857095446965 -0.1772429575850521 0 0.27040560359017629 -0.16939104763708951 0 0.2669555297610533 -0.18328914678454791 0 0.2828857095446965 -0.1772429575850521 0 0.25927729542194961 -0.1196636360353731 0 0.26314499682701697 -0.13865141133039829 0 0.24822779734363501 -0.13312164547455721 0 0.25927729542194961 -0.1196636360353731 0 0.26314499682701697 -0.13865141133039829 0 0.27244737573272332 -0.12569327867375521 0 0.26314499682701697 -0.13865141133039829 0 0.2517969940147583 -0.15104916485636141 0 0.26965516847480531 -0.15399780580149061 0 0.26314499682701697 -0.13865141133039829 0 0.2517969940147583 -0.15104916485636141 0 0.24822779734363501 -0.13312164547455721 0 0.26314499682701697 -0.13865141133039829 0 0.26965516847480531 -0.15399780580149061 0 0.28866951119256479 -0.13799170958649959 0 0.26965516847480531 -0.15399780580149061 0 0.28866951119256479 -0.13799170958649959 0 0.28270314847870992 -0.16199338504702351 0 0.26965516847480531 -0.15399780580149061 0 0.28866951119256479 -0.13799170958649959 0 0.26314499682701697 -0.13865141133039829 0 0.27244737573272332 -0.12569327867375521 0 0.28866951119256479 -0.13799170958649959 0 0.28671149698374149 -0.11936311413411541 0 0.27244737573272332 -0.12569327867375521 0 0.28866951119256479 -0.13799170958649959 0 0.30768385391032421 -0.12198561337150859 0 0.28671149698374149 -0.11936311413411541 0 0.28866951119256479 -0.13799170958649959 0 0.28866951119256479 -0.13799170958649959 0 0.28270314847870992 -0.16199338504702351 0 0.29659109088426377 -0.1570762318922263 0 0.28866951119256479 -0.13799170958649959 0 0.30288831525015147 -0.1448126379357374 0 0.29659109088426377 -0.1570762318922263 0 0.30288831525015147 -0.1448126379357374 0 0.31264092306926361 -0.16303715666124241 0 0.31767388602127328 -0.1429317878760962 0 0.30288831525015147 -0.1448126379357374 0 0.29659109088426377 -0.1570762318922263 0 0.31264092306926361 -0.16303715666124241 0 0.30768385391032421 -0.12198561337150859 0 0.30288831525015147 -0.1448126379357374 0 0.31767388602127328 -0.1429317878760962 0 0.30768385391032421 -0.12198561337150859 0 0.28866951119256479 -0.13799170958649959 0 0.30288831525015147 -0.1448126379357374 0 0.30768385391032421 -0.12198561337150859 0 0.28866951119256479 -0.13799170958649959 0 0.29870361677606111 -0.18757055861618241 0 0.2828857095446965 -0.1772429575850521 0 0.29651238476640779 -0.17178153727007009 0 0.2828857095446965 -0.1772429575850521 0 0.28270314847870992 -0.16199338504702351 0 0.29651238476640779 -0.17178153727007009 0 0.28270314847870992 -0.16199338504702351 0 0.29659109088426377 -0.1570762318922263 0 0.29651238476640779 -0.17178153727007009 0 0.29651238476640779 -0.17178153727007009 0 0.30858456387420907 -0.1792772474443903 0 0.31264092306926361 -0.16303715666124241 0 0.29659109088426377 -0.1570762318922263 0 0.29651238476640779 -0.17178153727007009 0 0.31264092306926361 -0.16303715666124241 0 0.29870361677606111 -0.18757055861618241 0 0.30858456387420907 -0.1792772474443903 0 0.31455690740735331 -0.1921709664007836 0 0.29870361677606111 -0.18757055861618241 0 0.29651238476640779 -0.17178153727007009 0 0.30858456387420907 -0.1792772474443903 0 0.30858456387420907 -0.1792772474443903 0 0.32319483902014101 -0.18096481884214211 0 0.31455690740735331 -0.1921709664007836 0 0.30858456387420907 -0.1792772474443903 0 0.32319483902014101 -0.18096481884214211 0 0.31264092306926361 -0.16303715666124241 0 0.31264092306926361 -0.16303715666124241 0 0.33092153400707158 -0.16866276240017239 0 0.32630363425332859 -0.15510673046328671 0 0.32319483902014101 -0.18096481884214211 0 0.31264092306926361 -0.16303715666124241 0 0.33092153400707158 -0.16866276240017239 0 0.33092153400707158 -0.16866276240017239 0 0.33991907205137528 -0.15537024450773651 0 0.34402000459098431 -0.171831399514177 0 0.33092153400707158 -0.16866276240017239 0 0.32630363425332859 -0.15510673046328671 0 0.33991907205137528 -0.15537024450773651 0 0.33092153400707158 -0.16866276240017239 0 0.33803999750577518 -0.18191706001685889 0 0.34402000459098431 -0.171831399514177 0 0.32319483902014101 -0.18096481884214211 0 0.33803999750577518 -0.18191706001685889 0 0.33082005276654303 -0.19316909157463211 0 0.32319483902014101 -0.18096481884214211 0 0.33092153400707158 -0.16866276240017239 0 0.33803999750577518 -0.18191706001685889 0 0.30768385391032421 -0.12198561337150859 0 0.32357630724885272 -0.12556578424159451 0 0.31767388602127328 -0.1429317878760962 0 0.32357630724885272 -0.12556578424159451 0 0.31767388602127328 -0.1429317878760962 0 0.33159649986036288 -0.14155107372576031 0 0.31264092306926361 -0.16303715666124241 0 0.31767388602127328 -0.1429317878760962 0 0.32630363425332859 -0.15510673046328671 0 0.31767388602127328 -0.1429317878760962 0 0.32630363425332859 -0.15510673046328671 0 0.33159649986036288 -0.14155107372576031 0 0.32630363425332859 -0.15510673046328671 0 0.33991907205137528 -0.15537024450773651 0 0.33159649986036288 -0.14155107372576031 0 0.33991907205137528 -0.15537024450773651 0 0.33159649986036288 -0.14155107372576031 0 0.34381365833794542 -0.14064874395078 0 0.32357630724885272 -0.12556578424159451 0 0.33159649986036288 -0.14155107372576031 0 0.33890931312075429 -0.12769283774235499 0 0.33159649986036288 -0.14155107372576031 0 0.33890931312075429 -0.12769283774235499 0 0.34381365833794542 -0.14064874395078 0 0.35162532653232098 -0.1205092895820129 0 0.34920746889686499 -0.13186441312647229 0 0.36017702998378442 -0.132580293169165 0 0.35162532653232098 -0.1205092895820129 0 0.33890931312075429 -0.12769283774235499 0 0.34920746889686499 -0.13186441312647229 0 0.33890931312075429 -0.12769283774235499 0 0.34920746889686499 -0.13186441312647229 0 0.34381365833794542 -0.14064874395078 0 0.34920746889686499 -0.13186441312647229 0 0.35363185247803469 -0.13988767514750611 0 0.34381365833794542 -0.14064874395078 0 0.34920746889686499 -0.13186441312647229 0 0.35363185247803469 -0.13988767514750611 0 0.36017702998378442 -0.132580293169165 0 0.35363185247803469 -0.13988767514750611 0 0.36233083744191202 -0.1445411365620177 0 0.36017702998378442 -0.132580293169165 0 0.35363185247803469 -0.13988767514750611 0 0.35207277552900451 -0.1495707094469835 0 0.36233083744191202 -0.1445411365620177 0 0.35363185247803469 -0.13988767514750611 0 0.34381365833794542 -0.14064874395078 0 0.35207277552900451 -0.1495707094469835 0 0.33991907205137528 -0.15537024450773651 0 0.34381365833794542 -0.14064874395078 0 0.35207277552900451 -0.1495707094469835 0 0.33991907205137528 -0.15537024450773651 0 0.35207277552900451 -0.1495707094469835 0 0.35239810287229989 -0.1609206815889512 0 0.35207277552900451 -0.1495707094469835 0 0.35239810287229989 -0.1609206815889512 0 0.36262882442801692 -0.1569117647905518 0 0.35207277552900451 -0.1495707094469835 0 0.36233083744191202 -0.1445411365620177 0 0.36262882442801692 -0.1569117647905518 0 0.37043680543011809 -0.14927700185649001 0 0.36233083744191202 -0.1445411365620177 0 0.36262882442801692 -0.1569117647905518 0 0.37043680543011809 -0.14927700185649001 0 0.36262882442801692 -0.1569117647905518 0 0.3737837947453817 -0.1590279526826078 0 0.37043680543011809 -0.14927700185649001 0 0.3737837947453817 -0.1590279526826078 0 0.37885182383762289 -0.14998572174524191 0 0.37043680543011809 -0.14927700185649001 0 0.37458874669765702 -0.13591843350203059 0 0.37885182383762289 -0.14998572174524191 0 0.37043680543011809 -0.14927700185649001 0 0.36233083744191202 -0.1445411365620177 0 0.37458874669765702 -0.13591843350203059 0 0.36233083744191202 -0.1445411365620177 0 0.37458874669765702 -0.13591843350203059 0 0.36017702998378442 -0.132580293169165 0 0.3627578547229815 -0.12184069637690161 0 0.37458874669765702 -0.13591843350203059 0 0.36017702998378442 -0.132580293169165 0 0.35284329183959218 -0.18238535131356379 0 0.34402000459098431 -0.171831399514177 0 0.36321200138055171 -0.16996400753563939 0 0.35284329183959218 -0.18238535131356379 0 0.36328106309107511 -0.18062420306474911 0 0.36035915179860267 -0.19226899107336681 0 0.33803999750577518 -0.18191706001685889 0 0.35284329183959218 -0.18238535131356379 0 0.34644026281031898 -0.19448893645646581 0 0.33803999750577518 -0.18191706001685889 0 0.35284329183959218 -0.18238535131356379 0 0.34402000459098431 -0.171831399514177 0 0.34402000459098431 -0.171831399514177 0 0.35239810287229989 -0.1609206815889512 0 0.36321200138055171 -0.16996400753563939 0 0.33991907205137528 -0.15537024450773651 0 0.34402000459098431 -0.171831399514177 0 0.35239810287229989 -0.1609206815889512 0 0.36321200138055171 -0.16996400753563939 0 0.3737837947453817 -0.1590279526826078 0 0.37788993817046679 -0.1750033685051201 0 0.36321200138055171 -0.16996400753563939 0 0.36262882442801692 -0.1569117647905518 0 0.3737837947453817 -0.1590279526826078 0 0.35239810287229989 -0.1609206815889512 0 0.36321200138055171 -0.16996400753563939 0 0.36262882442801692 -0.1569117647905518 0 0.36961455139086391 -0.18697939447705861 0 0.37692805250331091 -0.20002101526499841 0 0.37788993817046679 -0.1750033685051201 0 0.36321200138055171 -0.16996400753563939 0 0.36328106309107511 -0.18062420306474911 0 0.37788993817046679 -0.1750033685051201 0 0.35284329183959218 -0.18238535131356379 0 0.36321200138055171 -0.16996400753563939 0 0.36328106309107511 -0.18062420306474911 0 0.36328106309107511 -0.18062420306474911 0 0.36961455139086391 -0.18697939447705861 0 0.36035915179860267 -0.19226899107336681 0 0.36328106309107511 -0.18062420306474911 0 0.36961455139086391 -0.18697939447705861 0 0.37788993817046679 -0.1750033685051201 0 0.36035915179860267 -0.19226899107336681 0 0.35007735032850351 -0.2083502840145223 0 0.37692805250331091 -0.20002101526499841 0 0.36961455139086391 -0.18697939447705861 0 0.36035915179860267 -0.19226899107336681 0 0.37692805250331091 -0.20002101526499841 0 0.35827546511972669 -0.2168867099708755 0 0.37668786612765898 -0.20626801333123981 0 0.35827546511972669 -0.2168867099708755 0 0.35007735032850351 -0.2083502840145223 0 0.37668786612765898 -0.20626801333123981 0 0.35007735032850351 -0.2083502840145223 0 0.37668786612765898 -0.20626801333123981 0 0.37692805250331091 -0.20002101526499841 0 0.35827546511972669 -0.2168867099708755 0 0.37601325401398228 -0.2238139734553066 0 0.37668786612765898 -0.20626801333123981 0 0.35007735032850351 -0.2083502840145223 0 0.37692805250331091 -0.20002101526499841 0 0.35827546511972669 -0.2168867099708755 0 0.35007735032850351 -0.2083502840145223 0 0.34417142100768722 -0.21919827846122639 0 0.36035915179860267 -0.19226899107336681 0 0.35007735032850351 -0.2083502840145223 0 0.34644026281031898 -0.19448893645646581 0 0.35284329183959218 -0.18238535131356379 0 0.36035915179860267 -0.19226899107336681 0 0.34644026281031898 -0.19448893645646581 0 0.33803999750577518 -0.18191706001685889 0 0.34644026281031898 -0.19448893645646581 0 0.33082005276654303 -0.19316909157463211 0 0.33082005276654303 -0.19316909157463211 0 0.33463925694974161 -0.2032387719828839 0 0.32123709092059288 -0.20167246079782961 0 0.34644026281031898 -0.19448893645646581 0 0.33082005276654303 -0.19316909157463211 0 0.33463925694974161 -0.2032387719828839 0 0.35007735032850351 -0.2083502840145223 0 0.34644026281031898 -0.19448893645646581 0 0.33463925694974161 -0.2032387719828839 0 0.35007735032850351 -0.2083502840145223 0 0.32322664815369628 -0.21667955276404699 0 0.34417142100768722 -0.21919827846122639 0 0.35007735032850351 -0.2083502840145223 0 0.33463925694974161 -0.2032387719828839 0 0.32322664815369628 -0.21667955276404699 0 0.35007735032850351 -0.2083502840145223 0 0.32322664815369628 -0.21667955276404699 0 0.30294258932563062 -0.2031039212668013 0 0.32322664815369628 -0.21667955276404699 0 0.32123709092059288 -0.20167246079782961 0 0.30294258932563062 -0.2031039212668013 0 0.32322664815369628 -0.21667955276404699 0 0.33463925694974161 -0.2032387719828839 0 0.32322664815369628 -0.21667955276404699 0 0.32123709092059288 -0.20167246079782961 0 0.30294258932563062 -0.2031039212668013 0 0.31455690740735331 -0.1921709664007836 0 0.32123709092059288 -0.20167246079782961 0 0.33082005276654303 -0.19316909157463211 0 0.31455690740735331 -0.1921709664007836 0 0.32123709092059288 -0.20167246079782961 0 0.32319483902014101 -0.18096481884214211 0 0.33082005276654303 -0.19316909157463211 0 0.31455690740735331 -0.1921709664007836 0 0.30849589603726119 -0.24755155563553849 0 0.32702570909927398 -0.2441270670227802 0 0.32523143608720129 -0.25563514975155688 0 0.30849589603726119 -0.24755155563553849 0 0.32702570909927398 -0.2441270670227802 0 0.31732183485810961 -0.23453356571267439 0 0.32702570909927398 -0.2441270670227802 0 0.31732183485810961 -0.23453356571267439 0 0.33151645751221542 -0.23471615159927939 0 0.32322664815369628 -0.21667955276404699 0 0.31732183485810961 -0.23453356571267439 0 0.33151645751221542 -0.23471615159927939 0 0.32322664815369628 -0.21667955276404699 0 0.33812795589104422 -0.22665263874176081 0 0.33151645751221542 -0.23471615159927939 0 0.32322664815369628 -0.21667955276404699 0 0.33812795589104422 -0.22665263874176081 0 0.34417142100768722 -0.21919827846122639 0 0.32322664815369628 -0.21667955276404699 0 0.33812795589104422 -0.22665263874176081 0 0.33812795589104422 -0.22665263874176081 0 0.34159611899635162 -0.23764083900489891 0 0.33151645751221542 -0.23471615159927939 0 0.34159611899635162 -0.23764083900489891 0 0.33151645751221542 -0.23471615159927939 0 0.33809750963604218 -0.2442276064058434 0 0.32702570909927398 -0.2441270670227802 0 0.33151645751221542 -0.23471615159927939 0 0.33809750963604218 -0.2442276064058434 0 0.32702570909927398 -0.2441270670227802 0 0.33809750963604218 -0.2442276064058434 0 0.33506298212903679 -0.25362145841571748 0 0.34159611899635162 -0.23764083900489891 0 0.33809750963604218 -0.2442276064058434 0 0.34720940831406399 -0.24598207355813639 0 0.33809750963604218 -0.2442276064058434 0 0.34720940831406399 -0.24598207355813639 0 0.34242086953849799 -0.25095729318476512 0 0.33809750963604218 -0.2442276064058434 0 0.33506298212903679 -0.25362145841571748 0 0.34242086953849799 -0.25095729318476512 0 0.34159611899635162 -0.23764083900489891 0 0.34720940831406399 -0.24598207355813639 0 0.35302926362839232 -0.2366257247194741 0 0.34720940831406399 -0.24598207355813639 0 0.35302926362839232 -0.2366257247194741 0 0.35617777833386288 -0.25204270139510482 0 0.35302926362839232 -0.2366257247194741 0 0.35617777833386288 -0.25204270139510482 0 0.35302926362839232 -0.2366257247194741 0 0.36621585238029158 -0.2454511906244452 0 0.35617777833386288 -0.25204270139510482 0 0.35827546511972669 -0.2168867099708755 0 0.34417142100768722 -0.21919827846122639 0 0.35114968554546477 -0.22742220681492631 0 0.33812795589104422 -0.22665263874176081 0 0.34417142100768722 -0.21919827846122639 0 0.35114968554546477 -0.22742220681492631 0 0.33812795589104422 -0.22665263874176081 0 0.34159611899635162 -0.23764083900489891 0 0.35302926362839232 -0.2366257247194741 0 0.33812795589104422 -0.22665263874176081 0 0.35302926362839232 -0.2366257247194741 0 0.35114968554546477 -0.22742220681492631 0 0.33812795589104422 -0.22665263874176081 0 0.35302926362839232 -0.2366257247194741 0 0.35302926362839232 -0.2366257247194741 0 0.35114968554546477 -0.22742220681492631 0 0.36210629525703691 -0.22871618779379249 0 0.35302926362839232 -0.2366257247194741 0 0.35114968554546477 -0.22742220681492631 0 0.35827546511972669 -0.2168867099708755 0 0.35114968554546477 -0.22742220681492631 0 0.36210629525703691 -0.22871618779379249 0 0.35827546511972669 -0.2168867099708755 0 0.36210629525703691 -0.22871618779379249 0 0.37601325401398228 -0.2238139734553066 0 0.36694884181548909 -0.23575080535912821 0 0.37533864190030852 -0.24135993357937349 0 0.37601325401398228 -0.2238139734553066 0 0.35302926362839232 -0.2366257247194741 0 0.36210629525703691 -0.22871618779379249 0 0.36694884181548909 -0.23575080535912821 0 0.36210629525703691 -0.22871618779379249 0 0.36694884181548909 -0.23575080535912821 0 0.37601325401398228 -0.2238139734553066 0 0.35302926362839232 -0.2366257247194741 0 0.36621585238029158 -0.2454511906244452 0 0.35302926362839232 -0.2366257247194741 0 0.36621585238029158 -0.2454511906244452 0 0.36694884181548909 -0.23575080535912821 0 0.36621585238029158 -0.2454511906244452 0 0.36694884181548909 -0.23575080535912821 0 0.37533864190030852 -0.24135993357937349 0 0.36621585238029158 -0.2454511906244452 0 0.37533864190030852 -0.24135993357937349 0 0.37532225099759159 -0.25128252167239618 0 0.37533864190030852 -0.24135993357937349 0 0.38450509607361122 -0.24667750058321619 0 0.37532225099759159 -0.25128252167239618 0 0.37533864190030852 -0.24135993357937349 0 0.38450509607361122 -0.24667750058321619 0 0.39135363995489508 -0.23082662085505051 0 0.38450509607361122 -0.24667750058321619 0 0.39930936754277507 -0.24529154068188619 0 0.39135363995489508 -0.23082662085505051 0 0.39135363995489508 -0.23082662085505051 0 0.399735009167412 -0.2164021648293947 0 0.4174171551130651 -0.22595619523639879 0 0.39930936754277507 -0.24529154068188619 0 0.39135363995489508 -0.23082662085505051 0 0.4174171551130651 -0.22595619523639879 0 0.39135363995489508 -0.23082662085505051 0 0.38884856452536332 -0.21626288660255091 0 0.399735009167412 -0.2164021648293947 0 0.39135363995489508 -0.23082662085505051 0 0.37601325401398228 -0.2238139734553066 0 0.38884856452536332 -0.21626288660255091 0 0.37533864190030852 -0.24135993357937349 0 0.37601325401398228 -0.2238139734553066 0 0.37533864190030852 -0.24135993357937349 0 0.39135363995489508 -0.23082662085505051 0 0.37601325401398228 -0.2238139734553066 0 0.37601325401398228 -0.2238139734553066 0 0.37668786612765898 -0.20626801333123981 0 0.37668786612765898 -0.20626801333123981 0 0.38884856452536332 -0.21626288660255091 0 0.39798789569667808 -0.2063493339566721 0 0.37601325401398228 -0.2238139734553066 0 0.37668786612765898 -0.20626801333123981 0 0.38884856452536332 -0.21626288660255091 0 0.37668786612765898 -0.20626801333123981 0 0.37692805250331091 -0.20002101526499841 0 0.37692805250331091 -0.20002101526499841 0 0.39984851675226479 -0.19291093280419369 0 0.38717162491775869 -0.18660953137953271 0 0.37668786612765898 -0.20626801333123981 0 0.39984851675226479 -0.19291093280419369 0 0.37668786612765898 -0.20626801333123981 0 0.37692805250331091 -0.20002101526499841 0 0.39984851675226479 -0.19291093280419369 0 0.37692805250331091 -0.20002101526499841 0 0.37788993817046679 -0.1750033685051201 0 0.37692805250331091 -0.20002101526499841 0 0.39984851675226479 -0.19291093280419369 0 0.37668786612765898 -0.20626801333123981 0 0.39984851675226479 -0.19291093280419369 0 0.39798789569667808 -0.2063493339566721 0 0.39984851675226479 -0.19291093280419369 0 0.38717162491775869 -0.18660953137953271 0 0.39620902522723073 -0.18366976921895131 0 0.39984851675226479 -0.19291093280419369 0 0.39798789569667808 -0.2063493339566721 0 0.40947640825701848 -0.1983640838013217 0 0.38884856452536332 -0.21626288660255091 0 0.39798789569667808 -0.2063493339566721 0 0.399735009167412 -0.2164021648293947 0 0.39798789569667808 -0.2063493339566721 0 0.399735009167412 -0.2164021648293947 0 0.41333100935035022 -0.20788792237132969 0 0.399735009167412 -0.2164021648293947 0 0.41333100935035022 -0.20788792237132969 0 0.4174171551130651 -0.22595619523639879 0 0.39798789569667808 -0.2063493339566721 0 0.41333100935035022 -0.20788792237132969 0 0.40947640825701848 -0.1983640838013217 0 0.39984851675226479 -0.19291093280419369 0 0.41385963515340718 -0.18856458946148469 0 0.41946346317382188 -0.18159871091833329 0 0.39984851675226479 -0.19291093280419369 0 0.41385963515340718 -0.18856458946148469 0 0.40947640825701848 -0.1983640838013217 0 0.39984851675226479 -0.19291093280419369 0 0.41385963515340718 -0.18856458946148469 0 0.41333100935035022 -0.20788792237132969 0 0.40947640825701848 -0.1983640838013217 0 0.41988982666620278 -0.19845331382783801 0 0.41385963515340718 -0.18856458946148469 0 0.42809378019246658 -0.19269899503368421 0 0.41946346317382188 -0.18159871091833329 0 0.41385963515340718 -0.18856458946148469 0 0.40947640825701848 -0.1983640838013217 0 0.41988982666620278 -0.19845331382783801 0 0.41385963515340718 -0.18856458946148469 0 0.41988982666620278 -0.19845331382783801 0 0.42809378019246658 -0.19269899503368421 0 0.41988982666620278 -0.19845331382783801 0 0.42809378019246658 -0.19269899503368421 0 0.43552494268335512 -0.2066208497909113 0 0.41333100935035022 -0.20788792237132969 0 0.43552494268335512 -0.2066208497909113 0 0.4174171551130651 -0.22595619523639879 0 0.41333100935035022 -0.20788792237132969 0 0.41988982666620278 -0.19845331382783801 0 0.43552494268335512 -0.2066208497909113 0 0.43552494268335512 -0.2066208497909113 0 0.4174171551130651 -0.22595619523639879 0 0.43552494268335512 -0.2066208497909113 0 0.43512081217072079 -0.22552657789835959 0 0.4174171551130651 -0.22595619523639879 0 0.43512081217072079 -0.22552657789835959 0 0.42919860290924639 -0.2397098199703217 0 0.44528474899110582 -0.23600237500128901 0 0.43512081217072079 -0.22552657789835959 0 0.42919860290924639 -0.2397098199703217 0 0.4174171551130651 -0.22595619523639879 0 0.42919860290924639 -0.2397098199703217 0 0.43547328551251452 -0.24962400388586431 0 0.44528474899110582 -0.23600237500128901 0 0.42919860290924639 -0.2397098199703217 0 0.43547328551251452 -0.24962400388586431 0 0.42708268127850191 -0.25697277062419649 0 0.42919860290924639 -0.2397098199703217 0 0.41616732995836248 -0.24587856466949179 0 0.42708268127850191 -0.25697277062419649 0 0.39930936754277507 -0.24529154068188619 0 0.4174171551130651 -0.22595619523639879 0 0.42919860290924639 -0.2397098199703217 0 0.41616732995836248 -0.24587856466949179 0 0.4174171551130651 -0.22595619523639879 0 0.39930936754277507 -0.24529154068188619 0 0.41616732995836248 -0.24587856466949179 0 0.4174171551130651 -0.22595619523639879 0 0.40491864636271441 -0.1158684379440905 0 0.39466519734998329 -0.1408519897105189 0 0.41333667711859989 -0.13334478407944969 0 0.39144902034010037 -0.12751016806044749 0 0.3892293410819499 -0.14318928311340581 0 0.39466519734998329 -0.1408519897105189 0 0.40491864636271441 -0.1158684379440905 0 0.39144902034010037 -0.12751016806044749 0 0.39466519734998329 -0.1408519897105189 0 0.40491864636271441 -0.1158684379440905 0 0.39466519734998329 -0.1408519897105189 0 0.37987158441525398 -0.1234628086985507 0 0.39144902034010037 -0.12751016806044749 0 0.37885182383762289 -0.14998572174524191 0 0.37987158441525398 -0.1234628086985507 0 0.37885182383762289 -0.14998572174524191 0 0.39144902034010037 -0.12751016806044749 0 0.37885182383762289 -0.14998572174524191 0 0.37987158441525398 -0.1234628086985507 0 0.37458874669765702 -0.13591843350203059 0 0.37885182383762289 -0.14998572174524191 0 0.39144902034010037 -0.12751016806044749 0 0.3892293410819499 -0.14318928311340581 0 0.37885182383762289 -0.14998572174524191 0 0.3737837947453817 -0.1590279526826078 0 0.37885182383762289 -0.14998572174524191 0 0.3892293410819499 -0.14318928311340581 0 0.37885182383762289 -0.14998572174524191 0 0.39195132280009293 -0.15440925293741489 0 0.37885182383762289 -0.14998572174524191 0 0.39195132280009293 -0.15440925293741489 0 0.38840564137393252 -0.16419707472637421 0 0.39466519734998329 -0.1408519897105189 0 0.40733608293561152 -0.15086006875927241 0 0.41333667711859989 -0.13334478407944969 0 0.39195132280009293 -0.15440925293741489 0 0.39466519734998329 -0.1408519897105189 0 0.40733608293561152 -0.15086006875927241 0 0.3892293410819499 -0.14318928311340581 0 0.39195132280009293 -0.15440925293741489 0 0.39466519734998329 -0.1408519897105189 0 0.39195132280009293 -0.15440925293741489 0 0.40163222821406053 -0.16616559543773171 0 0.40733608293561152 -0.15086006875927241 0 0.40163222821406053 -0.16616559543773171 0 0.38840564137393252 -0.16419707472637421 0 0.3917028938474193 -0.17542143500636251 0 0.39195132280009293 -0.15440925293741489 0 0.40163222821406053 -0.16616559543773171 0 0.38840564137393252 -0.16419707472637421 0 0.37885182383762289 -0.14998572174524191 0 0.37788993817046679 -0.1750033685051201 0 0.37885182383762289 -0.14998572174524191 0 0.38840564137393252 -0.16419707472637421 0 0.37788993817046679 -0.1750033685051201 0 0.3737837947453817 -0.1590279526826078 0 0.37885182383762289 -0.14998572174524191 0 0.37788993817046679 -0.1750033685051201 0 0.38840564137393252 -0.16419707472637421 0 0.37788993817046679 -0.1750033685051201 0 0.3917028938474193 -0.17542143500636251 0 0.37788993817046679 -0.1750033685051201 0 0.38717162491775869 -0.18660953137953271 0 0.3917028938474193 -0.17542143500636251 0 0.37692805250331091 -0.20002101526499841 0 0.37788993817046679 -0.1750033685051201 0 0.38717162491775869 -0.18660953137953271 0 0.38717162491775869 -0.18660953137953271 0 0.39620902522723073 -0.18366976921895131 0 0.3917028938474193 -0.17542143500636251 0 0.39620902522723073 -0.18366976921895131 0 0.3917028938474193 -0.17542143500636251 0 0.40497399785605392 -0.17913643227773421 0 0.40163222821406053 -0.16616559543773171 0 0.3917028938474193 -0.17542143500636251 0 0.40497399785605392 -0.17913643227773421 0 0.40163222821406053 -0.16616559543773171 0 0.40497399785605392 -0.17913643227773421 0 0.41185197991651917 -0.17292733495480031 0 0.39984851675226479 -0.19291093280419369 0 0.39620902522723073 -0.18366976921895131 0 0.40497399785605392 -0.17913643227773421 0 0.39984851675226479 -0.19291093280419369 0 0.41946346317382188 -0.18159871091833329 0 0.41185197991651917 -0.17292733495480031 0 0.41946346317382188 -0.18159871091833329 0 0.41886814669077438 -0.16398654280462999 0 0.39984851675226479 -0.19291093280419369 0 0.40497399785605392 -0.17913643227773421 0 0.41946346317382188 -0.18159871091833329 0 0.40497399785605392 -0.17913643227773421 0 0.41185197991651917 -0.17292733495480031 0 0.41946346317382188 -0.18159871091833329 0 0.41946346317382188 -0.18159871091833329 0 0.43907840959537853 -0.17028648903247229 0 0.41946346317382188 -0.18159871091833329 0 0.41886814669077438 -0.16398654280462999 0 0.43907840959537853 -0.17028648903247229 0 0.42809378019246658 -0.19269899503368421 0 0.41946346317382188 -0.18159871091833329 0 0.43907840959537853 -0.17028648903247229 0 0.43103074161382249 -0.1572943018564516 0 0.41886814669077438 -0.16398654280462999 0 0.43907840959537853 -0.17028648903247229 0 0.40163222821406053 -0.16616559543773171 0 0.41185197991651917 -0.17292733495480031 0 0.41886814669077438 -0.16398654280462999 0 0.40163222821406053 -0.16616559543773171 0 0.41886814669077438 -0.16398654280462999 0 0.40733608293561152 -0.15086006875927241 0 0.41886814669077438 -0.16398654280462999 0 0.40733608293561152 -0.15086006875927241 0 0.42356292544015789 -0.14640224758588941 0 0.40733608293561152 -0.15086006875927241 0 0.42356292544015789 -0.14640224758588941 0 0.41333667711859989 -0.13334478407944969 0 0.43103074161382249 -0.1572943018564516 0 0.41886814669077438 -0.16398654280462999 0 0.42356292544015789 -0.14640224758588941 0 0.43103074161382249 -0.1572943018564516 0 0.42356292544015789 -0.14640224758588941 0 0.44262787137945298 -0.14828068601755409 0 0.43315279959373831 -0.124308288026206 0 0.42356292544015789 -0.14640224758588941 0 0.44262787137945298 -0.14828068601755409 0 0.43315279959373831 -0.124308288026206 0 0.42356292544015789 -0.14640224758588941 0 0.41333667711859989 -0.13334478407944969 0 0.41847776586514829 -0.1205027145127768 0 0.43315279959373831 -0.124308288026206 0 0.41333667711859989 -0.13334478407944969 0 0.45427359165162989 -0.13221938313771769 0 0.46411597349628259 -0.14629375867290259 0 0.47603611405951729 -0.12930964176090359 0 0.43315279959373831 -0.124308288026206 0 0.45427359165162989 -0.13221938313771769 0 0.44262787137945298 -0.14828068601755409 0 0.46411597349628259 -0.14629375867290259 0 0.45604423269131877 -0.16322291755755189 0 0.47995493810739909 -0.15761725220145309 0 0.44262787137945298 -0.14828068601755409 0 0.46411597349628259 -0.14629375867290259 0 0.45604423269131877 -0.16322291755755189 0 0.45427359165162989 -0.13221938313771769 0 0.44262787137945298 -0.14828068601755409 0 0.46411597349628259 -0.14629375867290259 0 0.45604423269131877 -0.16322291755755189 0 0.46877415295813479 -0.17680113935894581 0 0.47995493810739909 -0.15761725220145309 0 0.44262787137945298 -0.14828068601755409 0 0.45604423269131877 -0.16322291755755189 0 0.43907840959537853 -0.17028648903247229 0 0.43103074161382249 -0.1572943018564516 0 0.44262787137945298 -0.14828068601755409 0 0.43907840959537853 -0.17028648903247229 0 0.42809378019246658 -0.19269899503368421 0 0.43907840959537853 -0.17028648903247229 0 0.44924203265644908 -0.19032266237949591 0 0.45604423269131877 -0.16322291755755189 0 0.43907840959537853 -0.17028648903247229 0 0.44924203265644908 -0.19032266237949591 0 0.45604423269131877 -0.16322291755755189 0 0.46877415295813479 -0.17680113935894581 0 0.44924203265644908 -0.19032266237949591 0 0.46877415295813479 -0.17680113935894581 0 0.5 -0.1738651304186444 0 0.48307538123153621 -0.19093370686397579 0 0.5 -0.1738651304186444 0 0.47995493810739909 -0.15761725220145309 0 0.5 -0.14594243613931451 0 0.46877415295813479 -0.17680113935894581 0 0.5 -0.1738651304186444 0 0.47995493810739909 -0.15761725220145309 0 0.46411597349628259 -0.14629375867290259 0 0.47995493810739909 -0.15761725220145309 0 0.47603611405951729 -0.12930964176090359 0 0.47995493810739909 -0.15761725220145309 0 0.5 -0.14594243613931451 0 0.47603611405951729 -0.12930964176090359 0 0.5 -0.1180197418599844 0 0.5 -0.14594243613931451 0 0.47603611405951729 -0.12930964176090359 0 0.4607844789887463 -0.22788977033970431 0 0.46073709981851979 -0.2431110998228605 0 0.4785857312653492 -0.2338805474587452 0 0.46073709981851979 -0.2431110998228605 0 0.47373465420013222 -0.25025663156921529 0 0.46446663866289689 -0.2527212442855033 0 0.46073709981851979 -0.2431110998228605 0 0.45562018308822588 -0.2529973946209309 0 0.44641350419548131 -0.25179615193678079 0 0.46073709981851979 -0.2431110998228605 0 0.46446663866289689 -0.2527212442855033 0 0.45562018308822588 -0.2529973946209309 0 0.4607844789887463 -0.22788977033970431 0 0.46073709981851979 -0.2431110998228605 0 0.44528474899110582 -0.23600237500128901 0 0.46073709981851979 -0.2431110998228605 0 0.44528474899110582 -0.23600237500128901 0 0.44641350419548131 -0.25179615193678079 0 0.43547328551251452 -0.24962400388586431 0 0.44528474899110582 -0.23600237500128901 0 0.44641350419548131 -0.25179615193678079 0 0.43512081217072079 -0.22552657789835959 0 0.44528474899110582 -0.23600237500128901 0 0.4495155365337169 -0.21557890255541831 0 0.4607844789887463 -0.22788977033970431 0 0.44528474899110582 -0.23600237500128901 0 0.4495155365337169 -0.21557890255541831 0 0.43552494268335512 -0.2066208497909113 0 0.43512081217072079 -0.22552657789835959 0 0.4495155365337169 -0.21557890255541831 0 0.43552494268335512 -0.2066208497909113 0 0.4495155365337169 -0.21557890255541831 0 0.44924203265644908 -0.19032266237949591 0 0.42809378019246658 -0.19269899503368421 0 0.43552494268335512 -0.2066208497909113 0 0.44924203265644908 -0.19032266237949591 0 0.46877415295813479 -0.17680113935894581 0 0.44924203265644908 -0.19032266237949591 0 0.47113620371192427 -0.20711117992274949 0 0.4607844789887463 -0.22788977033970431 0 0.4495155365337169 -0.21557890255541831 0 0.47113620371192427 -0.20711117992274949 0 0.4495155365337169 -0.21557890255541831 0 0.44924203265644908 -0.19032266237949591 0 0.47113620371192427 -0.20711117992274949 0 0.47113620371192427 -0.20711117992274949 0 0.48307538123153621 -0.19093370686397579 0 0.48646370349822821 -0.2172669901851503 0 0.46877415295813479 -0.17680113935894581 0 0.47113620371192427 -0.20711117992274949 0 0.48307538123153621 -0.19093370686397579 0 0.5 -0.1738651304186444 0 0.48307538123153621 -0.19093370686397579 0 0.5 -0.20178782469797429 0 0.48307538123153621 -0.19093370686397579 0 0.5 -0.20178782469797429 0 0.48646370349822821 -0.2172669901851503 0 0.5 -0.20178782469797429 0 0.48646370349822821 -0.2172669901851503 0 0.5 -0.2297105189773043 0 0.48646370349822821 -0.2172669901851503 0 0.5 -0.2297105189773043 0 0.4785857312653492 -0.2338805474587452 0 0.4607844789887463 -0.22788977033970431 0 0.47113620371192427 -0.20711117992274949 0 0.4785857312653492 -0.2338805474587452 0 0.47113620371192427 -0.20711117992274949 0 0.4785857312653492 -0.2338805474587452 0 0.47113620371192427 -0.20711117992274949 0 0.48646370349822821 -0.2172669901851503 0 0.4785857312653492 -0.2338805474587452 0 0.46073709981851979 -0.2431110998228605 0 0.4785857312653492 -0.2338805474587452 0 0.47373465420013222 -0.25025663156921529 0 0.4785857312653492 -0.2338805474587452 0 0.48603525881877419 -0.26064991499474088 0 0.47373465420013222 -0.25025663156921529 0 0.4785857312653492 -0.2338805474587452 0 0.48603525881877419 -0.26064991499474088 0 0.5 -0.2297105189773043 0 0.4785857312653492 -0.2338805474587452 0 0.49058470356909473 -0.2453017632613779 0 0.5 -0.2297105189773043 0 0.49058470356909473 -0.2453017632613779 0 0.49999999999999839 -0.25763321325663419 0 0.4785857312653492 -0.2338805474587452 0 0.49058470356909473 -0.2453017632613779 0 0.48603525881877419 -0.26064991499474088 0 0.49058470356909473 -0.2453017632613779 0 0.49999999999999839 -0.25763321325663419 0 0.48603525881877419 -0.26064991499474088 0 0.49999999999999839 -0.25763321325663419 0 0.48603525881877419 -0.26064991499474088 0 0.5 -0.27680493549477542 0 0.49999999999999839 -0.25763321325663419 0 0.48603525881877419 -0.26064991499474088 0 0.48603525881877419 -0.26064991499474088 0 0.47769121299183798 -0.28543800814256748 0 0.49323799806346258 -0.28653246562956058 0 0.48603525881877419 -0.26064991499474088 0 0.49323799806346258 -0.28653246562956058 0 0.48603525881877419 -0.26064991499474088 0 0.5 -0.27680493549477542 0 0.49323799806346258 -0.28653246562956058 0 0.48603525881877419 -0.26064991499474088 0 0.46519938460305982 -0.26515093775956178 0 0.47769121299183798 -0.28543800814256748 0 0.46519938460305982 -0.26515093775956178 0 0.47769121299183798 -0.28543800814256748 0 0.48603525881877419 -0.26064991499474088 0 0.47373465420013222 -0.25025663156921529 0 0.47032412425986603 -0.25742062558653389 0 0.48603525881877419 -0.26064991499474088 0 0.46519938460305982 -0.26515093775956178 0 0.48603525881877419 -0.26064991499474088 0 0.47032412425986603 -0.25742062558653389 0 0.46519938460305982 -0.26515093775956178 0 0.47373465420013222 -0.25025663156921529 0 0.47032412425986603 -0.25742062558653389 0 0.46446663866289689 -0.2527212442855033 0 0.47032412425986603 -0.25742062558653389 0 0.46446663866289689 -0.2527212442855033 0 0.46191713194774059 -0.25982046982797591 0 0.46191713194774059 -0.25982046982797591 0 0.46519938460305982 -0.26515093775956178 0 0.44621421501908698 -0.26925216622767029 0 0.45562018308822588 -0.2529973946209309 0 0.46191713194774059 -0.25982046982797591 0 0.44621421501908698 -0.26925216622767029 0 0.46446663866289689 -0.2527212442855033 0 0.45562018308822588 -0.2529973946209309 0 0.46191713194774059 -0.25982046982797591 0 0.47032412425986603 -0.25742062558653389 0 0.46191713194774059 -0.25982046982797591 0 0.46519938460305982 -0.26515093775956178 0 0.46191713194774059 -0.25982046982797591 0 0.46519938460305982 -0.26515093775956178 0 0.46519938460305982 -0.26515093775956178 0 0.44621421501908698 -0.26925216622767029 0 0.46519938460305982 -0.26515093775956178 0 0.44621421501908698 -0.26925216622767029 0 0.45529075222613241 -0.28496006599745782 0 0.46519938460305982 -0.26515093775956178 0 0.45529075222613241 -0.28496006599745782 0 0.47769121299183798 -0.28543800814256748 0 0.44621421501908698 -0.26925216622767029 0 0.43893507104377832 -0.27952136470577738 0 0.45529075222613241 -0.28496006599745782 0 0.45562018308822588 -0.2529973946209309 0 0.44621421501908698 -0.26925216622767029 0 0.44641350419548131 -0.25179615193678079 0 0.44621421501908698 -0.26925216622767029 0 0.44641350419548131 -0.25179615193678079 0 0.43662162787367198 -0.26315425492870731 0 0.43547328551251452 -0.24962400388586431 0 0.44641350419548131 -0.25179615193678079 0 0.43662162787367198 -0.26315425492870731 0 0.44986225909353172 -0.30175297462016859 0 0.46110099171429458 -0.31486445669900581 0 0.43739122693625032 -0.31866905699064041 0 0.44986225909353172 -0.30175297462016859 0 0.43739122693625032 -0.31866905699064041 0 0.43330641794773628 -0.3005817412271341 0 0.44986225909353172 -0.30175297462016859 0 0.44103439948217188 -0.29035898174239338 0 0.43330641794773628 -0.3005817412271341 0 0.44986225909353172 -0.30175297462016859 0 0.44103439948217188 -0.29035898174239338 0 0.45529075222613241 -0.28496006599745782 0 0.43893507104377832 -0.27952136470577738 0 0.44103439948217188 -0.29035898174239338 0 0.45529075222613241 -0.28496006599745782 0 0.44986225909353172 -0.30175297462016859 0 0.45529075222613241 -0.28496006599745782 0 0.4710497662546051 -0.30108354506438018 0 0.45529075222613241 -0.28496006599745782 0 0.4710497662546051 -0.30108354506438018 0 0.47769121299183798 -0.28543800814256748 0 0.44986225909353172 -0.30175297462016859 0 0.4710497662546051 -0.30108354506438018 0 0.46110099171429458 -0.31486445669900581 0 0.4710497662546051 -0.30108354506438018 0 0.47769121299183798 -0.28543800814256748 0 0.4901830413806163 -0.30572507852557318 0 0.4710497662546051 -0.30108354506438018 0 0.4901830413806163 -0.30572507852557318 0 0.48481075649233779 -0.31105985640736461 0 0.4710497662546051 -0.30108354506438018 0 0.48481075649233779 -0.31105985640736461 0 0.46110099171429458 -0.31486445669900581 0 0.47769121299183798 -0.28543800814256748 0 0.4901830413806163 -0.30572507852557318 0 0.49323799806346258 -0.28653246562956058 0 0.49999999999998818 -0.29597665773291648 0 0.4901830413806163 -0.30572507852557318 0 0.5 -0.27680493549477542 0 0.49323799806346258 -0.28653246562956058 0 0.49999999999998818 -0.29597665773291648 0 0.47769121299183798 -0.28543800814256748 0 0.49323799806346258 -0.28653246562956058 0 0.4901830413806163 -0.30572507852557318 0 0.48481075649233779 -0.31105985640736461 0 0.49268947410349978 -0.309795593703725 0 0.4901830413806163 -0.30572507852557318 0 0.48481075649233779 -0.31105985640736461 0 0.49268947410349978 -0.309795593703725 0 0.4901830413806163 -0.30572507852557318 0 0.49268947410349978 -0.309795593703725 0 0.4901830413806163 -0.30572507852557318 0 0.48481075649233779 -0.31105985640736461 0 0.49999999999998818 -0.29597665773291648 0 0.4901830413806163 -0.30572507852557318 0 0.49999999999998818 -0.29597665773291648 0 0.4901830413806163 -0.30572507852557318 0 0.5 -0.3086225061923884 0 0.4901830413806163 -0.30572507852557318 0 0.49268947410349978 -0.309795593703725 0 0.5 -0.3086225061923884 0 0.49268947410349978 -0.309795593703725 0 0.5 -0.3086225061923884 0 0.49268947410349978 -0.309795593703725 0 0.5 -0.3086225061923884 0 0.50000000000000044 -0.32166808736785019 0 0.49268947410349978 -0.309795593703725 0 0.50000000000000044 -0.32166808736785019 0 0.48481075649233779 -0.31105985640736461 0 0.49268947410349978 -0.309795593703725 0 0.50000000000000044 -0.32166808736785019 0 0.50000000000000044 -0.32166808736785019 0 0.5 -0.3867312674581207 0 0.49559254170536882 -0.37969125291588768 0 0.48481075649233779 -0.31105985640736461 0 0.50000000000000044 -0.32166808736785019 0 0.48282181580224293 -0.33008605846113831 0 0.50000000000000044 -0.32166808736785019 0 0.48282181580224293 -0.33008605846113831 0 0.48744568617963202 -0.35064790876004592 0 0.48282181580224293 -0.33008605846113831 0 0.48744568617963202 -0.35064790876004592 0 0.46378214627925002 -0.33194165381430868 0 0.48481075649233779 -0.31105985640736461 0 0.46110099171429458 -0.31486445669900581 0 0.48481075649233779 -0.31105985640736461 0 0.46378214627925002 -0.33194165381430868 0 0.48481075649233779 -0.31105985640736461 0 0.46110099171429458 -0.31486445669900581 0 0.46378214627925002 -0.33194165381430868 0 0.48481075649233779 -0.31105985640736461 0 0.48282181580224293 -0.33008605846113831 0 0.46378214627925002 -0.33194165381430868 0 0.50000000000000044 -0.32166808736785019 0 0.48744568617963202 -0.35064790876004592 0 0.49559254170536882 -0.37969125291588768 0 0.48744568617963202 -0.35064790876004592 0 0.48311764063966628 -0.37023201212075368 0 0.49559254170536882 -0.37969125291588768 0 0.48744568617963202 -0.35064790876004592 0 0.46767295289646549 -0.35514871758635719 0 0.46378214627925002 -0.33194165381430868 0 0.48744568617963202 -0.35064790876004592 0 0.47440685583236658 -0.36479240340857128 0 0.46767295289646549 -0.35514871758635719 0 0.48744568617963202 -0.35064790876004592 0 0.47440685583236658 -0.36479240340857128 0 0.48311764063966628 -0.37023201212075368 0 0.47440685583236658 -0.36479240340857128 0 0.45998875945344009 -0.37037944019214991 0 0.47380923999262908 -0.37755393838354973 0 0.47440685583236658 -0.36479240340857128 0 0.48311764063966628 -0.37023201212075368 0 0.47380923999262908 -0.37755393838354973 0 0.47440685583236658 -0.36479240340857128 0 0.45998875945344009 -0.37037944019214991 0 0.46767295289646549 -0.35514871758635719 0 0.45998875945344009 -0.37037944019214991 0 0.45580612142797827 -0.35483409381445979 0 0.46767295289646549 -0.35514871758635719 0 0.45998875945344009 -0.37037944019214991 0 0.45580612142797827 -0.35483409381445979 0 0.44483321244457008 -0.36387720625822612 0 0.45580612142797827 -0.35483409381445979 0 0.44275353606616569 -0.35282345122125691 0 0.46378214627925002 -0.33194165381430868 0 0.45580612142797827 -0.35483409381445979 0 0.46767295289646549 -0.35514871758635719 0 0.46378214627925002 -0.33194165381430868 0 0.45580612142797827 -0.35483409381445979 0 0.44275353606616569 -0.35282345122125691 0 0.44483321244457008 -0.36387720625822612 0 0.45998875945344009 -0.37037944019214991 0 0.44483321244457008 -0.36387720625822612 0 0.44917586664231618 -0.38491815547357322 0 0.44483321244457008 -0.36387720625822612 0 0.44917586664231618 -0.38491815547357322 0 0.46110099171429458 -0.31486445669900581 0 0.46378214627925002 -0.33194165381430868 0 0.45011986469050058 -0.32537864738979699 0 0.44275353606616569 -0.35282345122125691 0 0.46378214627925002 -0.33194165381430868 0 0.44275353606616569 -0.35282345122125691 0 0.46378214627925002 -0.33194165381430868 0 0.43820509383220768 -0.33603942205523352 0 0.46378214627925002 -0.33194165381430868 0 0.43820509383220768 -0.33603942205523352 0 0.45011986469050058 -0.32537864738979699 0 0.46110099171429458 -0.31486445669900581 0 0.45011986469050058 -0.32537864738979699 0 0.43739122693625032 -0.31866905699064041 0 0.43820509383220768 -0.33603942205523352 0 0.45011986469050058 -0.32537864738979699 0 0.43739122693625032 -0.31866905699064041 0 0.46110099171429458 -0.31486445669900581 0 0.43739122693625032 -0.31866905699064041 0 0.43739122693625032 -0.31866905699064041 0 0.413681462158206 -0.32247365728227462 0 0.42569512876219379 -0.30890019183423489 0 0.43739122693625032 -0.31866905699064041 0 0.413681462158206 -0.32247365728227462 0 0.43739122693625032 -0.31866905699064041 0 0.42157550466888799 -0.33095525781115392 0 0.413681462158206 -0.32247365728227462 0 0.43820509383220768 -0.33603942205523352 0 0.42157550466888799 -0.33095525781115392 0 0.42080747017244913 -0.3417439963041019 0 0.43820509383220768 -0.33603942205523352 0 0.42080747017244913 -0.3417439963041019 0 0.42572475593124559 -0.35247487046390957 0 0.43820509383220768 -0.33603942205523352 0 0.43739122693625032 -0.31866905699064041 0 0.42157550466888799 -0.33095525781115392 0 0.40969076540651411 -0.34062491433969272 0 0.41299118618344649 -0.32561330367437608 0 0.40526679723497139 -0.32382392106265018 0 0.42157550466888799 -0.33095525781115392 0 0.40969076540651411 -0.34062491433969272 0 0.41299118618344649 -0.32561330367437608 0 0.42157550466888799 -0.33095525781115392 0 0.41299118618344649 -0.32561330367437608 0 0.42157550466888799 -0.33095525781115392 0 0.42080747017244913 -0.3417439963041019 0 0.40969076540651411 -0.34062491433969272 0 0.40969076540651411 -0.34062491433969272 0 0.41299118618344649 -0.32561330367437608 0 0.413681462158206 -0.32247365728227462 0 0.40598484327284901 -0.32125331137464719 0 0.41308358160480507 -0.29583977997665811 0 0.41299118618344649 -0.32561330367437608 0 0.40912168627425671 -0.32320534419778002 0 0.413681462158206 -0.32247365728227462 0 0.40912168627425671 -0.32320534419778002 0 0.41299118618344649 -0.32561330367437608 0 0.413681462158206 -0.32247365728227462 0 0.40912168627425671 -0.32320534419778002 0 0.41299118618344649 -0.32561330367437608 0 0.413681462158206 -0.32247365728227462 0 0.41299118618344649 -0.32561330367437608 0 0.40912168627425671 -0.32320534419778002 0 0.40526679723497139 -0.32382392106265018 0 0.413681462158206 -0.32247365728227462 0 0.40912168627425671 -0.32320534419778002 0 0.40598484327284901 -0.32125331137464719 0 0.40912168627425671 -0.32320534419778002 0 0.40526679723497139 -0.32382392106265018 0 0.40912168627425671 -0.32320534419778002 0 0.40598484327284901 -0.32125331137464719 0 0.40526679723497139 -0.32382392106265018 0 0.40912168627425671 -0.32320534419778002 0 0.40598484327284901 -0.32125331137464719 0 0.42157550466888799 -0.33095525781115392 0 0.41299118618344649 -0.32561330367437608 0 0.413681462158206 -0.32247365728227462 0 0.44275353606616569 -0.35282345122125691 0 0.44483321244457008 -0.36387720625822612 0 0.42172492585308152 -0.37370524862820509 0 0.44275353606616569 -0.35282345122125691 0 0.42572475593124559 -0.35247487046390957 0 0.42172492585308152 -0.37370524862820509 0 0.44275353606616569 -0.35282345122125691 0 0.42172492585308152 -0.37370524862820509 0 0.44483321244457008 -0.36387720625822612 0 0.42172492585308152 -0.37370524862820509 0 0.43649100581628442 -0.37935722965630408 0 0.44275353606616569 -0.35282345122125691 0 0.43820509383220768 -0.33603942205523352 0 0.42572475593124559 -0.35247487046390957 0 0.42080747017244913 -0.3417439963041019 0 0.42572475593124559 -0.35247487046390957 0 0.41592263617749409 -0.35031706364098109 0 0.42080747017244913 -0.3417439963041019 0 0.40969076540651411 -0.34062491433969272 0 0.41592263617749409 -0.35031706364098109 0 0.40969076540651411 -0.34062491433969272 0 0.41592263617749409 -0.35031706364098109 0 0.40639034462958168 -0.3556365250050092 0 0.40969076540651411 -0.34062491433969272 0 0.40639034462958168 -0.3556365250050092 0 0.41592263617749409 -0.35031706364098109 0 0.40639034462958168 -0.3556365250050092 0 0.41542676787307448 -0.3600796117944548 0 0.42572475593124559 -0.35247487046390957 0 0.41592263617749409 -0.35031706364098109 0 0.41542676787307448 -0.3600796117944548 0 0.42572475593124559 -0.35247487046390957 0 0.41542676787307448 -0.3600796117944548 0 0.42172492585308152 -0.37370524862820509 0 0.40737117677397022 -0.36826435123416912 0 0.42172492585308152 -0.37370524862820509 0 0.40166542959538232 -0.37975212819942761 0 0.40639034462958168 -0.3556365250050092 0 0.41542676787307448 -0.3600796117944548 0 0.40737117677397022 -0.36826435123416912 0 0.41542676787307448 -0.3600796117944548 0 0.40737117677397022 -0.36826435123416912 0 0.42172492585308152 -0.37370524862820509 0 0.40737117677397022 -0.36826435123416912 0 0.39246725133093951 -0.36964638225237439 0 0.40166542959538232 -0.37975212819942761 0 0.40639034462958168 -0.3556365250050092 0 0.40737117677397022 -0.36826435123416912 0 0.39246725133093951 -0.36964638225237439 0 0.40639034462958168 -0.3556365250050092 0 0.39246725133093951 -0.36964638225237439 0 0.39886702428295601 -0.34673515165751251 0 0.39246725133093951 -0.36964638225237439 0 0.39886702428295601 -0.34673515165751251 0 0.39246725133093951 -0.36964638225237439 0 0.39886702428295601 -0.34673515165751251 0 0.38065264769778451 -0.35600786877680118 0 0.40969076540651411 -0.34062491433969272 0 0.40639034462958168 -0.3556365250050092 0 0.39886702428295601 -0.34673515165751251 0 0.38065264769778451 -0.35600786877680118 0 0.38757546050882419 -0.33974128654602359 0 0.37489513448604722 -0.34369386717379802 0 0.39886702428295601 -0.34673515165751251 0 0.38065264769778451 -0.35600786877680118 0 0.38757546050882419 -0.33974128654602359 0 0.39246725133093951 -0.36964638225237439 0 0.38065264769778451 -0.35600786877680118 0 0.36962124500067473 -0.37726096341001919 0 0.40598484327284901 -0.32125331137464719 0 0.40526679723497139 -0.32382392106265018 0 0.3885982503714665 -0.32649864849464377 0 0.40526679723497139 -0.32382392106265018 0 0.3885982503714665 -0.32649864849464377 0 0.40598484327284901 -0.32125331137464719 0 0.38555176309506117 -0.30853796566980568 0 0.40598484327284901 -0.32125331137464719 0 0.3885982503714665 -0.32649864849464377 0 0.38555176309506117 -0.30853796566980568 0 0.40598484327284901 -0.32125331137464719 0 0.40526679723497139 -0.32382392106265018 0 0.40969076540651411 -0.34062491433969272 0 0.39886702428295601 -0.34673515165751251 0 0.40526679723497139 -0.32382392106265018 0 0.40526679723497139 -0.32382392106265018 0 0.38757546050882419 -0.33974128654602359 0 0.3885982503714665 -0.32649864849464377 0 0.39886702428295601 -0.34673515165751251 0 0.40526679723497139 -0.32382392106265018 0 0.39886702428295601 -0.34673515165751251 0 0.40526679723497139 -0.32382392106265018 0 0.38757546050882419 -0.33974128654602359 0 0.38757546050882419 -0.33974128654602359 0 0.3885982503714665 -0.32649864849464377 0 0.37192970350796201 -0.32917337592663881 0 0.38757546050882419 -0.33974128654602359 0 0.37192970350796201 -0.32917337592663881 0 0.37489513448604722 -0.34369386717379802 0 0.3885982503714665 -0.32649864849464377 0 0.37192970350796201 -0.32917337592663881 0 0.3885982503714665 -0.32649864849464377 0 0.3786509775467769 -0.31917699700922242 0 0.38555176309506117 -0.30853796566980568 0 0.3885982503714665 -0.32649864849464377 0 0.3786509775467769 -0.31917699700922242 0 0.37192970350796201 -0.32917337592663881 0 0.3786509775467769 -0.31917699700922242 0 0.38555176309506117 -0.30853796566980568 0 0.36852419321261798 -0.31249799794580152 0 0.38555176309506117 -0.30853796566980568 0 0.37985785184458382 -0.2875958442705161 0 0.36511868291727351 -0.2958226199649644 0 0.38555176309506117 -0.30853796566980568 0 0.36511868291727351 -0.2958226199649644 0 0.38555176309506117 -0.30853796566980568 0 0.40380181855410258 -0.30694532136856589 0 0.39650799293572048 -0.29444395013236158 0 0.40598484327284901 -0.32125331137464719 0 0.38555176309506117 -0.30853796566980568 0 0.40380181855410258 -0.30694532136856589 0 0.40474393056083813 -0.29726206293151219 0 0.40380181855410258 -0.30694532136856589 0 0.39650799293572048 -0.29444395013236158 0 0.40376867845597508 -0.28266050657842212 0 0.39650799293572048 -0.29444395013236158 0 0.39176720250351421 -0.27574394847657768 0 0.40376867845597508 -0.28266050657842212 0 0.40558232914872427 -0.29181920024846347 0 0.39650799293572048 -0.29444395013236158 0 0.40474393056083813 -0.29726206293151219 0 0.40558232914872427 -0.29181920024846347 0 0.39650799293572048 -0.29444395013236158 0 0.39650799293572048 -0.29444395013236158 0 0.37985785184458382 -0.2875958442705161 0 0.39176720250351421 -0.27574394847657768 0 0.38555176309506117 -0.30853796566980568 0 0.39650799293572048 -0.29444395013236158 0 0.37985785184458382 -0.2875958442705161 0 0.37985785184458382 -0.2875958442705161 0 0.37862455607166101 -0.26737861088393527 0 0.39176720250351421 -0.27574394847657768 0 0.37862455607166101 -0.26737861088393527 0 0.38120157997248572 -0.26462688612737401 0 0.38450509607361122 -0.24667750058321619 0 0.37532225099759159 -0.25128252167239618 0 0.38120157997248572 -0.26462688612737401 0 0.37862455607166101 -0.26737861088393527 0 0.38120157997248572 -0.26462688612737401 0 0.40699111879957889 -0.26128720889088253 0 0.38450509607361122 -0.24667750058321619 0 0.39930936754277507 -0.24529154068188619 0 0.38120157997248572 -0.26462688612737401 0 0.39930936754277507 -0.24529154068188619 0 0.38120157997248572 -0.26462688612737401 0 0.38120157997248572 -0.26462688612737401 0 0.40699111879957889 -0.26128720889088253 0 0.39930936754277507 -0.24529154068188619 0 0.38120157997248572 -0.26462688612737401 0 0.40699111879957889 -0.26128720889088253 0 0.37862455607166101 -0.26737861088393527 0 0.40699111879957889 -0.26128720889088253 0 0.37862455607166101 -0.26737861088393527 0 0.39176720250351421 -0.27574394847657768 0 0.40699111879957889 -0.26128720889088253 0 0.39176720250351421 -0.27574394847657768 0 0.4051543152007584 -0.27239345678447718 0 0.40699111879957889 -0.26128720889088253 0 0.40376867845597508 -0.28266050657842212 0 0.39176720250351421 -0.27574394847657768 0 0.4051543152007584 -0.27239345678447718 0 0.41097421234147768 -0.27556516144908227 0 0.42018231993676269 -0.27042624857866948 0 0.4106067054949013 -0.28338295756307352 0 0.40376867845597508 -0.28266050657842212 0 0.4051543152007584 -0.27239345678447718 0 0.41097421234147768 -0.27556516144908227 0 0.40376867845597508 -0.28266050657842212 0 0.41097421234147768 -0.27556516144908227 0 0.4106067054949013 -0.28338295756307352 0 0.4051543152007584 -0.27239345678447718 0 0.41346108381967772 -0.26737298941853499 0 0.40699111879957889 -0.26128720889088253 0 0.4051543152007584 -0.27239345678447718 0 0.41097421234147768 -0.27556516144908227 0 0.41346108381967772 -0.26737298941853499 0 0.41097421234147768 -0.27556516144908227 0 0.41346108381967772 -0.26737298941853499 0 0.42018231993676269 -0.27042624857866948 0 0.41346108381967772 -0.26737298941853499 0 0.42018231993676269 -0.27042624857866948 0 0.42026352424475411 -0.26438540871958788 0 0.39930936754277507 -0.24529154068188619 0 0.41616732995836248 -0.24587856466949179 0 0.40699111879957889 -0.26128720889088253 0 0.41616732995836248 -0.24587856466949179 0 0.41393154640861152 -0.25979682970832829 0 0.40699111879957889 -0.26128720889088253 0 0.41393154640861152 -0.25979682970832829 0 0.40699111879957889 -0.26128720889088253 0 0.41346108381967772 -0.26737298941853499 0 0.41393154640861152 -0.25979682970832829 0 0.40699111879957889 -0.26128720889088253 0 0.41393154640861152 -0.25979682970832829 0 0.42708268127850191 -0.25697277062419649 0 0.41393154640861152 -0.25979682970832829 0 0.42026352424475411 -0.26438540871958788 0 0.42708268127850191 -0.25697277062419649 0 0.41346108381967772 -0.26737298941853499 0 0.41393154640861152 -0.25979682970832829 0 0.42026352424475411 -0.26438540871958788 0 0.41616732995836248 -0.24587856466949179 0 0.41393154640861152 -0.25979682970832829 0 0.42708268127850191 -0.25697277062419649 0 0.42026352424475411 -0.26438540871958788 0 0.42708268127850191 -0.25697277062419649 0 0.42589593069778642 -0.26691745442429621 0 0.42708268127850191 -0.25697277062419649 0 0.43662162787367198 -0.26315425492870731 0 0.42589593069778642 -0.26691745442429621 0 0.43547328551251452 -0.24962400388586431 0 0.42708268127850191 -0.25697277062419649 0 0.43662162787367198 -0.26315425492870731 0 0.42722904543511447 -0.27335339469577979 0 0.42589593069778642 -0.26691745442429621 0 0.41978869642799621 -0.29469555585328538 0 0.44621421501908698 -0.26925216622767029 0 0.43662162787367198 -0.26315425492870731 0 0.42722904543511447 -0.27335339469577979 0 0.44621421501908698 -0.26925216622767029 0 0.43893507104377832 -0.27952136470577738 0 0.42722904543511447 -0.27335339469577979 0 0.44621421501908698 -0.26925216622767029 0 0.42722904543511447 -0.27335339469577979 0 0.42589593069778642 -0.26691745442429621 0 0.41978869642799621 -0.29469555585328538 0 0.42018231993676269 -0.27042624857866948 0 0.42589593069778642 -0.26691745442429621 0 0.41978869642799621 -0.29469555585328538 0 0.42018231993676269 -0.27042624857866948 0 0.42026352424475411 -0.26438540871958788 0 0.42589593069778642 -0.26691745442429621 0 0.43662162787367198 -0.26315425492870731 0 0.42722904543511447 -0.27335339469577979 0 0.42589593069778642 -0.26691745442429621 0 0.43893507104377832 -0.27952136470577738 0 0.42722904543511447 -0.27335339469577979 0 0.4320587260673594 -0.28770220764487398 0 0.43893507104377832 -0.27952136470577738 0 0.44103439948217188 -0.29035898174239338 0 0.4320587260673594 -0.28770220764487398 0 0.42722904543511447 -0.27335339469577979 0 0.4320587260673594 -0.28770220764487398 0 0.41978869642799621 -0.29469555585328538 0 0.4320587260673594 -0.28770220764487398 0 0.43330641794773628 -0.3005817412271341 0 0.41978869642799621 -0.29469555585328538 0 0.44103439948217188 -0.29035898174239338 0 0.4320587260673594 -0.28770220764487398 0 0.43330641794773628 -0.3005817412271341 0 0.43739122693625032 -0.31866905699064041 0 0.43330641794773628 -0.3005817412271341 0 0.42569512876219379 -0.30890019183423489 0 0.43330641794773628 -0.3005817412271341 0 0.42569512876219379 -0.30890019183423489 0 0.41978869642799621 -0.29469555585328538 0 0.40598484327284901 -0.32125331137464719 0 0.41308358160480507 -0.29583977997665811 0 0.413681462158206 -0.32247365728227462 0 0.41978869642799621 -0.29469555585328538 0 0.413681462158206 -0.32247365728227462 0 0.42569512876219379 -0.30890019183423489 0 0.41978869642799621 -0.29469555585328538 0 0.40598484327284901 -0.32125331137464719 0 0.40380181855410258 -0.30694532136856589 0 0.41308358160480507 -0.29583977997665811 0 0.413681462158206 -0.32247365728227462 0 0.41308358160480507 -0.29583977997665811 0 0.41978869642799621 -0.29469555585328538 0 0.40474393056083813 -0.29726206293151219 0 0.40380181855410258 -0.30694532136856589 0 0.41308358160480507 -0.29583977997665811 0 0.40558232914872427 -0.29181920024846347 0 0.41308358160480507 -0.29583977997665811 0 0.4106067054949013 -0.28338295756307352 0 0.40474393056083813 -0.29726206293151219 0 0.40558232914872427 -0.29181920024846347 0 0.41308358160480507 -0.29583977997665811 0 0.42018231993676269 -0.27042624857866948 0 0.41308358160480507 -0.29583977997665811 0 0.42018231993676269 -0.27042624857866948 0 0.41308358160480507 -0.29583977997665811 0 0.41978869642799621 -0.29469555585328538 0 0.42018231993676269 -0.27042624857866948 0 0.41308358160480507 -0.29583977997665811 0 0.4106067054949013 -0.28338295756307352 0 0.40376867845597508 -0.28266050657842212 0 0.40558232914872427 -0.29181920024846347 0 0.4106067054949013 -0.28338295756307352 0 0.5 -0.5 0 0.48428200069162908 -0.46556359397141028 0 0.5 -0.43556565057513968 0 0.44007611779616562 -0.5 0 0.44597239202890387 -0.47928100730523071 0 0.46534799312034097 -0.49999999999999761 0 0.44007611779616562 -0.5 0 0.44597239202890387 -0.47928100730523071 0 0.42711746719887861 -0.48454078883079332 0 0.44597239202890387 -0.47928100730523071 0 0.46724920718611779 -0.47248677669401401 0 0.46534799312034097 -0.49999999999999761 0 0.44597239202890387 -0.47928100730523071 0 0.46724920718611779 -0.47248677669401401 0 0.44720446503848421 -0.4602932803908481 0 0.46724920718611779 -0.47248677669401401 0 0.46534799312034097 -0.49999999999999761 0 0.47292767793667378 -0.50000000000000511 0 0.46724920718611779 -0.47248677669401401 0 0.46534799312034097 -0.49999999999999761 0 0.46724920718611779 -0.47248677669401401 0 0.47292767793667378 -0.50000000000000511 0 0.48155794619425718 -0.48328239435971548 0 0.46724920718611779 -0.47248677669401401 0 0.47292767793667378 -0.50000000000000511 0 0.5 -0.5 0 0.48155794619425718 -0.48328239435971548 0 0.48428200069162908 -0.46556359397141028 0 0.47292767793667378 -0.50000000000000511 0 0.5 -0.5 0 0.48155794619425718 -0.48328239435971548 0 0.46724920718611779 -0.47248677669401401 0 0.48155794619425718 -0.48328239435971548 0 0.48428200069162908 -0.46556359397141028 0 0.46724920718611779 -0.47248677669401401 0 0.48428200069162908 -0.46556359397141028 0 0.46905705215255 -0.44632473468131773 0 0.48428200069162908 -0.46556359397141028 0 0.46905705215255 -0.44632473468131773 0 0.5 -0.43556565057513968 0 0.46905705215255 -0.44632473468131773 0 0.46267231173743179 -0.45031088602564961 0 0.45809541628874689 -0.42813499535728489 0 0.46267231173743179 -0.45031088602564961 0 0.45809541628874689 -0.42813499535728489 0 0.46724920718611779 -0.47248677669401401 0 0.46905705215255 -0.44632473468131773 0 0.46267231173743179 -0.45031088602564961 0 0.46724920718611779 -0.47248677669401401 0 0.46267231173743179 -0.45031088602564961 0 0.44720446503848421 -0.4602932803908481 0 0.46724920718611779 -0.47248677669401401 0 0.46905705215255 -0.44632473468131773 0 0.46724920718611779 -0.47248677669401401 0 0.46267231173743179 -0.45031088602564961 0 0.44720446503848421 -0.4602932803908481 0 0.43710868797218239 -0.44378558944122432 0 0.42869003376094289 -0.46483978003538279 0 0.44597239202890387 -0.47928100730523071 0 0.44720446503848421 -0.4602932803908481 0 0.42869003376094289 -0.46483978003538279 0 0.46267231173743179 -0.45031088602564961 0 0.44720446503848421 -0.4602932803908481 0 0.43710868797218239 -0.44378558944122432 0 0.46267231173743179 -0.45031088602564961 0 0.45809541628874689 -0.42813499535728489 0 0.43710868797218239 -0.44378558944122432 0 0.45809541628874689 -0.42813499535728489 0 0.4328214871409799 -0.41888077469257989 0 0.43710868797218239 -0.44378558944122432 0 0.45809541628874689 -0.42813499535728489 0 0.45351852084005528 -0.40595910468892149 0 0.4328214871409799 -0.41888077469257989 0 0.45351852084005528 -0.40595910468892149 0 0.4328214871409799 -0.41888077469257989 0 0.45351852084005528 -0.40595910468892149 0 0.43023001832516983 -0.39492830826521219 0 0.4328214871409799 -0.41888077469257989 0 0.45809541628874689 -0.42813499535728489 0 0.45351852084005528 -0.40595910468892149 0 0.47086489711898111 -0.42016269266862138 0 0.47267274208541382 -0.39400065065592521 0 0.45351852084005528 -0.40595910468892149 0 0.45809541628874689 -0.42813499535728489 0 0.47086489711898111 -0.42016269266862138 0 0.45351852084005528 -0.40595910468892149 0 0.46905705215255 -0.44632473468131773 0 0.45809541628874689 -0.42813499535728489 0 0.47086489711898111 -0.42016269266862138 0 0.5 -0.43556565057513968 0 0.47086489711898111 -0.42016269266862138 0 0.5 -0.3867312674581207 0 0.46905705215255 -0.44632473468131773 0 0.47086489711898111 -0.42016269266862138 0 0.46905705215255 -0.44632473468131773 0 0.5 -0.43556565057513968 0 0.47086489711898111 -0.42016269266862138 0 0.47086489711898111 -0.42016269266862138 0 0.47267274208541382 -0.39400065065592521 0 0.47086489711898111 -0.42016269266862138 0 0.47267274208541382 -0.39400065065592521 0 0.5 -0.3867312674581207 0 0.47267274208541382 -0.39400065065592521 0 0.5 -0.3867312674581207 0 0.49559254170536882 -0.37969125291588768 0 0.48311764063966628 -0.37023201212075368 0 0.49559254170536882 -0.37969125291588768 0 0.48129804110576901 -0.38036946351902912 0 0.47267274208541382 -0.39400065065592521 0 0.48129804110576901 -0.38036946351902912 0 0.47380923999262908 -0.37755393838354973 0 0.47267274208541382 -0.39400065065592521 0 0.47380923999262908 -0.37755393838354973 0 0.48311764063966628 -0.37023201212075368 0 0.48129804110576901 -0.38036946351902912 0 0.47380923999262908 -0.37755393838354973 0 0.47267274208541382 -0.39400065065592521 0 0.49559254170536882 -0.37969125291588768 0 0.48129804110576901 -0.38036946351902912 0 0.47267274208541382 -0.39400065065592521 0 0.49559254170536882 -0.37969125291588768 0 0.47267274208541382 -0.39400065065592521 0 0.47380923999262908 -0.37755393838354973 0 0.4618330258027703 -0.38656225787882348 0 0.45998875945344009 -0.37037944019214991 0 0.4618330258027703 -0.38656225787882348 0 0.44917586664231618 -0.38491815547357322 0 0.45998875945344009 -0.37037944019214991 0 0.47380923999262908 -0.37755393838354973 0 0.4618330258027703 -0.38656225787882348 0 0.47267274208541382 -0.39400065065592521 0 0.4618330258027703 -0.38656225787882348 0 0.45351852084005528 -0.40595910468892149 0 0.4618330258027703 -0.38656225787882348 0 0.45351852084005528 -0.40595910468892149 0 0.44917586664231618 -0.38491815547357322 0 0.47267274208541382 -0.39400065065592521 0 0.45351852084005528 -0.40595910468892149 0 0.45351852084005528 -0.40595910468892149 0 0.44917586664231618 -0.38491815547357322 0 0.45351852084005528 -0.40595910468892149 0 0.44917586664231618 -0.38491815547357322 0 0.43023001832516983 -0.39492830826521219 0 0.44483321244457008 -0.36387720625822612 0 0.44917586664231618 -0.38491815547357322 0 0.43649100581628442 -0.37935722965630408 0 0.44917586664231618 -0.38491815547357322 0 0.43649100581628442 -0.37935722965630408 0 0.43023001832516983 -0.39492830826521219 0 0.42172492585308152 -0.37370524862820509 0 0.43649100581628442 -0.37935722965630408 0 0.43023001832516983 -0.39492830826521219 0 0.43023001832516983 -0.39492830826521219 0 0.40069631563999719 -0.39458704603515338 0 0.41613126438694298 -0.41059673561693572 0 0.42172492585308152 -0.37370524862820509 0 0.40069631563999719 -0.39458704603515338 0 0.42172492585308152 -0.37370524862820509 0 0.43023001832516983 -0.39492830826521219 0 0.40069631563999719 -0.39458704603515338 0 0.42172492585308152 -0.37370524862820509 0 0.40166542959538232 -0.37975212819942761 0 0.40069631563999719 -0.39458704603515338 0 0.39246725133093951 -0.36964638225237439 0 0.40166542959538232 -0.37975212819942761 0 0.38606747837892308 -0.39255761284723623 0 0.40166542959538232 -0.37975212819942761 0 0.38606747837892308 -0.39255761284723623 0 0.40069631563999719 -0.39458704603515338 0 0.39246725133093951 -0.36964638225237439 0 0.38606747837892308 -0.39255761284723623 0 0.39246725133093951 -0.36964638225237439 0 0.38606747837892308 -0.39255761284723623 0 0.36962124500067473 -0.37726096341001919 0 0.38606747837892308 -0.39255761284723623 0 0.3727286980991481 -0.39370209306907888 0 0.36962124500067473 -0.37726096341001919 0 0.38606747837892308 -0.39255761284723623 0 0.40069631563999719 -0.39458704603515338 0 0.37966770542691047 -0.41546884344209911 0 0.40069631563999719 -0.39458704603515338 0 0.37966770542691047 -0.41546884344209911 0 0.38606747837892308 -0.39255761284723623 0 0.37966770542691047 -0.41546884344209911 0 0.38606747837892308 -0.39255761284723623 0 0.37966770542691047 -0.41546884344209911 0 0.3727286980991481 -0.39370209306907888 0 0.40069631563999719 -0.39458704603515338 0 0.40016133824144412 -0.41613736146007491 0 0.41613126438694298 -0.41059673561693572 0 0.40069631563999719 -0.39458704603515338 0 0.40016133824144412 -0.41613736146007491 0 0.37966770542691047 -0.41546884344209911 0 0.40016133824144412 -0.41613736146007491 0 0.37966770542691047 -0.41546884344209911 0 0.39122388790620788 -0.42893012439839823 0 0.39122388790620788 -0.42893012439839823 0 0.39142741974283168 -0.44472411469990081 0 0.37332661014881502 -0.43817000756614283 0 0.37966770542691047 -0.41546884344209911 0 0.39122388790620788 -0.42893012439839823 0 0.37332661014881502 -0.43817000756614283 0 0.37966770542691047 -0.41546884344209911 0 0.37332661014881502 -0.43817000756614283 0 0.39122388790620788 -0.42893012439839823 0 0.41212445344190568 -0.43180244469624041 0 0.39142741974283168 -0.44472411469990081 0 0.40016133824144412 -0.41613736146007491 0 0.39122388790620788 -0.42893012439839823 0 0.41212445344190568 -0.43180244469624041 0 0.40016133824144412 -0.41613736146007491 0 0.41212445344190568 -0.43180244469624041 0 0.41613126438694298 -0.41059673561693572 0 0.41212445344190568 -0.43180244469624041 0 0.41613126438694298 -0.41059673561693572 0 0.4328214871409799 -0.41888077469257989 0 0.43023001832516983 -0.39492830826521219 0 0.41613126438694298 -0.41059673561693572 0 0.4328214871409799 -0.41888077469257989 0 0.41212445344190568 -0.43180244469624041 0 0.4328214871409799 -0.41888077469257989 0 0.43710868797218239 -0.44378558944122432 0 0.41212445344190568 -0.43180244469624041 0 0.4328214871409799 -0.41888077469257989 0 0.43710868797218239 -0.44378558944122432 0 0.42869003376094289 -0.46483978003538279 0 0.40973528548437499 -0.45405062814909197 0 0.42869003376094289 -0.46483978003538279 0 0.40973528548437499 -0.45405062814909197 0 0.40281774460327979 -0.47532862548769772 0 0.41212445344190568 -0.43180244469624041 0 0.43710868797218239 -0.44378558944122432 0 0.40973528548437499 -0.45405062814909197 0 0.41212445344190568 -0.43180244469624041 0 0.39142741974283168 -0.44472411469990081 0 0.41212445344190568 -0.43180244469624041 0 0.40973528548437499 -0.45405062814909197 0 0.39142741974283168 -0.44472411469990081 0 0.39142741974283168 -0.44472411469990081 0 0.37073038604375769 -0.45764578470356121 0 0.39142741974283168 -0.44472411469990081 0 0.37332661014881502 -0.43817000756614283 0 0.37155471214838759 -0.44672208830945631 0 0.39142741974283168 -0.44472411469990081 0 0.37073038604375769 -0.45764578470356121 0 0.37155471214838759 -0.44672208830945631 0 0.39142741974283168 -0.44472411469990081 0 0.389698089137061 -0.46223383965889131 0 0.37073038604375769 -0.45764578470356121 0 0.389698089137061 -0.46223383965889131 0 0.38068904131496689 -0.47624129550377542 0 0.37073038604375769 -0.45764578470356121 0 0.40973528548437499 -0.45405062814909197 0 0.39142741974283168 -0.44472411469990081 0 0.389698089137061 -0.46223383965889131 0 0.40973528548437499 -0.45405062814909197 0 0.389698089137061 -0.46223383965889131 0 0.40281774460327979 -0.47532862548769772 0 0.389698089137061 -0.46223383965889131 0 0.40281774460327979 -0.47532862548769772 0 0.38068904131496689 -0.47624129550377542 0 0.40281774460327979 -0.47532862548769772 0 0.38068904131496689 -0.47624129550377542 0 0.38953236714781492 -0.5 0 0.38953236714781492 -0.5 0 0.36426049182363962 -0.49999999999999989 0 0.3714625125101208 -0.48742396316963998 0 0.38068904131496689 -0.47624129550377542 0 0.38953236714781492 -0.5 0 0.3714625125101208 -0.48742396316963998 0 0.40281774460327979 -0.47532862548769772 0 0.38953236714781492 -0.5 0 0.41480424247199021 -0.5 0 0.40281774460327979 -0.47532862548769772 0 0.41480424247199021 -0.5 0 0.42711746719887861 -0.48454078883079332 0 0.42869003376094289 -0.46483978003538279 0 0.40281774460327979 -0.47532862548769772 0 0.42711746719887861 -0.48454078883079332 0 0.44597239202890387 -0.47928100730523071 0 0.42869003376094289 -0.46483978003538279 0 0.42711746719887861 -0.48454078883079332 0 0.44007611779616562 -0.5 0 0.41480424247199021 -0.5 0 0.42711746719887861 -0.48454078883079332 0 0.32646184875414641 -0.48528372735360792 0 0.3028903451636108 -0.49999999999999661 0 0.31024447981213688 -0.48440738564412522 0 0.32646184875414641 -0.48528372735360792 0 0.3028903451636108 -0.49999999999999661 0 0.32646184875414641 -0.48528372735360792 0 0.32334706071695368 -0.5 0 0.3028903451636108 -0.49999999999999661 0 0.32594672052937879 -0.468814771288253 0 0.31024447981213688 -0.48440738564412522 0 0.32646184875414641 -0.48528372735360792 0 0.32594672052937879 -0.468814771288253 0 0.31024447981213688 -0.48440738564412522 0 0.32594672052937879 -0.468814771288253 0 0.3135542102669488 -0.46210523026215228 0 0.31024447981213688 -0.48440738564412522 0 0.32646184875414641 -0.48528372735360792 0 0.32594672052937879 -0.468814771288253 0 0.35003335234468408 -0.47056745470722239 0 0.32646184875414641 -0.48528372735360792 0 0.35003335234468408 -0.47056745470722239 0 0.32646184875414641 -0.48528372735360792 0 0.34436147486332308 -0.4852837273536097 0 0.35003335234468408 -0.47056745470722239 0 0.32646184875414641 -0.48528372735360792 0 0.32334706071695368 -0.5 0 0.34380377627029668 -0.5 0 0.32646184875414641 -0.48528372735360792 0 0.34380377627029668 -0.5 0 0.34436147486332308 -0.4852837273536097 0 0.34380377627029668 -0.5 0 0.35714692208416571 -0.48528372735360942 0 0.36426049182363962 -0.49999999999999989 0 0.34380377627029668 -0.5 0 0.34436147486332308 -0.4852837273536097 0 0.35714692208416571 -0.48528372735360942 0 0.35714692208416571 -0.48528372735360942 0 0.36426049182363962 -0.49999999999999989 0 0.35714692208416571 -0.48528372735360942 0 0.36426049182363962 -0.49999999999999989 0 0.3714625125101208 -0.48742396316963998 0 0.38068904131496689 -0.47624129550377542 0 0.36568374018001681 -0.47559479299081492 0 0.37073038604375769 -0.45764578470356121 0 0.38068904131496689 -0.47624129550377542 0 0.3714625125101208 -0.48742396316963998 0 0.36568374018001681 -0.47559479299081492 0 0.35714692208416571 -0.48528372735360942 0 0.3714625125101208 -0.48742396316963998 0 0.36568374018001681 -0.47559479299081492 0 0.35714692208416571 -0.48528372735360942 0 0.36568374018001681 -0.47559479299081492 0 0.35003335234468408 -0.47056745470722239 0 0.35714692208416571 -0.48528372735360942 0 0.35003335234468408 -0.47056745470722239 0 0.34436147486332308 -0.4852837273536097 0 0.35714692208416571 -0.48528372735360942 0 0.35003335234468408 -0.47056745470722239 0 0.35003335234468408 -0.47056745470722239 0 0.35549467117477512 -0.45650920238285531 0 0.37073038604375769 -0.45764578470356121 0 0.35003335234468408 -0.47056745470722239 0 0.34164896124661981 -0.45322215693237983 0 0.35003335234468408 -0.47056745470722239 0 0.35549467117477512 -0.45650920238285531 0 0.34164896124661981 -0.45322215693237983 0 0.36568374018001681 -0.47559479299081492 0 0.35003335234468408 -0.47056745470722239 0 0.37073038604375769 -0.45764578470356121 0 0.35003335234468408 -0.47056745470722239 0 0.37073038604375769 -0.45764578470356121 0 0.35549467117477512 -0.45650920238285531 0 0.37073038604375769 -0.45764578470356121 0 0.36365024477868979 -0.44975038402815459 0 0.37332661014881502 -0.43817000756614283 0 0.37155471214838759 -0.44672208830945631 0 0.36451969375563809 -0.4416542139289022 0 0.37073038604375769 -0.45764578470356121 0 0.37155471214838759 -0.44672208830945631 0 0.36365024477868979 -0.44975038402815459 0 0.37155471214838759 -0.44672208830945631 0 0.36365024477868979 -0.44975038402815459 0 0.36451969375563809 -0.4416542139289022 0 0.36365024477868979 -0.44975038402815459 0 0.36451969375563809 -0.4416542139289022 0 0.35595176077089069 -0.44622063081599778 0 0.36451969375563809 -0.4416542139289022 0 0.35497266018722878 -0.43999147838683728 0 0.35595176077089069 -0.44622063081599778 0 0.35497266018722878 -0.43999147838683728 0 0.35595176077089069 -0.44622063081599778 0 0.35549467117477512 -0.45650920238285531 0 0.36365024477868979 -0.44975038402815459 0 0.35595176077089069 -0.44622063081599778 0 0.35549467117477512 -0.45650920238285531 0 0.35595176077089069 -0.44622063081599778 0 0.34164896124661981 -0.45322215693237983 0 0.35497266018722878 -0.43999147838683728 0 0.35595176077089069 -0.44622063081599778 0 0.34164896124661981 -0.45322215693237983 0 0.35497266018722878 -0.43999147838683728 0 0.34164896124661981 -0.45322215693237983 0 0.35497266018722878 -0.43999147838683728 0 0.34414786071998849 -0.44131917703625828 0 0.34164896124661981 -0.45322215693237983 0 0.34414786071998849 -0.44131917703625828 0 0.33852434327097852 -0.44239818722195251 0 0.33709630240376109 -0.43704028661772931 0 0.34414786071998849 -0.44131917703625828 0 0.33852434327097852 -0.44239818722195251 0 0.33902243203916937 -0.44778849685086081 0 0.33852434327097852 -0.44239818722195251 0 0.33383077792099491 -0.44344478838296142 0 0.33902243203916937 -0.44778849685086081 0 0.33852434327097852 -0.44239818722195251 0 0.33383077792099491 -0.44344478838296142 0 0.33709630240376109 -0.43704028661772931 0 0.33383077792099491 -0.44344478838296142 0 0.3312458499045623 -0.43723596055700598 0 0.33709630240376109 -0.43704028661772931 0 0.32727189673104429 -0.44148357190021631 0 0.32690174985874793 -0.43474476347075469 0 0.3312458499045623 -0.43723596055700598 0 0.33383077792099491 -0.44344478838296142 0 0.32727189673104429 -0.44148357190021631 0 0.3312458499045623 -0.43723596055700598 0 0.33383077792099491 -0.44344478838296142 0 0.32988480921539498 -0.451390148784583 0 0.32727189673104429 -0.44148357190021631 0 0.33383077792099491 -0.44344478838296142 0 0.32988480921539498 -0.451390148784583 0 0.33902243203916937 -0.44778849685086081 0 0.32988480921539498 -0.451390148784583 0 0.33902243203916937 -0.44778849685086081 0 0.34164896124661981 -0.45322215693237983 0 0.34414786071998849 -0.44131917703625828 0 0.33902243203916937 -0.44778849685086081 0 0.34164896124661981 -0.45322215693237983 0 0.33902243203916937 -0.44778849685086081 0 0.34164896124661981 -0.45322215693237983 0 0.32594672052937879 -0.468814771288253 0 0.32988480921539498 -0.451390148784583 0 0.34164896124661981 -0.45322215693237983 0 0.32594672052937879 -0.468814771288253 0 0.34164896124661981 -0.45322215693237983 0 0.32594672052937879 -0.468814771288253 0 0.35003335234468408 -0.47056745470722239 0 0.34164896124661981 -0.45322215693237983 0 0.32594672052937879 -0.468814771288253 0 0.32988480921539498 -0.451390148784583 0 0.32078916153452358 -0.45509652717685589 0 0.32594672052937879 -0.468814771288253 0 0.32078916153452358 -0.45509652717685589 0 0.3135542102669488 -0.46210523026215228 0 0.32078916153452358 -0.45509652717685589 0 0.3135542102669488 -0.46210523026215228 0 0.31586499493272979 -0.44939136858103401 0 0.32078916153452358 -0.45509652717685589 0 0.31586499493272979 -0.44939136858103401 0 0.32145573491048601 -0.44611587512908402 0 0.31586499493272979 -0.44939136858103401 0 0.31439098918947073 -0.44277644357293822 0 0.30763227264276938 -0.45123931667007011 0 0.31586499493272979 -0.44939136858103401 0 0.31439098918947073 -0.44277644357293822 0 0.32145573491048601 -0.44611587512908402 0 0.31439098918947073 -0.44277644357293822 0 0.32145573491048601 -0.44611587512908402 0 0.32053255785975232 -0.43655719075887722 0 0.31439098918947073 -0.44277644357293822 0 0.32053255785975232 -0.43655719075887722 0 0.31364818989702681 -0.4365913890962998 0 0.32727189673104429 -0.44148357190021631 0 0.32145573491048601 -0.44611587512908402 0 0.32053255785975232 -0.43655719075887722 0 0.32727189673104429 -0.44148357190021631 0 0.32690174985874793 -0.43474476347075469 0 0.32053255785975232 -0.43655719075887722 0 0.32988480921539498 -0.451390148784583 0 0.32078916153452358 -0.45509652717685589 0 0.32145573491048601 -0.44611587512908402 0 0.32988480921539498 -0.451390148784583 0 0.32727189673104429 -0.44148357190021631 0 0.32145573491048601 -0.44611587512908402 0 0.32334946755655147 -0.4282865828071406 0 0.3266329381714137 -0.42015156329161307 0 0.3311285226082632 -0.42946639241336793 0 0.32334946755655147 -0.4282865828071406 0 0.3182864644440328 -0.42219226416992262 0 0.3266329381714137 -0.42015156329161307 0 0.32334946755655147 -0.4282865828071406 0 0.32690174985874793 -0.43474476347075469 0 0.32053255785975232 -0.43655719075887722 0 0.32334946755655147 -0.4282865828071406 0 0.32690174985874793 -0.43474476347075469 0 0.3311285226082632 -0.42946639241336793 0 0.32334946755655147 -0.4282865828071406 0 0.32053255785975232 -0.43655719075887722 0 0.31609401654931452 -0.42999817722046052 0 0.32053255785975232 -0.43655719075887722 0 0.31364818989702681 -0.4365913890962998 0 0.31609401654931452 -0.42999817722046052 0 0.31609401654931452 -0.42999817722046052 0 0.3182864644440328 -0.42219226416992262 0 0.30976315254788839 -0.42518200491043939 0 0.32334946755655147 -0.4282865828071406 0 0.31609401654931452 -0.42999817722046052 0 0.3182864644440328 -0.42219226416992262 0 0.3182864644440328 -0.42219226416992262 0 0.3123672643397768 -0.41700565728807448 0 0.30976315254788839 -0.42518200491043939 0 0.31981453223589679 -0.41501646518368102 0 0.31419884559632272 -0.41031782900095859 0 0.3123672643397768 -0.41700565728807448 0 0.3182864644440328 -0.42219226416992262 0 0.31981453223589679 -0.41501646518368102 0 0.3123672643397768 -0.41700565728807448 0 0.31981453223589679 -0.41501646518368102 0 0.31419884559632272 -0.41031782900095859 0 0.32112643672232272 -0.40819989958044872 0 0.31419884559632272 -0.41031782900095859 0 0.32112643672232272 -0.40819989958044872 0 0.31613916449108331 -0.40343841783433942 0 0.32112643672232272 -0.40819989958044872 0 0.3262752441415121 -0.41223157777106789 0 0.32739525184060397 -0.40408465151489098 0 0.31981453223589679 -0.41501646518368102 0 0.32112643672232272 -0.40819989958044872 0 0.3262752441415121 -0.41223157777106789 0 0.3182864644440328 -0.42219226416992262 0 0.31981453223589679 -0.41501646518368102 0 0.3266329381714137 -0.42015156329161307 0 0.3262752441415121 -0.41223157777106789 0 0.3266329381714137 -0.42015156329161307 0 0.3312377091044521 -0.41579336490533081 0 0.31981453223589679 -0.41501646518368102 0 0.3262752441415121 -0.41223157777106789 0 0.3266329381714137 -0.42015156329161307 0 0.3266329381714137 -0.42015156329161307 0 0.3312377091044521 -0.41579336490533081 0 0.33662101693535013 -0.42052198512365502 0 0.3312377091044521 -0.41579336490533081 0 0.33207526048154268 -0.40970644087686792 0 0.34130618076947161 -0.41076927611986558 0 0.3262752441415121 -0.41223157777106789 0 0.33207526048154268 -0.40970644087686792 0 0.32739525184060397 -0.40408465151489098 0 0.3262752441415121 -0.41223157777106789 0 0.3312377091044521 -0.41579336490533081 0 0.33207526048154268 -0.40970644087686792 0 0.33207526048154268 -0.40970644087686792 0 0.34130618076947161 -0.41076927611986558 0 0.33540538158223931 -0.4060963285576254 0 0.34130618076947161 -0.41076927611986558 0 0.33762945263145522 -0.40277562313941501 0 0.33540538158223931 -0.4060963285576254 0 0.3312377091044521 -0.41579336490533081 0 0.34130618076947161 -0.41076927611986558 0 0.33662101693535013 -0.42052198512365502 0 0.34130618076947161 -0.41076927611986558 0 0.33662101693535013 -0.42052198512365502 0 0.35131166294948352 -0.41669978576876621 0 0.33662101693535013 -0.42052198512365502 0 0.33739517280893599 -0.42912807192789182 0 0.3447348492883695 -0.42948362355681519 0 0.33662101693535013 -0.42052198512365502 0 0.33739517280893599 -0.42912807192789182 0 0.3311285226082632 -0.42946639241336793 0 0.3266329381714137 -0.42015156329161307 0 0.33662101693535013 -0.42052198512365502 0 0.3311285226082632 -0.42946639241336793 0 0.33739517280893599 -0.42912807192789182 0 0.3311285226082632 -0.42946639241336793 0 0.33709630240376109 -0.43704028661772931 0 0.32690174985874793 -0.43474476347075469 0 0.3311285226082632 -0.42946639241336793 0 0.3312458499045623 -0.43723596055700598 0 0.3311285226082632 -0.42946639241336793 0 0.3312458499045623 -0.43723596055700598 0 0.33709630240376109 -0.43704028661772931 0 0.33739517280893599 -0.42912807192789182 0 0.33709630240376109 -0.43704028661772931 0 0.3447348492883695 -0.42948362355681519 0 0.34414786071998849 -0.44131917703625828 0 0.33709630240376109 -0.43704028661772931 0 0.3447348492883695 -0.42948362355681519 0 0.35497266018722878 -0.43999147838683728 0 0.35131166294948352 -0.41669978576876621 0 0.35497266018722878 -0.43999147838683728 0 0.3447348492883695 -0.42948362355681519 0 0.35131166294948352 -0.41669978576876621 0 0.35497266018722878 -0.43999147838683728 0 0.36732018280706968 -0.42773016091446819 0 0.35131166294948352 -0.41669978576876621 0 0.35497266018722878 -0.43999147838683728 0 0.34414786071998849 -0.44131917703625828 0 0.3447348492883695 -0.42948362355681519 0 0.33662101693535013 -0.42052198512365502 0 0.3447348492883695 -0.42948362355681519 0 0.35131166294948352 -0.41669978576876621 0 0.35497266018722878 -0.43999147838683728 0 0.36732018280706968 -0.42773016091446819 0 0.36451969375563809 -0.4416542139289022 0 0.35497266018722878 -0.43999147838683728 0 0.36732018280706968 -0.42773016091446819 0 0.37966770542691047 -0.41546884344209911 0 0.37332661014881502 -0.43817000756614283 0 0.36732018280706968 -0.42773016091446819 0 0.37332661014881502 -0.43817000756614283 0 0.36451969375563809 -0.4416542139289022 0 0.36732018280706968 -0.42773016091446819 0 0.36703136541036468 -0.41509148728164519 0 0.35990695956358609 -0.40915094864982482 0 0.35131166294948352 -0.41669978576876621 0 0.36732018280706968 -0.42773016091446819 0 0.36703136541036468 -0.41509148728164519 0 0.35131166294948352 -0.41669978576876621 0 0.37966770542691047 -0.41546884344209911 0 0.36703136541036468 -0.41509148728164519 0 0.36546260234961458 -0.40386132005355968 0 0.37966770542691047 -0.41546884344209911 0 0.36732018280706968 -0.42773016091446819 0 0.36703136541036468 -0.41509148728164519 0 0.37966770542691047 -0.41546884344209911 0 0.36732018280706968 -0.42773016091446819 0 0.36703136541036468 -0.41509148728164519 0 0.35990695956358609 -0.40915094864982482 0 0.36546260234961458 -0.40386132005355968 0 0.34130618076947161 -0.41076927611986558 0 0.35131166294948352 -0.41669978576876621 0 0.34765066571173242 -0.39340809315069619 0 0.35990695956358609 -0.40915094864982482 0 0.35131166294948352 -0.41669978576876621 0 0.3558222075448817 -0.40095120149532842 0 0.35131166294948352 -0.41669978576876621 0 0.34765066571173242 -0.39340809315069619 0 0.3558222075448817 -0.40095120149532842 0 0.35131166294948352 -0.41669978576876621 0 0.34765066571173242 -0.39340809315069619 0 0.34765066571173242 -0.39340809315069619 0 0.34284942831530563 -0.39346696442596601 0 0.34098415395948101 -0.39922781391791118 0 0.3543830376188809 -0.39375777763683573 0 0.3558222075448817 -0.40095120149532842 0 0.36041858168581692 -0.39090075018831821 0 0.34765066571173242 -0.39340809315069619 0 0.3543830376188809 -0.39375777763683573 0 0.3558222075448817 -0.40095120149532842 0 0.34765066571173242 -0.39340809315069619 0 0.3543830376188809 -0.39375777763683573 0 0.35364069553309302 -0.38977106571300058 0 0.3543830376188809 -0.39375777763683573 0 0.36041858168581692 -0.39090075018831821 0 0.35364069553309302 -0.38977106571300058 0 0.37966770542691047 -0.41546884344209911 0 0.36546260234961458 -0.40386132005355968 0 0.3727286980991481 -0.39370209306907888 0 0.35990695956358609 -0.40915094864982482 0 0.3558222075448817 -0.40095120149532842 0 0.36546260234961458 -0.40386132005355968 0 0.3558222075448817 -0.40095120149532842 0 0.36546260234961458 -0.40386132005355968 0 0.36041858168581692 -0.39090075018831821 0 0.36546260234961458 -0.40386132005355968 0 0.36041858168581692 -0.39090075018831821 0 0.3727286980991481 -0.39370209306907888 0 0.36041858168581692 -0.39090075018831821 0 0.36962124500067473 -0.37726096341001919 0 0.35290629701171339 -0.38064844620532862 0 0.36041858168581692 -0.39090075018831821 0 0.3727286980991481 -0.39370209306907888 0 0.36962124500067473 -0.37726096341001919 0 0.34765066571173242 -0.39340809315069619 0 0.34101640833301478 -0.38200826414873312 0 0.34398966847398132 -0.37011640053262618 0 0.34765066571173242 -0.39340809315069619 0 0.35290629701171339 -0.38064844620532862 0 0.34398966847398132 -0.37011640053262618 0 0.36962124500067473 -0.37726096341001919 0 0.35290629701171339 -0.38064844620532862 0 0.35424404222816719 -0.36974993331113348 0 0.34765066571173242 -0.39340809315069619 0 0.34398966847398132 -0.37011640053262618 0 0.36041858168581692 -0.39090075018831821 0 0.35290629701171339 -0.38064844620532862 0 0.35364069553309302 -0.38977106571300058 0 0.34765066571173242 -0.39340809315069619 0 0.35290629701171339 -0.38064844620532862 0 0.35364069553309302 -0.38977106571300058 0 0.34765066571173242 -0.39340809315069619 0 0.34101640833301478 -0.38200826414873312 0 0.34284942831530563 -0.39346696442596601 0 0.34101640833301478 -0.38200826414873312 0 0.34398966847398132 -0.37011640053262618 0 0.33500211847243883 -0.37483873349544478 0 0.32958743512424171 -0.38232197747760721 0 0.33500211847243883 -0.37483873349544478 0 0.32625814702158668 -0.37282061125065519 0 0.34101640833301478 -0.38200826414873312 0 0.32958743512424171 -0.38232197747760721 0 0.33500211847243883 -0.37483873349544478 0 0.32958743512424171 -0.38232197747760721 0 0.34284942831530563 -0.39346696442596601 0 0.33548504236944021 -0.3957191127536131 0 0.32958743512424171 -0.38232197747760721 0 0.34284942831530563 -0.39346696442596601 0 0.34101640833301478 -0.38200826414873312 0 0.32958743512424171 -0.38232197747760721 0 0.34284942831530563 -0.39346696442596601 0 0.34130618076947161 -0.41076927611986558 0 0.34765066571173242 -0.39340809315069619 0 0.34098415395948101 -0.39922781391791118 0 0.34284942831530563 -0.39346696442596601 0 0.34098415395948101 -0.39922781391791118 0 0.33548504236944021 -0.3957191127536131 0 0.34130618076947161 -0.41076927611986558 0 0.34098415395948101 -0.39922781391791118 0 0.33762945263145522 -0.40277562313941501 0 0.34098415395948101 -0.39922781391791118 0 0.33762945263145522 -0.40277562313941501 0 0.33548504236944021 -0.3957191127536131 0 0.33273181953784331 -0.40197629415272029 0 0.32893226508516782 -0.39565356174424621 0 0.32739525184060397 -0.40408465151489098 0 0.33207526048154268 -0.40970644087686792 0 0.33540538158223931 -0.4060963285576254 0 0.33273181953784331 -0.40197629415272029 0 0.33762945263145522 -0.40277562313941501 0 0.33540538158223931 -0.4060963285576254 0 0.33273181953784331 -0.40197629415272029 0 0.33762945263145522 -0.40277562313941501 0 0.33273181953784331 -0.40197629415272029 0 0.33548504236944021 -0.3957191127536131 0 0.33207526048154268 -0.40970644087686792 0 0.33273181953784331 -0.40197629415272029 0 0.32739525184060397 -0.40408465151489098 0 0.32958743512424171 -0.38232197747760721 0 0.33548504236944021 -0.3957191127536131 0 0.32893226508516782 -0.39565356174424621 0 0.33273181953784331 -0.40197629415272029 0 0.33548504236944021 -0.3957191127536131 0 0.32893226508516782 -0.39565356174424621 0 0.32893226508516782 -0.39565356174424621 0 0.32258476420045179 -0.39063023497531202 0 0.3228249872799957 -0.3994196448077843 0 0.32258476420045179 -0.39063023497531202 0 0.3228249872799957 -0.3994196448077843 0 0.31752817746889261 -0.39693645090186458 0 0.32893226508516782 -0.39565356174424621 0 0.32739525184060397 -0.40408465151489098 0 0.3228249872799957 -0.3994196448077843 0 0.32112643672232272 -0.40819989958044872 0 0.32739525184060397 -0.40408465151489098 0 0.3228249872799957 -0.3994196448077843 0 0.32112643672232272 -0.40819989958044872 0 0.3228249872799957 -0.3994196448077843 0 0.31613916449108331 -0.40343841783433942 0 0.3228249872799957 -0.3994196448077843 0 0.31613916449108331 -0.40343841783433942 0 0.31752817746889261 -0.39693645090186458 0 0.31613916449108331 -0.40343841783433942 0 0.31752817746889261 -0.39693645090186458 0 0.30976699233597749 -0.39776967741883651 0 0.32258476420045179 -0.39063023497531202 0 0.31752817746889261 -0.39693645090186458 0 0.31463631708940121 -0.38861951528294458 0 0.31752817746889261 -0.39693645090186458 0 0.31463631708940121 -0.38861951528294458 0 0.30976699233597749 -0.39776967741883651 0 0.32258476420045179 -0.39063023497531202 0 0.31463631708940121 -0.38861951528294458 0 0.31917014058327381 -0.38243632622447599 0 0.31463631708940121 -0.38861951528294458 0 0.31917014058327381 -0.38243632622447599 0 0.31271674456909648 -0.37943291285726788 0 0.31917014058327381 -0.38243632622447599 0 0.31271674456909648 -0.37943291285726788 0 0.31632544193317741 -0.37117699052924891 0 0.31271674456909648 -0.37943291285726788 0 0.31632544193317741 -0.37117699052924891 0 0.32958743512424171 -0.38232197747760721 0 0.31632544193317741 -0.37117699052924891 0 0.32625814702158668 -0.37282061125065519 0 0.32958743512424171 -0.38232197747760721 0 0.31917014058327381 -0.38243632622447599 0 0.31632544193317741 -0.37117699052924891 0 0.32958743512424171 -0.38232197747760721 0 0.31632544193317741 -0.37117699052924891 0 0.32958743512424171 -0.38232197747760721 0 0.32893226508516782 -0.39565356174424621 0 0.32258476420045179 -0.39063023497531202 0 0.32958743512424171 -0.38232197747760721 0 0.32258476420045179 -0.39063023497531202 0 0.31917014058327381 -0.38243632622447599 0 0.29809719073194341 -0.387390895677865 0 0.30489262074845119 -0.38244914961548487 0 0.30610043173860119 -0.39084583361080139 0 0.29809719073194341 -0.387390895677865 0 0.2969367092771778 -0.37669290262866761 0 0.30489262074845119 -0.38244914961548487 0 0.2969367092771778 -0.37669290262866761 0 0.30489262074845119 -0.38244914961548487 0 0.30733308420158872 -0.37446473629577071 0 0.31271674456909648 -0.37943291285726788 0 0.31632544193317741 -0.37117699052924891 0 0.30733308420158872 -0.37446473629577071 0 0.31271674456909648 -0.37943291285726788 0 0.30489262074845119 -0.38244914961548487 0 0.30733308420158872 -0.37446473629577071 0 0.31463631708940121 -0.38861951528294458 0 0.31271674456909648 -0.37943291285726788 0 0.30489262074845119 -0.38244914961548487 0 0.31463631708940121 -0.38861951528294458 0 0.30489262074845119 -0.38244914961548487 0 0.30610043173860119 -0.39084583361080139 0 0.31463631708940121 -0.38861951528294458 0 0.30976699233597749 -0.39776967741883651 0 0.30610043173860119 -0.39084583361080139 0 0.30976699233597749 -0.39776967741883651 0 0.30610043173860119 -0.39084583361080139 0 0.30206674258213451 -0.39649848807028398 0 0.30976699233597749 -0.39776967741883651 0 0.30713483165469591 -0.40544065971880577 0 0.30206674258213451 -0.39649848807028398 0 0.31613916449108331 -0.40343841783433942 0 0.30976699233597749 -0.39776967741883651 0 0.30713483165469591 -0.40544065971880577 0 0.30713483165469591 -0.40544065971880577 0 0.2979044383300376 -0.40243009291670861 0 0.30206674258213451 -0.39649848807028398 0 0.29809719073194341 -0.387390895677865 0 0.30206674258213451 -0.39649848807028398 0 0.29230769792511718 -0.39429508349918252 0 0.29809719073194341 -0.387390895677865 0 0.30610043173860119 -0.39084583361080139 0 0.30206674258213451 -0.39649848807028398 0 0.2979044383300376 -0.40243009291670861 0 0.30206674258213451 -0.39649848807028398 0 0.29230769792511718 -0.39429508349918252 0 0.2979044383300376 -0.40243009291670861 0 0.29230769792511718 -0.39429508349918252 0 0.28549556037927343 -0.40515392573316122 0 0.29230769792511718 -0.39429508349918252 0 0.28549556037927343 -0.40515392573316122 0 0.27964016788433649 -0.39324477425625659 0 0.29230769792511718 -0.39429508349918252 0 0.28582524512999757 -0.38322279765131012 0 0.27964016788433649 -0.39324477425625659 0 0.29809719073194341 -0.387390895677865 0 0.29230769792511718 -0.39429508349918252 0 0.28582524512999757 -0.38322279765131012 0 0.29809719073194341 -0.387390895677865 0 0.2969367092771778 -0.37669290262866761 0 0.28582524512999757 -0.38322279765131012 0 0.2969367092771778 -0.37669290262866761 0 0.28582524512999757 -0.38322279765131012 0 0.2814441633282761 -0.37114702858419601 0 0.28582524512999757 -0.38322279765131012 0 0.27547401724199572 -0.37752190107981182 0 0.27686209088179431 -0.38547224932759389 0 0.2538544495678508 -0.38026115102412972 0 0.2814441633282761 -0.37114702858419601 0 0.28582524512999757 -0.38322279765131012 0 0.27547401724199572 -0.37752190107981182 0 0.2814441633282761 -0.37114702858419601 0 0.27547401724199572 -0.37752190107981182 0 0.2538544495678508 -0.38026115102412972 0 0.2814441633282761 -0.37114702858419601 0 0.27686209088179431 -0.38547224932759389 0 0.26650893327084729 -0.38789952432299729 0 0.27964016788433649 -0.39324477425625659 0 0.28582524512999757 -0.38322279765131012 0 0.27686209088179431 -0.38547224932759389 0 0.27964016788433649 -0.39324477425625659 0 0.27547401724199572 -0.37752190107981182 0 0.27686209088179431 -0.38547224932759389 0 0.26650893327084729 -0.38789952432299729 0 0.27547401724199572 -0.37752190107981182 0 0.26650893327084729 -0.38789952432299729 0 0.2538544495678508 -0.38026115102412972 0 0.26650893327084729 -0.38789952432299729 0 0.2538544495678508 -0.38026115102412972 0 0.25446924412686628 -0.3997970634160336 0 0.25446924412686628 -0.3997970634160336 0 0.27103406894715087 -0.40555676327031248 0 0.25731483685301548 -0.4119673206021755 0 0.2538544495678508 -0.38026115102412972 0 0.25446924412686628 -0.3997970634160336 0 0.24382455408408349 -0.39502918037246798 0 0.26650893327084729 -0.38789952432299729 0 0.25446924412686628 -0.3997970634160336 0 0.27103406894715087 -0.40555676327031248 0 0.26650893327084729 -0.38789952432299729 0 0.27103406894715087 -0.40555676327031248 0 0.27964016788433649 -0.39324477425625659 0 0.28549556037927343 -0.40515392573316122 0 0.27103406894715087 -0.40555676327031248 0 0.27964016788433649 -0.39324477425625659 0 0.28549556037927343 -0.40515392573316122 0 0.27103406894715087 -0.40555676327031248 0 0.27639831385418462 -0.41631644347982139 0 0.27103406894715087 -0.40555676327031248 0 0.27639831385418462 -0.41631644347982139 0 0.26475641844318692 -0.42109104252373841 0 0.27103406894715087 -0.40555676327031248 0 0.26475641844318692 -0.42109104252373841 0 0.2544839699978374 -0.41893319760469477 0 0.25731483685301548 -0.4119673206021755 0 0.240709786834191 -0.41068323358564363 0 0.2544839699978374 -0.41893319760469477 0 0.25515483786095622 -0.43199119370722189 0 0.240709786834191 -0.41068323358564363 0 0.27103406894715087 -0.40555676327031248 0 0.26475641844318692 -0.42109104252373841 0 0.25731483685301548 -0.4119673206021755 0 0.25446924412686628 -0.3997970634160336 0 0.25731483685301548 -0.4119673206021755 0 0.240709786834191 -0.41068323358564363 0 0.26475641844318692 -0.42109104252373841 0 0.2544839699978374 -0.41893319760469477 0 0.25731483685301548 -0.4119673206021755 0 0.26475641844318692 -0.42109104252373841 0 0.2544839699978374 -0.41893319760469477 0 0.25515483786095622 -0.43199119370722189 0 0.26475641844318692 -0.42109104252373841 0 0.25847876793922242 -0.43662532177716418 0 0.27259536902875148 -0.42859521077180501 0 0.26475641844318692 -0.42109104252373841 0 0.25847876793922242 -0.43662532177716418 0 0.26475641844318692 -0.42109104252373841 0 0.25515483786095622 -0.43199119370722189 0 0.25847876793922242 -0.43662532177716418 0 0.25847876793922242 -0.43662532177716418 0 0.27259536902875148 -0.42859521077180501 0 0.27349624912761472 -0.44009459423040492 0 0.27639831385418462 -0.41631644347982139 0 0.26475641844318692 -0.42109104252373841 0 0.27259536902875148 -0.42859521077180501 0 0.27259536902875148 -0.42859521077180501 0 0.28149846020537511 -0.43384855654700633 0 0.28287512284925309 -0.42431456974895909 0 0.27639831385418462 -0.41631644347982139 0 0.27259536902875148 -0.42859521077180501 0 0.28287512284925309 -0.42431456974895909 0 0.27259536902875148 -0.42859521077180501 0 0.28149846020537511 -0.43384855654700633 0 0.27349624912761472 -0.44009459423040492 0 0.28149846020537511 -0.43384855654700633 0 0.2900118297052493 -0.4326745413002161 0 0.28287512284925309 -0.42431456974895909 0 0.28149846020537511 -0.43384855654700633 0 0.2900118297052493 -0.4326745413002161 0 0.28851373031600702 -0.44356386668364578 0 0.29681439926764019 -0.43604842050920067 0 0.2900118297052493 -0.4326745413002161 0 0.28851373031600702 -0.44356386668364578 0 0.29681439926764019 -0.43604842050920067 0 0.2900118297052493 -0.4326745413002161 0 0.30054975960107638 -0.42869699476672962 0 0.2900118297052493 -0.4326745413002161 0 0.29353057635279772 -0.42185756098702248 0 0.30054975960107638 -0.42869699476672962 0 0.2900118297052493 -0.4326745413002161 0 0.28287512284925309 -0.42431456974895909 0 0.29353057635279772 -0.42185756098702248 0 0.28287512284925309 -0.42431456974895909 0 0.28695876019746552 -0.41575602761905112 0 0.29353057635279772 -0.42185756098702248 0 0.27639831385418462 -0.41631644347982139 0 0.28287512284925309 -0.42431456974895909 0 0.28695876019746552 -0.41575602761905112 0 0.28549556037927343 -0.40515392573316122 0 0.27639831385418462 -0.41631644347982139 0 0.28695876019746552 -0.41575602761905112 0 0.28549556037927343 -0.40515392573316122 0 0.28695876019746552 -0.41575602761905112 0 0.29741877906570319 -0.41158362404700249 0 0.2979044383300376 -0.40243009291670861 0 0.28549556037927343 -0.40515392573316122 0 0.29741877906570319 -0.41158362404700249 0 0.28695876019746552 -0.41575602761905112 0 0.29353057635279772 -0.42185756098702248 0 0.29741877906570319 -0.41158362404700249 0 0.30370228091039342 -0.41931581448634531 0 0.29741877906570319 -0.41158362404700249 0 0.30696440031337852 -0.41273271690823732 0 0.29353057635279772 -0.42185756098702248 0 0.30370228091039342 -0.41931581448634531 0 0.29741877906570319 -0.41158362404700249 0 0.30713483165469591 -0.40544065971880577 0 0.29741877906570319 -0.41158362404700249 0 0.30696440031337852 -0.41273271690823732 0 0.30713483165469591 -0.40544065971880577 0 0.2979044383300376 -0.40243009291670861 0 0.29741877906570319 -0.41158362404700249 0 0.31419884559632272 -0.41031782900095859 0 0.31613916449108331 -0.40343841783433942 0 0.30713483165469591 -0.40544065971880577 0 0.31419884559632272 -0.41031782900095859 0 0.30696440031337852 -0.41273271690823732 0 0.3123672643397768 -0.41700565728807448 0 0.31419884559632272 -0.41031782900095859 0 0.30713483165469591 -0.40544065971880577 0 0.30696440031337852 -0.41273271690823732 0 0.30370228091039342 -0.41931581448634531 0 0.3123672643397768 -0.41700565728807448 0 0.30976315254788839 -0.42518200491043939 0 0.30370228091039342 -0.41931581448634531 0 0.30696440031337852 -0.41273271690823732 0 0.3123672643397768 -0.41700565728807448 0 0.30976315254788839 -0.42518200491043939 0 0.30735838852633163 -0.43399804825052468 0 0.30054975960107638 -0.42869699476672962 0 0.31609401654931452 -0.42999817722046052 0 0.30976315254788839 -0.42518200491043939 0 0.30735838852633163 -0.43399804825052468 0 0.31364818989702681 -0.4365913890962998 0 0.31609401654931452 -0.42999817722046052 0 0.30735838852633163 -0.43399804825052468 0 0.31364818989702681 -0.4365913890962998 0 0.30735838852633163 -0.43399804825052468 0 0.3080099538589976 -0.44076918675705162 0 0.29681439926764019 -0.43604842050920067 0 0.30735838852633163 -0.43399804825052468 0 0.30125598014651211 -0.44220718441638363 0 0.29681439926764019 -0.43604842050920067 0 0.30735838852633163 -0.43399804825052468 0 0.30054975960107638 -0.42869699476672962 0 0.29353057635279772 -0.42185756098702248 0 0.30370228091039342 -0.41931581448634531 0 0.30054975960107638 -0.42869699476672962 0 0.30370228091039342 -0.41931581448634531 0 0.30976315254788839 -0.42518200491043939 0 0.30054975960107638 -0.42869699476672962 0 0.29880242189556849 -0.4507516346251243 0 0.30125598014651211 -0.44220718441638363 0 0.30763227264276938 -0.45123931667007011 0 0.31439098918947073 -0.44277644357293822 0 0.3080099538589976 -0.44076918675705162 0 0.30763227264276938 -0.45123931667007011 0 0.30735838852633163 -0.43399804825052468 0 0.30125598014651211 -0.44220718441638363 0 0.3080099538589976 -0.44076918675705162 0 0.30125598014651211 -0.44220718441638363 0 0.3080099538589976 -0.44076918675705162 0 0.30763227264276938 -0.45123931667007011 0 0.31439098918947073 -0.44277644357293822 0 0.31364818989702681 -0.4365913890962998 0 0.3080099538589976 -0.44076918675705162 0 0.3135542102669488 -0.46210523026215228 0 0.30763227264276938 -0.45123931667007011 0 0.30084763215015448 -0.46368201221257532 0 0.3135542102669488 -0.46210523026215228 0 0.31586499493272979 -0.44939136858103401 0 0.30763227264276938 -0.45123931667007011 0 0.29880242189556849 -0.4507516346251243 0 0.30763227264276938 -0.45123931667007011 0 0.30084763215015448 -0.46368201221257532 0 0.29880242189556849 -0.4507516346251243 0 0.30084763215015448 -0.46368201221257532 0 0.29137887151565572 -0.45477587377618611 0 0.30084763215015448 -0.46368201221257532 0 0.29137887151565572 -0.45477587377618611 0 0.28726316131630819 -0.46529704539659911 0 0.29137887151565572 -0.45477587377618611 0 0.28726316131630819 -0.46529704539659911 0 0.28090673306797542 -0.45034218190197878 0 0.29137887151565572 -0.45477587377618611 0 0.28851373031600702 -0.44356386668364578 0 0.28090673306797542 -0.45034218190197878 0 0.29880242189556849 -0.4507516346251243 0 0.29137887151565572 -0.45477587377618611 0 0.28851373031600702 -0.44356386668364578 0 0.29880242189556849 -0.4507516346251243 0 0.30125598014651211 -0.44220718441638363 0 0.28851373031600702 -0.44356386668364578 0 0.29681439926764019 -0.43604842050920067 0 0.30125598014651211 -0.44220718441638363 0 0.28851373031600702 -0.44356386668364578 0 0.28851373031600702 -0.44356386668364578 0 0.27349624912761472 -0.44009459423040492 0 0.28090673306797542 -0.45034218190197878 0 0.28149846020537511 -0.43384855654700633 0 0.28851373031600702 -0.44356386668364578 0 0.27349624912761472 -0.44009459423040492 0 0.28090673306797542 -0.45034218190197878 0 0.26444180791092609 -0.44679950427863918 0 0.26431748951711442 -0.45678503472739063 0 0.27349624912761472 -0.44009459423040492 0 0.28090673306797542 -0.45034218190197878 0 0.26444180791092609 -0.44679950427863918 0 0.28851373031600702 -0.44356386668364578 0 0.27349624912761472 -0.44009459423040492 0 0.25847876793922242 -0.43662532177716418 0 0.27349624912761472 -0.44009459423040492 0 0.25847876793922242 -0.43662532177716418 0 0.27349624912761472 -0.44009459423040492 0 0.26444180791092609 -0.44679950427863918 0 0.25847876793922242 -0.43662532177716418 0 0.26444180791092609 -0.44679950427863918 0 0.24772824596625381 -0.46322788755280381 0 0.25847876793922242 -0.43662532177716418 0 0.24772824596625381 -0.46322788755280381 0 0.24584884686607039 -0.45040333128855492 0 0.25847876793922242 -0.43662532177716418 0 0.24772824596625381 -0.46322788755280381 0 0.25332188580423248 -0.46751025079647912 0 0.26431748951711442 -0.45678503472739063 0 0.24772824596625381 -0.46322788755280381 0 0.26444180791092609 -0.44679950427863918 0 0.26431748951711442 -0.45678503472739063 0 0.24772824596625381 -0.46322788755280381 0 0.26431748951711442 -0.45678503472739063 0 0.24772824596625381 -0.46322788755280381 0 0.25332188580423248 -0.46751025079647912 0 0.26431748951711442 -0.45678503472739063 0 0.26348735414398722 -0.46771968339407272 0 0.26431748951711442 -0.45678503472739063 0 0.26348735414398722 -0.46771968339407272 0 0.27435707068256932 -0.464545711716226 0 0.28090673306797542 -0.45034218190197878 0 0.26431748951711442 -0.45678503472739063 0 0.27435707068256932 -0.464545711716226 0 0.28090673306797542 -0.45034218190197878 0 0.26431748951711442 -0.45678503472739063 0 0.28726316131630819 -0.46529704539659911 0 0.28090673306797542 -0.45034218190197878 0 0.27435707068256932 -0.464545711716226 0 0.28726316131630819 -0.46529704539659911 0 0.27435707068256932 -0.464545711716226 0 0.28063276152355299 -0.47553741157266338 0 0.27435707068256932 -0.464545711716226 0 0.28063276152355299 -0.47553741157266338 0 0.26748858755777399 -0.4751490053235552 0 0.28063276152355299 -0.47553741157266338 0 0.27061440499137679 -0.48601374030705619 0 0.28292457675972438 -0.48797185525788339 0 0.28063276152355299 -0.47553741157266338 0 0.26748858755777399 -0.4751490053235552 0 0.27061440499137679 -0.48601374030705619 0 0.26348735414398722 -0.46771968339407272 0 0.27435707068256932 -0.464545711716226 0 0.26748858755777399 -0.4751490053235552 0 0.26348735414398722 -0.46771968339407272 0 0.26748858755777399 -0.4751490053235552 0 0.25795173715824582 -0.47460841440671248 0 0.25332188580423248 -0.46751025079647912 0 0.26348735414398722 -0.46771968339407272 0 0.25795173715824582 -0.47460841440671248 0 0.26748858755777399 -0.4751490053235552 0 0.25745385008039462 -0.48374203741656968 0 0.27061440499137679 -0.48601374030705619 0 0.26748858755777399 -0.4751490053235552 0 0.25795173715824582 -0.47460841440671248 0 0.25745385008039462 -0.48374203741656968 0 0.25795173715824582 -0.47460841440671248 0 0.25117173819890981 -0.47745118506790901 0 0.25745385008039462 -0.48374203741656968 0 0.25117173819890981 -0.47745118506790901 0 0.25745385008039462 -0.48374203741656968 0 0.2446986496159072 -0.48506298424840838 0 0.25332188580423248 -0.46751025079647912 0 0.25795173715824582 -0.47460841440671248 0 0.25117173819890981 -0.47745118506790901 0 0.25342611147226329 -0.5 0 0.26131103789301191 -0.49214387902421991 0 0.27398417528357949 -0.5 0 0.25342611147226329 -0.5 0 0.25107664763744508 -0.49096361739747379 0 0.26131103789301191 -0.49214387902421991 0 0.25745385008039462 -0.48374203741656968 0 0.25107664763744508 -0.49096361739747379 0 0.26131103789301191 -0.49214387902421991 0 0.25745385008039462 -0.48374203741656968 0 0.25107664763744508 -0.49096361739747379 0 0.2446986496159072 -0.48506298424840838 0 0.25745385008039462 -0.48374203741656968 0 0.26131103789301191 -0.49214387902421991 0 0.27061440499137679 -0.48601374030705619 0 0.26131103789301191 -0.49214387902421991 0 0.27061440499137679 -0.48601374030705619 0 0.27398417528357949 -0.5 0 0.27061440499137679 -0.48601374030705619 0 0.27398417528357949 -0.5 0 0.28292457675972438 -0.48797185525788339 0 0.27398417528357949 -0.5 0 0.29454223909489569 -0.49999999999999828 0 0.28292457675972438 -0.48797185525788339 0 0.29454223909489569 -0.49999999999999828 0 0.28292457675972438 -0.48797185525788339 0 0.29484930290521733 -0.47830812440969728 0 0.28063276152355299 -0.47553741157266338 0 0.28292457675972438 -0.48797185525788339 0 0.29484930290521733 -0.47830812440969728 0 0.28726316131630819 -0.46529704539659911 0 0.28063276152355299 -0.47553741157266338 0 0.29484930290521733 -0.47830812440969728 0 0.30084763215015448 -0.46368201221257532 0 0.28726316131630819 -0.46529704539659911 0 0.29484930290521733 -0.47830812440969728 0 0.30084763215015448 -0.46368201221257532 0 0.29484930290521733 -0.47830812440969728 0 0.31024447981213688 -0.48440738564412522 0 0.3135542102669488 -0.46210523026215228 0 0.30084763215015448 -0.46368201221257532 0 0.31024447981213688 -0.48440738564412522 0 0.29454223909489569 -0.49999999999999828 0 0.31024447981213688 -0.48440738564412522 0 0.29454223909489569 -0.49999999999999828 0 0.3028903451636108 -0.49999999999999661 0 0.31024447981213688 -0.48440738564412522 0 0.29454223909489569 -0.49999999999999828 0 0.29484930290521733 -0.47830812440969728 0 0.31024447981213688 -0.48440738564412522 0 0.33758876054940812 -0.29036433843350512 0 0.33460156395450608 -0.27683205593100418 0 0.35682172801062018 -0.29065948993182128 0 0.33758876054940812 -0.29036433843350512 0 0.3286103493722316 -0.29889386119464401 0 0.32739484898624321 -0.28333235486970171 0 0.33758876054940812 -0.29036433843350512 0 0.32739484898624321 -0.28333235486970171 0 0.33460156395450608 -0.27683205593100418 0 0.33758876054940812 -0.29036433843350512 0 0.3417697959262096 -0.29712314203048767 0 0.33606258482003981 -0.3026539850290062 0 0.3286103493722316 -0.29889386119464401 0 0.3301885010145873 -0.31909822891622019 0 0.33606258482003981 -0.3026539850290062 0 0.3286103493722316 -0.29889386119464401 0 0.3301885010145873 -0.31909822891622019 0 0.33606258482003981 -0.3026539850290062 0 0.34350511451260429 -0.30487885942402138 0 0.3301885010145873 -0.31909822891622019 0 0.34578077060599799 -0.30378954261251839 0 0.34551661383212517 -0.31401193153070323 0 0.33882839651918412 -0.31969507712129019 0 0.34578077060599799 -0.30378954261251839 0 0.33882839651918412 -0.31969507712129019 0 0.34350511451260429 -0.30487885942402138 0 0.34578077060599799 -0.30378954261251839 0 0.33882839651918412 -0.31969507712129019 0 0.3417697959262096 -0.29712314203048767 0 0.33606258482003981 -0.3026539850290062 0 0.34350511451260429 -0.30487885942402138 0 0.34350511451260429 -0.30487885942402138 0 0.3301885010145873 -0.31909822891622019 0 0.33758876054940812 -0.29036433843350512 0 0.33606258482003981 -0.3026539850290062 0 0.3286103493722316 -0.29889386119464401 0 0.33606258482003981 -0.3026539850290062 0 0.3286103493722316 -0.29889386119464401 0 0.3286103493722316 -0.29889386119464401 0 0.32351034184133443 -0.29632058502715691 0 0.32351034184133443 -0.29632058502715691 0 0.31712945270501858 -0.31765571291339623 0 0.30664807838180769 -0.30126545295822849 0 0.3286103493722316 -0.29889386119464401 0 0.32475905760065921 -0.30866536559517732 0 0.32351034184133443 -0.29632058502715691 0 0.3286103493722316 -0.29889386119464401 0 0.32475905760065921 -0.30866536559517732 0 0.3301885010145873 -0.31909822891622019 0 0.32351034184133443 -0.29632058502715691 0 0.31712945270501858 -0.31765571291339623 0 0.32475905760065921 -0.30866536559517732 0 0.32351034184133443 -0.29632058502715691 0 0.31712945270501858 -0.31765571291339623 0 0.32701437521673649 -0.27846131983027389 0 0.29972782390996561 -0.28432080145333299 0 0.32739484898624321 -0.28333235486970171 0 0.32701437521673649 -0.27846131983027389 0 0.29972782390996561 -0.28432080145333299 0 0.32351034184133443 -0.29632058502715691 0 0.32739484898624321 -0.28333235486970171 0 0.29972782390996561 -0.28432080145333299 0 0.3286103493722316 -0.29889386119464401 0 0.32351034184133443 -0.29632058502715691 0 0.32739484898624321 -0.28333235486970171 0 0.3286103493722316 -0.29889386119464401 0 0.32739484898624321 -0.28333235486970171 0 0.32351034184133443 -0.29632058502715691 0 0.32739484898624321 -0.28333235486970171 0 0.31426677938739728 -0.27340521883545482 0 0.32701437521673649 -0.27846131983027389 0 0.29972782390996561 -0.28432080145333299 0 0.32649298139278549 -0.27178614853224592 0 0.31293741462306263 -0.26335062553706517 0 0.31426677938739728 -0.27340521883545482 0 0.32649298139278549 -0.27178614853224592 0 0.31293741462306263 -0.26335062553706517 0 0.31426677938739728 -0.27340521883545482 0 0.32649298139278549 -0.27178614853224592 0 0.32701437521673649 -0.27846131983027389 0 0.32649298139278549 -0.27178614853224592 0 0.32701437521673649 -0.27846131983027389 0 0.33016471422681759 -0.27407103910744429 0 0.32649298139278549 -0.27178614853224592 0 0.32701437521673649 -0.27846131983027389 0 0.32739484898624321 -0.28333235486970171 0 0.32701437521673649 -0.27846131983027389 0 0.32897777020272168 -0.278039702722643 0 0.32739484898624321 -0.28333235486970171 0 0.32701437521673649 -0.27846131983027389 0 0.32701437521673649 -0.27846131983027389 0 0.32897777020272168 -0.278039702722643 0 0.30849589603726119 -0.24755155563553849 0 0.31293741462306263 -0.26335062553706517 0 0.32523143608720129 -0.25563514975155688 0 0.32649298139278549 -0.27178614853224592 0 0.32523143608720129 -0.25563514975155688 0 0.33128810686576371 -0.26190370640658811 0 0.32649298139278549 -0.27178614853224592 0 0.32523143608720129 -0.25563514975155688 0 0.32649298139278549 -0.27178614853224592 0 0.31293741462306263 -0.26335062553706517 0 0.32523143608720129 -0.25563514975155688 0 0.32702570909927398 -0.2441270670227802 0 0.32523143608720129 -0.25563514975155688 0 0.33506298212903679 -0.25362145841571748 0 0.32523143608720129 -0.25563514975155688 0 0.33506298212903679 -0.25362145841571748 0 0.33128810686576371 -0.26190370640658811 0 0.33506298212903679 -0.25362145841571748 0 0.33128810686576371 -0.26190370640658811 0 0.33796139781094459 -0.26079537034427552 0 0.33128810686576371 -0.26190370640658811 0 0.3361561917797275 -0.26557454199598751 0 0.33796139781094459 -0.26079537034427552 0 0.33128810686576371 -0.26190370640658811 0 0.3361561917797275 -0.26557454199598751 0 0.33177234930983962 -0.26869575372669252 0 0.3361561917797275 -0.26557454199598751 0 0.34363872351998531 -0.26367046997748239 0 0.33796139781094459 -0.26079537034427552 0 0.34363872351998531 -0.26367046997748239 0 0.34353447791499941 -0.25797381513885642 0 0.33796139781094459 -0.26079537034427552 0 0.33506298212903679 -0.25362145841571748 0 0.34353447791499941 -0.25797381513885642 0 0.34242086953849799 -0.25095729318476512 0 0.33506298212903679 -0.25362145841571748 0 0.34353447791499941 -0.25797381513885642 0 0.33796139781094459 -0.26079537034427552 0 0.33460156395450608 -0.27683205593100418 0 0.33417571128461782 -0.27071661205214098 0 0.36012119810345211 -0.27135200000008708 0 0.33460156395450608 -0.27683205593100418 0 0.33016471422681759 -0.27407103910744429 0 0.33460156395450608 -0.27683205593100418 0 0.33016471422681759 -0.27407103910744429 0 0.33417571128461782 -0.27071661205214098 0 0.33460156395450608 -0.27683205593100418 0 0.32897777020272168 -0.278039702722643 0 0.32739484898624321 -0.28333235486970171 0 0.33460156395450608 -0.27683205593100418 0 0.32897777020272168 -0.278039702722643 0 0.32739484898624321 -0.28333235486970171 0 0.32897777020272168 -0.278039702722643 0 0.32701437521673649 -0.27846131983027389 0 0.32897777020272168 -0.278039702722643 0 0.33016471422681759 -0.27407103910744429 0 0.33460156395450608 -0.27683205593100418 0 0.32897777020272168 -0.278039702722643 0 0.33016471422681759 -0.27407103910744429 0 0.32897777020272168 -0.278039702722643 0 0.33016471422681759 -0.27407103910744429 0 0.32649298139278549 -0.27178614853224592 0 0.33128810686576371 -0.26190370640658811 0 0.33177234930983962 -0.26869575372669252 0 0.32649298139278549 -0.27178614853224592 0 0.33016471422681759 -0.27407103910744429 0 0.33016471422681759 -0.27407103910744429 0 0.33177234930983962 -0.26869575372669252 0 0.32649298139278549 -0.27178614853224592 0 0.33016471422681759 -0.27407103910744429 0 0.33177234930983962 -0.26869575372669252 0 0.3361561917797275 -0.26557454199598751 0 0.33177234930983962 -0.26869575372669252 0 0.33417571128461782 -0.27071661205214098 0 0.33016471422681759 -0.27407103910744429 0 0.33177234930983962 -0.26869575372669252 0 0.33417571128461782 -0.27071661205214098 0 0.3361561917797275 -0.26557454199598751 0 0.34363872351998531 -0.26367046997748239 0 0.33417571128461782 -0.27071661205214098 0 0.33460156395450608 -0.27683205593100418 0 0.36012119810345211 -0.27135200000008708 0 0.35682172801062018 -0.29065948993182128 0 0.33460156395450608 -0.27683205593100418 0 0.36012119810345211 -0.27135200000008708 0 0.33417571128461782 -0.27071661205214098 0 0.35932629303933578 -0.2674596780707349 0 0.34363872351998531 -0.26367046997748239 0 0.33417571128461782 -0.27071661205214098 0 0.35932629303933578 -0.2674596780707349 0 0.33417571128461782 -0.27071661205214098 0 0.35932629303933578 -0.2674596780707349 0 0.36012119810345211 -0.27135200000008708 0 0.34363872351998531 -0.26367046997748239 0 0.35932629303933578 -0.2674596780707349 0 0.3506782692902895 -0.25950280226289879 0 0.34720940831406399 -0.24598207355813639 0 0.34800416067834278 -0.25329173710795228 0 0.35617777833386288 -0.25204270139510482 0 0.34720940831406399 -0.24598207355813639 0 0.34242086953849799 -0.25095729318476512 0 0.34800416067834278 -0.25329173710795228 0 0.34353447791499941 -0.25797381513885642 0 0.34242086953849799 -0.25095729318476512 0 0.34800416067834278 -0.25329173710795228 0 0.34353447791499941 -0.25797381513885642 0 0.34800416067834278 -0.25329173710795228 0 0.3506782692902895 -0.25950280226289879 0 0.34363872351998531 -0.26367046997748239 0 0.34353447791499941 -0.25797381513885642 0 0.3506782692902895 -0.25950280226289879 0 0.35932629303933578 -0.2674596780707349 0 0.35617777833386288 -0.25204270139510482 0 0.35932629303933578 -0.2674596780707349 0 0.3506782692902895 -0.25950280226289879 0 0.35617777833386288 -0.25204270139510482 0 0.34800416067834278 -0.25329173710795228 0 0.3506782692902895 -0.25950280226289879 0 0.35617777833386288 -0.25204270139510482 0 0.38120157997248572 -0.26462688612737401 0 0.35932629303933578 -0.2674596780707349 0 0.36723018814238761 -0.25738703424009551 0 0.36621585238029158 -0.2454511906244452 0 0.35617777833386288 -0.25204270139510482 0 0.36723018814238761 -0.25738703424009551 0 0.35932629303933578 -0.2674596780707349 0 0.35617777833386288 -0.25204270139510482 0 0.36723018814238761 -0.25738703424009551 0 0.36621585238029158 -0.2454511906244452 0 0.37532225099759159 -0.25128252167239618 0 0.36723018814238761 -0.25738703424009551 0 0.37532225099759159 -0.25128252167239618 0 0.38120157997248572 -0.26462688612737401 0 0.36723018814238761 -0.25738703424009551 0 0.37862455607166101 -0.26737861088393527 0 0.36012119810345211 -0.27135200000008708 0 0.37862455607166101 -0.26737861088393527 0 0.38120157997248572 -0.26462688612737401 0 0.35932629303933578 -0.2674596780707349 0 0.37862455607166101 -0.26737861088393527 0 0.36276763346070923 -0.28431050138656389 0 0.38120157997248572 -0.26462688612737401 0 0.35932629303933578 -0.2674596780707349 0 0.37862455607166101 -0.26737861088393527 0 0.35932629303933578 -0.2674596780707349 0 0.36012119810345211 -0.27135200000008708 0 0.37862455607166101 -0.26737861088393527 0 0.36012119810345211 -0.27135200000008708 0 0.36276763346070923 -0.28431050138656389 0 0.37985785184458382 -0.2875958442705161 0 0.37862455607166101 -0.26737861088393527 0 0.36276763346070923 -0.28431050138656389 0 0.36012119810345211 -0.27135200000008708 0 0.36276763346070923 -0.28431050138656389 0 0.35932629303933578 -0.2674596780707349 0 0.36012119810345211 -0.27135200000008708 0 0.36012119810345211 -0.27135200000008708 0 0.36276763346070923 -0.28431050138656389 0 0.35682172801062018 -0.29065948993182128 0 0.37985785184458382 -0.2875958442705161 0 0.36511868291727351 -0.2958226199649644 0 0.36276763346070923 -0.28431050138656389 0 0.36511868291727351 -0.2958226199649644 0 0.36276763346070923 -0.28431050138656389 0 0.36511868291727351 -0.2958226199649644 0 0.36276763346070923 -0.28431050138656389 0 0.35682172801062018 -0.29065948993182128 0 0.36511868291727351 -0.2958226199649644 0 0.35682172801062018 -0.29065948993182128 0 0.35732162111392352 -0.30134895972465231 0 0.36511868291727351 -0.2958226199649644 0 0.35682172801062018 -0.29065948993182128 0 0.36276763346070923 -0.28431050138656389 0 0.35682172801062018 -0.29065948993182128 0 0.33758876054940812 -0.29036433843350512 0 0.3417697959262096 -0.29712314203048767 0 0.35682172801062018 -0.29065948993182128 0 0.33460156395450608 -0.27683205593100418 0 0.35682172801062018 -0.29065948993182128 0 0.34809060902917233 -0.30806099660624542 0 0.34578077060599799 -0.30378954261251839 0 0.34551661383212517 -0.31401193153070323 0 0.34963250376115013 -0.30563580049135541 0 0.34809060902917233 -0.30806099660624542 0 0.34578077060599799 -0.30378954261251839 0 0.34963250376115013 -0.30563580049135541 0 0.35219783428182172 -0.30204810091015039 0 0.35246080112760841 -0.30864456183650729 0 0.34963250376115013 -0.30563580049135541 0 0.34809060902917233 -0.30806099660624542 0 0.35246080112760841 -0.30864456183650729 0 0.34809060902917233 -0.30806099660624542 0 0.35246080112760841 -0.30864456183650729 0 0.34551661383212517 -0.31401193153070323 0 0.34350511451260429 -0.30487885942402138 0 0.35682172801062018 -0.29065948993182128 0 0.34578077060599799 -0.30378954261251839 0 0.3417697959262096 -0.29712314203048767 0 0.34350511451260429 -0.30487885942402138 0 0.35682172801062018 -0.29065948993182128 0 0.34350511451260429 -0.30487885942402138 0 0.35682172801062018 -0.29065948993182128 0 0.34963250376115013 -0.30563580049135541 0 0.34578077060599799 -0.30378954261251839 0 0.35219783428182172 -0.30204810091015039 0 0.35682172801062018 -0.29065948993182128 0 0.35219783428182172 -0.30204810091015039 0 0.35732162111392352 -0.30134895972465231 0 0.35682172801062018 -0.29065948993182128 0 0.34578077060599799 -0.30378954261251839 0 0.35219783428182172 -0.30204810091015039 0 0.35219783428182172 -0.30204810091015039 0 0.35732162111392352 -0.30134895972465231 0 0.35246080112760841 -0.30864456183650729 0 0.35246080112760841 -0.30864456183650729 0 0.36035752927565479 -0.30755943693916821 0 0.3569453797468391 -0.3182408664722236 0 0.35732162111392352 -0.30134895972465231 0 0.35246080112760841 -0.30864456183650729 0 0.36035752927565479 -0.30755943693916821 0 0.36511868291727351 -0.2958226199649644 0 0.36035752927565479 -0.30755943693916821 0 0.36852419321261798 -0.31249799794580152 0 0.38555176309506117 -0.30853796566980568 0 0.36511868291727351 -0.2958226199649644 0 0.36852419321261798 -0.31249799794580152 0 0.36511868291727351 -0.2958226199649644 0 0.36852419321261798 -0.31249799794580152 0 0.36511868291727351 -0.2958226199649644 0 0.35732162111392352 -0.30134895972465231 0 0.36035752927565479 -0.30755943693916821 0 0.3786509775467769 -0.31917699700922242 0 0.36852419321261798 -0.31249799794580152 0 0.37192970350796201 -0.32917337592663881 0 0.36852419321261798 -0.31249799794580152 0 0.37192970350796201 -0.32917337592663881 0 0.3569453797468391 -0.3182408664722236 0 0.37192970350796201 -0.32917337592663881 0 0.35190286297016682 -0.33238699377835212 0 0.3569453797468391 -0.3182408664722236 0 0.36852419321261798 -0.31249799794580152 0 0.37192970350796201 -0.32917337592663881 0 0.36035752927565479 -0.30755943693916821 0 0.36852419321261798 -0.31249799794580152 0 0.3569453797468391 -0.3182408664722236 0 0.37192970350796201 -0.32917337592663881 0 0.35827893973938257 -0.34329176683435819 0 0.35190286297016682 -0.33238699377835212 0 0.37192970350796201 -0.32917337592663881 0 0.35190286297016682 -0.33238699377835212 0 0.37192970350796201 -0.32917337592663881 0 0.37489513448604722 -0.34369386717379802 0 0.35827893973938257 -0.34329176683435819 0 0.37192970350796201 -0.32917337592663881 0 0.37489513448604722 -0.34369386717379802 0 0.35827893973938257 -0.34329176683435819 0 0.35190286297016682 -0.33238699377835212 0 0.34146226549020547 -0.34025145400604562 0 0.34721747017173299 -0.32279067797254829 0 0.34551661383212517 -0.31401193153070323 0 0.3569453797468391 -0.3182408664722236 0 0.34721747017173299 -0.32279067797254829 0 0.34551661383212517 -0.31401193153070323 0 0.33882839651918412 -0.31969507712129019 0 0.35246080112760841 -0.30864456183650729 0 0.34551661383212517 -0.31401193153070323 0 0.3569453797468391 -0.3182408664722236 0 0.35190286297016682 -0.33238699377835212 0 0.34721747017173299 -0.32279067797254829 0 0.3569453797468391 -0.3182408664722236 0 0.38065264769778451 -0.35600786877680118 0 0.36962124500067473 -0.37726096341001919 0 0.36048977057726561 -0.35896956162107979 0 0.36962124500067473 -0.37726096341001919 0 0.36048977057726561 -0.35896956162107979 0 0.35424404222816719 -0.36974993331113348 0 0.38065264769778451 -0.35600786877680118 0 0.37489513448604722 -0.34369386717379802 0 0.36048977057726561 -0.35896956162107979 0 0.37489513448604722 -0.34369386717379802 0 0.35827893973938257 -0.34329176683435819 0 0.36048977057726561 -0.35896956162107979 0 0.36048977057726561 -0.35896956162107979 0 0.34562806742009899 -0.34973524492202962 0 0.34278354038195169 -0.35971411523677799 0 0.35827893973938257 -0.34329176683435819 0 0.36048977057726561 -0.35896956162107979 0 0.34562806742009899 -0.34973524492202962 0 0.35827893973938257 -0.34329176683435819 0 0.34562806742009899 -0.34973524492202962 0 0.34146226549020547 -0.34025145400604562 0 0.36048977057726561 -0.35896956162107979 0 0.35424404222816719 -0.36974993331113348 0 0.34278354038195169 -0.35971411523677799 0 0.34398966847398132 -0.37011640053262618 0 0.35424404222816719 -0.36974993331113348 0 0.34278354038195169 -0.35971411523677799 0 0.35290629701171339 -0.38064844620532862 0 0.34398966847398132 -0.37011640053262618 0 0.35424404222816719 -0.36974993331113348 0 0.33500211847243883 -0.37483873349544478 0 0.33387003697005879 -0.36623128269142369 0 0.32625814702158668 -0.37282061125065519 0 0.34398966847398132 -0.37011640053262618 0 0.33500211847243883 -0.37483873349544478 0 0.33387003697005879 -0.36623128269142369 0 0.34398966847398132 -0.37011640053262618 0 0.34278354038195169 -0.35971411523677799 0 0.33387003697005879 -0.36623128269142369 0 0.34562806742009899 -0.34973524492202962 0 0.34278354038195169 -0.35971411523677799 0 0.33153791219128559 -0.33637413503950531 0 0.33387003697005879 -0.36623128269142369 0 0.33153791219128559 -0.33637413503950531 0 0.33387003697005879 -0.36623128269142369 0 0.32393167706223008 -0.3537755627843765 0 0.33153791219128559 -0.33637413503950531 0 0.34278354038195169 -0.35971411523677799 0 0.33387003697005879 -0.36623128269142369 0 0.33153791219128559 -0.33637413503950531 0 0.32393167706223008 -0.3537755627843765 0 0.33153791219128559 -0.33637413503950531 0 0.32393167706223008 -0.3537755627843765 0 0.33153791219128559 -0.33637413503950531 0 0.32228733781021551 -0.34243415019816881 0 0.31493709525240382 -0.34716888925057759 0 0.32393167706223008 -0.3537755627843765 0 0.32228733781021551 -0.34243415019816881 0 0.31493709525240382 -0.34716888925057759 0 0.31455291482099162 -0.35544410608228261 0 0.32393167706223008 -0.3537755627843765 0 0.33387003697005879 -0.36623128269142369 0 0.32393167706223008 -0.3537755627843765 0 0.32625814702158668 -0.37282061125065519 0 0.31455291482099162 -0.35544410608228261 0 0.32393167706223008 -0.3537755627843765 0 0.31632544193317741 -0.37117699052924891 0 0.31455291482099162 -0.35544410608228261 0 0.31632544193317741 -0.37117699052924891 0 0.30986451065934051 -0.36175851054409991 0 0.32393167706223008 -0.3537755627843765 0 0.31632544193317741 -0.37117699052924891 0 0.32393167706223008 -0.3537755627843765 0 0.31632544193317741 -0.37117699052924891 0 0.32625814702158668 -0.37282061125065519 0 0.3301885010145873 -0.31909822891622019 0 0.33153791219128559 -0.33637413503950531 0 0.34721747017173299 -0.32279067797254829 0 0.33882839651918412 -0.31969507712129019 0 0.33153791219128559 -0.33637413503950531 0 0.3301885010145873 -0.31909822891622019 0 0.33882839651918412 -0.31969507712129019 0 0.33153791219128559 -0.33637413503950531 0 0.33882839651918412 -0.31969507712129019 0 0.33153791219128559 -0.33637413503950531 0 0.34350511451260429 -0.30487885942402138 0 0.3301885010145873 -0.31909822891622019 0 0.33882839651918412 -0.31969507712129019 0 0.35190286297016682 -0.33238699377835212 0 0.34146226549020547 -0.34025145400604562 0 0.33153791219128559 -0.33637413503950531 0 0.35190286297016682 -0.33238699377835212 0 0.34721747017173299 -0.32279067797254829 0 0.33153791219128559 -0.33637413503950531 0 0.35190286297016682 -0.33238699377835212 0 0.33153791219128559 -0.33637413503950531 0 0.34562806742009899 -0.34973524492202962 0 0.34146226549020547 -0.34025145400604562 0 0.33153791219128559 -0.33637413503950531 0 0.33153791219128559 -0.33637413503950531 0 0.32228733781021551 -0.34243415019816881 0 0.31170212601128011 -0.33883782688401581 0 0.3301885010145873 -0.31909822891622019 0 0.31170212601128011 -0.33883782688401581 0 0.31712945270501858 -0.31765571291339623 0 0.31036839405486349 -0.34026197480980858 0 0.3301885010145873 -0.31909822891622019 0 0.33153791219128559 -0.33637413503950531 0 0.31170212601128011 -0.33883782688401581 0 0.33153791219128559 -0.33637413503950531 0 0.31170212601128011 -0.33883782688401581 0 0.31712945270501858 -0.31765571291339623 0 0.31036839405486349 -0.34026197480980858 0 0.31170212601128011 -0.33883782688401581 0 0.31493709525240382 -0.34716888925057759 0 0.32228733781021551 -0.34243415019816881 0 0.31170212601128011 -0.33883782688401581 0 0.3301885010145873 -0.31909822891622019 0 0.31712945270501858 -0.31765571291339623 0 0.31170212601128011 -0.33883782688401581 0 0.32475905760065921 -0.30866536559517732 0 0.3301885010145873 -0.31909822891622019 0 0.31712945270501858 -0.31765571291339623 0 0.31712945270501858 -0.31765571291339623 0 0.30092067844291898 -0.31277791362215529 0 0.29726606891323087 -0.32710487136033822 0 0.31712945270501858 -0.31765571291339623 0 0.29726606891323087 -0.32710487136033822 0 0.31036839405486349 -0.34026197480980858 0 0.29726606891323087 -0.32710487136033822 0 0.31036839405486349 -0.34026197480980858 0 0.28327202723396211 -0.34339987813639627 0 0.31493709525240382 -0.34716888925057759 0 0.31036839405486349 -0.34026197480980858 0 0.31170212601128011 -0.33883782688401581 0 0.31036839405486349 -0.34026197480980858 0 0.31170212601128011 -0.33883782688401581 0 0.29726606891323087 -0.32710487136033822 0 0.28327202723396211 -0.34339987813639627 0 0.28266629596104131 -0.32943553622650451 0 0.31036839405486349 -0.34026197480980858 0 0.28327202723396211 -0.34339987813639627 0 0.28266629596104131 -0.32943553622650451 0 0.2881717082598888 -0.3187537807818599 0 0.27559681460208318 -0.32151143284326078 0 0.30092067844291898 -0.31277791362215529 0 0.29726606891323087 -0.32710487136033822 0 0.2881717082598888 -0.3187537807818599 0 0.29726606891323087 -0.32710487136033822 0 0.28266629596104131 -0.32943553622650451 0 0.2881717082598888 -0.3187537807818599 0 0.2969367092771778 -0.37669290262866761 0 0.30733308420158872 -0.37446473629577071 0 0.30645727397209449 -0.36288407395584937 0 0.31632544193317741 -0.37117699052924891 0 0.30733308420158872 -0.37446473629577071 0 0.30645727397209449 -0.36288407395584937 0 0.31632544193317741 -0.37117699052924891 0 0.30645727397209449 -0.36288407395584937 0 0.31632544193317741 -0.37117699052924891 0 0.30986451065934051 -0.36175851054409991 0 0.30645727397209449 -0.36288407395584937 0 0.30986451065934051 -0.36175851054409991 0 0.30645727397209449 -0.36288407395584937 0 0.30688905738443423 -0.35742135589017171 0 0.30986451065934051 -0.36175851054409991 0 0.30645727397209449 -0.36288407395584937 0 0.30645727397209449 -0.36288407395584937 0 0.29679046571490397 -0.35476037412381528 0 0.30645727397209449 -0.36288407395584937 0 0.30688905738443423 -0.35742135589017171 0 0.29679046571490397 -0.35476037412381528 0 0.30688905738443423 -0.35742135589017171 0 0.30678012175483971 -0.35225971474481138 0 0.29679046571490397 -0.35476037412381528 0 0.31493709525240382 -0.34716888925057759 0 0.31455291482099162 -0.35544410608228261 0 0.30678012175483971 -0.35225971474481138 0 0.31455291482099162 -0.35544410608228261 0 0.30986451065934051 -0.36175851054409991 0 0.30688905738443423 -0.35742135589017171 0 0.31455291482099162 -0.35544410608228261 0 0.30688905738443423 -0.35742135589017171 0 0.30678012175483971 -0.35225971474481138 0 0.31036839405486349 -0.34026197480980858 0 0.30678012175483971 -0.35225971474481138 0 0.31493709525240382 -0.34716888925057759 0 0.31036839405486349 -0.34026197480980858 0 0.30678012175483971 -0.35225971474481138 0 0.31036839405486349 -0.34026197480980858 0 0.30678012175483971 -0.35225971474481138 0 0.29679046571490397 -0.35476037412381528 0 0.31036839405486349 -0.34026197480980858 0 0.29679046571490397 -0.35476037412381528 0 0.31036839405486349 -0.34026197480980858 0 0.28327202723396211 -0.34339987813639627 0 0.29679046571490397 -0.35476037412381528 0 0.28327202723396211 -0.34339987813639627 0 0.29679046571490397 -0.35476037412381528 0 0.2771261801961229 -0.35606842209530432 0 0.28327202723396211 -0.34339987813639627 0 0.29679046571490397 -0.35476037412381528 0 0.29679046571490397 -0.35476037412381528 0 0.2814441633282761 -0.37114702858419601 0 0.2771261801961229 -0.35606842209530432 0 0.30645727397209449 -0.36288407395584937 0 0.29679046571490397 -0.35476037412381528 0 0.2814441633282761 -0.37114702858419601 0 0.29679046571490397 -0.35476037412381528 0 0.2814441633282761 -0.37114702858419601 0 0.2969367092771778 -0.37669290262866761 0 0.30645727397209449 -0.36288407395584937 0 0.2814441633282761 -0.37114702858419601 0 0.30645727397209449 -0.36288407395584937 0 0.2814441633282761 -0.37114702858419601 0 0.2814441633282761 -0.37114702858419601 0 0.2771261801961229 -0.35606842209530432 0 0.26150643478340069 -0.36277241104851821 0 0.27547401724199572 -0.37752190107981182 0 0.2814441633282761 -0.37114702858419601 0 0.2771261801961229 -0.35606842209530432 0 0.26337993248748381 -0.34659187393147128 0 0.26150643478340069 -0.36277241104851821 0 0.28327202723396211 -0.34339987813639627 0 0.26337993248748381 -0.34659187393147128 0 0.28327202723396211 -0.34339987813639627 0 0.2771261801961229 -0.35606842209530432 0 0.26337993248748381 -0.34659187393147128 0 0.26337993248748381 -0.34659187393147128 0 0.2434878377410051 -0.34978386972654379 0 0.26337993248748381 -0.34659187393147128 0 0.26150643478340069 -0.36277241104851821 0 0.2434878377410051 -0.34978386972654379 0 0.2538544495678508 -0.38026115102412972 0 0.26150643478340069 -0.36277241104851821 0 0.24132947909497821 -0.36614042828414228 0 0.2538544495678508 -0.38026115102412972 0 0.2814441633282761 -0.37114702858419601 0 0.26150643478340069 -0.36277241104851821 0 0.28266629596104131 -0.32943553622650451 0 0.27559681460208318 -0.32151143284326078 0 0.26572396171835422 -0.32865300273668607 0 0.27559681460208318 -0.32151143284326078 0 0.26572396171835422 -0.32865300273668607 0 0.26400810641667721 -0.31981656621423998 0 0.27559681460208318 -0.32151143284326078 0 0.26400810641667721 -0.31981656621423998 0 0.27672631334660303 -0.30928271257493473 0 0.2881717082598888 -0.3187537807818599 0 0.27559681460208318 -0.32151143284326078 0 0.27672631334660303 -0.30928271257493473 0 0.28327202723396211 -0.34339987813639627 0 0.26337993248748381 -0.34659187393147128 0 0.26572396171835422 -0.32865300273668607 0 0.28327202723396211 -0.34339987813639627 0 0.28266629596104131 -0.32943553622650451 0 0.26572396171835422 -0.32865300273668607 0 0.28327202723396211 -0.34339987813639627 0 0.26572396171835422 -0.32865300273668607 0 0.26337993248748381 -0.34659187393147128 0 0.24769173205311679 -0.33305862008134313 0 0.2434878377410051 -0.34978386972654379 0 0.26337993248748381 -0.34659187393147128 0 0.26572396171835422 -0.32865300273668607 0 0.24769173205311679 -0.33305862008134313 0 0.26400810641667721 -0.31981656621423998 0 0.24900429298711979 -0.30912578976915372 0 0.2481758962027453 -0.3139061273369772 0 0.26572396171835422 -0.32865300273668607 0 0.26400810641667721 -0.31981656621423998 0 0.2481758962027453 -0.3139061273369772 0 0.26572396171835422 -0.32865300273668607 0 0.2481758962027453 -0.3139061273369772 0 0.24769173205311679 -0.33305862008134313 0 0.26572396171835422 -0.32865300273668607 0 0.2481758962027453 -0.3139061273369772 0 0.26400810641667721 -0.31981656621423998 0 0.25774643065133568 -0.30895210730775852 0 0.24900429298711979 -0.30912578976915372 0 0.26400810641667721 -0.31981656621423998 0 0.24900429298711979 -0.30912578976915372 0 0.25774643065133568 -0.30895210730775852 0 0.25387071989585752 -0.30254402726851232 0 0.24900429298711979 -0.30912578976915372 0 0.25387071989585752 -0.30254402726851232 0 0.26410260330568841 -0.30432204597912799 0 0.2559095943416968 -0.2937302760338239 0 0.26400810641667721 -0.31981656621423998 0 0.25774643065133568 -0.30895210730775852 0 0.26410260330568841 -0.30432204597912799 0 0.25774643065133568 -0.30895210730775852 0 0.25387071989585752 -0.30254402726851232 0 0.26410260330568841 -0.30432204597912799 0 0.2559095943416968 -0.2937302760338239 0 0.26352414462574508 -0.27935265603875459 0 0.2441594025901446 -0.28378404858921891 0 0.2559095943416968 -0.2937302760338239 0 0.27781870912583118 -0.28902553874357872 0 0.26410260330568841 -0.30432204597912799 0 0.2559095943416968 -0.2937302760338239 0 0.27781870912583118 -0.28902553874357872 0 0.2559095943416968 -0.2937302760338239 0 0.27781870912583118 -0.28902553874357872 0 0.26352414462574508 -0.27935265603875459 0 0.26410260330568841 -0.30432204597912799 0 0.27781870912583118 -0.28902553874357872 0 0.27672631334660303 -0.30928271257493473 0 0.26400810641667721 -0.31981656621423998 0 0.26410260330568841 -0.30432204597912799 0 0.27672631334660303 -0.30928271257493473 0 0.30092067844291898 -0.31277791362215529 0 0.2881717082598888 -0.3187537807818599 0 0.29172647307682009 -0.30159633177327799 0 0.27781870912583118 -0.28902553874357872 0 0.27672631334660303 -0.30928271257493473 0 0.29172647307682009 -0.30159633177327799 0 0.2881717082598888 -0.3187537807818599 0 0.27672631334660303 -0.30928271257493473 0 0.29172647307682009 -0.30159633177327799 0 0.27781870912583118 -0.28902553874357872 0 0.29172647307682009 -0.30159633177327799 0 0.29972782390996561 -0.28432080145333299 0 0.27781870912583118 -0.28902553874357872 0 0.29972782390996561 -0.28432080145333299 0 0.27781870912583118 -0.28902553874357872 0 0.29972782390996561 -0.28432080145333299 0 0.28051739643085422 -0.27462792651152768 0 0.32351034184133443 -0.29632058502715691 0 0.29972782390996561 -0.28432080145333299 0 0.30664807838180769 -0.30126545295822849 0 0.32351034184133443 -0.29632058502715691 0 0.29972782390996561 -0.28432080145333299 0 0.29172647307682009 -0.30159633177327799 0 0.29972782390996561 -0.28432080145333299 0 0.30664807838180769 -0.30126545295822849 0 0.31712945270501858 -0.31765571291339623 0 0.30092067844291898 -0.31277791362215529 0 0.30664807838180769 -0.30126545295822849 0 0.30092067844291898 -0.31277791362215529 0 0.29172647307682009 -0.30159633177327799 0 0.30664807838180769 -0.30126545295822849 0 0.30849589603726119 -0.24755155563553849 0 0.29053066305545472 -0.24930972454324049 0 0.30274386663821001 -0.25857129269346191 0 0.30849589603726119 -0.24755155563553849 0 0.31293741462306263 -0.26335062553706517 0 0.30274386663821001 -0.25857129269346191 0 0.30274386663821001 -0.25857129269346191 0 0.30516130179443618 -0.26910719882435691 0 0.29371570211740372 -0.26675079468930762 0 0.31293741462306263 -0.26335062553706517 0 0.30274386663821001 -0.25857129269346191 0 0.30516130179443618 -0.26910719882435691 0 0.29972782390996561 -0.28432080145333299 0 0.30516130179443618 -0.26910719882435691 0 0.29371570211740372 -0.26675079468930762 0 0.31426677938739728 -0.27340521883545482 0 0.31293741462306263 -0.26335062553706517 0 0.30516130179443618 -0.26910719882435691 0 0.31426677938739728 -0.27340521883545482 0 0.29972782390996561 -0.28432080145333299 0 0.30516130179443618 -0.26910719882435691 0 0.29972782390996561 -0.28432080145333299 0 0.29371570211740372 -0.26675079468930762 0 0.28051739643085422 -0.27462792651152768 0 0.29972782390996561 -0.28432080145333299 0 0.28051739643085422 -0.27462792651152768 0 0.29371570211740372 -0.26675079468930762 0 0.2749983627915108 -0.25641595150652408 0 0.28051739643085422 -0.27462792651152768 0 0.29053066305545472 -0.24930972454324049 0 0.29371570211740372 -0.26675079468930762 0 0.2749983627915108 -0.25641595150652408 0 0.29053066305545472 -0.24930972454324049 0 0.30274386663821001 -0.25857129269346191 0 0.29371570211740372 -0.26675079468930762 0 0.2749983627915108 -0.25641595150652408 0 0.28051739643085422 -0.27462792651152768 0 0.26130696895174249 -0.26493505156972302 0 0.28051739643085422 -0.27462792651152768 0 0.26352414462574508 -0.27935265603875459 0 0.26130696895174249 -0.26493505156972302 0 0.27781870912583118 -0.28902553874357872 0 0.28051739643085422 -0.27462792651152768 0 0.26352414462574508 -0.27935265603875459 0 0.28051739643085422 -0.27462792651152768 0 0.26130696895174249 -0.26493505156972302 0 0.26352414462574508 -0.27935265603875459 0 0.2467510508785479 -0.26990047560976532 0 0.2441594025901446 -0.28378404858921891 0 0.26352414462574508 -0.27935265603875459 0 0.26130696895174249 -0.26493505156972302 0 0.2467510508785479 -0.26990047560976532 0 0.26130696895174249 -0.26493505156972302 0 0.24209654147263079 -0.25524217662791832 0 0.2467510508785479 -0.26990047560976532 0 0.25655956082222359 -0.25080388744885951 0 0.26130696895174249 -0.26493505156972302 0 0.24209654147263079 -0.25524217662791832 0 0.2749983627915108 -0.25641595150652408 0 0.25655956082222359 -0.25080388744885951 0 0.26130696895174249 -0.26493505156972302 0 0.26130696895174249 -0.26493505156972302 0 0.24209654147263079 -0.25524217662791832 0 0.24209654147263079 -0.25524217662791832 0 0.23130675506740919 -0.2608036444855808 0 0.23799222890640129 -0.2431198439712699 0 0.24209654147263079 -0.25524217662791832 0 0.2467510508785479 -0.26990047560976532 0 0.23130675506740919 -0.2608036444855808 0 0.2467510508785479 -0.26990047560976532 0 0.23255144990387991 -0.27580822636713448 0 0.23130675506740919 -0.2608036444855808 0 0.2467510508785479 -0.26990047560976532 0 0.23255144990387991 -0.27580822636713448 0 0.2441594025901446 -0.28378404858921891 0 0.23255144990387991 -0.27580822636713448 0 0.2217956253442174 -0.27898266791281551 0 0.22967078209530109 -0.285458092221681 0 0.23255144990387991 -0.27580822636713448 0 0.2188685034190255 -0.26881786996371931 0 0.23130675506740919 -0.2608036444855808 0 0.2188685034190255 -0.26881786996371931 0 0.2217956253442174 -0.27898266791281551 0 0.21577340532165359 -0.2765583362427404 0 0.23255144990387991 -0.27580822636713448 0 0.2188685034190255 -0.26881786996371931 0 0.2217956253442174 -0.27898266791281551 0 0.23130675506740919 -0.2608036444855808 0 0.20958075582396971 -0.25193327437367768 0 0.23799222890640129 -0.2431198439712699 0 0.2188685034190255 -0.26881786996371931 0 0.23130675506740919 -0.2608036444855808 0 0.20958075582396971 -0.25193327437367768 0 0.2188685034190255 -0.26881786996371931 0 0.20958075582396971 -0.25193327437367768 0 0.20359711304580699 -0.26712295308583822 0 0.2188685034190255 -0.26881786996371931 0 0.21220242454795141 -0.27376633025476549 0 0.20359711304580699 -0.26712295308583822 0 0.2188685034190255 -0.26881786996371931 0 0.21577340532165359 -0.2765583362427404 0 0.21220242454795141 -0.27376633025476549 0 0.2217956253442174 -0.27898266791281551 0 0.21577340532165359 -0.2765583362427404 0 0.21069166528908681 -0.28182661415180038 0 0.21577340532165359 -0.2765583362427404 0 0.21220242454795141 -0.27376633025476549 0 0.21069166528908681 -0.28182661415180038 0 0.21220242454795141 -0.27376633025476549 0 0.20359711304580699 -0.26712295308583822 0 0.21069166528908681 -0.28182661415180038 0 0.20359711304580699 -0.26712295308583822 0 0.21069166528908681 -0.28182661415180038 0 0.18738285102061111 -0.2652182149795333 0 0.1957795667923444 -0.27809437373674911 0 0.21069166528908681 -0.28182661415180038 0 0.18738285102061111 -0.2652182149795333 0 0.18974957946099541 -0.27285072447840009 0 0.19397639628142599 -0.29336031216846192 0 0.18295576915147041 -0.26864349899846729 0 0.19397639628142599 -0.29336031216846192 0 0.18295576915147041 -0.26864349899846729 0 0.21069166528908681 -0.28182661415180038 0 0.18738285102061111 -0.2652182149795333 0 0.1957795667923444 -0.27809437373674911 0 0.18974957946099541 -0.27285072447840009 0 0.18738285102061111 -0.2652182149795333 0 0.20958075582396971 -0.25193327437367768 0 0.19027000216824391 -0.25306176427082933 0 0.19612993758727559 -0.26072290227330591 0 0.19612993758727559 -0.26072290227330591 0 0.18738285102061111 -0.2652182149795333 0 0.18668260305280529 -0.25953061020317131 0 0.20359711304580699 -0.26712295308583822 0 0.19612993758727559 -0.26072290227330591 0 0.18738285102061111 -0.2652182149795333 0 0.19027000216824391 -0.25306176427082933 0 0.19612993758727559 -0.26072290227330591 0 0.18668260305280529 -0.25953061020317131 0 0.20958075582396971 -0.25193327437367768 0 0.20359711304580699 -0.26712295308583822 0 0.19612993758727559 -0.26072290227330591 0 0.19397639628142599 -0.29336031216846192 0 0.2049970234113816 -0.31807712533845661 0 0.1784249191452307 -0.30111137083421752 0 0.19397639628142599 -0.29336031216846192 0 0.20770414304562701 -0.29804689472344592 0 0.2049970234113816 -0.31807712533845661 0 0.19397639628142599 -0.29336031216846192 0 0.2049970234113816 -0.31807712533845661 0 0.1957795667923444 -0.27809437373674911 0 0.18974957946099541 -0.27285072447840009 0 0.19397639628142599 -0.29336031216846192 0 0.1957795667923444 -0.27809437373674911 0 0.19397639628142599 -0.29336031216846192 0 0.2015937375469391 -0.28652058951586262 0 0.1957795667923444 -0.27809437373674911 0 0.2015937375469391 -0.28652058951586262 0 0.21069166528908681 -0.28182661415180038 0 0.19397639628142599 -0.29336031216846192 0 0.2015937375469391 -0.28652058951586262 0 0.20770414304562701 -0.29804689472344592 0 0.2015937375469391 -0.28652058951586262 0 0.2099919031564482 -0.28935116285369339 0 0.20770414304562701 -0.29804689472344592 0 0.2099919031564482 -0.28935116285369339 0 0.21503564027571159 -0.29439081820879781 0 0.20770414304562701 -0.29804689472344592 0 0.2015937375469391 -0.28652058951586262 0 0.2099919031564482 -0.28935116285369339 0 0.21069166528908681 -0.28182661415180038 0 0.2099919031564482 -0.28935116285369339 0 0.21069166528908681 -0.28182661415180038 0 0.2149343296248763 -0.28597089766856032 0 0.2099919031564482 -0.28935116285369339 0 0.2149343296248763 -0.28597089766856032 0 0.21503564027571159 -0.29439081820879781 0 0.20770414304562701 -0.29804689472344592 0 0.21945483213456279 -0.30155852837778102 0 0.21868588879888029 -0.31417531643952817 0 0.21503564027571159 -0.29439081820879781 0 0.20770414304562701 -0.29804689472344592 0 0.21945483213456279 -0.30155852837778102 0 0.20770414304562701 -0.29804689472344592 0 0.2049970234113816 -0.31807712533845661 0 0.21868588879888029 -0.31417531643952817 0 0.21945483213456279 -0.30155852837778102 0 0.2272899734249467 -0.31083041129803812 0 0.21868588879888029 -0.31417531643952817 0 0.21503564027571159 -0.29439081820879781 0 0.21945483213456279 -0.30155852837778102 0 0.23062783068713749 -0.299159251937267 0 0.21945483213456279 -0.30155852837778102 0 0.23062783068713749 -0.299159251937267 0 0.2272899734249467 -0.31083041129803812 0 0.21945483213456279 -0.30155852837778102 0 0.23062783068713749 -0.299159251937267 0 0.23062783068713749 -0.299159251937267 0 0.23400047955756209 -0.29843501332406808 0 0.21069166528908681 -0.28182661415180038 0 0.23400047955756209 -0.29843501332406808 0 0.22967078209530109 -0.285458092221681 0 0.21069166528908681 -0.28182661415180038 0 0.2149343296248763 -0.28597089766856032 0 0.23400047955756209 -0.29843501332406808 0 0.2149343296248763 -0.28597089766856032 0 0.23062783068713749 -0.299159251937267 0 0.2217956253442174 -0.27898266791281551 0 0.21069166528908681 -0.28182661415180038 0 0.22967078209530109 -0.285458092221681 0 0.2149343296248763 -0.28597089766856032 0 0.21503564027571159 -0.29439081820879781 0 0.23062783068713749 -0.299159251937267 0 0.2149343296248763 -0.28597089766856032 0 0.23062783068713749 -0.299159251937267 0 0.23400047955756209 -0.29843501332406808 0 0.21069166528908681 -0.28182661415180038 0 0.23400047955756209 -0.29843501332406808 0 0.2559095943416968 -0.2937302760338239 0 0.23400047955756209 -0.29843501332406808 0 0.2441594025901446 -0.28378404858921891 0 0.2559095943416968 -0.2937302760338239 0 0.23400047955756209 -0.29843501332406808 0 0.23255144990387991 -0.27580822636713448 0 0.22967078209530109 -0.285458092221681 0 0.2441594025901446 -0.28378404858921891 0 0.23400047955756209 -0.29843501332406808 0 0.22967078209530109 -0.285458092221681 0 0.2441594025901446 -0.28378404858921891 0 0.23062783068713749 -0.299159251937267 0 0.23400047955756209 -0.29843501332406808 0 0.2481758962027453 -0.3139061273369772 0 0.23062783068713749 -0.299159251937267 0 0.2272899734249467 -0.31083041129803812 0 0.2481758962027453 -0.3139061273369772 0 0.25387071989585752 -0.30254402726851232 0 0.2559095943416968 -0.2937302760338239 0 0.23400047955756209 -0.29843501332406808 0 0.25387071989585752 -0.30254402726851232 0 0.23400047955756209 -0.29843501332406808 0 0.24900429298711979 -0.30912578976915372 0 0.23062783068713749 -0.299159251937267 0 0.2481758962027453 -0.3139061273369772 0 0.23400047955756209 -0.29843501332406808 0 0.24900429298711979 -0.30912578976915372 0 0.23400047955756209 -0.29843501332406808 0 0.24900429298711979 -0.30912578976915372 0 0.2481758962027453 -0.3139061273369772 0 0.2272899734249467 -0.31083041129803812 0 0.2481758962027453 -0.3139061273369772 0 0.23073781898403739 -0.3234891442658796 0 0.2481758962027453 -0.3139061273369772 0 0.24769173205311679 -0.33305862008134313 0 0.23073781898403739 -0.3234891442658796 0 0.24769173205311679 -0.33305862008134313 0 0.23157543408400569 -0.3391257958730246 0 0.2434878377410051 -0.34978386972654379 0 0.24769173205311679 -0.33305862008134313 0 0.23157543408400569 -0.3391257958730246 0 0.23073781898403739 -0.3234891442658796 0 0.23157543408400569 -0.3391257958730246 0 0.22040276316392851 -0.32753226408506808 0 0.23073781898403739 -0.3234891442658796 0 0.23157543408400569 -0.3391257958730246 0 0.22040276316392851 -0.32753226408506808 0 0.2160176505413372 -0.3427939385084513 0 0.22040276316392851 -0.32753226408506808 0 0.23073781898403739 -0.3234891442658796 0 0.21868588879888029 -0.31417531643952817 0 0.2272899734249467 -0.31083041129803812 0 0.23073781898403739 -0.3234891442658796 0 0.21868588879888029 -0.31417531643952817 0 0.26150643478340069 -0.36277241104851821 0 0.24132947909497821 -0.36614042828414228 0 0.2434878377410051 -0.34978386972654379 0 0.2538544495678508 -0.38026115102412972 0 0.24132947909497821 -0.36614042828414228 0 0.23307765763782529 -0.37577017986368932 0 0.24132947909497821 -0.36614042828414228 0 0.2434878377410051 -0.34978386972654379 0 0.23386283437545061 -0.35910272880268712 0 0.2434878377410051 -0.34978386972654379 0 0.22359574299452631 -0.35297586552161642 0 0.23386283437545061 -0.35910272880268712 0 0.23157543408400569 -0.3391257958730246 0 0.2434878377410051 -0.34978386972654379 0 0.22359574299452631 -0.35297586552161642 0 0.22359574299452631 -0.35297586552161642 0 0.22703827767129281 -0.36751075167844599 0 0.2160176505413372 -0.3427939385084513 0 0.2434878377410051 -0.34978386972654379 0 0.22359574299452631 -0.35297586552161642 0 0.22703827767129281 -0.36751075167844599 0 0.2160176505413372 -0.3427939385084513 0 0.23157543408400569 -0.3391257958730246 0 0.22359574299452631 -0.35297586552161642 0 0.2160176505413372 -0.3427939385084513 0 0.22703827767129281 -0.36751075167844599 0 0.23307765763782529 -0.37577017986368932 0 0.2169013460475788 -0.37556329486766332 0 0.24132947909497821 -0.36614042828414228 0 0.23386283437545061 -0.35910272880268712 0 0.22703827767129281 -0.36751075167844599 0 0.22359574299452631 -0.35297586552161642 0 0.23386283437545061 -0.35910272880268712 0 0.22703827767129281 -0.36751075167844599 0 0.24132947909497821 -0.36614042828414228 0 0.22703827767129281 -0.36751075167844599 0 0.23307765763782529 -0.37577017986368932 0 0.22703827767129281 -0.36751075167844599 0 0.20753795628773189 -0.36175131627126139 0 0.2169013460475788 -0.37556329486766332 0 0.20753795628773189 -0.36175131627126139 0 0.20159523996386011 -0.37479034145554613 0 0.2169013460475788 -0.37556329486766332 0 0.20753795628773189 -0.36175131627126139 0 0.2169013460475788 -0.37556329486766332 0 0.22703827767129281 -0.36751075167844599 0 0.20753795628773189 -0.36175131627126139 0 0.2160176505413372 -0.3427939385084513 0 0.20753795628773189 -0.36175131627126139 0 0.19977721330318859 -0.34751262585736348 0 0.2160176505413372 -0.3427939385084513 0 0.20753795628773189 -0.36175131627126139 0 0.19977721330318859 -0.34751262585736348 0 0.1885564281759248 -0.35976364260572069 0 0.19977721330318859 -0.34751262585736348 0 0.1885564281759248 -0.35976364260572069 0 0.1857835224273704 -0.34045152856622019 0 0.1885564281759248 -0.35976364260572069 0 0.20159523996386011 -0.37479034145554613 0 0.18712911927873321 -0.38025258625828329 0 0.20753795628773189 -0.36175131627126139 0 0.1885564281759248 -0.35976364260572069 0 0.20159523996386011 -0.37479034145554613 0 0.22040276316392851 -0.32753226408506808 0 0.2049970234113816 -0.31807712533845661 0 0.21868588879888029 -0.31417531643952817 0 0.22040276316392851 -0.32753226408506808 0 0.2049970234113816 -0.31807712533845661 0 0.2160176505413372 -0.3427939385084513 0 0.2049970234113816 -0.31807712533845661 0 0.2160176505413372 -0.3427939385084513 0 0.19977721330318859 -0.34751262585736348 0 0.2160176505413372 -0.3427939385084513 0 0.19865922620616019 -0.33311559874383689 0 0.2049970234113816 -0.31807712533845661 0 0.2160176505413372 -0.3427939385084513 0 0.19865922620616019 -0.33311559874383689 0 0.19977721330318859 -0.34751262585736348 0 0.19865922620616019 -0.33311559874383689 0 0.1857835224273704 -0.34045152856622019 0 0.2049970234113816 -0.31807712533845661 0 0.19865922620616019 -0.33311559874383689 0 0.1755305635359124 -0.31824467341032331 0 0.19865922620616019 -0.33311559874383689 0 0.1755305635359124 -0.31824467341032331 0 0.1857835224273704 -0.34045152856622019 0 0.1755305635359124 -0.31824467341032331 0 0.1857835224273704 -0.34045152856622019 0 0.1654274518563732 -0.34600264855809632 0 0.1755305635359124 -0.31824467341032331 0 0.1654274518563732 -0.34600264855809632 0 0.1450537288932654 -0.32602876244008888 0 0.1755305635359124 -0.31824467341032331 0 0.1450537288932654 -0.32602876244008888 0 0.15619562803224721 -0.29757661656487588 0 0.1885564281759248 -0.35976364260572069 0 0.16876623378044389 -0.36696808643773499 0 0.18712911927873321 -0.38025258625828329 0 0.1885564281759248 -0.35976364260572069 0 0.1857835224273704 -0.34045152856622019 0 0.1654274518563732 -0.34600264855809632 0 0.1885564281759248 -0.35976364260572069 0 0.1654274518563732 -0.34600264855809632 0 0.16876623378044389 -0.36696808643773499 0 0.1654274518563732 -0.34600264855809632 0 0.16876623378044389 -0.36696808643773499 0 0.15660583463754391 -0.35975938125381501 0 0.16876623378044389 -0.36696808643773499 0 0.15660583463754391 -0.35975938125381501 0 0.1493375100281627 -0.37488507626872591 0 0.1493375100281627 -0.37488507626872591 0 0.14289214288519569 -0.35118171375070301 0 0.13000289361066331 -0.36208612455862432 0 0.15660583463754391 -0.35975938125381501 0 0.1493375100281627 -0.37488507626872591 0 0.14289214288519569 -0.35118171375070301 0 0.1654274518563732 -0.34600264855809632 0 0.15660583463754391 -0.35975938125381501 0 0.14289214288519569 -0.35118171375070301 0 0.14289214288519569 -0.35118171375070301 0 0.13000289361066331 -0.36208612455862432 0 0.12604582389339331 -0.34317988847961828 0 0.13000289361066331 -0.36208612455862432 0 0.12967895120999531 -0.37827397464121698 0 0.1171801822708201 -0.37005217928074918 0 0.1493375100281627 -0.37488507626872591 0 0.13000289361066331 -0.36208612455862432 0 0.12967895120999531 -0.37827397464121698 0 0.1654274518563732 -0.34600264855809632 0 0.14289214288519569 -0.35118171375070301 0 0.1450537288932654 -0.32602876244008888 0 0.14289214288519569 -0.35118171375070301 0 0.1450537288932654 -0.32602876244008888 0 0.12604582389339331 -0.34317988847961828 0 0.1450537288932654 -0.32602876244008888 0 0.12604582389339331 -0.34317988847961828 0 0.1188567330813 -0.32479141442047371 0 0.1450537288932654 -0.32602876244008888 0 0.12882910482907181 -0.30121485459423503 0 0.1188567330813 -0.32479141442047371 0 0.1450537288932654 -0.32602876244008888 0 0.12882910482907181 -0.30121485459423503 0 0.15619562803224721 -0.29757661656487588 0 0.12882910482907181 -0.30121485459423503 0 0.15619562803224721 -0.29757661656487588 0 0.13686069252858191 -0.2769085597194284 0 0.15619562803224721 -0.29757661656487588 0 0.13686069252858191 -0.2769085597194284 0 0.15619562803224721 -0.29757661656487588 0 0.13686069252858191 -0.2769085597194284 0 0.15994633238888681 -0.26974776550929752 0 0.12882910482907181 -0.30121485459423503 0 0.13686069252858191 -0.2769085597194284 0 0.1110040395220085 -0.28035186938618639 0 0.13686069252858191 -0.2769085597194284 0 0.11752575702491661 -0.25624050287398092 0 0.13686069252858191 -0.2769085597194284 0 0.1339877596727336 -0.25199910163767042 0 0.15029464079908189 -0.25158054944809299 0 0.13686069252858191 -0.2769085597194284 0 0.1339877596727336 -0.25199910163767042 0 0.11752575702491661 -0.25624050287398092 0 0.13686069252858191 -0.2769085597194284 0 0.15029464079908189 -0.25158054944809299 0 0.15994633238888681 -0.26974776550929752 0 0.15994633238888681 -0.26974776550929752 0 0.17095247748817491 -0.26762537787668927 0 0.17630851986942789 -0.27616328306845328 0 0.15994633238888681 -0.26974776550929752 0 0.17630851986942789 -0.27616328306845328 0 0.1709962178875396 -0.28608519758717549 0 0.15029464079908189 -0.25158054944809299 0 0.15994633238888681 -0.26974776550929752 0 0.16211301339255779 -0.25253309379002159 0 0.15994633238888681 -0.26974776550929752 0 0.16211301339255779 -0.25253309379002159 0 0.16945603098324119 -0.25930509195902463 0 0.15994633238888681 -0.26974776550929752 0 0.17095247748817491 -0.26762537787668927 0 0.16945603098324119 -0.25930509195902463 0 0.16211301339255779 -0.25253309379002159 0 0.16945603098324119 -0.25930509195902463 0 0.17075296256400421 -0.24887823445580179 0 0.16945603098324119 -0.25930509195902463 0 0.1793029839882633 -0.25707010293428101 0 0.17075296256400421 -0.24887823445580179 0 0.1793029839882633 -0.25707010293428101 0 0.18052219150569671 -0.24758160325192061 0 0.17075296256400421 -0.24887823445580179 0 0.17095247748817491 -0.26762537787668927 0 0.16945603098324119 -0.25930509195902463 0 0.17709904433783111 -0.2662911806587015 0 0.16945603098324119 -0.25930509195902463 0 0.1793029839882633 -0.25707010293428101 0 0.17709904433783111 -0.2662911806587015 0 0.1793029839882633 -0.25707010293428101 0 0.1826954776248727 -0.263415523145134 0 0.17709904433783111 -0.2662911806587015 0 0.1826954776248727 -0.263415523145134 0 0.18738285102061111 -0.2652182149795333 0 0.18668260305280529 -0.25953061020317131 0 0.1793029839882633 -0.25707010293428101 0 0.1826954776248727 -0.263415523145134 0 0.18668260305280529 -0.25953061020317131 0 0.19027000216824391 -0.25306176427082933 0 0.1793029839882633 -0.25707010293428101 0 0.18668260305280529 -0.25953061020317131 0 0.19027000216824391 -0.25306176427082933 0 0.1793029839882633 -0.25707010293428101 0 0.18052219150569671 -0.24758160325192061 0 0.17630851986942789 -0.27616328306845328 0 0.18295576915147041 -0.26864349899846729 0 0.1805323644670189 -0.28507273253135512 0 0.17095247748817491 -0.26762537787668927 0 0.17630851986942789 -0.27616328306845328 0 0.17709904433783111 -0.2662911806587015 0 0.17630851986942789 -0.27616328306845328 0 0.17709904433783111 -0.2662911806587015 0 0.18295576915147041 -0.26864349899846729 0 0.1826954776248727 -0.263415523145134 0 0.17709904433783111 -0.2662911806587015 0 0.18295576915147041 -0.26864349899846729 0 0.1826954776248727 -0.263415523145134 0 0.18738285102061111 -0.2652182149795333 0 0.18295576915147041 -0.26864349899846729 0 0.18974957946099541 -0.27285072447840009 0 0.18738285102061111 -0.2652182149795333 0 0.18295576915147041 -0.26864349899846729 0 0.19397639628142599 -0.29336031216846192 0 0.1805323644670189 -0.28507273253135512 0 0.1784249191452307 -0.30111137083421752 0 0.1805323644670189 -0.28507273253135512 0 0.1784249191452307 -0.30111137083421752 0 0.1709962178875396 -0.28608519758717549 0 0.19397639628142599 -0.29336031216846192 0 0.18295576915147041 -0.26864349899846729 0 0.1805323644670189 -0.28507273253135512 0 0.17630851986942789 -0.27616328306845328 0 0.1805323644670189 -0.28507273253135512 0 0.1709962178875396 -0.28608519758717549 0 0.2049970234113816 -0.31807712533845661 0 0.1755305635359124 -0.31824467341032331 0 0.1784249191452307 -0.30111137083421752 0 0.1755305635359124 -0.31824467341032331 0 0.15619562803224721 -0.29757661656487588 0 0.1784249191452307 -0.30111137083421752 0 0.1755305635359124 -0.31824467341032331 0 0.15619562803224721 -0.29757661656487588 0 0.15619562803224721 -0.29757661656487588 0 0.1784249191452307 -0.30111137083421752 0 0.1709962178875396 -0.28608519758717549 0 0.15619562803224721 -0.29757661656487588 0 0.15994633238888681 -0.26974776550929752 0 0.1709962178875396 -0.28608519758717549 0 0.19684971894770911 -0.5 0 0.19743128905478771 -0.48276198444836821 0 0.21134191763616231 -0.48661502087731268 0 0.19684971894770911 -0.5 0 0.19743128905478771 -0.48276198444836821 0 0.18048089462413969 -0.50000000000000011 0 0.19743128905478771 -0.48276198444836821 0 0.1899593126342847 -0.4747653319854816 0 0.20514824328661729 -0.46202741221570909 0 0.1899593126342847 -0.4747653319854816 0 0.19451263454732309 -0.46477005656079801 0 0.18523786306158879 -0.4706536681341798 0 0.19743128905478771 -0.48276198444836821 0 0.2192343076829916 -0.47429423004229487 0 0.19743128905478771 -0.48276198444836821 0 0.21134191763616231 -0.48661502087731268 0 0.2192343076829916 -0.47429423004229487 0 0.19743128905478771 -0.48276198444836821 0 0.2192343076829916 -0.47429423004229487 0 0.20514824328661729 -0.46202741221570909 0 0.19684971894770911 -0.5 0 0.21134191763616231 -0.48661502087731268 0 0.21321854327127829 -0.50000000000000122 0 0.21134191763616231 -0.48661502087731268 0 0.21321854327127829 -0.50000000000000122 0 0.23162699891070679 -0.48508637761409418 0 0.21321854327127829 -0.50000000000000122 0 0.23162699891070679 -0.48508637761409418 0 0.21321854327127829 -0.50000000000000122 0 0.23162699891070679 -0.48508637761409418 0 0.23286804766094721 -0.49999999999999789 0 0.23162699891070679 -0.48508637761409418 0 0.23286804766094721 -0.49999999999999789 0 0.23700295537573299 -0.48976801733576802 0 0.23162699891070679 -0.48508637761409418 0 0.23700295537573299 -0.48976801733576802 0 0.25342611147226329 -0.5 0 0.23286804766094721 -0.49999999999999789 0 0.24109573981334051 -0.49333220955347462 0 0.23286804766094721 -0.49999999999999789 0 0.24109573981334051 -0.49333220955347462 0 0.23700295537573299 -0.48976801733576802 0 0.23286804766094721 -0.49999999999999789 0 0.23700295537573299 -0.48976801733576802 0 0.24109573981334051 -0.49333220955347462 0 0.23700295537573299 -0.48976801733576802 0 0.2446986496159072 -0.48506298424840838 0 0.24109573981334051 -0.49333220955347462 0 0.23700295537573299 -0.48976801733576802 0 0.25107664763744508 -0.49096361739747379 0 0.24109573981334051 -0.49333220955347462 0 0.2446986496159072 -0.48506298424840838 0 0.25342611147226329 -0.5 0 0.25107664763744508 -0.49096361739747379 0 0.24109573981334051 -0.49333220955347462 0 0.23162699891070679 -0.48508637761409418 0 0.24243256833576979 -0.47633223847137529 0 0.23348127682462241 -0.46876105879754859 0 0.24243256833576979 -0.47633223847137529 0 0.24772824596625381 -0.46322788755280381 0 0.25332188580423248 -0.46751025079647912 0 0.24243256833576979 -0.47633223847137529 0 0.24772824596625381 -0.46322788755280381 0 0.25332188580423248 -0.46751025079647912 0 0.24243256833576979 -0.47633223847137529 0 0.25332188580423248 -0.46751025079647912 0 0.25117173819890981 -0.47745118506790901 0 0.24243256833576979 -0.47633223847137529 0 0.25117173819890981 -0.47745118506790901 0 0.2446986496159072 -0.48506298424840838 0 0.24243256833576979 -0.47633223847137529 0 0.23700295537573299 -0.48976801733576802 0 0.2446986496159072 -0.48506298424840838 0 0.24243256833576979 -0.47633223847137529 0 0.23700295537573299 -0.48976801733576802 0 0.24243256833576979 -0.47633223847137529 0 0.23162699891070679 -0.48508637761409418 0 0.23700295537573299 -0.48976801733576802 0 0.24243256833576979 -0.47633223847137529 0 0.23162699891070679 -0.48508637761409418 0 0.24243256833576979 -0.47633223847137529 0 0.24243256833576979 -0.47633223847137529 0 0.23348127682462241 -0.46876105879754859 0 0.24772824596625381 -0.46322788755280381 0 0.21134191763616231 -0.48661502087731268 0 0.23162699891070679 -0.48508637761409418 0 0.2192343076829916 -0.47429423004229487 0 0.23162699891070679 -0.48508637761409418 0 0.23348127682462241 -0.46876105879754859 0 0.2192343076829916 -0.47429423004229487 0 0.23162699891070679 -0.48508637761409418 0 0.2192343076829916 -0.47429423004229487 0 0.23348127682462241 -0.46876105879754859 0 0.2192343076829916 -0.47429423004229487 0 0.23348127682462241 -0.46876105879754859 0 0.2192343076829916 -0.47429423004229487 0 0.2237961285110458 -0.46155541231269942 0 0.2237961285110458 -0.46155541231269942 0 0.23695950312591771 -0.45660855689281432 0 0.22415731163507949 -0.44608580361513012 0 0.23348127682462241 -0.46876105879754859 0 0.2237961285110458 -0.46155541231269942 0 0.23695950312591771 -0.45660855689281432 0 0.23348127682462241 -0.46876105879754859 0 0.24772824596625381 -0.46322788755280381 0 0.23348127682462241 -0.46876105879754859 0 0.23695950312591771 -0.45660855689281432 0 0.24772824596625381 -0.46322788755280381 0 0.23695950312591771 -0.45660855689281432 0 0.24772824596625381 -0.46322788755280381 0 0.24584884686607039 -0.45040333128855492 0 0.25847876793922242 -0.43662532177716418 0 0.24584884686607039 -0.45040333128855492 0 0.2402288704328869 -0.44515155893143721 0 0.25847876793922242 -0.43662532177716418 0 0.2402288704328869 -0.44515155893143721 0 0.23616224894315441 -0.43146985771271562 0 0.23695950312591771 -0.45660855689281432 0 0.24584884686607039 -0.45040333128855492 0 0.2402288704328869 -0.44515155893143721 0 0.2402288704328869 -0.44515155893143721 0 0.22415731163507949 -0.44608580361513012 0 0.23616224894315441 -0.43146985771271562 0 0.23695950312591771 -0.45660855689281432 0 0.2402288704328869 -0.44515155893143721 0 0.22415731163507949 -0.44608580361513012 0 0.22415731163507949 -0.44608580361513012 0 0.20987446226014361 -0.44835885667108089 0 0.20514824328661729 -0.46202741221570909 0 0.22415731163507949 -0.44608580361513012 0 0.2089148576777117 -0.43848702134918138 0 0.20987446226014361 -0.44835885667108089 0 0.2089148576777117 -0.43848702134918138 0 0.20987446226014361 -0.44835885667108089 0 0.1993403717080024 -0.44384908052624972 0 0.20987446226014361 -0.44835885667108089 0 0.1993403717080024 -0.44384908052624972 0 0.20172473719417791 -0.4496914734564163 0 0.20987446226014361 -0.44835885667108089 0 0.20149739638147959 -0.45352874395124337 0 0.20172473719417791 -0.4496914734564163 0 0.22415731163507949 -0.44608580361513012 0 0.20514824328661729 -0.46202741221570909 0 0.2192343076829916 -0.47429423004229487 0 0.2237961285110458 -0.46155541231269942 0 0.20514824328661729 -0.46202741221570909 0 0.2237961285110458 -0.46155541231269942 0 0.22415731163507949 -0.44608580361513012 0 0.20514824328661729 -0.46202741221570909 0 0.2192343076829916 -0.47429423004229487 0 0.20514824328661729 -0.46202741221570909 0 0.20987446226014361 -0.44835885667108089 0 0.20514824328661729 -0.46202741221570909 0 0.20149739638147959 -0.45352874395124337 0 0.20514824328661729 -0.46202741221570909 0 0.20149739638147959 -0.45352874395124337 0 0.19570534414122639 -0.45380408451310622 0 0.20514824328661729 -0.46202741221570909 0 0.19570534414122639 -0.45380408451310622 0 0.19570534414122639 -0.45380408451310622 0 0.19451263454732309 -0.46477005656079801 0 0.18523786306158879 -0.4706536681341798 0 0.19570534414122639 -0.45380408451310622 0 0.18523786306158879 -0.4706536681341798 0 0.20514824328661729 -0.46202741221570909 0 0.19570534414122639 -0.45380408451310622 0 0.19451263454732309 -0.46477005656079801 0 0.1899593126342847 -0.4747653319854816 0 0.20514824328661729 -0.46202741221570909 0 0.1899593126342847 -0.4747653319854816 0 0.20514824328661729 -0.46202741221570909 0 0.19451263454732309 -0.46477005656079801 0 0.19570534414122639 -0.45380408451310622 0 0.1993403717080024 -0.44384908052624972 0 0.18230729787602259 -0.44213642574464351 0 0.19570534414122639 -0.45380408451310622 0 0.18230729787602259 -0.44213642574464351 0 0.1993403717080024 -0.44384908052624972 0 0.19840517162958929 -0.43140403428655749 0 0.18230729787602259 -0.44213642574464351 0 0.2089148576777117 -0.43848702134918138 0 0.1993403717080024 -0.44384908052624972 0 0.19840517162958929 -0.43140403428655749 0 0.19570534414122639 -0.45380408451310622 0 0.1993403717080024 -0.44384908052624972 0 0.20172473719417791 -0.4496914734564163 0 0.20149739638147959 -0.45352874395124337 0 0.19570534414122639 -0.45380408451310622 0 0.20172473719417791 -0.4496914734564163 0 0.19840517162958929 -0.43140403428655749 0 0.20023146881517831 -0.41405977054180138 0 0.18090190862261141 -0.42040761985425151 0 0.20023146881517831 -0.41405977054180138 0 0.18382151258941101 -0.40339617765007901 0 0.18090190862261141 -0.42040761985425151 0 0.20023146881517831 -0.41405977054180138 0 0.2138457299470862 -0.42631439364826718 0 0.22132750300939 -0.40827257331142103 0 0.19840517162958929 -0.43140403428655749 0 0.20023146881517831 -0.41405977054180138 0 0.2138457299470862 -0.42631439364826718 0 0.22415731163507949 -0.44608580361513012 0 0.2089148576777117 -0.43848702134918138 0 0.2138457299470862 -0.42631439364826718 0 0.2089148576777117 -0.43848702134918138 0 0.19840517162958929 -0.43140403428655749 0 0.2138457299470862 -0.42631439364826718 0 0.2138457299470862 -0.42631439364826718 0 0.23616224894315441 -0.43146985771271562 0 0.2138457299470862 -0.42631439364826718 0 0.23616224894315441 -0.43146985771271562 0 0.22132750300939 -0.40827257331142103 0 0.22415731163507949 -0.44608580361513012 0 0.2138457299470862 -0.42631439364826718 0 0.23616224894315441 -0.43146985771271562 0 0.25515483786095622 -0.43199119370722189 0 0.25847876793922242 -0.43662532177716418 0 0.23616224894315441 -0.43146985771271562 0 0.25847876793922242 -0.43662532177716418 0 0.23616224894315441 -0.43146985771271562 0 0.25515483786095622 -0.43199119370722189 0 0.23616224894315441 -0.43146985771271562 0 0.240709786834191 -0.41068323358564363 0 0.25515483786095622 -0.43199119370722189 0 0.240709786834191 -0.41068323358564363 0 0.23616224894315441 -0.43146985771271562 0 0.240709786834191 -0.41068323358564363 0 0.22132750300939 -0.40827257331142103 0 0.240709786834191 -0.41068323358564363 0 0.2262647358074259 -0.3893752734640652 0 0.240709786834191 -0.41068323358564363 0 0.22132750300939 -0.40827257331142103 0 0.2262647358074259 -0.3893752734640652 0 0.25446924412686628 -0.3997970634160336 0 0.240709786834191 -0.41068323358564363 0 0.24382455408408349 -0.39502918037246798 0 0.240709786834191 -0.41068323358564363 0 0.24382455408408349 -0.39502918037246798 0 0.2262647358074259 -0.3893752734640652 0 0.2538544495678508 -0.38026115102412972 0 0.24382455408408349 -0.39502918037246798 0 0.2262647358074259 -0.3893752734640652 0 0.2538544495678508 -0.38026115102412972 0 0.23307765763782529 -0.37577017986368932 0 0.2262647358074259 -0.3893752734640652 0 0.2538544495678508 -0.38026115102412972 0 0.2262647358074259 -0.3893752734640652 0 0.23307765763782529 -0.37577017986368932 0 0.2262647358074259 -0.3893752734640652 0 0.2169013460475788 -0.37556329486766332 0 0.2262647358074259 -0.3893752734640652 0 0.2169013460475788 -0.37556329486766332 0 0.20159523996386011 -0.37479034145554613 0 0.2169013460475788 -0.37556329486766332 0 0.20504312419841841 -0.39638572555707191 0 0.2262647358074259 -0.3893752734640652 0 0.2169013460475788 -0.37556329486766332 0 0.20504312419841841 -0.39638572555707191 0 0.20023146881517831 -0.41405977054180138 0 0.22132750300939 -0.40827257331142103 0 0.20504312419841841 -0.39638572555707191 0 0.22132750300939 -0.40827257331142103 0 0.2262647358074259 -0.3893752734640652 0 0.20504312419841841 -0.39638572555707191 0 0.2262647358074259 -0.3893752734640652 0 0.20504312419841841 -0.39638572555707191 0 0.20023146881517831 -0.41405977054180138 0 0.20504312419841841 -0.39638572555707191 0 0.18382151258941101 -0.40339617765007901 0 0.20504312419841841 -0.39638572555707191 0 0.18382151258941101 -0.40339617765007901 0 0.20504312419841841 -0.39638572555707191 0 0.18712911927873321 -0.38025258625828329 0 0.18382151258941101 -0.40339617765007901 0 0.20159523996386011 -0.37479034145554613 0 0.20504312419841841 -0.39638572555707191 0 0.18712911927873321 -0.38025258625828329 0 0.16876623378044389 -0.36696808643773499 0 0.18712911927873321 -0.38025258625828329 0 0.17094872869333261 -0.38591523457000099 0 0.18712911927873321 -0.38025258625828329 0 0.18382151258941101 -0.40339617765007901 0 0.17094872869333261 -0.38591523457000099 0 0.18382151258941101 -0.40339617765007901 0 0.16832186376712491 -0.40297228074575397 0 0.17094872869333261 -0.38591523457000099 0 0.16832186376712491 -0.40297228074575397 0 0.17094872869333261 -0.38591523457000099 0 0.15464590186979929 -0.39417569241289641 0 0.16832186376712491 -0.40297228074575397 0 0.15464590186979929 -0.39417569241289641 0 0.155287023332779 -0.40759417787625318 0 0.16876623378044389 -0.36696808643773499 0 0.1493375100281627 -0.37488507626872591 0 0.17094872869333261 -0.38591523457000099 0 0.1493375100281627 -0.37488507626872591 0 0.17094872869333261 -0.38591523457000099 0 0.15464590186979929 -0.39417569241289641 0 0.1493375100281627 -0.37488507626872591 0 0.14076149295236509 -0.38849262228764209 0 0.15464590186979929 -0.39417569241289641 0 0.14076149295236509 -0.38849262228764209 0 0.12967895120999531 -0.37827397464121698 0 0.12898397939606729 -0.395830971041081 0 0.12967895120999531 -0.37827397464121698 0 0.12898397939606729 -0.395830971041081 0 0.11698802941385079 -0.3896879892394996 0 0.1493375100281627 -0.37488507626872591 0 0.14076149295236509 -0.38849262228764209 0 0.12967895120999531 -0.37827397464121698 0 0.14076149295236509 -0.38849262228764209 0 0.12898397939606729 -0.395830971041081 0 0.1418383771110247 -0.40406859573290421 0 0.12898397939606729 -0.395830971041081 0 0.1418383771110247 -0.40406859573290421 0 0.1292500346185953 -0.40822215490943908 0 0.14076149295236509 -0.38849262228764209 0 0.1418383771110247 -0.40406859573290421 0 0.15464590186979929 -0.39417569241289641 0 0.1418383771110247 -0.40406859573290421 0 0.15464590186979929 -0.39417569241289641 0 0.155287023332779 -0.40759417787625318 0 0.1418383771110247 -0.40406859573290421 0 0.155287023332779 -0.40759417787625318 0 0.14858961393615949 -0.41809949503152399 0 0.155287023332779 -0.40759417787625318 0 0.14858961393615949 -0.41809949503152399 0 0.16205421110097029 -0.41982168376519269 0 0.1418383771110247 -0.40406859573290421 0 0.14858961393615949 -0.41809949503152399 0 0.13517593168618289 -0.41811928144859278 0 0.1418383771110247 -0.40406859573290421 0 0.13517593168618289 -0.41811928144859278 0 0.1292500346185953 -0.40822215490943908 0 0.13517593168618289 -0.41811928144859278 0 0.1292500346185953 -0.40822215490943908 0 0.12434210736262161 -0.41825534171125778 0 0.13393892679714869 -0.43405812247418879 0 0.122777440871759 -0.44550356114083911 0 0.12434210736262161 -0.41825534171125778 0 0.13517593168618289 -0.41811928144859278 0 0.13393892679714869 -0.43405812247418879 0 0.14809995201043269 -0.4414771654881795 0 0.13517593168618289 -0.41811928144859278 0 0.13393892679714869 -0.43405812247418879 0 0.12434210736262161 -0.41825534171125778 0 0.14858961393615949 -0.41809949503152399 0 0.16205421110097029 -0.41982168376519269 0 0.14809995201043269 -0.4414771654881795 0 0.14858961393615949 -0.41809949503152399 0 0.13517593168618289 -0.41811928144859278 0 0.14809995201043269 -0.4414771654881795 0 0.13517593168618289 -0.41811928144859278 0 0.14809995201043269 -0.4414771654881795 0 0.16811703529196989 -0.43432829509419052 0 0.16205421110097029 -0.41982168376519269 0 0.18090190862261141 -0.42040761985425151 0 0.16811703529196989 -0.43432829509419052 0 0.16205421110097029 -0.41982168376519269 0 0.14809995201043269 -0.4414771654881795 0 0.16832186376712491 -0.40297228074575397 0 0.16205421110097029 -0.41982168376519269 0 0.18090190862261141 -0.42040761985425151 0 0.16832186376712491 -0.40297228074575397 0 0.155287023332779 -0.40759417787625318 0 0.16205421110097029 -0.41982168376519269 0 0.18382151258941101 -0.40339617765007901 0 0.16832186376712491 -0.40297228074575397 0 0.18090190862261141 -0.42040761985425151 0 0.16811703529196989 -0.43432829509419052 0 0.18090190862261141 -0.42040761985425151 0 0.18230729787602259 -0.44213642574464351 0 0.19840517162958929 -0.43140403428655749 0 0.18090190862261141 -0.42040761985425151 0 0.18230729787602259 -0.44213642574464351 0 0.19570534414122639 -0.45380408451310622 0 0.18230729787602259 -0.44213642574464351 0 0.17811988207893889 -0.45598145307937671 0 0.18230729787602259 -0.44213642574464351 0 0.17811988207893889 -0.45598145307937671 0 0.16722180684981239 -0.44779858061868549 0 0.16811703529196989 -0.43432829509419052 0 0.18230729787602259 -0.44213642574464351 0 0.16722180684981239 -0.44779858061868549 0 0.19570534414122639 -0.45380408451310622 0 0.17811988207893889 -0.45598145307937671 0 0.18523786306158879 -0.4706536681341798 0 0.17811988207893889 -0.45598145307937671 0 0.16102397233468249 -0.46483504952776622 0 0.18523786306158879 -0.4706536681341798 0 0.17811988207893889 -0.45598145307937671 0 0.16102397233468249 -0.46483504952776622 0 0.16722180684981239 -0.44779858061868549 0 0.16811703529196989 -0.43432829509419052 0 0.16722180684981239 -0.44779858061868549 0 0.14809995201043269 -0.4414771654881795 0 0.16102397233468249 -0.46483504952776622 0 0.16722180684981239 -0.44779858061868549 0 0.14809995201043269 -0.4414771654881795 0 0.13393892679714869 -0.43405812247418879 0 0.14809995201043269 -0.4414771654881795 0 0.122777440871759 -0.44550356114083911 0 0.14809995201043269 -0.4414771654881795 0 0.14062594896277411 -0.46631713980851719 0 0.122777440871759 -0.44550356114083911 0 0.14062594896277411 -0.46631713980851719 0 0.1212127743808963 -0.47275178057042022 0 0.122777440871759 -0.44550356114083911 0 0.16102397233468249 -0.46483504952776622 0 0.14809995201043269 -0.4414771654881795 0 0.16102397233468249 -0.46483504952776622 0 0.14809995201043269 -0.4414771654881795 0 0.14062594896277411 -0.46631713980851719 0 0.14062594896277411 -0.46631713980851719 0 0.1505024357198313 -0.48069841253284429 0 0.13513821192576089 -0.4853120105006935 0 0.16102397233468249 -0.46483504952776622 0 0.14062594896277411 -0.46631713980851719 0 0.1505024357198313 -0.48069841253284429 0 0.14062594896277411 -0.46631713980851719 0 0.13513821192576089 -0.4853120105006935 0 0.1212127743808963 -0.47275178057042022 0 0.13513821192576089 -0.4853120105006935 0 0.11964810789003361 -0.50000000000000144 0 0.1212127743808963 -0.47275178057042022 0 0.13513821192576089 -0.4853120105006935 0 0.13975856829884331 -0.5 0 0.11964810789003361 -0.50000000000000144 0 0.13513821192576089 -0.4853120105006935 0 0.13975856829884331 -0.5 0 0.14714148410751271 -0.49166547072015532 0 0.13975856829884331 -0.5 0 0.14714148410751271 -0.49166547072015532 0 0.1554651971079932 -0.49906057897089329 0 0.13975856829884331 -0.5 0 0.1554651971079932 -0.49906057897089329 0 0.15986902870765299 -0.49999999999999822 0 0.1505024357198313 -0.48069841253284429 0 0.13513821192576089 -0.4853120105006935 0 0.14714148410751271 -0.49166547072015532 0 0.1505024357198313 -0.48069841253284429 0 0.14714148410751271 -0.49166547072015532 0 0.15615200656250169 -0.49008956132037879 0 0.1505024357198313 -0.48069841253284429 0 0.15615200656250169 -0.49008956132037879 0 0.16189688412451289 -0.48395869488739912 0 0.14714148410751271 -0.49166547072015532 0 0.15615200656250169 -0.49008956132037879 0 0.1554651971079932 -0.49906057897089329 0 0.1554651971079932 -0.49906057897089329 0 0.15986902870765299 -0.49999999999999822 0 0.1657540317526591 -0.49506464949060303 0 0.1554651971079932 -0.49906057897089329 0 0.1657540317526591 -0.49506464949060303 0 0.15615200656250169 -0.49008956132037879 0 0.1554651971079932 -0.49906057897089329 0 0.1657540317526591 -0.49506464949060303 0 0.15986902870765299 -0.49999999999999822 0 0.1657540317526591 -0.49506464949060303 0 0.15986902870765299 -0.49999999999999822 0 0.16700701650357369 -0.50000000000000044 0 0.1657540317526591 -0.49506464949060303 0 0.16700701650357369 -0.50000000000000044 0 0.1657540317526591 -0.49506464949060303 0 0.17144641359935539 -0.49285386885121679 0 0.1657540317526591 -0.49506464949060303 0 0.17144641359935539 -0.49285386885121679 0 0.16700701650357369 -0.50000000000000044 0 0.17144641359935539 -0.49285386885121679 0 0.1657540317526591 -0.49506464949060303 0 0.17394799265893171 -0.48819293356735338 0 0.1657540317526591 -0.49506464949060303 0 0.17144641359935539 -0.49285386885121679 0 0.17394799265893171 -0.48819293356735338 0 0.1657540317526591 -0.49506464949060303 0 0.16189688412451289 -0.48395869488739912 0 0.17394799265893171 -0.48819293356735338 0 0.15615200656250169 -0.49008956132037879 0 0.1657540317526591 -0.49506464949060303 0 0.16189688412451289 -0.48395869488739912 0 0.16102397233468249 -0.46483504952776622 0 0.16189688412451289 -0.48395869488739912 0 0.17394799265893171 -0.48819293356735338 0 0.16102397233468249 -0.46483504952776622 0 0.1505024357198313 -0.48069841253284429 0 0.16189688412451289 -0.48395869488739912 0 0.16102397233468249 -0.46483504952776622 0 0.17394799265893171 -0.48819293356735338 0 0.16102397233468249 -0.46483504952776622 0 0.18523786306158879 -0.4706536681341798 0 0.17394799265893171 -0.48819293356735338 0 0.18523786306158879 -0.4706536681341798 0 0.17394799265893171 -0.48819293356735338 0 0.19743128905478771 -0.48276198444836821 0 0.1899593126342847 -0.4747653319854816 0 0.17394799265893171 -0.48819293356735338 0 0.1899593126342847 -0.4747653319854816 0 0.17394799265893171 -0.48819293356735338 0 0.1899593126342847 -0.4747653319854816 0 0.18523786306158879 -0.4706536681341798 0 0.17394799265893171 -0.48819293356735338 0 0.19743128905478771 -0.48276198444836821 0 0.18048089462413969 -0.50000000000000011 0 0.17562827042658291 -0.49122973885443882 0 0.19743128905478771 -0.48276198444836821 0 0.17562827042658291 -0.49122973885443882 0 0.17394799265893171 -0.48819293356735338 0 0.19743128905478771 -0.48276198444836821 0 0.17562827042658291 -0.49122973885443882 0 0.17144641359935539 -0.49285386885121679 0 0.18048089462413969 -0.50000000000000011 0 0.17562827042658291 -0.49122973885443882 0 0.16700701650357369 -0.50000000000000044 0 0.17144641359935539 -0.49285386885121679 0 0.18048089462413969 -0.50000000000000011 0 0.18048089462413969 -0.50000000000000011 0 0.17562827042658291 -0.49122973885443882 0 0.17144641359935539 -0.49285386885121679 0 0.17562827042658291 -0.49122973885443882 0 0.17394799265893171 -0.48819293356735338 0 0.17144641359935539 -0.49285386885121679 0 0.17394799265893171 -0.48819293356735338 0 0.17144641359935539 -0.49285386885121679 0 0.17562827042658291 -0.49122973885443882 0 0.17562827042658291 -0.49122973885443882 0 0.17394799265893171 -0.48819293356735338 0 0.072523598967310116 -0.4888021335281445 0 0.090884439382532323 -0.5 0 0.062120770875030977 -0.50000000000000366 0 0.072523598967310116 -0.4888021335281445 0 0.056383224355070281 -0.47657281042145277 0 0.062120770875030977 -0.50000000000000366 0 0.072523598967310116 -0.4888021335281445 0 0.080705961256606867 -0.47863572369112523 0 0.056383224355070281 -0.47657281042145277 0 0.080705961256606867 -0.47863572369112523 0 0.069484618871534815 -0.46299567541230202 0 0.056383224355070281 -0.47657281042145277 0 0.080705961256606867 -0.47863572369112523 0 0.090884439382532323 -0.5 0 0.10316165778616671 -0.48573133023810811 0 0.072523598967310116 -0.4888021335281445 0 0.080705961256606867 -0.47863572369112523 0 0.090884439382532323 -0.5 0 0.090884439382532323 -0.5 0 0.10316165778616671 -0.48573133023810811 0 0.11964810789003361 -0.50000000000000144 0 0.11964810789003361 -0.50000000000000144 0 0.1212127743808963 -0.47275178057042022 0 0.10316165778616671 -0.48573133023810811 0 0.11964810789003361 -0.50000000000000144 0 0.1212127743808963 -0.47275178057042022 0 0.10316165778616671 -0.48573133023810811 0 0.1212127743808963 -0.47275178057042022 0 0.09914777432053215 -0.46918264736854759 0 0.080705961256606867 -0.47863572369112523 0 0.10316165778616671 -0.48573133023810811 0 0.09914777432053215 -0.46918264736854759 0 0.09914777432053215 -0.46918264736854759 0 0.1031698877339266 -0.45074211241782142 0 0.085479024712474372 -0.45748307146933659 0 0.1212127743808963 -0.47275178057042022 0 0.09914777432053215 -0.46918264736854759 0 0.1031698877339266 -0.45074211241782142 0 0.1212127743808963 -0.47275178057042022 0 0.122777440871759 -0.44550356114083911 0 0.1212127743808963 -0.47275178057042022 0 0.122777440871759 -0.44550356114083911 0 0.1031698877339266 -0.45074211241782142 0 0.122777440871759 -0.44550356114083911 0 0.1031698877339266 -0.45074211241782142 0 0.10567379756112789 -0.4276580960627499 0 0.1031698877339266 -0.45074211241782142 0 0.086834942824301056 -0.44051606232031881 0 0.10567379756112789 -0.4276580960627499 0 0.1031698877339266 -0.45074211241782142 0 0.086834942824301056 -0.44051606232031881 0 0.085479024712474372 -0.45748307146933659 0 0.086834942824301056 -0.44051606232031881 0 0.085479024712474372 -0.45748307146933659 0 0.070647920541861697 -0.44817046320525339 0 0.080705961256606867 -0.47863572369112523 0 0.09914777432053215 -0.46918264736854759 0 0.085479024712474372 -0.45748307146933659 0 0.080705961256606867 -0.47863572369112523 0 0.085479024712474372 -0.45748307146933659 0 0.069484618871534815 -0.46299567541230202 0 0.085479024712474372 -0.45748307146933659 0 0.069484618871534815 -0.46299567541230202 0 0.070647920541861697 -0.44817046320525339 0 0.069484618871534815 -0.46299567541230202 0 0.070647920541861697 -0.44817046320525339 0 0.050645677835110432 -0.45314562084290172 0 0.086834942824301056 -0.44051606232031881 0 0.070647920541861697 -0.44817046320525339 0 0.071392601351870283 -0.43590311705869839 0 0.070647920541861697 -0.44817046320525339 0 0.071392601351870283 -0.43590311705869839 0 0.060050657655879219 -0.43897923212796353 0 0.071392601351870283 -0.43590311705869839 0 0.06298473753662498 -0.42546507049581828 0 0.081085139387995248 -0.42216882627661351 0 0.071392601351870283 -0.43590311705869839 0 0.06298473753662498 -0.42546507049581828 0 0.060050657655879219 -0.43897923212796353 0 0.06298473753662498 -0.42546507049581828 0 0.067855943763572929 -0.41168210360983598 0 0.081085139387995248 -0.42216882627661351 0 0.067855943763572929 -0.41168210360983598 0 0.081085139387995248 -0.42216882627661351 0 0.079808292333534564 -0.40341575576055072 0 0.081085139387995248 -0.42216882627661351 0 0.096884421329077305 -0.4086392921372059 0 0.079808292333534564 -0.40341575576055072 0 0.086834942824301056 -0.44051606232031881 0 0.081085139387995248 -0.42216882627661351 0 0.10567379756112789 -0.4276580960627499 0 0.086834942824301056 -0.44051606232031881 0 0.071392601351870283 -0.43590311705869839 0 0.081085139387995248 -0.42216882627661351 0 0.122777440871759 -0.44550356114083911 0 0.12434210736262161 -0.41825534171125778 0 0.122777440871759 -0.44550356114083911 0 0.10567379756112789 -0.4276580960627499 0 0.12434210736262161 -0.41825534171125778 0 0.10567379756112789 -0.4276580960627499 0 0.12434210736262161 -0.41825534171125778 0 0.1110803933665772 -0.4154722239361916 0 0.1292500346185953 -0.40822215490943908 0 0.12434210736262161 -0.41825534171125778 0 0.11590977753708009 -0.40483658461335997 0 0.12434210736262161 -0.41825534171125778 0 0.1110803933665772 -0.4154722239361916 0 0.11590977753708009 -0.40483658461335997 0 0.081085139387995248 -0.42216882627661351 0 0.10567379756112789 -0.4276580960627499 0 0.096884421329077305 -0.4086392921372059 0 0.1110803933665772 -0.4154722239361916 0 0.096884421329077305 -0.4086392921372059 0 0.11590977753708009 -0.40483658461335997 0 0.10567379756112789 -0.4276580960627499 0 0.1110803933665772 -0.4154722239361916 0 0.096884421329077305 -0.4086392921372059 0 0.10567379756112789 -0.4276580960627499 0 0.096884421329077305 -0.4086392921372059 0 0.096884421329077305 -0.4086392921372059 0 0.10291274487302091 -0.3932538950882325 0 0.11590977753708009 -0.40483658461335997 0 0.096884421329077305 -0.4086392921372059 0 0.10291274487302091 -0.3932538950882325 0 0.088095045097026731 -0.38962048821166179 0 0.10291274487302091 -0.3932538950882325 0 0.11590977753708009 -0.40483658461335997 0 0.11698802941385079 -0.3896879892394996 0 0.12898397939606729 -0.395830971041081 0 0.11590977753708009 -0.40483658461335997 0 0.11698802941385079 -0.3896879892394996 0 0.12898397939606729 -0.395830971041081 0 0.1292500346185953 -0.40822215490943908 0 0.11590977753708009 -0.40483658461335997 0 0.12967895120999531 -0.37827397464121698 0 0.11698802941385079 -0.3896879892394996 0 0.1171801822708201 -0.37005217928074918 0 0.11698802941385079 -0.3896879892394996 0 0.10713174670563839 -0.37967814221308499 0 0.1171801822708201 -0.37005217928074918 0 0.10291274487302091 -0.3932538950882325 0 0.10713174670563839 -0.37967814221308499 0 0.094842109667129831 -0.37822826797639908 0 0.10291274487302091 -0.3932538950882325 0 0.11698802941385079 -0.3896879892394996 0 0.10713174670563839 -0.37967814221308499 0 0.10291274487302091 -0.3932538950882325 0 0.094842109667129831 -0.37822826797639908 0 0.088095045097026731 -0.38962048821166179 0 0.10713174670563839 -0.37967814221308499 0 0.094842109667129831 -0.37822826797639908 0 0.1026554928386751 -0.36819229633688272 0 0.094842109667129831 -0.37822826797639908 0 0.088095045097026731 -0.38962048821166179 0 0.079305668864976642 -0.37060168428611751 0 0.088095045097026731 -0.38962048821166179 0 0.079305668864976642 -0.37060168428611751 0 0.088095045097026731 -0.38962048821166179 0 0.071974047336814742 -0.38660216008215648 0 0.079305668864976642 -0.37060168428611751 0 0.096884421329077305 -0.4086392921372059 0 0.088095045097026731 -0.38962048821166179 0 0.079808292333534564 -0.40341575576055072 0 0.096884421329077305 -0.4086392921372059 0 0.088095045097026731 -0.38962048821166179 0 0.088095045097026731 -0.38962048821166179 0 0.079808292333534564 -0.40341575576055072 0 0.071974047336814742 -0.38660216008215648 0 0.067855943763572929 -0.41168210360983598 0 0.079808292333534564 -0.40341575576055072 0 0.062552439613760669 -0.39778543522307502 0 0.079808292333534564 -0.40341575576055072 0 0.062552439613760669 -0.39778543522307502 0 0.071974047336814742 -0.38660216008215648 0 0.062552439613760669 -0.39778543522307502 0 0.071974047336814742 -0.38660216008215648 0 0.056369353570104627 -0.37673286819668261 0 0.071974047336814742 -0.38660216008215648 0 0.056369353570104627 -0.37673286819668261 0 0.079305668864976642 -0.37060168428611751 0 0.062552439613760669 -0.39778543522307502 0 0.056369353570104627 -0.37673286819668261 0 0.048358024544725681 -0.39381100512157607 0 0.062552439613760669 -0.39778543522307502 0 0.048358024544725681 -0.39381100512157607 0 0.052615951745281692 -0.41433871263744859 0 0.033433038275232647 -0.38286405210724778 0 0.025921162299813449 -0.39618933592425049 0 0.039170584795190713 -0.40629124168579939 0 0.048358024544725681 -0.39381100512157607 0 0.033433038275232647 -0.38286405210724778 0 0.039170584795190713 -0.40629124168579939 0 0.048358024544725681 -0.39381100512157607 0 0.039170584795190713 -0.40629124168579939 0 0.052615951745281692 -0.41433871263744859 0 0.033433038275232647 -0.38286405210724778 0 0.039170584795190713 -0.40629124168579939 0 0.056369353570104627 -0.37673286819668261 0 0.033433038275232647 -0.38286405210724778 0 0.041775920757968363 -0.37507092929996488 0 0.056369353570104627 -0.37673286819668261 0 0.033433038275232647 -0.38286405210724778 0 0.056369353570104627 -0.37673286819668261 0 0.048358024544725681 -0.39381100512157607 0 0.033433038275232647 -0.38286405210724778 0 0.033433038275232647 -0.38286405210724778 0 0.041775920757968363 -0.37507092929996488 0 0.03519429668408669 -0.37693667165803613 0 0.033433038275232647 -0.38286405210724778 0 0.031439853222639778 -0.38134680443418678 0 0.02917149213729307 -0.38227912181231011 0 0.033433038275232647 -0.38286405210724778 0 0.03519429668408669 -0.37693667165803613 0 0.032900647557505637 -0.3806902277677644 0 0.032900647557505637 -0.3806902277677644 0 0.030700638650810901 -0.37675003666300738 0 0.030242958374787111 -0.37989740743881961 0 0.032900647557505637 -0.3806902277677644 0 0.031439853222639778 -0.38134680443418678 0 0.030242958374787111 -0.37989740743881961 0 0.033433038275232647 -0.38286405210724778 0 0.032900647557505637 -0.3806902277677644 0 0.031439853222639778 -0.38134680443418678 0 0.033433038275232647 -0.38286405210724778 0 0.032900647557505637 -0.3806902277677644 0 0.03519429668408669 -0.37693667165803613 0 0.032900647557505637 -0.3806902277677644 0 0.030700638650810901 -0.37675003666300738 0 0.03519429668408669 -0.37693667165803613 0 0.030700638650810901 -0.37675003666300738 0 0.031640231502057289 -0.37231143786843879 0 0.030700638650810901 -0.37675003666300738 0 0.026979607214204879 -0.37910802929561821 0 0.024584159277916889 -0.37297410367608341 0 0.033433038275232647 -0.38286405210724778 0 0.01304644108142052 -0.38831366226035757 0 0.021681986234726489 -0.3913824457885815 0 0.033433038275232647 -0.38286405210724778 0 0.01304644108142052 -0.38831366226035757 0 0.033433038275232647 -0.38286405210724778 0 0.023820785480544199 -0.3834972168450041 0 0.01304644108142052 -0.38831366226035757 0 0.030700638650810901 -0.37675003666300738 0 0.030242958374787111 -0.37989740743881961 0 0.026979607214204879 -0.37910802929561821 0 0.031439853222639778 -0.38134680443418678 0 0.030242958374787111 -0.37989740743881961 0 0.02917149213729307 -0.38227912181231011 0 0.030242958374787111 -0.37989740743881961 0 0.02917149213729307 -0.38227912181231011 0 0.026979607214204879 -0.37910802929561821 0 0.02917149213729307 -0.38227912181231011 0 0.026979607214204879 -0.37910802929561821 0 0.023820785480544199 -0.3834972168450041 0 0.026979607214204879 -0.37910802929561821 0 0.022054458276207028 -0.37478508085391321 0 0.024584159277916889 -0.37297410367608341 0 0.033433038275232647 -0.38286405210724778 0 0.021681986234726489 -0.3913824457885815 0 0.025921162299813449 -0.39618933592425049 0 0.033433038275232647 -0.38286405210724778 0 0.02917149213729307 -0.38227912181231011 0 0.023820785480544199 -0.3834972168450041 0 0.023820785480544199 -0.3834972168450041 0 0.01870804139939395 -0.38173569192340989 0 0.01304644108142052 -0.38831366226035757 0 0.026979607214204879 -0.37910802929561821 0 0.023820785480544199 -0.3834972168450041 0 0.01870804139939395 -0.38173569192340989 0 0.026979607214204879 -0.37910802929561821 0 0.01275949946975607 -0.37541601939822422 0 0.026979607214204879 -0.37910802929561821 0 0.01275949946975607 -0.37541601939822422 0 0.018007025962361121 -0.37455640311761479 0 0.026979607214204879 -0.37910802929561821 0 0.01870804139939395 -0.38173569192340989 0 0.01275949946975607 -0.37541601939822422 0 0.026979607214204879 -0.37910802929561821 0 0.018007025962361121 -0.37455640311761479 0 0.022054458276207028 -0.37478508085391321 0 0.01870804139939395 -0.38173569192340989 0 0.01275949946975607 -0.37541601939822422 0 0.01304644108142052 -0.38831366226035757 0 0.01275949946975607 -0.37541601939822422 0 0.01027485318440405 -0.3804930435184613 0 0.01304644108142052 -0.38831366226035757 0 0.01275949946975607 -0.37541601939822422 0 0.01304644108142052 -0.38831366226035757 0 0.01275949946975607 -0.37541601939822422 0 0.0079698287346119858 -0.37815136780201852 0 0.01027485318440405 -0.3804930435184613 0 0.0083985185602050601 -0.38178363896437262 0 0.01027485318440405 -0.3804930435184613 0 0.0097307984233690366 -0.38449538460012977 0 0.0079698287346119858 -0.37815136780201852 0 0.0081601215361974538 -0.38005986426438021 0 0.01027485318440405 -0.3804930435184613 0 0.0083985185602050601 -0.38178363896437262 0 0.0081601215361974538 -0.38005986426438021 0 0.01027485318440405 -0.3804930435184613 0 0.01027485318440405 -0.3804930435184613 0 0.01304644108142052 -0.38831366226035757 0 0.0097307984233690366 -0.38449538460012977 0 0.01304644108142052 -0.38831366226035757 0 0.0098525977267297088 -0.38916741931494159 0 0.0097307984233690366 -0.38449538460012977 0 0.01304644108142052 -0.38831366226035757 0 0.0098525977267297088 -0.38916741931494159 0 0.0098525977267297088 -0.38916741931494159 0 0.0097307984233690366 -0.38449538460012977 0 0.0067653291121059379 -0.38457852686243832 0 0.0083985185602050601 -0.38178363896437262 0 0.0097307984233690366 -0.38449538460012977 0 0.0067653291121059379 -0.38457852686243832 0 0.0067653291121059379 -0.38457852686243832 0 0.0024663421228158611 -0.38577551295023971 0 0.005699638919037674 -0.38063327967320681 0 0.0098525977267297088 -0.38916741931494159 0 0.0024663421228158611 -0.38577551295023971 0 0.0005835934915041272 -0.3961125858119427 0 0.0098525977267297088 -0.38916741931494159 0 0.0067653291121059379 -0.38457852686243832 0 0.0024663421228158611 -0.38577551295023971 0 0.01275949946975607 -0.37541601939822422 0 0.0079698287346119858 -0.37815136780201852 0 0.002186550478631818 -0.37664663839193951 0 0.0024663421228158611 -0.38577551295023971 0 0.002186550478631818 -0.37664663839193951 0 0.005699638919037674 -0.38063327967320681 0 0.0079698287346119858 -0.37815136780201852 0 0.002186550478631818 -0.37664663839193951 0 0.005699638919037674 -0.38063327967320681 0 0.0083985185602050601 -0.38178363896437262 0 0.0081601215361974538 -0.38005986426438021 0 0.005699638919037674 -0.38063327967320681 0 0.0079698287346119858 -0.37815136780201852 0 0.0081601215361974538 -0.38005986426438021 0 0.005699638919037674 -0.38063327967320681 0 0.0083985185602050601 -0.38178363896437262 0 0.0067653291121059379 -0.38457852686243832 0 0.005699638919037674 -0.38063327967320681 0 0.0098525977267297088 -0.38916741931494159 0 0.0058266026647509706 -0.40564038898758092 0 0.0005835934915041272 -0.3961125858119427 0 0.01304644108142052 -0.38831366226035757 0 0.01370376318239616 -0.41785941428543089 0 0.01304644108142052 -0.38831366226035757 0 0.0098525977267297088 -0.38916741931494159 0 0.0058266026647509706 -0.40564038898758092 0 0.01304644108142052 -0.38831366226035757 0 0.0058266026647509706 -0.40564038898758092 0 0.01370376318239616 -0.41785941428543089 0 0.01304644108142052 -0.38831366226035757 0 0.01855161994556553 -0.39951765000589268 0 0.01370376318239616 -0.41785941428543089 0 -0.001367206077267252 -0.40650877190431511 0 0.0058266026647509706 -0.40564038898758092 0 0.0005835934915041272 -0.3961125858119427 0 0.01855161994556553 -0.39951765000589268 0 0.021044944843924929 -0.40469021498548191 0 0.025921162299813449 -0.39618933592425049 0 0.021044944843924929 -0.40469021498548191 0 0.025921162299813449 -0.39618933592425049 0 0.039170584795190713 -0.40629124168579939 0 0.01855161994556553 -0.39951765000589268 0 0.021681986234726489 -0.3913824457885815 0 0.025921162299813449 -0.39618933592425049 0 0.01304644108142052 -0.38831366226035757 0 0.01855161994556553 -0.39951765000589268 0 0.021681986234726489 -0.3913824457885815 0 0.021044944843924929 -0.40469021498548191 0 0.027012183416916889 -0.43027242003771687 0 0.021044944843924929 -0.40469021498548191 0 0.027012183416916889 -0.43027242003771687 0 0.039170584795190713 -0.40629124168579939 0 0.021044944843924929 -0.40469021498548191 0 0.01370376318239616 -0.41785941428543089 0 0.027012183416916889 -0.43027242003771687 0 0.01855161994556553 -0.39951765000589268 0 0.021044944843924929 -0.40469021498548191 0 0.01370376318239616 -0.41785941428543089 0 0.0058266026647509706 -0.40564038898758092 0 0.01370376318239616 -0.41785941428543089 0 0.0062077999202321578 -0.41939994597139402 0 0.01370376318239616 -0.41785941428543089 0 0.01379243660661106 -0.42184516647476122 0 -0.0018914237909277061 -0.41928909002879139 0 0.0058266026647509706 -0.40564038898758092 0 0.0062077999202321578 -0.41939994597139402 0 -0.0018914237909277061 -0.41928909002879139 0 -0.001367206077267252 -0.40650877190431511 0 0.0058266026647509706 -0.40564038898758092 0 0.01379243660661106 -0.42184516647476122 0 0.0061512126340387023 -0.43027995724634288 0 0.014361085283374009 -0.44740516631050431 0 0.01379243660661106 -0.42184516647476122 0 0.014361085283374009 -0.44740516631050431 0 -0.0082866790812689186 -0.43278516735961292 0 0.0061512126340387023 -0.43027995724634288 0 0.0030651850402754859 -0.4419511729918677 0 -0.0018914237909277061 -0.41928909002879139 0 0.0062077999202321578 -0.41939994597139402 0 0.0061512126340387023 -0.43027995724634288 0 0.01370376318239616 -0.41785941428543089 0 0.01379243660661106 -0.42184516647476122 0 0.0061512126340387023 -0.43027995724634288 0 0.01370376318239616 -0.41785941428543089 0 0.0062077999202321578 -0.41939994597139402 0 0.0061512126340387023 -0.43027995724634288 0 0.01379243660661106 -0.42184516647476122 0 0.027012183416916889 -0.43027242003771687 0 0.02252685740662155 -0.44170127483434202 0 0.01379243660661106 -0.42184516647476122 0 0.02252685740662155 -0.44170127483434202 0 0.014361085283374009 -0.44740516631050431 0 0.01379243660661106 -0.42184516647476122 0 0.02252685740662155 -0.44170127483434202 0 0.01370376318239616 -0.41785941428543089 0 0.01379243660661106 -0.42184516647476122 0 0.027012183416916889 -0.43027242003771687 0 0.027012183416916889 -0.43027242003771687 0 0.044908131315150583 -0.4297184312643505 0 0.039170584795190713 -0.40629124168579939 0 0.027012183416916889 -0.43027242003771687 0 0.044908131315150583 -0.4297184312643505 0 0.036319036272959002 -0.4415885815575693 0 0.044908131315150583 -0.4297184312643505 0 0.039170584795190713 -0.40629124168579939 0 0.044908131315150583 -0.4297184312643505 0 0.039170584795190713 -0.40629124168579939 0 0.052615951745281692 -0.41433871263744859 0 0.067855943763572929 -0.41168210360983598 0 0.062552439613760669 -0.39778543522307502 0 0.052615951745281692 -0.41433871263744859 0 0.06298473753662498 -0.42546507049581828 0 0.067855943763572929 -0.41168210360983598 0 0.052615951745281692 -0.41433871263744859 0 0.06298473753662498 -0.42546507049581828 0 0.044908131315150583 -0.4297184312643505 0 0.060050657655879219 -0.43897923212796353 0 0.06298473753662498 -0.42546507049581828 0 0.044908131315150583 -0.4297184312643505 0 0.052615951745281692 -0.41433871263744859 0 0.070647920541861697 -0.44817046320525339 0 0.060050657655879219 -0.43897923212796353 0 0.050645677835110432 -0.45314562084290172 0 0.044908131315150583 -0.4297184312643505 0 0.060050657655879219 -0.43897923212796353 0 0.050645677835110432 -0.45314562084290172 0 0.044908131315150583 -0.4297184312643505 0 0.050645677835110432 -0.45314562084290172 0 0.050645677835110432 -0.45314562084290172 0 0.043704775303735462 -0.46683991088465748 0 0.056383224355070281 -0.47657281042145277 0 0.069484618871534815 -0.46299567541230202 0 0.050645677835110432 -0.45314562084290172 0 0.056383224355070281 -0.47657281042145277 0 0.050645677835110432 -0.45314562084290172 0 0.056383224355070281 -0.47657281042145277 0 0.050645677835110432 -0.45314562084290172 0 0.04212350583237643 -0.45621135164791221 0 0.043704775303735462 -0.46683991088465748 0 0.043704775303735462 -0.46683991088465748 0 0.032979421989908837 -0.45585462508995189 0 0.038946660562901053 -0.4814368301421868 0 0.032979421989908837 -0.45585462508995189 0 0.038946660562901053 -0.4814368301421868 0 0.032979421989908837 -0.45585462508995189 0 0.0307367589847614 -0.4615690524882643 0 0.038946660562901053 -0.4814368301421868 0 0.04212350583237643 -0.45621135164791221 0 0.043704775303735462 -0.46683991088465748 0 0.032979421989908837 -0.45585462508995189 0 0.04212350583237643 -0.45621135164791221 0 0.032979421989908837 -0.45585462508995189 0 0.041164148200751011 -0.44900524977413792 0 0.044908131315150583 -0.4297184312643505 0 0.050645677835110432 -0.45314562084290172 0 0.041164148200751011 -0.44900524977413792 0 0.044908131315150583 -0.4297184312643505 0 0.041164148200751011 -0.44900524977413792 0 0.036319036272959002 -0.4415885815575693 0 0.027012183416916889 -0.43027242003771687 0 0.032979421989908837 -0.45585462508995189 0 0.036319036272959002 -0.4415885815575693 0 0.032979421989908837 -0.45585462508995189 0 0.041164148200751011 -0.44900524977413792 0 0.036319036272959002 -0.4415885815575693 0 0.050645677835110432 -0.45314562084290172 0 0.04212350583237643 -0.45621135164791221 0 0.041164148200751011 -0.44900524977413792 0 0.02252685740662155 -0.44170127483434202 0 0.0307367589847614 -0.4615690524882643 0 0.032979421989908837 -0.45585462508995189 0 0.02252685740662155 -0.44170127483434202 0 0.0307367589847614 -0.4615690524882643 0 0.027012183416916889 -0.43027242003771687 0 0.032979421989908837 -0.45585462508995189 0 0.02252685740662155 -0.44170127483434202 0 0.014361085283374009 -0.44740516631050431 0 0.0307367589847614 -0.4615690524882643 0 0.027012183416916889 -0.43027242003771687 0 0.032979421989908837 -0.45585462508995189 0 0.02252685740662155 -0.44170127483434202 0 -0.00056832804991988322 -0.45874236693044629 0 0.014361085283374009 -0.44740516631050431 0 0.0030651850402754859 -0.4419511729918677 0 0.0061512126340387023 -0.43027995724634288 0 0.014361085283374009 -0.44740516631050431 0 0.0030651850402754859 -0.4419511729918677 0 -0.00056832804991988322 -0.45874236693044629 0 0.014361085283374009 -0.44740516631050431 0 0.01501840738435186 -0.47695091833557768 0 0.014361085283374009 -0.44740516631050431 0 0.01501840738435186 -0.47695091833557768 0 0.014361085283374009 -0.44740516631050431 0 0.0307367589847614 -0.4615690524882643 0 0.01501840738435186 -0.47695091833557768 0 0.0307367589847614 -0.4615690524882643 0 0.02801443854686525 -0.47506186495463981 0 0.01501840738435186 -0.47695091833557768 0 0.02801443854686525 -0.47506186495463981 0 0.01501840738435186 -0.47695091833557768 0 0.0288216370802389 -0.48807010668290929 0 -0.00056832804991988322 -0.45874236693044629 0 -0.0045807544369819847 -0.48001459429476379 0 0.01501840738435186 -0.47695091833557768 0 -0.0045807544369819847 -0.48001459429476379 0 0.01501840738435186 -0.47695091833557768 0 0.017395201577052769 -0.5 0 -0.01182705985915739 -0.5 0 -0.0045807544369819847 -0.48001459429476379 0 0.017395201577052769 -0.5 0 0.017395201577052769 -0.5 0 0.0288216370802389 -0.48807010668290929 0 0.042936545922173122 -0.49854190548772259 0 0.01501840738435186 -0.47695091833557768 0 0.017395201577052769 -0.5 0 0.0288216370802389 -0.48807010668290929 0 0.042936545922173122 -0.49854190548772259 0 0.046617463013262993 -0.50000000000000067 0 0.038946660562901053 -0.4814368301421868 0 0.046617463013262993 -0.50000000000000067 0 0.038946660562901053 -0.4814368301421868 0 0.046617463013262993 -0.50000000000000067 0 0.038946660562901053 -0.4814368301421868 0 0.051017029701566317 -0.48950241014091 0 0.017395201577052769 -0.5 0 0.042936545922173122 -0.49854190548772259 0 0.046617463013262993 -0.50000000000000067 0 0.042936545922173122 -0.49854190548772259 0 0.038946660562901053 -0.4814368301421868 0 0.0288216370802389 -0.48807010668290929 0 0.042936545922173122 -0.49854190548772259 0 0.038946660562901053 -0.4814368301421868 0 0.043704775303735462 -0.46683991088465748 0 0.038946660562901053 -0.4814368301421868 0 0.056383224355070281 -0.47657281042145277 0 0.0307367589847614 -0.4615690524882643 0 0.02801443854686525 -0.47506186495463981 0 0.038946660562901053 -0.4814368301421868 0 0.02801443854686525 -0.47506186495463981 0 0.0288216370802389 -0.48807010668290929 0 0.038946660562901053 -0.4814368301421868 0 0.0307367589847614 -0.4615690524882643 0 0.038946660562901053 -0.4814368301421868 0 0.038946660562901053 -0.4814368301421868 0 0.056383224355070281 -0.47657281042145277 0 0.051017029701566317 -0.48950241014091 0 0.056383224355070281 -0.47657281042145277 0 0.062120770875030977 -0.50000000000000366 0 0.051017029701566317 -0.48950241014091 0 0.056383224355070281 -0.47657281042145277 0 0.062120770875030977 -0.50000000000000366 0 0.046617463013262993 -0.50000000000000067 0 0.062120770875030977 -0.50000000000000366 0 0.051017029701566317 -0.48950241014091 0 0.08777530595011683 -0.28182630112377172 0 0.077050552621789822 -0.29785353970087192 0 0.1033160195157084 -0.30330885777212269 0 0.077050552621789822 -0.29785353970087192 0 0.1033160195157084 -0.30330885777212269 0 0.0795417564418745 -0.3175415104018679 0 0.077050552621789822 -0.29785353970087192 0 0.0795417564418745 -0.3175415104018679 0 0.057046203864900773 -0.30225629559535921 0 0.0795417564418745 -0.3175415104018679 0 0.057046203864900773 -0.30225629559535921 0 0.08777530595011683 -0.28182630112377172 0 0.077050552621789822 -0.29785353970087192 0 0.067162563732714398 -0.28218339542873327 0 0.077050552621789822 -0.29785353970087192 0 0.067162563732714398 -0.28218339542873327 0 0.057046203864900773 -0.30225629559535921 0 0.067162563732714398 -0.28218339542873327 0 0.072234592384525217 -0.26034374447542058 0 0.058354565218051352 -0.26969349420616717 0 0.08777530595011683 -0.28182630112377172 0 0.067162563732714398 -0.28218339542873327 0 0.072234592384525217 -0.26034374447542058 0 0.072234592384525217 -0.26034374447542058 0 0.091717357283655473 -0.26261214023357998 0 0.077244090369030446 -0.24937400243974969 0 0.091717357283655473 -0.26261214023357998 0 0.077244090369030446 -0.24937400243974969 0 0.095652858460654439 -0.2440925638743634 0 0.08777530595011683 -0.28182630112377172 0 0.072234592384525217 -0.26034374447542058 0 0.08777530595011683 -0.28182630112377172 0 0.072234592384525217 -0.26034374447542058 0 0.091717357283655473 -0.26261214023357998 0 0.08777530595011683 -0.28182630112377172 0 0.091717357283655473 -0.26261214023357998 0 0.1110040395220085 -0.28035186938618639 0 0.091717357283655473 -0.26261214023357998 0 0.11752575702491661 -0.25624050287398092 0 0.1110040395220085 -0.28035186938618639 0 0.091717357283655473 -0.26261214023357998 0 0.11752575702491661 -0.25624050287398092 0 0.095652858460654439 -0.2440925638743634 0 0.13686069252858191 -0.2769085597194284 0 0.11752575702491661 -0.25624050287398092 0 0.1110040395220085 -0.28035186938618639 0 0.12882910482907181 -0.30121485459423503 0 0.1110040395220085 -0.28035186938618639 0 0.1033160195157084 -0.30330885777212269 0 0.08777530595011683 -0.28182630112377172 0 0.1110040395220085 -0.28035186938618639 0 0.1033160195157084 -0.30330885777212269 0 0.08777530595011683 -0.28182630112377172 0 0.1033160195157084 -0.30330885777212269 0 0.12882910482907181 -0.30121485459423503 0 0.1033160195157084 -0.30330885777212269 0 0.1188567330813 -0.32479141442047371 0 0.1033160195157084 -0.30330885777212269 0 0.1188567330813 -0.32479141442047371 0 0.12604582389339331 -0.34317988847961828 0 0.1188567330813 -0.32479141442047371 0 0.1075084221552743 -0.341345620057872 0 0.1075084221552743 -0.341345620057872 0 0.09779016609369541 -0.32630606194568068 0 0.091659426960919166 -0.34314702945206582 0 0.1188567330813 -0.32479141442047371 0 0.1075084221552743 -0.341345620057872 0 0.09779016609369541 -0.32630606194568068 0 0.1033160195157084 -0.30330885777212269 0 0.1188567330813 -0.32479141442047371 0 0.09779016609369541 -0.32630606194568068 0 0.13000289361066331 -0.36208612455862432 0 0.1171801822708201 -0.37005217928074918 0 0.1130759996764211 -0.35571570547643422 0 0.1171801822708201 -0.37005217928074918 0 0.1130759996764211 -0.35571570547643422 0 0.1026554928386751 -0.36819229633688272 0 0.13000289361066331 -0.36208612455862432 0 0.12604582389339331 -0.34317988847961828 0 0.1130759996764211 -0.35571570547643422 0 0.12604582389339331 -0.34317988847961828 0 0.1075084221552743 -0.341345620057872 0 0.1130759996764211 -0.35571570547643422 0 0.1075084221552743 -0.341345620057872 0 0.097622383225916903 -0.35493362057295919 0 0.091659426960919166 -0.34314702945206582 0 0.1075084221552743 -0.341345620057872 0 0.1130759996764211 -0.35571570547643422 0 0.097622383225916903 -0.35493362057295919 0 0.1130759996764211 -0.35571570547643422 0 0.097622383225916903 -0.35493362057295919 0 0.1026554928386751 -0.36819229633688272 0 0.097622383225916903 -0.35493362057295919 0 0.1026554928386751 -0.36819229633688272 0 0.08895195962344131 -0.36802310172241531 0 0.094842109667129831 -0.37822826797639908 0 0.1026554928386751 -0.36819229633688272 0 0.08895195962344131 -0.36802310172241531 0 0.10713174670563839 -0.37967814221308499 0 0.1171801822708201 -0.37005217928074918 0 0.1026554928386751 -0.36819229633688272 0 0.079305668864976642 -0.37060168428611751 0 0.08895195962344131 -0.36802310172241531 0 0.094842109667129831 -0.37822826797639908 0 0.079305668864976642 -0.37060168428611751 0 0.08895195962344131 -0.36802310172241531 0 0.097622383225916903 -0.35493362057295919 0 0.08895195962344131 -0.36802310172241531 0 0.082997975042530189 -0.35524798021857151 0 0.079305668864976642 -0.37060168428611751 0 0.08895195962344131 -0.36802310172241531 0 0.082997975042530189 -0.35524798021857151 0 0.082997975042530189 -0.35524798021857151 0 0.078988011880389092 -0.33603328754812578 0 0.091659426960919166 -0.34314702945206582 0 0.097622383225916903 -0.35493362057295919 0 0.082997975042530189 -0.35524798021857151 0 0.091659426960919166 -0.34314702945206582 0 0.082997975042530189 -0.35524798021857151 0 0.070191689438172514 -0.35088049098143881 0 0.078988011880389092 -0.33603328754812578 0 0.079305668864976642 -0.37060168428611751 0 0.082997975042530189 -0.35524798021857151 0 0.070191689438172514 -0.35088049098143881 0 0.056369353570104627 -0.37673286819668261 0 0.079305668864976642 -0.37060168428611751 0 0.0579396210714406 -0.36101311848213108 0 0.079305668864976642 -0.37060168428611751 0 0.070191689438172514 -0.35088049098143881 0 0.056369353570104627 -0.37673286819668261 0 0.079305668864976642 -0.37060168428611751 0 0.079305668864976642 -0.37060168428611751 0 0.070191689438172514 -0.35088049098143881 0 0.0579396210714406 -0.36101311848213108 0 0.09779016609369541 -0.32630606194568068 0 0.0795417564418745 -0.3175415104018679 0 0.078988011880389092 -0.33603328754812578 0 0.1033160195157084 -0.30330885777212269 0 0.09779016609369541 -0.32630606194568068 0 0.0795417564418745 -0.3175415104018679 0 0.09779016609369541 -0.32630606194568068 0 0.078988011880389092 -0.33603328754812578 0 0.091659426960919166 -0.34314702945206582 0 0.070191689438172514 -0.35088049098143881 0 0.078988011880389092 -0.33603328754812578 0 0.061077710011368948 -0.33115929767675978 0 0.0795417564418745 -0.3175415104018679 0 0.078988011880389092 -0.33603328754812578 0 0.061077710011368948 -0.33115929767675978 0 0.070191689438172514 -0.35088049098143881 0 0.061077710011368948 -0.33115929767675978 0 0.0795417564418745 -0.3175415104018679 0 0.061077710011368948 -0.33115929767675978 0 0.057046203864900773 -0.30225629559535921 0 0.061077710011368948 -0.33115929767675978 0 0.046357041313809799 -0.31756788373497008 0 0.057046203864900773 -0.30225629559535921 0 0.061077710011368948 -0.33115929767675978 0 0.038817528632063517 -0.33446758643270758 0 0.046357041313809799 -0.31756788373497008 0 0.061077710011368948 -0.33115929767675978 0 0.038817528632063517 -0.33446758643270758 0 0.048894992954108832 -0.35035838499931732 0 0.038817528632063517 -0.33446758643270758 0 0.033656969715846988 -0.31696668652322602 0 0.046357041313809799 -0.31756788373497008 0 0.033656969715846988 -0.31696668652322602 0 0.046357041313809799 -0.31756788373497008 0 0.039394616411875749 -0.30509407708308239 0 0.056369353570104627 -0.37673286819668261 0 0.0579396210714406 -0.36101311848213108 0 0.044656568014290937 -0.36483292491988117 0 0.056369353570104627 -0.37673286819668261 0 0.041775920757968363 -0.37507092929996488 0 0.044656568014290937 -0.36483292491988117 0 0.070191689438172514 -0.35088049098143881 0 0.0579396210714406 -0.36101311848213108 0 0.048894992954108832 -0.35035838499931732 0 0.070191689438172514 -0.35088049098143881 0 0.061077710011368948 -0.33115929767675978 0 0.048894992954108832 -0.35035838499931732 0 0.0579396210714406 -0.36101311848213108 0 0.048894992954108832 -0.35035838499931732 0 0.044656568014290937 -0.36483292491988117 0 0.038817528632063517 -0.33446758643270758 0 0.048894992954108832 -0.35035838499931732 0 0.031319288230065988 -0.35351081067275292 0 0.048894992954108832 -0.35035838499931732 0 0.031319288230065988 -0.35351081067275292 0 0.044656568014290937 -0.36483292491988117 0 0.031319288230065988 -0.35351081067275292 0 0.044656568014290937 -0.36483292491988117 0 0.031640231502057289 -0.37231143786843879 0 0.041775920757968363 -0.37507092929996488 0 0.03519429668408669 -0.37693667165803613 0 0.031640231502057289 -0.37231143786843879 0 0.041775920757968363 -0.37507092929996488 0 0.044656568014290937 -0.36483292491988117 0 0.031640231502057289 -0.37231143786843879 0 0.031319288230065988 -0.35351081067275292 0 0.031640231502057289 -0.37231143786843879 0 0.017523423221046108 -0.36314178125956748 0 0.018518592097831871 -0.37177455430138329 0 0.024584159277916889 -0.37297410367608341 0 0.017523423221046108 -0.36314178125956748 0 0.018518592097831871 -0.37177455430138329 0 0.017523423221046108 -0.36314178125956748 0 0.01476636486298607 -0.36860783529822588 0 0.018518592097831871 -0.37177455430138329 0 0.018007025962361121 -0.37455640311761479 0 0.022054458276207028 -0.37478508085391321 0 0.018518592097831871 -0.37177455430138329 0 0.018007025962361121 -0.37455640311761479 0 0.01501708627312524 -0.37190526932362272 0 0.018518592097831871 -0.37177455430138329 0 0.01476636486298607 -0.36860783529822588 0 0.01501708627312524 -0.37190526932362272 0 0.018518592097831871 -0.37177455430138329 0 0.022054458276207028 -0.37478508085391321 0 0.024584159277916889 -0.37297410367608341 0 0.031640231502057289 -0.37231143786843879 0 0.017523423221046108 -0.36314178125956748 0 0.031640231502057289 -0.37231143786843879 0 0.024584159277916889 -0.37297410367608341 0 0.017523423221046108 -0.36314178125956748 0 0.030700638650810901 -0.37675003666300738 0 0.031640231502057289 -0.37231143786843879 0 0.024584159277916889 -0.37297410367608341 0 0.031319288230065988 -0.35351081067275292 0 0.017523423221046108 -0.36314178125956748 0 0.01700093957239935 -0.34918480424343412 0 0.031319288230065988 -0.35351081067275292 0 0.01700093957239935 -0.34918480424343412 0 0.022804822986707139 -0.34051658065031859 0 0.01700093957239935 -0.34918480424343412 0 0.0075725997733496111 -0.34583881123027299 0 0.01278499068139871 -0.33663151026337917 0 0.01700093957239935 -0.34918480424343412 0 0.0075725997733496111 -0.34583881123027299 0 0.01028395355103637 -0.35262640903738868 0 0.001841636670160379 -0.34665091486273469 0 0.0013316416042528519 -0.34933408190008453 0 0.0048854604307610929 -0.35075075241288178 0 0.0013316416042528519 -0.34933408190008453 0 0.0048854604307610929 -0.35075075241288178 0 0.0034066149400347099 -0.3539721246506965 0 0.0075725997733496111 -0.34583881123027299 0 0.001841636670160379 -0.34665091486273469 0 0.0048854604307610929 -0.35075075241288178 0 0.0075725997733496111 -0.34583881123027299 0 0.0048854604307610929 -0.35075075241288178 0 0.01028395355103637 -0.35262640903738868 0 0.0048854604307610929 -0.35075075241288178 0 0.0034066149400347099 -0.3539721246506965 0 0.01028395355103637 -0.35262640903738868 0 -0.0028400579241715002 -0.35784654174796909 0 0.0034066149400347099 -0.3539721246506965 0 0.0029551226172910491 -0.36092099995658328 0 0.017523423221046108 -0.36314178125956748 0 0.0034066149400347099 -0.3539721246506965 0 0.0029551226172910491 -0.36092099995658328 0 0.017523423221046108 -0.36314178125956748 0 0.0034066149400347099 -0.3539721246506965 0 0.01028395355103637 -0.35262640903738868 0 0.017523423221046108 -0.36314178125956748 0 0.01700093957239935 -0.34918480424343412 0 0.01028395355103637 -0.35262640903738868 0 0.017523423221046108 -0.36314178125956748 0 0.0034066149400347099 -0.3539721246506965 0 -0.01389993942185256 -0.36849434805679587 0 0.01275949946975607 -0.37541601939822422 0 0.0088809091835504086 -0.36962472348447162 0 -0.01389993942185256 -0.36849434805679587 0 0.01275949946975607 -0.37541601939822422 0 0.002186550478631818 -0.37664663839193951 0 0.017523423221046108 -0.36314178125956748 0 0.01173394904941668 -0.36580170236414827 0 0.0029551226172910491 -0.36092099995658328 0 0.01173394904941668 -0.36580170236414827 0 0.0029551226172910491 -0.36092099995658328 0 0.0088809091835504086 -0.36962472348447162 0 0.017523423221046108 -0.36314178125956748 0 0.01173394904941668 -0.36580170236414827 0 0.01476636486298607 -0.36860783529822588 0 0.01173394904941668 -0.36580170236414827 0 0.0088809091835504086 -0.36962472348447162 0 0.01476636486298607 -0.36860783529822588 0 0.0088809091835504086 -0.36962472348447162 0 0.01476636486298607 -0.36860783529822588 0 0.01501708627312524 -0.37190526932362272 0 0.01275949946975607 -0.37541601939822422 0 0.0088809091835504086 -0.36962472348447162 0 0.01501708627312524 -0.37190526932362272 0 0.01275949946975607 -0.37541601939822422 0 0.018007025962361121 -0.37455640311761479 0 0.01501708627312524 -0.37190526932362272 0 0.033656969715846988 -0.31696668652322602 0 0.01549112275882299 -0.32370169872399879 0 0.02536221587689419 -0.30170843877300663 0 0.038817528632063517 -0.33446758643270758 0 0.033656969715846988 -0.31696668652322602 0 0.01549112275882299 -0.32370169872399879 0 0.022804822986707139 -0.34051658065031859 0 0.01278499068139871 -0.33663151026337917 0 0.01549112275882299 -0.32370169872399879 0 0.038817528632063517 -0.33446758643270758 0 0.022804822986707139 -0.34051658065031859 0 0.01549112275882299 -0.32370169872399879 0 0.038817528632063517 -0.33446758643270758 0 0.031319288230065988 -0.35351081067275292 0 0.022804822986707139 -0.34051658065031859 0 0.01700093957239935 -0.34918480424343412 0 0.022804822986707139 -0.34051658065031859 0 0.01278499068139871 -0.33663151026337917 0 0.01278499068139871 -0.33663151026337917 0 0.001363271001456459 -0.33695923204405698 0 0.01549112275882299 -0.32370169872399879 0 0.0075725997733496111 -0.34583881123027299 0 0.01278499068139871 -0.33663151026337917 0 0.001363271001456459 -0.33695923204405698 0 0.0075725997733496111 -0.34583881123027299 0 0.001841636670160379 -0.34665091486273469 0 0.001363271001456459 -0.33695923204405698 0 -0.001476048506313423 -0.31866223119492831 0 0.001363271001456459 -0.33695923204405698 0 0.01549112275882299 -0.32370169872399879 0 -0.001476048506313423 -0.31866223119492831 0 0.01549112275882299 -0.32370169872399879 0 0.007359152392873396 -0.30414063040254607 0 0.0001914317168464046 -0.28580454581531212 0 0.015903709997098829 -0.29006211235241142 0 0.012055098710953159 -0.27168586598234162 0 0.007359152392873396 -0.30414063040254607 0 0.0001914317168464046 -0.28580454581531212 0 0.015903709997098829 -0.29006211235241142 0 0.015903709997098829 -0.29006211235241142 0 0.034550651287926983 -0.28697108078885042 0 0.012055098710953159 -0.27168586598234162 0 0.015903709997098829 -0.29006211235241142 0 0.02536221587689419 -0.30170843877300663 0 0.034550651287926983 -0.28697108078885042 0 0.007359152392873396 -0.30414063040254607 0 0.015903709997098829 -0.29006211235241142 0 0.02536221587689419 -0.30170843877300663 0 0.01549112275882299 -0.32370169872399879 0 0.007359152392873396 -0.30414063040254607 0 0.02536221587689419 -0.30170843877300663 0 0.033656969715846988 -0.31696668652322602 0 0.02536221587689419 -0.30170843877300663 0 0.039394616411875749 -0.30509407708308239 0 0.02536221587689419 -0.30170843877300663 0 0.039394616411875749 -0.30509407708308239 0 0.034550651287926983 -0.28697108078885042 0 0.039394616411875749 -0.30509407708308239 0 0.034550651287926983 -0.28697108078885042 0 0.057046203864900773 -0.30225629559535921 0 0.034550651287926983 -0.28697108078885042 0 0.057046203864900773 -0.30225629559535921 0 0.034550651287926983 -0.28697108078885042 0 0.05221303970702286 -0.2820440811813012 0 0.057046203864900773 -0.30225629559535921 0 0.067162563732714398 -0.28218339542873327 0 0.05221303970702286 -0.2820440811813012 0 0.057046203864900773 -0.30225629559535921 0 0.046357041313809799 -0.31756788373497008 0 0.039394616411875749 -0.30509407708308239 0 0.057046203864900773 -0.30225629559535921 0 0.072234592384525217 -0.26034374447542058 0 0.052965403979121632 -0.25707746056184988 0 0.056693878818933591 -0.2388611878270695 0 0.072234592384525217 -0.26034374447542058 0 0.052965403979121632 -0.25707746056184988 0 0.058354565218051352 -0.26969349420616717 0 0.052965403979121632 -0.25707746056184988 0 0.058354565218051352 -0.26969349420616717 0 0.040705202576168893 -0.27141349039126161 0 0.05221303970702286 -0.2820440811813012 0 0.058354565218051352 -0.26969349420616717 0 0.040705202576168893 -0.27141349039126161 0 0.067162563732714398 -0.28218339542873327 0 0.05221303970702286 -0.2820440811813012 0 0.058354565218051352 -0.26969349420616717 0 0.034550651287926983 -0.28697108078885042 0 0.040705202576168893 -0.27141349039126161 0 0.027125632554202962 -0.26411667227267788 0 0.034550651287926983 -0.28697108078885042 0 0.05221303970702286 -0.2820440811813012 0 0.040705202576168893 -0.27141349039126161 0 0.040705202576168893 -0.27141349039126161 0 0.027125632554202962 -0.26411667227267788 0 0.033592769042577179 -0.24737273641319579 0 0.040705202576168893 -0.27141349039126161 0 0.033592769042577179 -0.24737273641319579 0 0.052965403979121632 -0.25707746056184988 0 0.040705202576168893 -0.27141349039126161 0 0.033592769042577179 -0.24737273641319579 0 0.027125632554202962 -0.26411667227267788 0 0.016385493269131319 -0.24616508638642151 0 0.033592769042577179 -0.24737273641319579 0 0.027125632554202962 -0.26411667227267788 0 0.012055098710953159 -0.27168586598234162 0 0.016385493269131319 -0.24616508638642151 0 0.034550651287926983 -0.28697108078885042 0 0.012055098710953159 -0.27168586598234162 0 0.034550651287926983 -0.28697108078885042 0 0.027125632554202962 -0.26411667227267788 0 0.012055098710953159 -0.27168586598234162 0 -0.0045210631122281813 -0.25968277032720372 0 0.0001914317168464046 -0.28580454581531212 0 0.012055098710953159 -0.27168586598234162 0 -0.0045210631122281813 -0.25968277032720372 0 0.012055098710953159 -0.27168586598234162 0 0.016385493269131319 -0.24616508638642151 0 0.0018127702096612051 -0.2393031948996299 0 0.011496042778778181 -0.22955315377658911 0 0.016385493269131319 -0.24616508638642151 0 -0.0045210631122281813 -0.25968277032720372 0 0.0018127702096612051 -0.2393031948996299 0 0.016385493269131319 -0.24616508638642151 0 -0.0017643924418505161 -0.22612608804366419 0 0.0018127702096612051 -0.2393031948996299 0 0.011496042778778181 -0.22955315377658911 0 -0.0017643924418505161 -0.22612608804366419 0 0.011496042778778181 -0.22955315377658911 0 0.01245535173546046 -0.2157811001206123 0 0.011496042778778181 -0.22955315377658911 0 0.026480335508985469 -0.22333198243513011 0 0.016385493269131319 -0.24616508638642151 0 0.011496042778778181 -0.22955315377658911 0 0.026480335508985469 -0.22333198243513011 0 0.01245535173546046 -0.2157811001206123 0 0.026480335508985469 -0.22333198243513011 0 0.033592769042577179 -0.24737273641319579 0 0.026480335508985469 -0.22333198243513011 0 0.016385493269131319 -0.24616508638642151 0 0.033592769042577179 -0.24737273641319579 0 -0.0011302105970761101 -0.2104360268166206 0 0.008872794213139211 -0.19712976163152199 0 0.019367901975393821 -0.19929122845706429 0 0.008872794213139211 -0.19712976163152199 0 0.019367901975393821 -0.19929122845706429 0 0.013347541516751091 -0.1789417933499465 0 -0.0011302105970761101 -0.2104360268166206 0 -0.0061723781852608727 -0.19741163018913069 0 0.008872794213139211 -0.19712976163152199 0 -0.0017643924418505161 -0.22612608804366419 0 -0.0011302105970761101 -0.2104360268166206 0 0.01245535173546046 -0.2157811001206123 0 -0.0011302105970761101 -0.2104360268166206 0 0.01245535173546046 -0.2157811001206123 0 0.019367901975393821 -0.19929122845706429 0 -0.0011302105970761101 -0.2104360268166206 0 0.019367901975393821 -0.19929122845706429 0 0.026480335508985469 -0.22333198243513011 0 0.02561245168775093 -0.19589607453036689 0 0.041153165253341971 -0.21737863117871839 0 0.026480335508985469 -0.22333198243513011 0 0.019367901975393821 -0.19929122845706429 0 0.02561245168775093 -0.19589607453036689 0 0.026480335508985469 -0.22333198243513011 0 0.01245535173546046 -0.2157811001206123 0 0.019367901975393821 -0.19929122845706429 0 0.026480335508985469 -0.22333198243513011 0 0.019367901975393821 -0.19929122845706429 0 0.019367901975393821 -0.19929122845706429 0 0.013347541516751091 -0.1789417933499465 0 0.019367901975393821 -0.19929122845706429 0 0.02561245168775093 -0.19589607453036689 0 0.013347541516751091 -0.1789417933499465 0 0.019367901975393821 -0.19929122845706429 0 0.02561245168775093 -0.19589607453036689 0 0.02561245168775093 -0.19589607453036689 0 0.050185858205179353 -0.18253554391194851 0 0.02561245168775093 -0.19589607453036689 0 0.043422456692973802 -0.19937456286738919 0 0.050185858205179353 -0.18253554391194851 0 0.02561245168775093 -0.19589607453036689 0 0.041153165253341971 -0.21737863117871839 0 0.043422456692973802 -0.19937456286738919 0 0.041153165253341971 -0.21737863117871839 0 0.055245531777217173 -0.20650890483112189 0 0.02561245168775093 -0.19589607453036689 0 0.043422456692973802 -0.19937456286738919 0 0.041153165253341971 -0.21737863117871839 0 0.041153165253341971 -0.21737863117871839 0 0.055245531777217173 -0.20650890483112189 0 0.060349251645149121 -0.22041913059510329 0 0.055245531777217173 -0.20650890483112189 0 0.060349251645149121 -0.22041913059510329 0 0.067451808187091525 -0.2052439642391955 0 0.043422456692973802 -0.19937456286738919 0 0.055245531777217173 -0.20650890483112189 0 0.063850977107529364 -0.19012823527520339 0 0.055245531777217173 -0.20650890483112189 0 0.067451808187091525 -0.2052439642391955 0 0.063850977107529364 -0.19012823527520339 0 0.043422456692973802 -0.19937456286738919 0 0.063850977107529364 -0.19012823527520339 0 0.050185858205179353 -0.18253554391194851 0 0.026480335508985469 -0.22333198243513011 0 0.033592769042577179 -0.24737273641319579 0 0.03884438012526719 -0.23274657217589509 0 0.033592769042577179 -0.24737273641319579 0 0.03884438012526719 -0.23274657217589509 0 0.056693878818933591 -0.2388611878270695 0 0.041153165253341971 -0.21737863117871839 0 0.03884438012526719 -0.23274657217589509 0 0.056693878818933591 -0.2388611878270695 0 0.026480335508985469 -0.22333198243513011 0 0.041153165253341971 -0.21737863117871839 0 0.03884438012526719 -0.23274657217589509 0 0.041153165253341971 -0.21737863117871839 0 0.056693878818933591 -0.2388611878270695 0 0.041153165253341971 -0.21737863117871839 0 0.060349251645149121 -0.22041913059510329 0 0.056693878818933591 -0.2388611878270695 0 0.052965403979121632 -0.25707746056184988 0 0.033592769042577179 -0.24737273641319579 0 0.056693878818933591 -0.2388611878270695 0 0.072234592384525217 -0.26034374447542058 0 0.056693878818933591 -0.2388611878270695 0 0.077244090369030446 -0.24937400243974969 0 0.077244090369030446 -0.24937400243974969 0 0.086078943868186 -0.2261208835917084 0 0.070742725852247293 -0.23052401487418259 0 0.072234592384525217 -0.26034374447542058 0 0.056693878818933591 -0.2388611878270695 0 0.056693878818933591 -0.2388611878270695 0 0.077244090369030446 -0.24937400243974969 0 0.070742725852247293 -0.23052401487418259 0 0.077244090369030446 -0.24937400243974969 0 0.086078943868186 -0.2261208835917084 0 0.095652858460654439 -0.2440925638743634 0 0.077244090369030446 -0.24937400243974969 0 0.086078943868186 -0.2261208835917084 0 0.086078943868186 -0.2261208835917084 0 0.070742725852247293 -0.23052401487418259 0 0.073347464559937278 -0.2178448699172818 0 0.060349251645149121 -0.22041913059510329 0 0.056693878818933591 -0.2388611878270695 0 0.070742725852247293 -0.23052401487418259 0 0.060349251645149121 -0.22041913059510329 0 0.070742725852247293 -0.23052401487418259 0 0.073347464559937278 -0.2178448699172818 0 0.060349251645149121 -0.22041913059510329 0 0.067451808187091525 -0.2052439642391955 0 0.073347464559937278 -0.2178448699172818 0 0.067451808187091525 -0.2052439642391955 0 0.073347464559937278 -0.2178448699172818 0 0.080768888572064698 -0.20333015281644981 0 0.067451808187091525 -0.2052439642391955 0 0.079458436540947322 -0.1892384899255522 0 0.080768888572064698 -0.20333015281644981 0 0.067451808187091525 -0.2052439642391955 0 0.063850977107529364 -0.19012823527520339 0 0.079458436540947322 -0.1892384899255522 0 0.079458436540947322 -0.1892384899255522 0 0.089722443336712671 -0.19376276334532369 0 0.10374865086649721 -0.1796146458956257 0 0.079458436540947322 -0.1892384899255522 0 0.089722443336712671 -0.19376276334532369 0 0.080768888572064698 -0.20333015281644981 0 0.089722443336712671 -0.19376276334532369 0 0.080768888572064698 -0.20333015281644981 0 0.094913797367341568 -0.20286776474366711 0 0.086078943868186 -0.2261208835917084 0 0.094913797367341568 -0.20286776474366711 0 0.086078943868186 -0.2261208835917084 0 0.073347464559937278 -0.2178448699172818 0 0.080768888572064698 -0.20333015281644981 0 0.086078943868186 -0.2261208835917084 0 0.080768888572064698 -0.20333015281644981 0 0.094913797367341568 -0.20286776474366711 0 0.10255533575817979 -0.20674944934061371 0 0.11878406133753119 -0.21476462611037389 0 0.1056981437574836 -0.22611529023279789 0 0.086078943868186 -0.2261208835917084 0 0.10255533575817979 -0.20674944934061371 0 0.094913797367341568 -0.20286776474366711 0 0.094913797367341568 -0.20286776474366711 0 0.11007004999867891 -0.1921797914515827 0 0.10374865086649721 -0.1796146458956257 0 0.089722443336712671 -0.19376276334532369 0 0.094913797367341568 -0.20286776474366711 0 0.10374865086649721 -0.1796146458956257 0 0.094913797367341568 -0.20286776474366711 0 0.10374865086649721 -0.1796146458956257 0 0.10255533575817979 -0.20674944934061371 0 0.094913797367341568 -0.20286776474366711 0 0.11007004999867891 -0.1921797914515827 0 0.11007004999867891 -0.1921797914515827 0 0.120581325569228 -0.17518203794998999 0 0.1285511404321481 -0.1964850593280171 0 0.10255533575817979 -0.20674944934061371 0 0.11007004999867891 -0.1921797914515827 0 0.1285511404321481 -0.1964850593280171 0 0.10255533575817979 -0.20674944934061371 0 0.1285511404321481 -0.1964850593280171 0 0.10255533575817979 -0.20674944934061371 0 0.11878406133753119 -0.21476462611037389 0 0.1285511404321481 -0.1964850593280171 0 0.11878406133753119 -0.21476462611037389 0 0.1056981437574836 -0.22611529023279789 0 0.12590004361212079 -0.2300012799293091 0 0.11752575702491661 -0.25624050287398092 0 0.1056981437574836 -0.22611529023279789 0 0.12590004361212079 -0.2300012799293091 0 0.11752575702491661 -0.25624050287398092 0 0.095652858460654439 -0.2440925638743634 0 0.1056981437574836 -0.22611529023279789 0 0.086078943868186 -0.2261208835917084 0 0.095652858460654439 -0.2440925638743634 0 0.1056981437574836 -0.22611529023279789 0 0.086078943868186 -0.2261208835917084 0 0.10255533575817979 -0.20674944934061371 0 0.1056981437574836 -0.22611529023279789 0 0.099332671240041484 -0.15581448267512171 0 0.1045633954249475 -0.13967987252301159 0 0.08998679379526503 -0.14087065891172609 0 0.099332671240041484 -0.15581448267512171 0 0.1045633954249475 -0.13967987252301159 0 0.1239060777574726 -0.1424539520567083 0 0.098061671058171374 -0.12883494279628499 0 0.1045633954249475 -0.13967987252301159 0 0.08998679379526503 -0.14087065891172609 0 0.098061671058171374 -0.12883494279628499 0 0.1045633954249475 -0.13967987252301159 0 0.1115297632737869 -0.13042532617521699 0 0.1045633954249475 -0.13967987252301159 0 0.1115297632737869 -0.13042532617521699 0 0.1239060777574726 -0.1424539520567083 0 0.1115297632737869 -0.13042532617521699 0 0.1239060777574726 -0.1424539520567083 0 0.120571393356576 -0.12029381074793299 0 0.099332671240041484 -0.15581448267512171 0 0.1239060777574726 -0.1424539520567083 0 0.1239060777574726 -0.1424539520567083 0 0.1125835043656528 -0.15636152704758419 0 0.12765904280763571 -0.15808309190882719 0 0.099332671240041484 -0.15581448267512171 0 0.1239060777574726 -0.1424539520567083 0 0.1125835043656528 -0.15636152704758419 0 0.1125835043656528 -0.15636152704758419 0 0.120581325569228 -0.17518203794998999 0 0.10374865086649721 -0.1796146458956257 0 0.1125835043656528 -0.15636152704758419 0 0.120581325569228 -0.17518203794998999 0 0.12765904280763571 -0.15808309190882719 0 0.11007004999867891 -0.1921797914515827 0 0.120581325569228 -0.17518203794998999 0 0.10374865086649721 -0.1796146458956257 0 0.099332671240041484 -0.15581448267512171 0 0.1125835043656528 -0.15636152704758419 0 0.10374865086649721 -0.1796146458956257 0 0.1125835043656528 -0.15636152704758419 0 0.10374865086649721 -0.1796146458956257 0 0.099332671240041484 -0.15581448267512171 0 0.074759264722610408 -0.1691750132935351 0 0.099332671240041484 -0.15581448267512171 0 0.074759264722610408 -0.1691750132935351 0 0.075745594817577963 -0.15110401875964921 0 0.099332671240041484 -0.15581448267512171 0 0.10374865086649721 -0.1796146458956257 0 0.074759264722610408 -0.1691750132935351 0 0.079458436540947322 -0.1892384899255522 0 0.10374865086649721 -0.1796146458956257 0 0.074759264722610408 -0.1691750132935351 0 0.063850977107529364 -0.19012823527520339 0 0.074759264722610408 -0.1691750132935351 0 0.050185858205179353 -0.18253554391194851 0 0.063850977107529364 -0.19012823527520339 0 0.079458436540947322 -0.1892384899255522 0 0.074759264722610408 -0.1691750132935351 0 0.074759264722610408 -0.1691750132935351 0 0.075745594817577963 -0.15110401875964921 0 0.059716274317201112 -0.15456166536225571 0 0.075745594817577963 -0.15110401875964921 0 0.05837058877282178 -0.13647413160063149 0 0.059716274317201112 -0.15456166536225571 0 0.075745594817577963 -0.15110401875964921 0 0.074326490766599584 -0.1363626458873656 0 0.05837058877282178 -0.13647413160063149 0 0.099332671240041484 -0.15581448267512171 0 0.075745594817577963 -0.15110401875964921 0 0.08998679379526503 -0.14087065891172609 0 0.075745594817577963 -0.15110401875964921 0 0.08998679379526503 -0.14087065891172609 0 0.074326490766599584 -0.1363626458873656 0 0.08998679379526503 -0.14087065891172609 0 0.083753903846375474 -0.12901088947311981 0 0.074326490766599584 -0.1363626458873656 0 0.098061671058171374 -0.12883494279628499 0 0.08998679379526503 -0.14087065891172609 0 0.083753903846375474 -0.12901088947311981 0 0.083753903846375474 -0.12901088947311981 0 0.074326490766599584 -0.1363626458873656 0 0.070346669997908021 -0.1236127969713304 0 0.074326490766599584 -0.1363626458873656 0 0.05837058877282178 -0.13647413160063149 0 0.070346669997908021 -0.1236127969713304 0 0.05837058877282178 -0.13647413160063149 0 0.040065777321098547 -0.13386569907726209 0 0.047470200577274753 -0.1244554838415385 0 0.05837058877282178 -0.13647413160063149 0 0.04454314562780852 -0.14880858056275451 0 0.040065777321098547 -0.13386569907726209 0 0.05837058877282178 -0.13647413160063149 0 0.057459354494131948 -0.1200276011990481 0 0.047470200577274753 -0.1244554838415385 0 0.05837058877282178 -0.13647413160063149 0 0.057459354494131948 -0.1200276011990481 0 0.070346669997908021 -0.1236127969713304 0 0.05837058877282178 -0.13647413160063149 0 0.059716274317201112 -0.15456166536225571 0 0.04454314562780852 -0.14880858056275451 0 0.04454314562780852 -0.14880858056275451 0 0.03166769797168581 -0.15879188459770011 0 0.030316565219165179 -0.14262212107959171 0 0.04454314562780852 -0.14880858056275451 0 0.040065777321098547 -0.13386569907726209 0 0.030316565219165179 -0.14262212107959171 0 0.040065777321098547 -0.13386569907726209 0 0.02881898658624946 -0.12977923362615901 0 0.030316565219165179 -0.14262212107959171 0 0.040065777321098547 -0.13386569907726209 0 0.02881898658624946 -0.12977923362615901 0 0.036257587259893163 -0.1200095190910561 0 0.040065777321098547 -0.13386569907726209 0 0.047470200577274753 -0.1244554838415385 0 0.036257587259893163 -0.1200095190910561 0 0.074759264722610408 -0.1691750132935351 0 0.050185858205179353 -0.18253554391194851 0 0.047862855065467592 -0.16561974520353381 0 0.074759264722610408 -0.1691750132935351 0 0.050185858205179353 -0.18253554391194851 0 0.059716274317201112 -0.15456166536225571 0 0.04454314562780852 -0.14880858056275451 0 0.047862855065467592 -0.16561974520353381 0 0.074759264722610408 -0.1691750132935351 0 0.059716274317201112 -0.15456166536225571 0 0.047862855065467592 -0.16561974520353381 0 0.047862855065467592 -0.16561974520353381 0 0.03166769797168581 -0.15879188459770011 0 0.030572386575712249 -0.17456826150902729 0 0.04454314562780852 -0.14880858056275451 0 0.047862855065467592 -0.16561974520353381 0 0.03166769797168581 -0.15879188459770011 0 0.050185858205179353 -0.18253554391194851 0 0.047862855065467592 -0.16561974520353381 0 0.030572386575712249 -0.17456826150902729 0 0.02561245168775093 -0.19589607453036689 0 0.050185858205179353 -0.18253554391194851 0 0.030572386575712249 -0.17456826150902729 0 0.02561245168775093 -0.19589607453036689 0 0.030572386575712249 -0.17456826150902729 0 0.013347541516751091 -0.1789417933499465 0 0.02561245168775093 -0.19589607453036689 0 0.013347541516751091 -0.1789417933499465 0 0.030572386575712249 -0.17456826150902729 0 0.02038362059682634 -0.1634809041735874 0 0.013347541516751091 -0.1789417933499465 0 0.03166769797168581 -0.15879188459770011 0 0.030572386575712249 -0.17456826150902729 0 0.02038362059682634 -0.1634809041735874 0 0.03166769797168581 -0.15879188459770011 0 0.02038362059682634 -0.1634809041735874 0 0.020380777719547879 -0.15116625296374561 0 -0.0040270011763860244 -0.15492426055975811 0 0.013347541516751091 -0.1789417933499465 0 0.0059496992004344244 -0.15393632844751781 0 -0.0040270011763860244 -0.15492426055975811 0 -0.002026644035102563 -0.1743026528086962 0 0.013347541516751091 -0.1789417933499465 0 -0.0040270011763860244 -0.15492426055975811 0 0.013347541516751091 -0.1789417933499465 0 0.02038362059682634 -0.1634809041735874 0 0.013347541516751091 -0.1789417933499465 0 0.0059496992004344244 -0.15393632844751781 0 0.013347541516751091 -0.1789417933499465 0 0.0059496992004344244 -0.15393632844751781 0 -0.002026644035102563 -0.1743026528086962 0 0.008872794213139211 -0.19712976163152199 0 0.013347541516751091 -0.1789417933499465 0 0.018640464628095019 -0.13637304474172679 0 0.02881898658624946 -0.12977923362615901 0 0.021123868739167231 -0.12003784993199119 0 0.018640464628095019 -0.13637304474172679 0 0.01080402214079817 -0.12699825789432359 0 0.021123868739167231 -0.12003784993199119 0 0.018640464628095019 -0.13637304474172679 0 0.02881898658624946 -0.12977923362615901 0 0.030316565219165179 -0.14262212107959171 0 0.03166769797168581 -0.15879188459770011 0 0.030316565219165179 -0.14262212107959171 0 0.020380777719547879 -0.15116625296374561 0 0.018640464628095019 -0.13637304474172679 0 0.030316565219165179 -0.14262212107959171 0 0.020380777719547879 -0.15116625296374561 0 0.018640464628095019 -0.13637304474172679 0 0.020380777719547879 -0.15116625296374561 0 0.01273479900571239 -0.14440510336814019 0 -0.001448143115881912 -0.12893086354508901 0 0.0059496992004344244 -0.15393632844751781 0 0.01273479900571239 -0.14440510336814019 0 0.0059496992004344244 -0.15393632844751781 0 0.0083739072583860763 -0.1375618818051341 0 -0.001448143115881912 -0.12893086354508901 0 -0.0040270011763860244 -0.15492426055975811 0 0.0059496992004344244 -0.15393632844751781 0 0.020380777719547879 -0.15116625296374561 0 0.01273479900571239 -0.14440510336814019 0 0.0059496992004344244 -0.15393632844751781 0 0.02038362059682634 -0.1634809041735874 0 0.020380777719547879 -0.15116625296374561 0 0.0059496992004344244 -0.15393632844751781 0 -0.001448143115881912 -0.12893086354508901 0 0.0059496992004344244 -0.15393632844751781 0 0.0083739072583860763 -0.1375618818051341 0 0.018640464628095019 -0.13637304474172679 0 0.01273479900571239 -0.14440510336814019 0 0.0083739072583860763 -0.1375618818051341 0 0.018640464628095019 -0.13637304474172679 0 0.0083739072583860763 -0.1375618818051341 0 0.01080402214079817 -0.12699825789432359 0 -0.001448143115881912 -0.12893086354508901 0 0.0083739072583860763 -0.1375618818051341 0 0.01080402214079817 -0.12699825789432359 0 0.01080402214079817 -0.12699825789432359 0 0.0046222836972163346 -0.11624481063804749 0 0.021123868739167231 -0.12003784993199119 0 0.0046222836972163346 -0.11624481063804749 0 0.021123868739167231 -0.12003784993199119 0 0.018070911090457061 -0.10354437420072329 0 -0.001448143115881912 -0.12893086354508901 0 0.01080402214079817 -0.12699825789432359 0 0.0046222836972163346 -0.11624481063804749 0 0.021123868739167231 -0.12003784993199119 0 0.018070911090457061 -0.10354437420072329 0 0.033361714651917139 -0.10594011745297401 0 0.021123868739167231 -0.12003784993199119 0 0.036257587259893163 -0.1200095190910561 0 0.033361714651917139 -0.10594011745297401 0 0.02881898658624946 -0.12977923362615901 0 0.021123868739167231 -0.12003784993199119 0 0.036257587259893163 -0.1200095190910561 0 0.018070911090457061 -0.10354437420072329 0 0.029669810559144059 -0.091083344898856014 0 0.033361714651917139 -0.10594011745297401 0 0.018070911090457061 -0.10354437420072329 0 0.015040554633970559 -0.090289328112499373 0 0.029669810559144059 -0.091083344898856014 0 -0.0069547684239616298 -0.089163205094297177 0 0.0046222836972163346 -0.11624481063804749 0 0.0070918929633363411 -0.096207014078676822 0 0.0046222836972163346 -0.11624481063804749 0 0.018070911090457061 -0.10354437420072329 0 0.0070918929633363411 -0.096207014078676822 0 0.018070911090457061 -0.10354437420072329 0 0.0070918929633363411 -0.096207014078676822 0 0.015040554633970559 -0.090289328112499373 0 -0.0069547684239616298 -0.089163205094297177 0 0.0070918929633363411 -0.096207014078676822 0 0.006311249423132298 -0.081515978952543436 0 0.006311249423132298 -0.081515978952543436 0 0.015040554633970559 -0.090289328112499373 0 0.020351470297847611 -0.078358009035430456 0 0.0070918929633363411 -0.096207014078676822 0 0.006311249423132298 -0.081515978952543436 0 0.015040554633970559 -0.090289328112499373 0 -0.0020415661367895162 -0.053431008488494879 0 -0.0031264906627298181 -0.070164676629234424 0 0.0093786751802497244 -0.064247944616466296 0 -0.0031264906627298181 -0.070164676629234424 0 0.006311249423132298 -0.081515978952543436 0 0.0093786751802497244 -0.064247944616466296 0 0.006311249423132298 -0.081515978952543436 0 0.0093786751802497244 -0.064247944616466296 0 0.020351470297847611 -0.078358009035430456 0 0.0093786751802497244 -0.064247944616466296 0 0.026369507489716861 -0.06529840069413638 0 0.020351470297847611 -0.078358009035430456 0 0.026369507489716861 -0.06529840069413638 0 0.020351470297847611 -0.078358009035430456 0 0.036263855503565638 -0.077614356070874482 0 0.020351470297847611 -0.078358009035430456 0 0.029669810559144059 -0.091083344898856014 0 0.036263855503565638 -0.077614356070874482 0 0.015040554633970559 -0.090289328112499373 0 0.020351470297847611 -0.078358009035430456 0 0.029669810559144059 -0.091083344898856014 0 0.036263855503565638 -0.077614356070874482 0 0.047543457507643903 -0.092623513854323131 0 0.052548352504212872 -0.07877906658073959 0 0.029669810559144059 -0.091083344898856014 0 0.036263855503565638 -0.077614356070874482 0 0.047543457507643903 -0.092623513854323131 0 0.026369507489716861 -0.06529840069413638 0 0.036263855503565638 -0.077614356070874482 0 0.045508520161590203 -0.065554386916227406 0 0.036263855503565638 -0.077614356070874482 0 0.045508520161590203 -0.065554386916227406 0 0.052548352504212872 -0.07877906658073959 0 0.052548352504212872 -0.07877906658073959 0 0.064119228967894626 -0.087325866457324444 0 0.065757887940176493 -0.068019544487215491 0 0.045508520161590203 -0.065554386916227406 0 0.052548352504212872 -0.07877906658073959 0 0.065757887940176493 -0.068019544487215491 0 0.047543457507643903 -0.092623513854323131 0 0.052548352504212872 -0.07877906658073959 0 0.064119228967894626 -0.087325866457324444 0 0.047543457507643903 -0.092623513854323131 0 0.064138701987489222 -0.10667102217081691 0 0.064119228967894626 -0.087325866457324444 0 0.047543457507643903 -0.092623513854323131 0 0.047516890712892092 -0.11159319095030561 0 0.064138701987489222 -0.10667102217081691 0 0.057459354494131948 -0.1200276011990481 0 0.047516890712892092 -0.11159319095030561 0 0.064138701987489222 -0.10667102217081691 0 0.057459354494131948 -0.1200276011990481 0 0.047470200577274753 -0.1244554838415385 0 0.047516890712892092 -0.11159319095030561 0 0.047470200577274753 -0.1244554838415385 0 0.047516890712892092 -0.11159319095030561 0 0.036257587259893163 -0.1200095190910561 0 0.047516890712892092 -0.11159319095030561 0 0.036257587259893163 -0.1200095190910561 0 0.033361714651917139 -0.10594011745297401 0 0.029669810559144059 -0.091083344898856014 0 0.047543457507643903 -0.092623513854323131 0 0.033361714651917139 -0.10594011745297401 0 0.047543457507643903 -0.092623513854323131 0 0.047516890712892092 -0.11159319095030561 0 0.033361714651917139 -0.10594011745297401 0 0.02922333002937957 -0.0082555710176626471 0 0.01439257658453344 -0.0038299249426867062 0 0.007468935992880568 -0.023184147988071759 0 0.020086082938962909 0.0074320309104848412 0 0.02922333002937957 -0.0082555710176626471 0 0.01439257658453344 -0.0038299249426867062 0 0.0009626133680662478 0.004694825809427778 0 0.01439257658453344 -0.0038299249426867062 0 0.007468935992880568 -0.023184147988071759 0 0.0009626133680662478 0.004694825809427778 0 0.007468935992880568 -0.023184147988071759 0 0.0009626133680662478 0.004694825809427778 0 0.003190367795538461 -0.01235854054012421 0 0.007468935992880568 -0.023184147988071759 0 -0.0076707263748008424 -0.037220070045335563 0 0.003190367795538461 -0.01235854054012421 0 0.007468935992880568 -0.023184147988071759 0 0.007468935992880568 -0.023184147988071759 0 0.0080049150627039198 -0.025480767339014412 0 0.0043878529276636484 -0.036986451752035958 0 0.007468935992880568 -0.023184147988071759 0 0.0080049150627039198 -0.025480767339014412 0 0.007468935992880568 -0.023184147988071759 0 0.0080049150627039198 -0.025480767339014412 0 0.016664028730319979 -0.028474268390186151 0 0.0080049150627039198 -0.025480767339014412 0 0.016664028730319979 -0.028474268390186151 0 0.0043878529276636484 -0.036986451752035958 0 0.016664028730319979 -0.028474268390186151 0 0.025538550890233779 -0.020308108717871011 0 0.040936485273927722 -0.026406720172394361 0 0.02922333002937957 -0.0082555710176626471 0 0.007468935992880568 -0.023184147988071759 0 0.016664028730319979 -0.028474268390186151 0 0.016431338699999239 -0.037633261424458581 0 0.040936485273927722 -0.026406720172394361 0 0.02922333002937957 -0.0082555710176626471 0 0.007468935992880568 -0.023184147988071759 0 0.025538550890233779 -0.020308108717871011 0 0.007468935992880568 -0.023184147988071759 0 0.016664028730319979 -0.028474268390186151 0 0.025538550890233779 -0.020308108717871011 0 0.016431338699999239 -0.037633261424458581 0 0.032233419224745569 -0.041868452204984488 0 0.040936485273927722 -0.026406720172394361 0 0.016431338699999239 -0.037633261424458581 0 0.02117261647298881 -0.052661307078568587 0 0.032233419224745569 -0.041868452204984488 0 0.016431338699999239 -0.037633261424458581 0 0.040936485273927722 -0.026406720172394361 0 0.016431338699999239 -0.037633261424458581 0 0.0094771052922552421 -0.049174354200240737 0 0.02117261647298881 -0.052661307078568587 0 -0.0020415661367895162 -0.053431008488494879 0 0.0043878529276636484 -0.036986451752035958 0 0.0094771052922552421 -0.049174354200240737 0 0.016664028730319979 -0.028474268390186151 0 0.016431338699999239 -0.037633261424458581 0 0.0043878529276636484 -0.036986451752035958 0 -0.0076707263748008424 -0.037220070045335563 0 0.007468935992880568 -0.023184147988071759 0 0.0043878529276636484 -0.036986451752035958 0 0.016431338699999239 -0.037633261424458581 0 0.0043878529276636484 -0.036986451752035958 0 0.0094771052922552421 -0.049174354200240737 0 -0.0020415661367895162 -0.053431008488494879 0 0.0093786751802497244 -0.064247944616466296 0 0.0094771052922552421 -0.049174354200240737 0 0.0093786751802497244 -0.064247944616466296 0 0.0094771052922552421 -0.049174354200240737 0 0.02117261647298881 -0.052661307078568587 0 0.02117261647298881 -0.052661307078568587 0 0.037386784297949213 -0.052912231319242893 0 0.032233419224745569 -0.041868452204984488 0 0.026369507489716861 -0.06529840069413638 0 0.02117261647298881 -0.052661307078568587 0 0.037386784297949213 -0.052912231319242893 0 0.0093786751802497244 -0.064247944616466296 0 0.026369507489716861 -0.06529840069413638 0 0.02117261647298881 -0.052661307078568587 0 0.037386784297949213 -0.052912231319242893 0 0.054317759330228248 -0.050386476345415591 0 0.045122043780690353 -0.041294332396923823 0 0.026369507489716861 -0.06529840069413638 0 0.045508520161590203 -0.065554386916227406 0 0.037386784297949213 -0.052912231319242893 0 0.045508520161590203 -0.065554386916227406 0 0.037386784297949213 -0.052912231319242893 0 0.054317759330228248 -0.050386476345415591 0 0.045508520161590203 -0.065554386916227406 0 0.054317759330228248 -0.050386476345415591 0 0.065757887940176493 -0.068019544487215491 0 0.060735770776600938 -0.034897781942581738 0 0.045122043780690353 -0.041294332396923823 0 0.040936485273927722 -0.026406720172394361 0 0.054317759330228248 -0.050386476345415591 0 0.060735770776600938 -0.034897781942581738 0 0.045122043780690353 -0.041294332396923823 0 0.045122043780690353 -0.041294332396923823 0 0.032233419224745569 -0.041868452204984488 0 0.040936485273927722 -0.026406720172394361 0 0.037386784297949213 -0.052912231319242893 0 0.045122043780690353 -0.041294332396923823 0 0.032233419224745569 -0.041868452204984488 0 0.025538550890233779 -0.020308108717871011 0 0.040936485273927722 -0.026406720172394361 0 0.039599659390442972 -0.01280951197563723 0 0.040936485273927722 -0.026406720172394361 0 0.04927726307812233 -0.01127098610313677 0 0.039599659390442972 -0.01280951197563723 0 0.040936485273927722 -0.026406720172394361 0 0.04927726307812233 -0.01127098610313677 0 0.05569302574867277 -0.0096934860034888007 0 0.060735770776600938 -0.034897781942581738 0 0.040936485273927722 -0.026406720172394361 0 0.065441631847856147 -0.0151801789203302 0 0.040936485273927722 -0.026406720172394361 0 0.065441631847856147 -0.0151801789203302 0 0.040936485273927722 -0.026406720172394361 0 0.05569302574867277 -0.0096934860034888007 0 0.065441631847856147 -0.0151801789203302 0 0.051995645116997273 0.0055228002246816019 0 0.05569302574867277 -0.0096934860034888007 0 0.066477279452386295 -0.01084080552449102 0 0.051995645116997273 0.0055228002246816019 0 0.04927726307812233 -0.01127098610313677 0 0.039599659390442972 -0.01280951197563723 0 0.051995645116997273 0.0055228002246816019 0 0.04927726307812233 -0.01127098610313677 0 0.05569302574867277 -0.0096934860034888007 0 0.051995645116997273 0.0055228002246816019 0 0.066477279452386295 -0.01084080552449102 0 0.051995645116997273 0.0055228002246816019 0 0.02922333002937957 -0.0082555710176626471 0 0.051995645116997273 0.0055228002246816019 0 0.02922333002937957 -0.0082555710176626471 0 0.039599659390442972 -0.01280951197563723 0 0.02922333002937957 -0.0082555710176626471 0 0.025538550890233779 -0.020308108717871011 0 0.039599659390442972 -0.01280951197563723 0 0.087962381713208915 -0.0048627492070227631 0 0.082320885996717233 -0.016476133633389619 0 0.097565648143610961 -0.021431527734748691 0 0.087962381713208915 -0.0048627492070227631 0 0.068910971976752028 -0.01359077034621955 0 0.082320885996717233 -0.016476133633389619 0 0.087962381713208915 -0.0048627492070227631 0 0.068910971976752028 -0.01359077034621955 0 0.070494389351615672 0.0059909234811812706 0 0.076223698019018987 -0.0042716822877690861 0 0.066477279452386295 -0.01084080552449102 0 0.087962381713208915 -0.0048627492070227631 0 0.076223698019018987 -0.0042716822877690861 0 0.068910971976752028 -0.01359077034621955 0 0.070494389351615672 0.0059909234811812706 0 0.066477279452386295 -0.01084080552449102 0 0.05569302574867277 -0.0096934860034888007 0 0.065441631847856147 -0.0151801789203302 0 0.066477279452386295 -0.01084080552449102 0 0.065441631847856147 -0.0151801789203302 0 0.066477279452386295 -0.01084080552449102 0 0.065441631847856147 -0.0151801789203302 0 0.066477279452386295 -0.01084080552449102 0 0.068910971976752028 -0.01359077034621955 0 0.066477279452386295 -0.01084080552449102 0 0.068910971976752028 -0.01359077034621955 0 0.065441631847856147 -0.0151801789203302 0 0.068910971976752028 -0.01359077034621955 0 0.076223698019018987 -0.0042716822877690861 0 0.066477279452386295 -0.01084080552449102 0 0.068910971976752028 -0.01359077034621955 0 0.060735770776600938 -0.034897781942581738 0 0.065441631847856147 -0.0151801789203302 0 0.070328318124169079 -0.026766808651126909 0 0.060735770776600938 -0.034897781942581738 0 0.065441631847856147 -0.0151801789203302 0 0.068910971976752028 -0.01359077034621955 0 0.082676344161633386 -0.029145031571669072 0 0.068910971976752028 -0.01359077034621955 0 0.082676344161633386 -0.029145031571669072 0 0.082320885996717233 -0.016476133633389619 0 0.068910971976752028 -0.01359077034621955 0 0.070328318124169079 -0.026766808651126909 0 0.082676344161633386 -0.029145031571669072 0 0.065441631847856147 -0.0151801789203302 0 0.068910971976752028 -0.01359077034621955 0 0.070328318124169079 -0.026766808651126909 0 0.082676344161633386 -0.029145031571669072 0 0.082320885996717233 -0.016476133633389619 0 0.097565648143610961 -0.021431527734748691 0 0.082676344161633386 -0.029145031571669072 0 0.074059798534574187 -0.045876739491430847 0 0.096441716346515147 -0.044699292797118199 0 0.082676344161633386 -0.029145031571669072 0 0.096441716346515147 -0.044699292797118199 0 0.097565648143610961 -0.021431527734748691 0 0.082676344161633386 -0.029145031571669072 0 0.096441716346515147 -0.044699292797118199 0 0.060735770776600938 -0.034897781942581738 0 0.070328318124169079 -0.026766808651126909 0 0.074059798534574187 -0.045876739491430847 0 0.070328318124169079 -0.026766808651126909 0 0.082676344161633386 -0.029145031571669072 0 0.074059798534574187 -0.045876739491430847 0 0.054317759330228248 -0.050386476345415591 0 0.060735770776600938 -0.034897781942581738 0 0.074059798534574187 -0.045876739491430847 0 0.074059798534574187 -0.045876739491430847 0 0.065757887940176493 -0.068019544487215491 0 0.088160793062696113 -0.067222240644889006 0 0.054317759330228248 -0.050386476345415591 0 0.074059798534574187 -0.045876739491430847 0 0.065757887940176493 -0.068019544487215491 0 0.074059798534574187 -0.045876739491430847 0 0.096441716346515147 -0.044699292797118199 0 0.088160793062696113 -0.067222240644889006 0 0.11020708853139689 -0.060253554022567303 0 0.096441716346515147 -0.044699292797118199 0 0.088160793062696113 -0.067222240644889006 0 0.11020708853139689 -0.060253554022567303 0 0.11499867004339059 -0.045919616376733058 0 0.096441716346515147 -0.044699292797118199 0 0.11020708853139689 -0.060253554022567303 0 0.096441716346515147 -0.044699292797118199 0 0.11020708853139689 -0.060253554022567303 0 0.11499867004339059 -0.045919616376733058 0 0.1274578962460291 -0.053337300068790873 0 0.11020708853139689 -0.060253554022567303 0 0.12407799183285011 -0.070588369559739128 0 0.1274578962460291 -0.053337300068790873 0 0.11499867004339059 -0.045919616376733058 0 0.1143897206191952 -0.02939370457162924 0 0.12947280348027271 -0.036755676034893242 0 0.11499867004339059 -0.045919616376733058 0 0.12947280348027271 -0.036755676034893242 0 0.1274578962460291 -0.053337300068790873 0 0.096441716346515147 -0.044699292797118199 0 0.097565648143610961 -0.021431527734748691 0 0.1143897206191952 -0.02939370457162924 0 0.11499867004339059 -0.045919616376733058 0 0.096441716346515147 -0.044699292797118199 0 0.1143897206191952 -0.02939370457162924 0 0.097565648143610961 -0.021431527734748691 0 0.1143897206191952 -0.02939370457162924 0 0.11033273714389651 -0.016884634224966149 0 0.1143897206191952 -0.02939370457162924 0 0.1293062229241152 -0.024229085293067332 0 0.12947280348027271 -0.036755676034893242 0 0.1143897206191952 -0.02939370457162924 0 0.1221372607117456 -0.01431511005653326 0 0.1293062229241152 -0.024229085293067332 0 0.1143897206191952 -0.02939370457162924 0 0.11033273714389651 -0.016884634224966149 0 0.1221372607117456 -0.01431511005653326 0 0.11033273714389651 -0.016884634224966149 0 0.1221372607117456 -0.01431511005653326 0 0.11633231768299999 -0.0032458042684647909 0 0.11033273714389651 -0.016884634224966149 0 0.11633231768299999 -0.0032458042684647909 0 0.1032452020217742 -0.0064486600515361444 0 0.1221372607117456 -0.01431511005653326 0 0.11633231768299999 -0.0032458042684647909 0 0.12774018681310881 -0.00055002405430379581 0 0.087962381713208915 -0.0048627492070227631 0 0.097565648143610961 -0.021431527734748691 0 0.1032452020217742 -0.0064486600515361444 0 0.10794563736626241 0.0033798730949545562 0 0.11633231768299999 -0.0032458042684647909 0 0.1032452020217742 -0.0064486600515361444 0 0.097565648143610961 -0.021431527734748691 0 0.11033273714389651 -0.016884634224966149 0 0.1032452020217742 -0.0064486600515361444 0 0.097562349300996831 0.0046908460472591717 0 0.087962381713208915 -0.0048627492070227631 0 0.1032452020217742 -0.0064486600515361444 0 0.091527033777470443 -0.1030740823102488 0 0.077905589314432727 -0.096961222560182761 0 0.086575795432649663 -0.087189192391376708 0 0.091527033777470443 -0.1030740823102488 0 0.086575795432649663 -0.087189192391376708 0 0.098209109921669285 -0.093294098026230177 0 0.091527033777470443 -0.1030740823102488 0 0.083910257361786589 -0.114853454708314 0 0.077905589314432727 -0.096961222560182761 0 0.091527033777470443 -0.1030740823102488 0 0.083910257361786589 -0.114853454708314 0 0.1012281232366489 -0.11548064141965871 0 0.098061671058171374 -0.12883494279628499 0 0.083753903846375474 -0.12901088947311981 0 0.083910257361786589 -0.114853454708314 0 0.083753903846375474 -0.12901088947311981 0 0.083910257361786589 -0.114853454708314 0 0.070346669997908021 -0.1236127969713304 0 0.057459354494131948 -0.1200276011990481 0 0.070346669997908021 -0.1236127969713304 0 0.064138701987489222 -0.10667102217081691 0 0.083910257361786589 -0.114853454708314 0 0.070346669997908021 -0.1236127969713304 0 0.064138701987489222 -0.10667102217081691 0 0.077905589314432727 -0.096961222560182761 0 0.064138701987489222 -0.10667102217081691 0 0.064119228967894626 -0.087325866457324444 0 0.083910257361786589 -0.114853454708314 0 0.077905589314432727 -0.096961222560182761 0 0.064138701987489222 -0.10667102217081691 0 0.077905589314432727 -0.096961222560182761 0 0.075880048000016839 -0.079106630068009567 0 0.064119228967894626 -0.087325866457324444 0 0.075880048000016839 -0.079106630068009567 0 0.064119228967894626 -0.087325866457324444 0 0.065757887940176493 -0.068019544487215491 0 0.075880048000016839 -0.079106630068009567 0 0.065757887940176493 -0.068019544487215491 0 0.088160793062696113 -0.067222240644889006 0 0.075880048000016839 -0.079106630068009567 0 0.088160793062696113 -0.067222240644889006 0 0.086575795432649663 -0.087189192391376708 0 0.088160793062696113 -0.067222240644889006 0 0.086575795432649663 -0.087189192391376708 0 0.10594802519478359 -0.081460632641802255 0 0.077905589314432727 -0.096961222560182761 0 0.075880048000016839 -0.079106630068009567 0 0.086575795432649663 -0.087189192391376708 0 0.086575795432649663 -0.087189192391376708 0 0.098209109921669285 -0.093294098026230177 0 0.10594802519478359 -0.081460632641802255 0 0.098209109921669285 -0.093294098026230177 0 0.10594802519478359 -0.081460632641802255 0 0.1087855852817734 -0.101452484761493 0 0.11020708853139689 -0.060253554022567303 0 0.088160793062696113 -0.067222240644889006 0 0.10594802519478359 -0.081460632641802255 0 0.11020708853139689 -0.060253554022567303 0 0.10594802519478359 -0.081460632641802255 0 0.12407799183285011 -0.070588369559739128 0 0.10594802519478359 -0.081460632641802255 0 0.12407799183285011 -0.070588369559739128 0 0.1223874063379496 -0.091585896415170856 0 0.10594802519478359 -0.081460632641802255 0 0.1223874063379496 -0.091585896415170856 0 0.1087855852817734 -0.101452484761493 0 0.1227274015638153 -0.1059534896342318 0 0.1087855852817734 -0.101452484761493 0 0.120571393356576 -0.12029381074793299 0 0.1223874063379496 -0.091585896415170856 0 0.1227274015638153 -0.1059534896342318 0 0.1087855852817734 -0.101452484761493 0 0.091527033777470443 -0.1030740823102488 0 0.1087855852817734 -0.101452484761493 0 0.1012281232366489 -0.11548064141965871 0 0.091527033777470443 -0.1030740823102488 0 0.098209109921669285 -0.093294098026230177 0 0.1087855852817734 -0.101452484761493 0 0.098061671058171374 -0.12883494279628499 0 0.083910257361786589 -0.114853454708314 0 0.1012281232366489 -0.11548064141965871 0 0.098061671058171374 -0.12883494279628499 0 0.1115297632737869 -0.13042532617521699 0 0.1012281232366489 -0.11548064141965871 0 0.1115297632737869 -0.13042532617521699 0 0.1012281232366489 -0.11548064141965871 0 0.120571393356576 -0.12029381074793299 0 0.1087855852817734 -0.101452484761493 0 0.1012281232366489 -0.11548064141965871 0 0.120571393356576 -0.12029381074793299 0 0.1227274015638153 -0.1059534896342318 0 0.120571393356576 -0.12029381074793299 0 0.13912469256232751 -0.1068280076724139 0 0.120571393356576 -0.12029381074793299 0 0.13912469256232751 -0.1068280076724139 0 0.14847948427490371 -0.12909342143829489 0 0.13912469256232751 -0.1068280076724139 0 0.1730528907923348 -0.1157328908198814 0 0.14847948427490371 -0.12909342143829489 0 0.1223874063379496 -0.091585896415170856 0 0.13912469256232751 -0.1068280076724139 0 0.13628409817877979 -0.082844851047404758 0 0.1223874063379496 -0.091585896415170856 0 0.1227274015638153 -0.1059534896342318 0 0.13912469256232751 -0.1068280076724139 0 0.12407799183285011 -0.070588369559739128 0 0.1223874063379496 -0.091585896415170856 0 0.13628409817877979 -0.082844851047404758 0 0.12407799183285011 -0.070588369559739128 0 0.13628409817877979 -0.082844851047404758 0 0.1438962966176022 -0.059475690549868621 0 0.15140849614452251 -0.074353661765467691 0 0.1438962966176022 -0.059475690549868621 0 0.15933601342758599 -0.053863450531230019 0 0.13628409817877979 -0.082844851047404758 0 0.15140849614452251 -0.074353661765467691 0 0.1438962966176022 -0.059475690549868621 0 0.13628409817877979 -0.082844851047404758 0 0.15140849614452251 -0.074353661765467691 0 0.15896707194302309 -0.090346061719780602 0 0.13912469256232751 -0.1068280076724139 0 0.13628409817877979 -0.082844851047404758 0 0.15896707194302309 -0.090346061719780602 0 0.15896707194302309 -0.090346061719780602 0 0.1685086412404968 -0.06937394978465998 0 0.181981998706684 -0.085488584963732323 0 0.15140849614452251 -0.074353661765467691 0 0.15896707194302309 -0.090346061719780602 0 0.1685086412404968 -0.06937394978465998 0 0.15140849614452251 -0.074353661765467691 0 0.1685086412404968 -0.06937394978465998 0 0.15933601342758599 -0.053863450531230019 0 0.1685086412404968 -0.06937394978465998 0 0.18397102125257669 -0.065517704790907572 0 0.181981998706684 -0.085488584963732323 0 0.1730528907923348 -0.1157328908198814 0 0.19762629730976591 -0.102372360201468 0 0.13912469256232751 -0.1068280076724139 0 0.15896707194302309 -0.090346061719780602 0 0.1730528907923348 -0.1157328908198814 0 0.181981998706684 -0.085488584963732323 0 0.1730528907923348 -0.1157328908198814 0 0.19762629730976591 -0.102372360201468 0 0.1730528907923348 -0.1157328908198814 0 0.19137253810201679 -0.1240302571769123 0 0.19762629730976591 -0.102372360201468 0 0.1730528907923348 -0.1157328908198814 0 0.14847948427490371 -0.12909342143829489 0 0.15896707194302309 -0.090346061719780602 0 0.181981998706684 -0.085488584963732323 0 0.1730528907923348 -0.1157328908198814 0 0.15460176220199889 -0.01169294882567601 0 0.1444986816950119 -0.0054195686798767691 0 0.1628119002964023 -3.4503031802248997e-05 0 0.1444986816950119 -0.0054195686798767691 0 0.13472867505236041 -0.01188608756077375 0 0.14581857950682461 -0.015983386901676722 0 0.15460176220199889 -0.01169294882567601 0 0.1444986816950119 -0.0054195686798767691 0 0.14581857950682461 -0.015983386901676722 0 0.1371043771030877 0.004741772287450402 0 0.1444986816950119 -0.0054195686798767691 0 0.13472867505236041 -0.01188608756077375 0 0.1371043771030877 0.004741772287450402 0 0.12774018681310881 -0.00055002405430379581 0 0.13472867505236041 -0.01188608756077375 0 0.1221372607117456 -0.01431511005653326 0 0.12774018681310881 -0.00055002405430379581 0 0.13472867505236041 -0.01188608756077375 0 0.13472867505236041 -0.01188608756077375 0 0.1293062229241152 -0.024229085293067332 0 0.14200075583621269 -0.02719252037896077 0 0.1221372607117456 -0.01431511005653326 0 0.13472867505236041 -0.01188608756077375 0 0.1293062229241152 -0.024229085293067332 0 0.1293062229241152 -0.024229085293067332 0 0.14200075583621269 -0.02719252037896077 0 0.12947280348027271 -0.036755676034893242 0 0.13472867505236041 -0.01188608756077375 0 0.14200075583621269 -0.02719252037896077 0 0.14581857950682461 -0.015983386901676722 0 0.14200075583621269 -0.02719252037896077 0 0.14581857950682461 -0.015983386901676722 0 0.15326302274853901 -0.023725809063096331 0 0.15460176220199889 -0.01169294882567601 0 0.14581857950682461 -0.015983386901676722 0 0.15326302274853901 -0.023725809063096331 0 0.14200075583621269 -0.02719252037896077 0 0.15326302274853901 -0.023725809063096331 0 0.1572152343157536 -0.035625948107545963 0 0.14200075583621269 -0.02719252037896077 0 0.14322983332057601 -0.044375097611881582 0 0.1572152343157536 -0.035625948107545963 0 0.14322983332057601 -0.044375097611881582 0 0.15933601342758599 -0.053863450531230019 0 0.1572152343157536 -0.035625948107545963 0 0.14200075583621269 -0.02719252037896077 0 0.14322983332057601 -0.044375097611881582 0 0.12947280348027271 -0.036755676034893242 0 0.14322983332057601 -0.044375097611881582 0 0.12947280348027271 -0.036755676034893242 0 0.1274578962460291 -0.053337300068790873 0 0.14322983332057601 -0.044375097611881582 0 0.1274578962460291 -0.053337300068790873 0 0.1438962966176022 -0.059475690549868621 0 0.12407799183285011 -0.070588369559739128 0 0.1274578962460291 -0.053337300068790873 0 0.1438962966176022 -0.059475690549868621 0 0.14322983332057601 -0.044375097611881582 0 0.1438962966176022 -0.059475690549868621 0 0.15933601342758599 -0.053863450531230019 0 0.1685086412404968 -0.06937394978465998 0 0.15933601342758599 -0.053863450531230019 0 0.1761187251714289 -0.048816869050683297 0 0.18397102125257669 -0.065517704790907572 0 0.1761187251714289 -0.048816869050683297 0 0.19346038729653159 -0.053604551123238808 0 0.1761187251714289 -0.048816869050683297 0 0.1872975807434441 -0.042045148276801753 0 0.19346038729653159 -0.053604551123238808 0 0.1685086412404968 -0.06937394978465998 0 0.18397102125257669 -0.065517704790907572 0 0.1761187251714289 -0.048816869050683297 0 0.1761187251714289 -0.048816869050683297 0 0.1872975807434441 -0.042045148276801753 0 0.17807099090260489 -0.025817373919653622 0 0.1761187251714289 -0.048816869050683297 0 0.1572152343157536 -0.035625948107545963 0 0.17807099090260489 -0.025817373919653622 0 0.15933601342758599 -0.053863450531230019 0 0.1761187251714289 -0.048816869050683297 0 0.1572152343157536 -0.035625948107545963 0 0.15460176220199889 -0.01169294882567601 0 0.17807099090260489 -0.025817373919653622 0 0.15460176220199889 -0.01169294882567601 0 0.15326302274853901 -0.023725809063096331 0 0.17807099090260489 -0.025817373919653622 0 0.15326302274853901 -0.023725809063096331 0 0.1572152343157536 -0.035625948107545963 0 0.17807099090260489 -0.025817373919653622 0 0.17807099090260489 -0.025817373919653622 0 0.1758171007110983 -0.0072782848513643569 0 0.19031655405675571 -0.01511024886819123 0 0.1758171007110983 -0.0072782848513643569 0 0.19317581678127099 -0.00216777134334645 0 0.19031655405675571 -0.01511024886819123 0 0.15460176220199889 -0.01169294882567601 0 0.1758171007110983 -0.0072782848513643569 0 0.1628119002964023 -3.4503031802248997e-05 0 0.15460176220199889 -0.01169294882567601 0 0.17807099090260489 -0.025817373919653622 0 0.1758171007110983 -0.0072782848513643569 0 0.21545221830689651 -0.0031844272832586029 0 0.2050471669166693 -0.014983231228238331 0 0.2251354975674637 -0.027037514850661332 0 0.21545221830689651 -0.0031844272832586029 0 0.2050471669166693 -0.014983231228238331 0 0.19317581678127099 -0.00216777134334645 0 0.2050471669166693 -0.014983231228238331 0 0.19317581678127099 -0.00216777134334645 0 0.19031655405675571 -0.01511024886819123 0 0.2050471669166693 -0.014983231228238331 0 0.19031655405675571 -0.01511024886819123 0 0.20115574787095961 -0.027416193795734029 0 0.17807099090260489 -0.025817373919653622 0 0.20115574787095961 -0.027416193795734029 0 0.20154021960321089 -0.039941799013631242 0 0.17807099090260489 -0.025817373919653622 0 0.19031655405675571 -0.01511024886819123 0 0.20115574787095961 -0.027416193795734029 0 0.20115574787095961 -0.027416193795734029 0 0.2251354975674637 -0.027037514850661332 0 0.2050471669166693 -0.014983231228238331 0 0.20115574787095961 -0.027416193795734029 0 0.2251354975674637 -0.027037514850661332 0 0.21718006107523899 -0.040515062960039309 0 0.20154021960321089 -0.039941799013631242 0 0.225009448303817 -0.054066224107608869 0 0.20115574787095961 -0.027416193795734029 0 0.21718006107523899 -0.040515062960039309 0 0.2251354975674637 -0.027037514850661332 0 0.20115574787095961 -0.027416193795734029 0 0.21718006107523899 -0.040515062960039309 0 0.20154021960321089 -0.039941799013631242 0 0.17807099090260489 -0.025817373919653622 0 0.20154021960321089 -0.039941799013631242 0 0.1872975807434441 -0.042045148276801753 0 0.17807099090260489 -0.025817373919653622 0 0.20154021960321089 -0.039941799013631242 0 0.1872975807434441 -0.042045148276801753 0 0.20154021960321089 -0.039941799013631242 0 0.19346038729653159 -0.053604551123238808 0 0.20154021960321089 -0.039941799013631242 0 0.19346038729653159 -0.053604551123238808 0 0.20777047015637951 -0.057173631517180107 0 0.19346038729653159 -0.053604551123238808 0 0.20777047015637951 -0.057173631517180107 0 0.20063811957627001 -0.072549487530176884 0 0.20777047015637951 -0.057173631517180107 0 0.225009448303817 -0.054066224107608869 0 0.21757537202287061 -0.068368028090882479 0 0.20154021960321089 -0.039941799013631242 0 0.20777047015637951 -0.057173631517180107 0 0.225009448303817 -0.054066224107608869 0 0.20154021960321089 -0.039941799013631242 0 0.225009448303817 -0.054066224107608869 0 0.225009448303817 -0.054066224107608869 0 0.2359980544077005 -0.046991663127622173 0 0.22752634083961881 -0.040717614401506431 0 0.225009448303817 -0.054066224107608869 0 0.24847867700442311 -0.068190649201586517 0 0.225009448303817 -0.054066224107608869 0 0.24444943548621931 -0.054569561725390889 0 0.24847867700442311 -0.068190649201586517 0 0.225009448303817 -0.054066224107608869 0 0.24444943548621931 -0.054569561725390889 0 0.2359980544077005 -0.046991663127622173 0 0.25090223679437568 -0.057488120824325008 0 0.24444943548621931 -0.054569561725390889 0 0.24847867700442311 -0.068190649201586517 0 0.24444943548621931 -0.054569561725390889 0 0.2359980544077005 -0.046991663127622173 0 0.24858064332193749 -0.040711471060813291 0 0.25271720777739931 -0.049505738923643537 0 0.24444943548621931 -0.054569561725390889 0 0.24858064332193749 -0.040711471060813291 0 0.25090223679437568 -0.057488120824325008 0 0.25271720777739931 -0.049505738923643537 0 0.24444943548621931 -0.054569561725390889 0 0.2359980544077005 -0.046991663127622173 0 0.24858064332193749 -0.040711471060813291 0 0.2491152472639678 -0.02665883590558818 0 0.2359980544077005 -0.046991663127622173 0 0.2343086428438734 -0.034977606961600453 0 0.2491152472639678 -0.02665883590558818 0 0.2359980544077005 -0.046991663127622173 0 0.2491152472639678 -0.02665883590558818 0 0.25183449102707761 -0.026615894658384251 0 0.24858064332193749 -0.040711471060813291 0 0.2491152472639678 -0.02665883590558818 0 0.2343086428438734 -0.034977606961600453 0 0.22752634083961881 -0.040717614401506431 0 0.2251354975674637 -0.027037514850661332 0 0.2359980544077005 -0.046991663127622173 0 0.2343086428438734 -0.034977606961600453 0 0.22752634083961881 -0.040717614401506431 0 0.21718006107523899 -0.040515062960039309 0 0.225009448303817 -0.054066224107608869 0 0.22752634083961881 -0.040717614401506431 0 0.21718006107523899 -0.040515062960039309 0 0.22752634083961881 -0.040717614401506431 0 0.2251354975674637 -0.027037514850661332 0 0.2343086428438734 -0.034977606961600453 0 0.2251354975674637 -0.027037514850661332 0 0.2491152472639678 -0.02665883590558818 0 0.2251354975674637 -0.027037514850661332 0 0.2491152472639678 -0.02665883590558818 0 0.2251354975674637 -0.027037514850661332 0 0.2491152472639678 -0.02665883590558818 0 0.2367702974023807 -0.015263657117113191 0 0.25054830565431291 -0.02443746667138855 0 0.2491152472639678 -0.02665883590558818 0 0.25054830565431291 -0.02443746667138855 0 0.2491152472639678 -0.02665883590558818 0 0.2367702974023807 -0.015263657117113191 0 0.23539277787515489 0.001231637153694301 0 0.25054830565431291 -0.02443746667138855 0 0.2367702974023807 -0.015263657117113191 0 0.23539277787515489 0.001231637153694301 0 0.25054830565431291 -0.02443746667138855 0 0.23539277787515489 0.001231637153694301 0 0.25054830565431291 -0.02443746667138855 0 0.24772306794153229 -0.0049010006205228709 0 0.21545221830689651 -0.0031844272832586029 0 0.2251354975674637 -0.027037514850661332 0 0.2367702974023807 -0.015263657117113191 0 0.23539277787515489 0.001231637153694301 0 0.21545221830689651 -0.0031844272832586029 0 0.2367702974023807 -0.015263657117113191 0 0.19762629730976591 -0.102372360201468 0 0.22219970382719689 -0.089011829583054619 0 0.19762629730976591 -0.102372360201468 0 0.22219970382719689 -0.089011829583054619 0 0.22097387041094629 -0.1170989206018505 0 0.19137253810201679 -0.1240302571769123 0 0.19762629730976591 -0.102372360201468 0 0.22097387041094629 -0.1170989206018505 0 0.181981998706684 -0.085488584963732323 0 0.19762629730976591 -0.102372360201468 0 0.20063811957627001 -0.072549487530176884 0 0.18397102125257669 -0.065517704790907572 0 0.19346038729653159 -0.053604551123238808 0 0.20063811957627001 -0.072549487530176884 0 0.18397102125257669 -0.065517704790907572 0 0.181981998706684 -0.085488584963732323 0 0.20063811957627001 -0.072549487530176884 0 0.20063811957627001 -0.072549487530176884 0 0.21757537202287061 -0.068368028090882479 0 0.22219970382719689 -0.089011829583054619 0 0.20777047015637951 -0.057173631517180107 0 0.20063811957627001 -0.072549487530176884 0 0.21757537202287061 -0.068368028090882479 0 0.19762629730976591 -0.102372360201468 0 0.20063811957627001 -0.072549487530176884 0 0.22219970382719689 -0.089011829583054619 0 0.22219970382719689 -0.089011829583054619 0 0.2322591182506894 -0.069038967716391925 0 0.24677311034462801 -0.075651298964641206 0 0.21757537202287061 -0.068368028090882479 0 0.22219970382719689 -0.089011829583054619 0 0.2322591182506894 -0.069038967716391925 0 0.225009448303817 -0.054066224107608869 0 0.21757537202287061 -0.068368028090882479 0 0.2322591182506894 -0.069038967716391925 0 0.2322591182506894 -0.069038967716391925 0 0.24677311034462801 -0.075651298964641206 0 0.24847867700442311 -0.068190649201586517 0 0.225009448303817 -0.054066224107608869 0 0.2322591182506894 -0.069038967716391925 0 0.24847867700442311 -0.068190649201586517 0 0.22219970382719689 -0.089011829583054619 0 0.24677311034462801 -0.075651298964641206 0 0.24463848379058739 -0.088536849521758776 0 0.22219970382719689 -0.089011829583054619 0 0.24463848379058739 -0.088536849521758776 0 0.23732562238344479 -0.10070349679248081 0 0.22219970382719689 -0.089011829583054619 0 0.24677311034462801 -0.075651298964641206 0 0.25446499988308319 -0.081012334980481548 0 0.24677311034462801 -0.075651298964641206 0 0.24463848379058739 -0.088536849521758776 0 0.25015999641617842 -0.096977429205485174 0 0.23732562238344479 -0.10070349679248081 0 0.24582995645715619 -0.1154111646723136 0 0.25015999641617842 -0.096977429205485174 0 0.24463848379058739 -0.088536849521758776 0 0.23732562238344479 -0.10070349679248081 0 0.22219970382719689 -0.089011829583054619 0 0.23732562238344479 -0.10070349679248081 0 0.22097387041094629 -0.1170989206018505 0 0.22097387041094629 -0.1170989206018505 0 0.24582995645715619 -0.1154111646723136 0 0.2311645697210146 -0.13273253475307389 0 0.23732562238344479 -0.10070349679248081 0 0.22097387041094629 -0.1170989206018505 0 0.24582995645715619 -0.1154111646723136 0 0.24582995645715619 -0.1154111646723136 0 0.24822779734363501 -0.13312164547455721 0 0.2311645697210146 -0.13273253475307389 0 0.24822779734363501 -0.13312164547455721 0 0.23842826524723701 -0.14481404747028731 0 0.2311645697210146 -0.13273253475307389 0 0.2517969940147583 -0.15104916485636141 0 0.24822779734363501 -0.13312164547455721 0 0.23842826524723701 -0.14481404747028731 0 0.2517969940147583 -0.15104916485636141 0 0.23842826524723701 -0.14481404747028731 0 0.23719759697127421 -0.1590569314279755 0 0.22375436818550309 -0.1481099608394684 0 0.23719759697127421 -0.1590569314279755 0 0.23842826524723701 -0.14481404747028731 0 0.22375436818550309 -0.1481099608394684 0 0.23719759697127421 -0.1590569314279755 0 0.23842826524723701 -0.14481404747028731 0 0.22375436818550309 -0.1481099608394684 0 0.2311645697210146 -0.13273253475307389 0 0.22375436818550309 -0.1481099608394684 0 0.2311645697210146 -0.13273253475307389 0 0.20858668232723571 -0.13442876690702729 0 0.22097387041094629 -0.1170989206018505 0 0.2311645697210146 -0.13273253475307389 0 0.20858668232723571 -0.13442876690702729 0 0.19137253810201679 -0.1240302571769123 0 0.22097387041094629 -0.1170989206018505 0 0.20858668232723571 -0.13442876690702729 0 0.22375436818550309 -0.1481099608394684 0 0.20858668232723571 -0.13442876690702729 0 0.20862461462476639 -0.15060064172090759 0 0.22375436818550309 -0.1481099608394684 0 0.20862461462476639 -0.15060064172090759 0 0.22193474538638919 -0.16210046148286411 0 0.20862461462476639 -0.15060064172090759 0 0.18995943234539989 -0.14840476315169759 0 0.20524588375347491 -0.1666280468877675 0 0.20858668232723571 -0.13442876690702729 0 0.20862461462476639 -0.15060064172090759 0 0.18995943234539989 -0.14840476315169759 0 0.19137253810201679 -0.1240302571769123 0 0.20858668232723571 -0.13442876690702729 0 0.18995943234539989 -0.14840476315169759 0 0.20524588375347491 -0.1666280468877675 0 0.203298255657379 -0.18743426180215009 0 0.180542749780085 -0.17595627930282401 0 0.203298255657379 -0.18743426180215009 0 0.18425858982475241 -0.19698180489230019 0 0.180542749780085 -0.17595627930282401 0 0.18995943234539989 -0.14840476315169759 0 0.20524588375347491 -0.1666280468877675 0 0.180542749780085 -0.17595627930282401 0 0.20862461462476639 -0.15060064172090759 0 0.20524588375347491 -0.1666280468877675 0 0.22193474538638919 -0.16210046148286411 0 0.20524588375347491 -0.1666280468877675 0 0.22284227259880721 -0.17784585547248449 0 0.22193474538638919 -0.16210046148286411 0 0.20524588375347491 -0.1666280468877675 0 0.203298255657379 -0.18743426180215009 0 0.22284227259880721 -0.17784585547248449 0 0.22284227259880721 -0.17784585547248449 0 0.23497473965622251 -0.1823810075594624 0 0.22415112114707239 -0.19953526305991939 0 0.22284227259880721 -0.17784585547248449 0 0.23439123328995509 -0.17083070126087629 0 0.23497473965622251 -0.1823810075594624 0 0.22284227259880721 -0.17784585547248449 0 0.22193474538638919 -0.16210046148286411 0 0.23439123328995509 -0.17083070126087629 0 0.22375436818550309 -0.1481099608394684 0 0.22193474538638919 -0.16210046148286411 0 0.23719759697127421 -0.1590569314279755 0 0.22193474538638919 -0.16210046148286411 0 0.23719759697127421 -0.1590569314279755 0 0.23439123328995509 -0.17083070126087629 0 0.25064082575704588 -0.1700039020164818 0 0.2517969940147583 -0.15104916485636141 0 0.23719759697127421 -0.1590569314279755 0 0.23719759697127421 -0.1590569314279755 0 0.23439123328995509 -0.17083070126087629 0 0.24793574579121491 -0.1722810130817983 0 0.25064082575704588 -0.1700039020164818 0 0.23719759697127421 -0.1590569314279755 0 0.24793574579121491 -0.1722810130817983 0 0.25064082575704588 -0.1700039020164818 0 0.23719759697127421 -0.1590569314279755 0 0.25064082575704588 -0.1700039020164818 0 0.24793574579121491 -0.1722810130817983 0 0.23497473965622251 -0.1823810075594624 0 0.24793574579121491 -0.1722810130817983 0 0.2455533254540628 -0.19141220492223349 0 0.23439123328995509 -0.17083070126087629 0 0.23497473965622251 -0.1823810075594624 0 0.24793574579121491 -0.1722810130817983 0 0.2455533254540628 -0.19141220492223349 0 0.22415112114707239 -0.19953526305991939 0 0.23497473965622251 -0.1823810075594624 0 0.2455533254540628 -0.19141220492223349 0 0.22415112114707239 -0.19953526305991939 0 0.2455533254540628 -0.19141220492223349 0 0.2493615313569888 -0.20579470911091521 0 0.22415112114707239 -0.19953526305991939 0 0.2493615313569888 -0.20579470911091521 0 0.24100276054523589 -0.2185255786401053 0 0.22415112114707239 -0.19953526305991939 0 0.24100276054523589 -0.2185255786401053 0 0.22598738599419951 -0.21486602077689801 0 0.22415112114707239 -0.19953526305991939 0 0.25655956082222359 -0.25080388744885951 0 0.24209654147263079 -0.25524217662791832 0 0.23799222890640129 -0.2431198439712699 0 0.26640370198883279 -0.23430641356886209 0 0.24100276054523589 -0.2185255786401053 0 0.23799222890640129 -0.2431198439712699 0 0.24100276054523589 -0.2185255786401053 0 0.23799222890640129 -0.2431198439712699 0 0.2177919448957179 -0.22795184310363059 0 0.24100276054523589 -0.2185255786401053 0 0.22598738599419951 -0.21486602077689801 0 0.2177919448957179 -0.22795184310363059 0 0.20958075582396971 -0.25193327437367768 0 0.23799222890640129 -0.2431198439712699 0 0.20958075582396971 -0.25193327437367768 0 0.23799222890640129 -0.2431198439712699 0 0.2177919448957179 -0.22795184310363059 0 0.20958075582396971 -0.25193327437367768 0 0.2177919448957179 -0.22795184310363059 0 0.2004422225847175 -0.2295732929838665 0 0.2177919448957179 -0.22795184310363059 0 0.2004422225847175 -0.2295732929838665 0 0.20274891684008209 -0.20765832119760519 0 0.2004422225847175 -0.2295732929838665 0 0.20274891684008209 -0.20765832119760519 0 0.18301919041060999 -0.2203001677414628 0 0.2004422225847175 -0.2295732929838665 0 0.18907030495320751 -0.2400228585029564 0 0.18301919041060999 -0.2203001677414628 0 0.20958075582396971 -0.25193327437367768 0 0.19027000216824391 -0.25306176427082933 0 0.18907030495320751 -0.2400228585029564 0 0.20958075582396971 -0.25193327437367768 0 0.2004422225847175 -0.2295732929838665 0 0.18907030495320751 -0.2400228585029564 0 0.203298255657379 -0.18743426180215009 0 0.22284227259880721 -0.17784585547248449 0 0.22415112114707239 -0.19953526305991939 0 0.203298255657379 -0.18743426180215009 0 0.22415112114707239 -0.19953526305991939 0 0.20274891684008209 -0.20765832119760519 0 0.22415112114707239 -0.19953526305991939 0 0.20274891684008209 -0.20765832119760519 0 0.22598738599419951 -0.21486602077689801 0 0.22415112114707239 -0.19953526305991939 0 0.20274891684008209 -0.20765832119760519 0 0.22598738599419951 -0.21486602077689801 0 0.2177919448957179 -0.22795184310363059 0 0.20274891684008209 -0.20765832119760519 0 0.20274891684008209 -0.20765832119760519 0 0.18425858982475241 -0.19698180489230019 0 0.18301919041060999 -0.2203001677414628 0 0.203298255657379 -0.18743426180215009 0 0.20274891684008209 -0.20765832119760519 0 0.18425858982475241 -0.19698180489230019 0 0.18425858982475241 -0.19698180489230019 0 0.16660749314416259 -0.20767183856040841 0 0.18301919041060999 -0.2203001677414628 0 0.16660749314416259 -0.20767183856040841 0 0.1653485473843285 -0.2222763398552739 0 0.14445846841605739 -0.2157354210342998 0 0.16660749314416259 -0.20767183856040841 0 0.18301919041060999 -0.2203001677414628 0 0.1653485473843285 -0.2222763398552739 0 0.18425858982475241 -0.19698180489230019 0 0.16660749314416259 -0.20767183856040841 0 0.15454694510611641 -0.18622066931542061 0 0.18907030495320751 -0.2400228585029564 0 0.18052219150569671 -0.24758160325192061 0 0.17255223165827371 -0.23585658792440689 0 0.18052219150569671 -0.24758160325192061 0 0.17255223165827371 -0.23585658792440689 0 0.17075296256400421 -0.24887823445580179 0 0.19027000216824391 -0.25306176427082933 0 0.18907030495320751 -0.2400228585029564 0 0.18052219150569671 -0.24758160325192061 0 0.17255223165827371 -0.23585658792440689 0 0.18301919041060999 -0.2203001677414628 0 0.1653485473843285 -0.2222763398552739 0 0.18907030495320751 -0.2400228585029564 0 0.17255223165827371 -0.23585658792440689 0 0.18301919041060999 -0.2203001677414628 0 0.17255223165827371 -0.23585658792440689 0 0.1653485473843285 -0.2222763398552739 0 0.1562020872037049 -0.23301432863452479 0 0.17255223165827371 -0.23585658792440689 0 0.16256313148266549 -0.24254949897974021 0 0.1562020872037049 -0.23301432863452479 0 0.15029464079908189 -0.25158054944809299 0 0.16256313148266549 -0.24254949897974021 0 0.1562020872037049 -0.23301432863452479 0 0.15029464079908189 -0.25158054944809299 0 0.16211301339255779 -0.25253309379002159 0 0.16256313148266549 -0.24254949897974021 0 0.17255223165827371 -0.23585658792440689 0 0.16256313148266549 -0.24254949897974021 0 0.17075296256400421 -0.24887823445580179 0 0.16211301339255779 -0.25253309379002159 0 0.16256313148266549 -0.24254949897974021 0 0.17075296256400421 -0.24887823445580179 0 0.15029464079908189 -0.25158054944809299 0 0.14113015602441481 -0.23636737810339861 0 0.1562020872037049 -0.23301432863452479 0 0.1339877596727336 -0.25199910163767042 0 0.15029464079908189 -0.25158054944809299 0 0.14113015602441481 -0.23636737810339861 0 0.14113015602441481 -0.23636737810339861 0 0.1562020872037049 -0.23301432863452479 0 0.14445846841605739 -0.2157354210342998 0 0.1653485473843285 -0.2222763398552739 0 0.1562020872037049 -0.23301432863452479 0 0.14445846841605739 -0.2157354210342998 0 0.11878406133753119 -0.21476462611037389 0 0.12590004361212079 -0.2300012799293091 0 0.14445846841605739 -0.2157354210342998 0 0.14113015602441481 -0.23636737810339861 0 0.12590004361212079 -0.2300012799293091 0 0.14445846841605739 -0.2157354210342998 0 0.1339877596727336 -0.25199910163767042 0 0.14113015602441481 -0.23636737810339861 0 0.12590004361212079 -0.2300012799293091 0 0.1339877596727336 -0.25199910163767042 0 0.11752575702491661 -0.25624050287398092 0 0.12590004361212079 -0.2300012799293091 0 0.14445846841605739 -0.2157354210342998 0 0.1285511404321481 -0.1964850593280171 0 0.15454694510611641 -0.18622066931542061 0 0.1285511404321481 -0.1964850593280171 0 0.15454694510611641 -0.18622066931542061 0 0.16660749314416259 -0.20767183856040841 0 0.14445846841605739 -0.2157354210342998 0 0.15454694510611641 -0.18622066931542061 0 0.11878406133753119 -0.21476462611037389 0 0.14445846841605739 -0.2157354210342998 0 0.1285511404321481 -0.1964850593280171 0 0.120581325569228 -0.17518203794998999 0 0.1285511404321481 -0.1964850593280171 0 0.1394328398817507 -0.16867923054673309 0 0.15454694510611641 -0.18622066931542061 0 0.1394328398817507 -0.16867923054673309 0 0.16350745308404779 -0.15321155077602189 0 0.1285511404321481 -0.1964850593280171 0 0.15454694510611641 -0.18622066931542061 0 0.1394328398817507 -0.16867923054673309 0 0.1394328398817507 -0.16867923054673309 0 0.14179146646407409 -0.14773871194312041 0 0.16350745308404779 -0.15321155077602189 0 0.120581325569228 -0.17518203794998999 0 0.1394328398817507 -0.16867923054673309 0 0.12765904280763571 -0.15808309190882719 0 0.1394328398817507 -0.16867923054673309 0 0.12765904280763571 -0.15808309190882719 0 0.14179146646407409 -0.14773871194312041 0 0.1239060777574726 -0.1424539520567083 0 0.12765904280763571 -0.15808309190882719 0 0.14179146646407409 -0.14773871194312041 0 0.1239060777574726 -0.1424539520567083 0 0.14847948427490371 -0.12909342143829489 0 0.1239060777574726 -0.1424539520567083 0 0.14847948427490371 -0.12909342143829489 0 0.14179146646407409 -0.14773871194312041 0 0.1239060777574726 -0.1424539520567083 0 0.120571393356576 -0.12029381074793299 0 0.14847948427490371 -0.12909342143829489 0 0.14847948427490371 -0.12909342143829489 0 0.14179146646407409 -0.14773871194312041 0 0.16350745308404779 -0.15321155077602189 0 0.1730528907923348 -0.1157328908198814 0 0.14847948427490371 -0.12909342143829489 0 0.17267475041508679 -0.13559147573274591 0 0.14847948427490371 -0.12909342143829489 0 0.16350745308404779 -0.15321155077602189 0 0.17267475041508679 -0.13559147573274591 0 0.19137253810201679 -0.1240302571769123 0 0.18995943234539989 -0.14840476315169759 0 0.17267475041508679 -0.13559147573274591 0 0.1730528907923348 -0.1157328908198814 0 0.19137253810201679 -0.1240302571769123 0 0.17267475041508679 -0.13559147573274591 0 0.18995943234539989 -0.14840476315169759 0 0.16350745308404779 -0.15321155077602189 0 0.17267475041508679 -0.13559147573274591 0 0.15454694510611641 -0.18622066931542061 0 0.16350745308404779 -0.15321155077602189 0 0.180542749780085 -0.17595627930282401 0 0.18995943234539989 -0.14840476315169759 0 0.16350745308404779 -0.15321155077602189 0 0.180542749780085 -0.17595627930282401 0 0.18425858982475241 -0.19698180489230019 0 0.15454694510611641 -0.18622066931542061 0 0.180542749780085 -0.17595627930282401 0 0.15454694510611641 -0.18622066931542061 0 0.180542749780085 -0.17595627930282401 0 
</DataArray>
</Points>
<Cells>
<DataArray type="UInt32" Name="connectivity" format="ascii">
0 1 2 3 4 5 6 7 8 9 10 11 12 13 14 15 16 17 18 19 20 21 22 23 24 25 26 27 28 29 30 31 32 33 34 35 36 37 38 39 40 41 42 43 44 45 46 47 48 49 50 51 52 53 54 55 56 57 58 59 60 61 62 63 64 65 66 67 68 69 70 71 72 73 74 75 76 77 78 79 80 81 82 83 84 85 86 87 88 89 90 91 92 93 94 95 96 97 98 99 100 101 102 103 104 105 106 107 108 109 110 111 112 113 114 115 116 117 118 119 120 121 122 123 124 125 126 127 128 129 130 131 132 133 134 135 136 137 138 139 140 141 142 143 144 145 146 147 148 149 150 151 152 153 154 155 156 157 158 159 160 161 162 163 164 165 166 167 168 169 170 171 172 173 174 175 176 177 178 179 180 181 182 183 184 185 186 187 188 189 190 191 192 193 194 195 196 197 198 199 200 201 202 203 204 205 206 207 208 209 210 211 212 213 214 215 216 217 218 219 220 221 222 223 224 225 226 227 228 229 230 231 232 233 234 235 236 237 238 239 240 241 242 243 244 245 246 247 248 249 250 251 252 253 254 255 256 257 258 259 260 261 262 263 264 265 266 267 268 269 270 271 272 273 274 275 276 277 278 279 280 281 282 283 284 285 286 287 288 289 290 291 292 293 294 295 296 297 298 299 300 301 302 303 304 305 306 307 308 309 310 311 312 313 314 315 316 317 318 319 320 321 322 323 324 325 326 327 328 329 330 331 332 333 334 335 336 337 338 339 340 341 342 343 344 345 346 347 348 349 350 351 352 353 354 355 356 357 358 359 360 361 362 363 364 365 366 367 368 369 370 371 372 373 374 375 376 377 378 379 380 381 382 383 384 385 386 387 388 389 390 391 392 393 394 395 396 397 398 399 400 401 402 403 404 405 406 407 408 409 410 411 412 413 414 415 416 417 418 419 420 421 422 423 424 425 426 427 428 429 430 431 432 433 434 435 436 437 438 439 440 441 442 443 444 445 446 447 448 449 450 451 452 453 454 455 456 457 458 459 460 461 462 463 464 465 466 467 468 469 470 471 472 473 474 475 476 477 478 479 480 481 482 483 484 485 486 487 488 489 490 491 492 493 494 495 496 497 498 499 500 501 502 503 504 505 506 507 508 509 510 511 512 513 514 515 516 517 518 519 520 521 522 523 524 525 526 527 528 529 530 531 532 533 534 535 536 537 538 539 540 541 542 543 544 545 546 547 548 549 550 551 552 553 554 555 556 557 558 559 560 561 562 563 564 565 566 567 568 569 570 571 572 573 574 575 576 577 578 579 580 581 582 583 584 585 586 587 588 589 590 591 592 593 594 595 596 597 598 599 600 601 602 603 604 605 606 607 608 609 610 611 612 613 614 615 616 617 618 619 620 621 622 623 624 625 626 627 628 629 630 631 632 633 634 635 636 637 638 639 640 641 642 643 644 645 646 647 648 649 650 651 652 653 654 655 656 657 658 659 660 661 662 663 664 665 666 667 668 669 670 671 672 673 674 675 676 677 678 679 680 681 682 683 684 685 686 687 688 689 690 691 692 693 694 695 696 697 698 699 700 701 702 703 704 705 706 707 708 709 710 711 712 713 714 715 716 717 718 719 720 721 722 723 724 725 726 727 728 729 730 731 732 733 734 735 736 737 738 739 740 741 742 743 744 745 746 747 748 749 750 751 752 753 754 755 756 757 758 759 760 761 762 763 764 765 766 767 768 769 770 771 772 773 774 775 776 777 778 779 780 781 782 783 784 785 786 787 788 789 790 791 792 793 794 795 796 797 798 799 800 801 802 803 804 805 806 807 808 809 810 811 812 813 814 815 816 817 818 819 820 821 822 823 824 825 826 827 828 829 830 831 832 833 834 835 836 837 838 839 840 841 842 843 844 845 846 847 848 849 850 851 852 853 854 855 856 857 858 859 860 861 862 863 864 865 866 867 868 869 870 871 872 873 874 875 876 877 878 879 880 881 882 883 884 885 886 887 888 889 890 891 892 893 894 895 896 897 898 899 900 901 902 903 904 905 906 907 908 909 910 911 912 913 914 915 916 917 918 919 920 921 922 923 924 925 926 927 928 929 930 931 932 933 934 935 936 937 938 939 940 941 942 943 944 945 946 947 948 949 950 951 952 953 954 955 956 957 958 959 960 961 962 963 964 965 966 967 968 969 970 971 972 973 974 975 976 977 978 979 980 981 982 983 984 985 986 987 988 989 990 991 992 993 994 995 996 997 998 999 1000 1001 1002 1003 1004 1005 1006 1007 1008 1009 1010 1011 1012 1013 1014 1015 1016 1017 1018 1019 1020 1021 1022 1023 1024 1025 1026 1027 1028 1029 1030 1031 1032 1033 1034 1035 1036 1037 1038 1039 1040 1041 1042 1043 1044 1045 1046 1047 1048 1049 1050 1051 1052 1053 1054 1055 1056 1057 1058 1059 1060 1061 1062 1063 1064 1065 1066 1067 1068 1069 1070 1071 1072 1073 1074 1075 1076 1077 1078 1079 1080 1081 1082 1083 1084 1085 1086 1087 1088 1089 1090 1091 1092 1093 1094 1095 1096 1097 1098 1099 1100 1101 1102 1103 1104 1105 1106 1107 1108 1109 1110 1111 1112 1113 1114 1115 1116 1117 1118 1119 1120 1121 1122 1123 1124 1125 1126 1127 1128 1129 1130 1131 1132 1133 1134 1135 1136 1137 1138 1139 1140 1141 1142 1143 1144 1145 1146 1147 1148 1149 1150 1151 1152 1153 1154 1155 1156 1157 1158 1159 1160 1161 1162 1163 1164 1165 1166 1167 1168 1169 1170 1171 1172 1173 1174 1175 1176 1177 1178 1179 1180 1181 1182 1183 1184 1185 1186 1187 1188 1189 1190 1191 1192 1193 1194 1195 1196 1197 1198 1199 1200 1201 1202 1203 1204 1205 1206 1207 1208 1209 1210 1211 1212 1213 1214 1215 1216 1217 1218 1219 1220 1221 1222 1223 1224 1225 1226 1227 1228 1229 1230 1231 1232 1233 1234 1235 1236 1237 1238 1239 1240 1241 1242 1243 1244 1245 1246 1247 1248 1249 1250 1251 1252 1253 1254 1255 1256 1257 1258 1259 1260 1261 1262 1263 1264 1265 1266 1267 1268 1269 1270 1271 1272 1273 1274 1275 1276 1277 1278 1279 1280 1281 1282 1283 1284 1285 1286 1287 1288 1289 1290 1291 1292 1293 1294 1295 1296 1297 1298 1299 1300 1301 1302 1303 1304 1305 1306 1307 1308 1309 1310 1311 1312 1313 1314 1315 1316 1317 1318 1319 1320 1321 1322 1323 1324 1325 1326 1327 1328 1329 1330 1331 1332 1333 1334 1335 1336 1337 1338 1339 1340 1341 1342 1343 1344 1345 1346 1347 1348 1349 1350 1351 1352 1353 1354 1355 1356 1357 1358 1359 1360 1361 1362 1363 1364 1365 1366 1367 1368 1369 1370 1371 1372 1373 1374 1375 1376 1377 1378 1379 1380 1381 1382 1383 1384 1385 1386 1387 1388 1389 1390 1391 1392 1393 1394 1395 1396 1397 1398 1399 1400 1401 1402 1403 1404 1405 1406 1407 1408 1409 1410 1411 1412 1413 1414 1415 1416 1417 1418 1419 1420 1421 1422 1423 1424 1425 1426 1427 1428 1429 1430 1431 1432 1433 1434 1435 1436 1437 1438 1439 1440 1441 1442 1443 1444 1445 1446 1447 1448 1449 1450 1451 1452 1453 1454 1455 1456 1457 1458 1459 1460 1461 1462 1463 1464 1465 1466 1467 1468 1469 1470 1471 1472 1473 1474 1475 1476 1477 1478 1479 1480 1481 1482 1483 1484 1485 1486 1487 1488 1489 1490 1491 1492 1493 1494 1495 1496 1497 1498 1499 1500 1501 1502 1503 1504 1505 1506 1507 1508 1509 1510 1511 1512 1513 1514 1515 1516 1517 1518 1519 1520 1521 1522 1523 1524 1525 1526 1527 1528 1529 1530 1531 1532 1533 1534 1535 1536 1537 1538 1539 1540 1541 1542 1543 1544 1545 1546 1547 1548 1549 1550 1551 1552 1553 1554 1555 1556 1557 1558 1559 1560 1561 1562 1563 1564 1565 1566 1567 1568 1569 1570 1571 1572 1573 1574 1575 1576 1577 1578 1579 1580 1581 1582 1583 1584 1585 1586 1587 1588 1589 1590 1591 1592 1593 1594 1595 1596 1597 1598 1599 1600 1601 1602 1603 1604 1605 1606 1607 1608 1609 1610 1611 1612 1613 1614 1615 1616 1617 1618 1619 1620 1621 1622 1623 1624 1625 1626 1627 1628 1629 1630 1631 1632 1633 1634 1635 1636 1637 1638 1639 1640 1641 1642 1643 1644 1645 1646 1647 1648 1649 1650 1651 1652 1653 1654 1655 1656 1657 1658 1659 1660 1661 1662 1663 1664 1665 1666 1667 1668 1669 1670 1671 1672 1673 1674 1675 1676 1677 1678 1679 1680 1681 1682 1683 1684 1685 1686 1687 1688 1689 1690 1691 1692 1693 1694 1695 1696 1697 1698 1699 1700 1701 1702 1703 1704 1705 1706 1707 1708 1709 1710 1711 1712 1713 1714 1715 1716 1717 1718 1719 1720 1721 1722 1723 1724 1725 1726 1727 1728 1729 1730 1731 1732 1733 1734 1735 1736 1737 1738 1739 1740 1741 1742 1743 1744 1745 1746 1747 1748 1749 1750 1751 1752 1753 1754 1755 1756 1757 1758 1759 1760 1761 1762 1763 1764 1765 1766 1767 1768 1769 1770 1771 1772 1773 1774 1775 1776 1777 1778 1779 1780 1781 1782 1783 1784 1785 1786 1787 1788 1789 1790 1791 1792 1793 1794 1795 1796 1797 1798 1799 1800 1801 1802 1803 1804 1805 1806 1807 1808 1809 1810 1811 1812 1813 1814 1815 1816 1817 1818 1819 1820 1821 1822 1823 1824 1825 1826 1827 1828 1829 1830 1831 1832 1833 1834 1835 1836 1837 1838 1839 1840 1841 1842 1843 1844 1845 1846 1847 1848 1849 1850 1851 1852 1853 1854 1855 1856 1857 1858 1859 1860 1861 1862 1863 1864 1865 1866 1867 1868 1869 1870 1871 1872 1873 1874 1875 1876 1877 1878 1879 1880 1881 1882 1883 1884 1885 1886 1887 1888 1889 1890 1891 1892 1893 1894 1895 1896 1897 1898 1899 1900 1901 1902 1903 1904 1905 1906 1907 1908 1909 1910 1911 1912 1913 1914 1915 1916 1917 1918 1919 1920 1921 1922 1923 1924 1925 1926 1927 1928 1929 1930 1931 1932 1933 1934 1935 1936 1937 1938 1939 1940 1941 1942 1943 1944 1945 1946 1947 1948 1949 1950 1951 1952 1953 1954 1955 1956 1957 1958 1959 1960 1961 1962 1963 1964 1965 1966 1967 1968 1969 1970 1971 1972 1973 1974 1975 1976 1977 1978 1979 1980 1981 1982 1983 1984 1985 1986 1987 1988 1989 1990 1991 1992 1993 1994 1995 1996 1997 1998 1999 2000 2001 2002 2003 2004 2005 2006 2007 2008 2009 2010 2011 2012 2013 2014 2015 2016 2017 2018 2019 2020 2021 2022 2023 2024 2025 2026 2027 2028 2029 2030 2031 2032 2033 2034 2035 2036 2037 2038 2039 2040 2041 2042 2043 2044 2045 2046 2047 2048 2049 2050 2051 2052 2053 2054 2055 2056 2057 2058 2059 2060 2061 2062 2063 2064 2065 2066 2067 2068 2069 2070 2071 2072 2073 2074 2075 2076 2077 2078 2079 2080 2081 2082 2083 2084 2085 2086 2087 2088 2089 2090 2091 2092 2093 2094 2095 2096 2097 2098 2099 2100 2101 2102 2103 2104 2105 2106 2107 2108 2109 2110 2111 2112 2113 2114 2115 2116 2117 2118 2119 2120 2121 2122 2123 2124 2125 2126 2127 2128 2129 2130 2131 2132 2133 2134 2135 2136 2137 2138 2139 2140 2141 2142 2143 2144 2145 2146 2147 2148 2149 2150 2151 2152 2153 2154 2155 2156 2157 2158 2159 2160 2161 2162 2163 2164 2165 2166 2167 2168 2169 2170 2171 2172 2173 2174 2175 2176 2177 2178 2179 2180 2181 2182 2183 2184 2185 2186 2187 2188 2189 2190 2191 2192 2193 2194 2195 2196 2197 2198 2199 2200 2201 2202 2203 2204 2205 2206 2207 2208 2209 2210 2211 2212 2213 2214 2215 2216 2217 2218 2219 2220 2221 2222 2223 2224 2225 2226 2227 2228 2229 2230 2231 2232 2233 2234 2235 2236 2237 2238 2239 2240 2241 2242 2243 2244 2245 2246 2247 2248 2249 2250 2251 2252 2253 2254 2255 2256 2257 2258 2259 2260 2261 2262 2263 2264 2265 2266 2267 2268 2269 2270 2271 2272 2273 2274 2275 2276 2277 2278 2279 2280 2281 2282 2283 2284 2285 2286 2287 2288 2289 2290 2291 2292 2293 2294 2295 2296 2297 2298 2299 2300 2301 2302 2303 2304 2305 2306 2307 2308 2309 2310 2311 2312 2313 2314 2315 2316 2317 2318 2319 2320 2321 2322 2323 2324 2325 2326 2327 2328 2329 2330 2331 2332 2333 2334 2335 2336 2337 2338 2339 2340 2341 2342 2343 2344 2345 2346 2347 2348 2349 2350 2351 2352 2353 2354 2355 2356 2357 2358 2359 2360 2361 2362 2363 2364 2365 2366 2367 2368 2369 2370 2371 2372 2373 2374 2375 2376 2377 2378 2379 2380 2381 2382 2383 2384 2385 2386 2387 2388 2389 2390 2391 2392 2393 2394 2395 2396 2397 2398 2399 2400 2401 2402 2403 2404 2405 2406 2407 2408 2409 2410 2411 2412 2413 2414 2415 2416 2417 2418 2419 2420 2421 2422 2423 2424 2425 2426 2427 2428 2429 2430 2431 2432 2433 2434 2435 2436 2437 2438 2439 2440 2441 2442 2443 2444 2445 2446 2447 2448 2449 2450 2451 2452 2453 2454 2455 2456 2457 2458 2459 2460 2461 2462 2463 2464 2465 2466 2467 2468 2469 2470 2471 2472 2473 2474 2475 2476 2477 2478 2479 2480 2481 2482 2483 2484 2485 2486 2487 2488 2489 2490 2491 2492 2493 2494 2495 2496 2497 2498 2499 2500 2501 2502 2503 2504 2505 2506 2507 2508 2509 2510 2511 2512 2513 2514 2515 2516 2517 2518 2519 2520 2521 2522 2523 2524 2525 2526 2527 2528 2529 2530 2531 2532 2533 2534 2535 2536 2537 2538 2539 2540 2541 2542 2543 2544 2545 2546 2547 2548 2549 2550 2551 2552 2553 2554 2555 2556 2557 2558 2559 2560 2561 2562 2563 2564 2565 2566 2567 2568 2569 2570 2571 2572 2573 2574 2575 2576 2577 2578 2579 2580 2581 2582 2583 2584 2585 2586 2587 2588 2589 2590 2591 2592 2593 2594 2595 2596 2597 2598 2599 2600 2601 2602 2603 2604 2605 2606 2607 2608 2609 2610 2611 2612 2613 2614 2615 2616 2617 2618 2619 2620 2621 2622 2623 2624 2625 2626 2627 2628 2629 2630 2631 2632 2633 2634 2635 2636 2637 2638 2639 2640 2641 2642 2643 2644 2645 2646 2647 2648 2649 2650 2651 2652 2653 2654 2655 2656 2657 2658 2659 2660 2661 2662 2663 2664 2665 2666 2667 2668 2669 2670 2671 2672 2673 2674 2675 2676 2677 2678 2679 2680 2681 2682 2683 2684 2685 2686 2687 2688 2689 2690 2691 2692 2693 2694 2695 2696 2697 2698 2699 2700 2701 2702 2703 2704 2705 2706 2707 2708 2709 2710 2711 2712 2713 2714 2715 2716 2717 2718 2719 2720 2721 2722 2723 2724 2725 2726 2727 2728 2729 2730 2731 2732 2733 2734 2735 2736 2737 2738 2739 2740 2741 2742 2743 2744 2745 2746 2747 2748 2749 2750 2751 2752 2753 2754 2755 2756 2757 2758 2759 2760 2761 2762 2763 2764 2765 2766 2767 2768 2769 2770 2771 2772 2773 2774 2775 2776 2777 2778 2779 2780 2781 2782 2783 2784 2785 2786 2787 2788 2789 2790 2791 2792 2793 2794 2795 2796 2797 2798 2799 2800 2801 2802 2803 2804 2805 2806 2807 2808 2809 2810 2811 2812 2813 2814 2815 2816 2817 2818 2819 2820 2821 2822 2823 2824 2825 2826 2827 2828 2829 2830 2831 2832 2833 2834 2835 2836 2837 2838 2839 2840 2841 2842 2843 2844 2845 2846 2847 2848 2849 2850 2851 2852 2853 2854 2855 2856 2857 2858 2859 2860 2861 2862 2863 2864 2865 2866 2867 2868 2869 2870 2871 2872 2873 2874 2875 2876 2877 2878 2879 2880 2881 2882 2883 2884 2885 2886 2887 2888 2889 2890 2891 2892 2893 2894 2895 2896 2897 2898 2899 2900 2901 2902 2903 2904 2905 2906 2907 2908 2909 2910 2911 2912 2913 2914 2915 2916 2917 2918 2919 2920 2921 2922 2923 2924 2925 2926 2927 2928 2929 2930 2931 2932 2933 2934 2935 2936 2937 2938 2939 2940 2941 2942 2943 2944 2945 2946 2947 2948 2949 2950 2951 2952 2953 2954 2955 2956 2957 2958 2959 2960 2961 2962 2963 2964 2965 2966 2967 2968 2969 2970 2971 2972 2973 2974 2975 2976 2977 2978 2979 2980 2981 2982 2983 2984 2985 2986 2987 2988 2989 2990 2991 2992 2993 2994 2995 2996 2997 2998 2999 3000 3001 3002 3003 3004 3005 3006 3007 3008 3009 3010 3011 3012 3013 3014 3015 3016 3017 3018 3019 3020 3021 3022 3023 3024 3025 3026 3027 3028 3029 3030 3031 3032 3033 3034 3035 3036 3037 3038 3039 3040 3041 3042 3043 3044 3045 3046 3047 3048 3049 3050 3051 3052 3053 3054 3055 3056 3057 3058 3059 3060 3061 3062 3063 3064 3065 3066 3067 3068 3069 3070 3071 3072 3073 3074 3075 3076 3077 3078 3079 3080 3081 3082 3083 3084 3085 3086 3087 3088 3089 3090 3091 3092 3093 3094 3095 3096 3097 3098 3099 3100 3101 3102 3103 3104 3105 3106 3107 3108 3109 3110 3111 3112 3113 3114 3115 3116 3117 3118 3119 3120 3121 3122 3123 3124 3125 3126 3127 3128 3129 3130 3131 3132 3133 3134 3135 3136 3137 3138 3139 3140 3141 3142 3143 3144 3145 3146 3147 3148 3149 3150 3151 3152 3153 3154 3155 3156 3157 3158 3159 3160 3161 3162 3163 3164 3165 3166 3167 3168 3169 3170 3171 3172 3173 3174 3175 3176 3177 3178 3179 3180 3181 3182 3183 3184 3185 3186 3187 3188 3189 3190 3191 3192 3193 3194 3195 3196 3197 3198 3199 3200 3201 3202 3203 3204 3205 3206 3207 3208 3209 3210 3211 3212 3213 3214 3215 3216 3217 3218 3219 3220 3221 3222 3223 3224 3225 3226 3227 3228 3229 3230 3231 3232 3233 3234 3235 3236 3237 3238 3239 3240 3241 3242 3243 3244 3245 3246 3247 3248 3249 3250 3251 3252 3253 3254 3255 3256 3257 3258 3259 3260 3261 3262 3263 3264 3265 3266 3267 3268 3269 3270 3271 3272 3273 3274 3275 3276 3277 3278 3279 3280 3281 3282 3283 3284 3285 3286 3287 3288 3289 3290 3291 3292 3293 3294 3295 3296 3297 3298 3299 3300 3301 3302 3303 3304 3305 3306 3307 3308 3309 3310 3311 3312 3313 3314 3315 3316 3317 3318 3319 3320 3321 3322 3323 3324 3325 3326 3327 3328 3329 3330 3331 3332 3333 3334 3335 3336 3337 3338 3339 3340 3341 3342 3343 3344 3345 3346 3347 3348 3349 3350 3351 3352 3353 3354 3355 3356 3357 3358 3359 3360 3361 3362 3363 3364 3365 3366 3367 3368 3369 3370 3371 3372 3373 3374 3375 3376 3377 3378 3379 3380 3381 3382 3383 3384 3385 3386 3387 3388 3389 3390 3391 3392 3393 3394 3395 3396 3397 3398 3399 3400 3401 3402 3403 3404 3405 3406 3407 3408 3409 3410 3411 3412 3413 3414 3415 3416 3417 3418 3419 3420 3421 3422 3423 3424 3425 3426 3427 3428 3429 3430 3431 3432 3433 3434 3435 3436 3437 3438 3439 3440 3441 3442 3443 3444 3445 3446 3447 3448 3449 3450 3451 3452 3453 3454 3455 3456 3457 3458 3459 3460 3461 3462 3463 3464 3465 3466 3467 3468 3469 3470 3471 3472 3473 3474 3475 3476 3477 3478 3479 3480 3481 3482 3483 3484 3485 3486 3487 3488 3489 3490 3491 3492 3493 3494 3495 3496 3497 3498 3499 3500 3501 3502 3503 3504 3505 3506 3507 3508 3509 3510 3511 3512 3513 3514 3515 3516 3517 3518 3519 3520 3521 3522 3523 3524 3525 3526 3527 3528 3529 3530 3531 3532 3533 3534 3535 3536 3537 3538 3539 3540 3541 3542 3543 3544 3545 3546 3547 3548 3549 3550 3551 3552 3553 3554 3555 3556 3557 3558 3559 3560 3561 3562 3563 3564 3565 3566 3567 3568 3569 3570 3571 3572 3573 3574 3575 3576 3577 3578 3579 3580 3581 3582 3583 3584 3585 3586 3587 3588 3589 3590 3591 3592 3593 3594 3595 3596 3597 3598 3599 3600 3601 3602 3603 3604 3605 3606 3607 3608 3609 3610 3611 3612 3613 3614 3615 3616 3617 3618 3619 3620 3621 3622 3623 3624 3625 3626 3627 3628 3629 3630 3631 3632 3633 3634 3635 3636 3637 3638 3639 3640 3641 3642 3643 3644 3645 3646 3647 3648 3649 3650 3651 3652 3653 3654 3655 3656 3657 3658 3659 3660 3661 3662 3663 3664 3665 3666 3667 3668 3669 3670 3671 3672 3673 3674 3675 3676 3677 3678 3679 3680 3681 3682 3683 3684 3685 3686 3687 3688 3689 3690 3691 3692 3693 3694 3695 3696 3697 3698 3699 3700 3701 3702 3703 3704 3705 3706 3707 3708 3709 3710 3711 3712 3713 3714 3715 3716 3717 3718 3719 3720 3721 3722 3723 3724 3725 3726 3727 3728 3729 3730 3731 3732 3733 3734 3735 3736 3737 3738 3739 3740 3741 3742 3743 3744 3745 3746 3747 3748 3749 3750 3751 3752 3753 3754 3755 3756 3757 3758 3759 3760 3761 3762 3763 3764 3765 3766 3767 3768 3769 3770 3771 3772 3773 3774 3775 3776 3777 3778 3779 3780 3781 3782 3783 3784 3785 3786 3787 3788 3789 3790 3791 3792 3793 3794 3795 3796 3797 3798 3799 3800 3801 3802 3803 3804 3805 3806 3807 3808 3809 3810 3811 3812 3813 3814 3815 3816 3817 3818 3819 3820 3821 3822 3823 3824 3825 3826 3827 3828 3829 3830 3831 3832 3833 3834 3835 3836 3837 3838 3839 3840 3841 3842 3843 3844 3845 3846 3847 3848 3849 3850 3851 3852 3853 3854 3855 3856 3857 3858 3859 3860 3861 3862 3863 3864 3865 3866 3867 3868 3869 3870 3871 3872 3873 3874 3875 3876 3877 3878 3879 3880 3881 3882 3883 3884 3885 3886 3887 3888 3889 3890 3891 3892 3893 3894 3895 3896 3897 3898 3899 3900 3901 3902 3903 3904 3905 3906 3907 3908 3909 3910 3911 3912 3913 3914 3915 3916 3917 3918 3919 3920 3921 3922 3923 3924 3925 3926 3927 3928 3929 3930 3931 3932 3933 3934 3935 3936 3937 3938 3939 3940 3941 3942 3943 3944 3945 3946 3947 3948 3949 3950 3951 3952 3953 3954 3955 3956 3957 3958 3959 3960 3961 3962 3963 3964 3965 3966 3967 3968 3969 3970 3971 3972 3973 3974 3975 3976 3977 3978 3979 3980 3981 3982 3983 3984 3985 3986 3987 3988 3989 3990 3991 3992 3993 3994 3995 3996 3997 3998 3999 4000 4001 4002 4003 4004 4005 4006 4007 4008 4009 4010 4011 4012 4013 4014 4015 4016 4017 4018 4019 4020 4021 4022 4023 4024 4025 4026 4027 4028 4029 4030 4031 4032 4033 4034 4035 4036 4037 4038 4039 4040 4041 4042 4043 4044 4045 4046 4047 4048 4049 4050 4051 4052 4053 4054 4055 4056 4057 4058 4059 4060 4061 4062 4063 4064 4065 4066 4067 4068 4069 4070 4071 4072 4073 4074 4075 4076 4077 4078 4079 4080 4081 4082 4083 4084 4085 4086 4087 4088 4089 4090 4091 4092 4093 4094 4095 4096 4097 4098 4099 4100 4101 4102 4103 4104 4105 4106 4107 4108 4109 4110 4111 4112 4113 4114 4115 4116 4117 4118 4119 4120 4121 4122 4123 4124 4125 4126 4127 4128 4129 4130 4131 4132 4133 4134 4135 4136 4137 4138 4139 4140 4141 4142 4143 4144 4145 4146 4147 4148 4149 4150 4151 4152 4153 4154 4155 4156 4157 4158 4159 4160 4161 4162 4163 4164 4165 4166 4167 4168 4169 4170 4171 4172 4173 4174 4175 4176 4177 4178 4179 4180 4181 4182 4183 4184 4185 4186 4187 4188 4189 4190 4191 4192 4193 4194 4195 4196 4197 4198 4199 4200 4201 4202 4203 4204 4205 4206 4207 4208 4209 4210 4211 4212 4213 4214 4215 4216 4217 4218 4219 4220 4221 4222 4223 4224 4225 4226 4227 4228 4229 4230 4231 4232 4233 4234 4235 4236 4237 4238 4239 4240 4241 4242 4243 4244 4245 4246 4247 4248 4249 4250 4251 4252 4253 4254 4255 4256 4257 4258 4259 4260 4261 4262 4263 4264 4265 4266 4267 4268 4269 4270 4271 4272 4273 4274 4275 4276 4277 4278 4279 4280 4281 4282 4283 4284 4285 4286 4287 4288 4289 4290 4291 4292 4293 4294 4295 4296 4297 4298 4299 4300 4301 4302 4303 4304 4305 4306 4307 4308 4309 4310 4311 4312 4313 4314 4315 4316 4317 4318 4319 4320 4321 4322 4323 4324 4325 4326 4327 4328 4329 4330 4331 4332 4333 4334 4335 4336 4337 4338 4339 4340 4341 4342 4343 4344 4345 4346 4347 4348 4349 4350 4351 4352 4353 4354 4355 4356 4357 4358 4359 4360 4361 4362 4363 4364 4365 4366 4367 4368 4369 4370 4371 4372 4373 4374 4375 4376 4377 4378 4379 4380 4381 4382 4383 4384 4385 4386 4387 4388 4389 4390 4391 4392 4393 4394 4395 4396 4397 4398 4399 4400 4401 4402 4403 4404 4405 4406 4407 4408 4409 4410 4411 4412 4413 4414 4415 4416 4417 4418 4419 4420 4421 4422 4423 4424 4425 4426 4427 4428 4429 4430 4431 4432 4433 4434 4435 4436 4437 4438 4439 4440 4441 4442 4443 4444 4445 4446 4447 4448 4449 4450 4451 4452 4453 4454 4455 4456 4457 4458 4459 4460 4461 4462 4463 4464 4465 4466 4467 4468 4469 4470 4471 4472 4473 4474 4475 4476 4477 4478 4479 4480 4481 4482 4483 4484 4485 4486 4487 4488 4489 4490 4491 4492 4493 4494 4495 4496 4497 4498 4499 4500 4501 4502 4503 4504 4505 4506 4507 4508 4509 4510 4511 4512 4513 4514 4515 4516 4517 4518 4519 4520 4521 4522 4523 4524 4525 4526 4527 4528 4529 4530 4531 4532 4533 4534 4535 4536 4537 4538 4539 4540 4541 4542 4543 4544 4545 4546 4547 4548 4549 4550 4551 4552 4553 4554 4555 4556 4557 4558 4559 4560 4561 4562 4563 4564 4565 4566 4567 4568 4569 4570 4571 4572 4573 4574 4575 4576 4577 4578 4579 4580 4581 4582 4583 4584 4585 4586 4587 4588 4589 4590 4591 4592 4593 4594 4595 4596 4597 4598 4599 4600 4601 4602 4603 4604 4605 4606 4607 4608 4609 4610 4611 4612 4613 4614 4615 4616 4617 4618 4619 4620 4621 4622 4623 4624 4625 4626 4627 4628 4629 4630 4631 4632 4633 4634 4635 4636 4637 4638 4639 4640 4641 4642 4643 4644 4645 4646 4647 4648 4649 4650 4651 4652 4653 4654 4655 4656 4657 4658 4659 4660 4661 4662 4663 4664 4665 4666 4667 4668 4669 4670 4671 4672 4673 4674 4675 4676 4677 4678 4679 4680 4681 4682 4683 4684 4685 4686 4687 4688 4689 4690 4691 4692 4693 4694 4695 4696 4697 4698 4699 4700 4701 4702 4703 4704 4705 4706 4707 4708 4709 4710 4711 4712 4713 4714 4715 4716 4717 4718 4719 4720 4721 4722 4723 4724 4725 4726 4727 4728 4729 4730 4731 4732 4733 4734 4735 4736 4737 4738 4739 4740 4741 4742 4743 4744 4745 4746 4747 4748 4749 4750 4751 4752 4753 4754 4755 4756 4757 4758 4759 4760 4761 4762 4763 4764 4765 4766 4767 4768 4769 4770 4771 4772 4773 4774 4775 4776 4777 4778 4779 4780 4781 4782 4783 4784 4785 4786 4787 4788 4789 4790 4791 4792 4793 4794 4795 4796 4797 4798 4799 4800 4801 4802 4803 4804 4805 4806 4807 4808 4809 4810 4811 4812 4813 4814 4815 4816 4817 4818 4819 4820 4821 4822 4823 4824 4825 4826 4827 4828 4829 4830 4831 4832 4833 4834 4835 4836 4837 4838 4839 4840 4841 4842 4843 4844 4845 4846 4847 4848 4849 4850 4851 4852 4853 4854 4855 4856 4857 4858 4859 4860 4861 4862 4863 4864 4865 4866 4867 4868 4869 4870 4871 4872 4873 4874 4875 4876 4877 4878 4879 4880 4881 4882 4883 4884 4885 4886 4887 4888 4889 4890 4891 4892 4893 4894 4895 4896 4897 4898 4899 4900 4901 4902 4903 4904 4905 4906 4907 4908 4909 4910 4911 4912 4913 4914 4915 4916 4917 4918 4919 4920 4921 4922 4923 4924 4925 4926 4927 4928 4929 4930 4931 4932 4933 4934 4935 4936 4937 4938 4939 4940 4941 4942 4943 4944 4945 4946 4947 4948 4949 4950 4951 4952 4953 4954 4955 4956 4957 4958 4959 4960 4961 4962 4963 4964 4965 4966 4967 4968 4969 4970 4971 4972 4973 4974 4975 4976 4977 4978 4979 4980 4981 4982 4983 4984 4985 4986 4987 4988 4989 4990 4991 4992 4993 4994 4995 4996 4997 4998 4999 5000 5001 5002 5003 5004 5005 5006 5007 5008 5009 5010 5011 5012 5013 5014 5015 5016 5017 5018 5019 5020 5021 5022 5023 5024 5025 5026 5027 5028 5029 5030 5031 5032 5033 5034 5035 5036 5037 5038 5039 5040 5041 5042 5043 5044 5045 5046 5047 5048 5049 5050 5051 5052 5053 5054 5055 5056 5057 5058 5059 5060 5061 5062 5063 5064 5065 5066 5067 5068 5069 5070 5071 5072 5073 5074 5075 5076 5077 5078 5079 5080 5081 5082 5083 5084 5085 5086 5087 5088 5089 5090 5091 5092 5093 5094 5095 5096 5097 5098 5099 5100 5101 5102 5103 5104 5105 5106 5107 5108 5109 5110 5111 5112 5113 5114 5115 5116 5117 5118 5119 5120 5121 5122 5123 5124 5125 5126 5127 5128 5129 5130 5131 5132 5133 5134 5135 5136 5137 5138 5139 5140 5141 5142 5143 5144 5145 5146 5147 5148 5149 5150 5151 5152 5153 5154 5155 5156 5157 5158 5159 5160 5161 5162 5163 5164 5165 5166 5167 5168 5169 5170 5171 5172 5173 5174 5175 5176 5177 5178 5179 5180 5181 5182 5183 5184 5185 5186 5187 5188 5189 5190 5191 5192 5193 5194 5195 5196 5197 5198 5199 5200 5201 5202 5203 5204 5205 5206 5207 5208 5209 5210 5211 5212 5213 5214 5215 5216 5217 5218 5219 5220 5221 5222 5223 5224 5225 5226 5227 5228 5229 5230 5231 5232 5233 5234 5235 5236 5237 5238 5239 5240 5241 5242 5243 5244 5245 5246 5247 5248 5249 5250 5251 5252 5253 5254 5255 5256 5257 5258 5259 5260 5261 5262 5263 5264 5265 5266 5267 5268 5269 5270 5271 5272 5273 5274 5275 5276 5277 5278 5279 5280 5281 5282 5283 5284 5285 5286 5287 5288 5289 5290 5291 5292 5293 5294 5295 5296 5297 5298 5299 5300 5301 5302 5303 5304 5305 5306 5307 5308 5309 5310 5311 5312 5313 5314 5315 5316 5317 5318 5319 5320 5321 5322 5323 5324 5325 5326 5327 5328 5329 5330 5331 5332 5333 5334 5335 5336 5337 5338 5339 5340 5341 5342 5343 5344 5345 5346 5347 5348 5349 5350 5351 5352 5353 5354 5355 5356 5357 5358 5359 5360 5361 5362 5363 5364 5365 5366 5367 5368 5369 5370 5371 5372 5373 5374 5375 5376 5377 5378 5379 5380 5381 5382 5383 5384 5385 5386 5387 5388 5389 5390 5391 5392 5393 5394 5395 5396 5397 5398 5399 5400 5401 5402 5403 5404 5405 5406 5407 5408 5409 5410 5411 5412 5413 5414 5415 5416 5417 5418 5419 5420 5421 5422 5423 5424 5425 5426 5427 5428 5429 5430 5431 5432 5433 5434 5435 5436 5437 5438 5439 5440 5441 5442 5443 5444 5445 5446 5447 5448 5449 5450 5451 5452 5453 5454 5455 5456 5457 5458 5459 5460 5461 5462 5463 5464 5465 5466 5467 5468 5469 5470 5471 5472 5473 5474 5475 5476 5477 5478 5479 5480 5481 5482 5483 5484 5485 5486 5487 5488 5489 5490 5491 5492 5493 5494 5495 5496 5497 5498 5499 5500 5501 5502 5503 5504 5505 5506 5507 5508 5509 5510 5511 5512 5513 5514 5515 5516 5517 5518 5519 5520 5521 5522 5523 5524 5525 5526 5527 5528 5529 5530 5531 5532 5533 5534 5535 5536 5537 5538 5539 5540 5541 5542 5543 5544 5545 5546 5547 5548 5549 5550 5551 5552 5553 5554 5555 5556 5557 5558 5559 5560 5561 5562 5563 5564 5565 5566 5567 5568 5569 5570 5571 5572 5573 5574 5575 5576 5577 5578 5579 5580 5581 5582 5583 5584 5585 5586 5587 5588 5589 5590 5591 5592 5593 5594 5595 5596 5597 5598 5599 5600 5601 5602 5603 5604 5605 5606 5607 5608 5609 5610 5611 5612 5613 5614 5615 5616 5617 5618 5619 5620 5621 5622 5623 5624 5625 5626 5627 5628 5629 5630 5631 5632 5633 5634 5635 5636 5637 5638 5639 5640 5641 5642 5643 5644 5645 5646 5647 5648 5649 5650 5651 5652 5653 5654 5655 5656 5657 5658 5659 5660 5661 5662 5663 5664 5665 5666 5667 5668 5669 5670 5671 5672 5673 5674 5675 5676 5677 5678 5679 5680 5681 5682 5683 5684 5685 5686 5687 5688 5689 5690 5691 5692 5693 5694 5695 5696 5697 5698 5699 5700 5701 5702 5703 5704 5705 5706 5707 5708 5709 5710 5711 5712 5713 5714 5715 5716 5717 5718 5719 5720 5721 5722 5723 5724 5725 5726 5727 5728 5729 5730 5731 5732 5733 5734 5735 5736 5737 5738 5739 5740 5741 5742 5743 5744 5745 5746 5747 5748 5749 5750 5751 5752 5753 5754 5755 5756 5757 5758 5759 5760 5761 5762 5763 5764 5765 5766 5767 5768 5769 5770 5771 5772 5773 5774 5775 5776 5777 5778 5779 5780 5781 5782 5783 5784 5785 5786 5787 5788 5789 5790 5791 5792 5793 5794 5795 5796 5797 5798 5799 5800 5801 5802 5803 5804 5805 5806 5807 5808 5809 5810 5811 5812 5813 5814 5815 5816 5817 5818 5819 5820 5821 5822 5823 5824 5825 5826 5827 5828 5829 5830 5831 5832 5833 5834 5835 5836 5837 5838 5839 5840 5841 5842 5843 5844 5845 5846 5847 5848 5849 5850 5851 5852 5853 5854 5855 5856 5857 5858 5859 5860 5861 5862 5863 5864 5865 5866 5867 5868 5869 5870 5871 5872 5873 5874 5875 5876 5877 5878 5879 5880 5881 5882 5883 5884 5885 5886 5887 5888 5889 5890 5891 5892 5893 5894 5895 5896 5897 5898 5899 5900 5901 5902 5903 5904 5905 5906 5907 5908 5909 5910 5911 5912 5913 5914 5915 5916 5917 5918 5919 5920 5921 5922 5923 5924 5925 5926 5927 5928 5929 5930 5931 5932 5933 5934 5935 5936 5937 5938 5939 5940 5941 5942 5943 5944 5945 5946 5947 5948 5949 5950 5951 5952 5953 5954 5955 5956 5957 5958 5959 5960 5961 5962 5963 5964 5965 5966 5967 5968 5969 5970 5971 5972 5973 5974 5975 5976 5977 5978 5979 5980 5981 5982 5983 5984 5985 5986 5987 5988 5989 5990 5991 5992 5993 5994 5995 5996 5997 5998 5999 6000 6001 6002 6003 6004 6005 6006 6007 6008 6009 6010 6011 6012 6013 6014 6015 6016 6017 6018 6019 6020 6021 6022 6023 6024 6025 6026 6027 6028 6029 6030 6031 6032 6033 6034 6035 6036 6037 6038 6039 6040 6041 6042 6043 6044 6045 6046 6047 6048 6049 6050 6051 6052 6053 6054 6055 6056 6057 6058 6059 6060 6061 6062 6063 6064 6065 6066 6067 6068 6069 6070 6071 6072 6073 6074 6075 6076 6077 6078 6079 6080 6081 6082 6083 6084 6085 6086 6087 6088 6089 6090 6091 6092 6093 6094 6095 6096 6097 6098 6099 6100 6101 6102 6103 6104 6105 6106 6107 6108 6109 6110 6111 6112 6113 6114 6115 6116 6117 6118 6119 6120 6121 6122 6123 6124 6125 6126 6127 6128 6129 6130 6131 6132 6133 6134 6135 6136 6137 6138 6139 6140 6141 6142 6143 6144 6145 6146 6147 6148 6149 6150 6151 6152 6153 6154 6155 6156 6157 6158 6159 6160 6161 6162 6163 6164 6165 6166 6167 6168 6169 6170 6171 6172 6173 6174 6175 6176 6177 6178 6179 6180 6181 6182 6183 6184 6185 6186 6187 6188 6189 6190 6191 6192 6193 6194 6195 6196 6197 6198 6199 6200 6201 6202 6203 6204 6205 6206 6207 6208 6209 6210 6211 6212 6213 6214 6215 6216 6217 6218 6219 6220 6221 6222 6223 6224 6225 6226 6227 6228 6229 6230 6231 6232 6233 6234 6235 6236 6237 6238 6239 6240 6241 6242 6243 6244 6245 6246 6247 6248 6249 6250 6251 6252 6253 6254 6255 6256 6257 6258 6259 6260 6261 6262 6263 6264 6265 6266 6267 6268 6269 6270 6271 6272 6273 6274 6275 6276 6277 6278 6279 6280 6281 6282 6283 6284 6285 6286 6287 6288 6289 6290 6291 6292 6293 6294 6295 6296 6297 6298 6299 6300 6301 6302 6303 6304 6305 6306 6307 6308 6309 6310 6311 6312 6313 6314 6315 6316 6317 6318 6319 6320 6321 6322 6323 6324 6325 6326 6327 6328 6329 6330 6331 6332 6333 6334 6335 6336 6337 6338 6339 6340 6341 6342 6343 6344 6345 6346 6347 6348 6349 6350 6351 6352 6353 6354 6355 6356 6357 6358 6359 6360 6361 6362 6363 6364 6365 6366 6367 6368 6369 6370 6371 6372 6373 6374 6375 6376 6377 6378 6379 6380 6381 6382 6383 6384 6385 6386 6387 6388 6389 6390 6391 6392 6393 6394 6395 6396 6397 6398 6399 6400 6401 6402 6403 6404 6405 6406 6407 6408 6409 6410 6411 6412 6413 6414 6415 6416 6417 6418 6419 6420 6421 6422 6423 6424 6425 6426 6427 6428 6429 6430 6431 6432 6433 6434 6435 6436 6437 6438 6439 6440 6441 6442 6443 6444 6445 6446 6447 6448 6449 6450 6451 6452 6453 6454 6455 6456 6457 6458 6459 6460 6461 6462 6463 6464 6465 6466 6467 6468 6469 6470 6471 6472 6473 6474 6475 6476 6477 6478 6479 6480 6481 6482 6483 6484 6485 6486 6487 6488 6489 6490 6491 6492 6493 6494 6495 6496 6497 6498 6499 6500 6501 6502 6503 6504 6505 6506 6507 6508 6509 6510 6511 6512 6513 6514 6515 6516 6517 6518 6519 6520 6521 6522 6523 6524 6525 6526 6527 6528 6529 6530 6531 6532 6533 6534 6535 6536 6537 6538 6539 6540 6541 6542 6543 6544 6545 6546 6547 6548 6549 6550 6551 6552 6553 6554 6555 6556 6557 6558 6559 6560 6561 6562 6563 6564 6565 6566 6567 6568 6569 6570 6571 6572 6573 6574 6575 6576 6577 6578 6579 6580 6581 6582 6583 6584 6585 6586 6587 6588 6589 6590 6591 6592 6593 6594 6595 6596 6597 6598 6599 6600 6601 6602 6603 6604 6605 6606 6607 6608 6609 6610 6611 6612 6613 6614 6615 6616 6617 6618 6619 6620 6621 6622 6623 6624 6625 6626 6627 6628 6629 6630 6631 6632 6633 6634 6635 6636 6637 6638 6639 6640 6641 6642 6643 6644 6645 6646 6647 6648 6649 6650 6651 6652 6653 6654 6655 6656 6657 6658 6659 6660 6661 6662 6663 6664 6665 6666 6667 6668 6669 6670 6671 6672 6673 6674 6675 6676 6677 6678 6679 6680 6681 6682 6683 6684 6685 6686 6687 6688 6689 6690 6691 6692 6693 6694 6695 6696 6697 6698 6699 6700 6701 6702 6703 6704 6705 6706 6707 6708 6709 6710 6711 6712 6713 6714 6715 6716 6717 6718 6719 6720 6721 6722 6723 6724 6725 6726 6727 6728 6729 6730 6731 6732 6733 6734 6735 6736 6737 6738 6739 6740 6741 6742 6743 6744 6745 6746 6747 6748 6749 6750 6751 6752 6753 6754 6755 6756 6757 6758 6759 6760 6761 6762 6763 6764 6765 6766 6767 6768 6769 6770 6771 6772 6773 6774 6775 6776 6777 6778 6779 6780 6781 6782 6783 6784 6785 6786 6787 6788 6789 6790 6791 6792 6793 6794 6795 6796 6797 6798 6799 6800 6801 6802 6803 6804 6805 6806 6807 6808 6809 6810 6811 6812 6813 6814 6815 6816 6817 6818 6819 6820 6821 6822 6823 6824 6825 6826 6827 6828 6829 6830 6831 6832 6833 6834 6835 6836 6837 6838 6839 6840 6841 6842 6843 6844 6845 6846 6847 6848 6849 6850 6851 6852 6853 6854 6855 6856 6857 6858 6859 6860 6861 6862 6863 6864 6865 6866 6867 6868 6869 6870 6871 6872 6873 6874 6875 6876 6877 6878 6879 6880 6881 6882 6883 6884 6885 6886 6887 6888 6889 6890 6891 6892 6893 6894 6895 6896 6897 6898 6899 6900 6901 6902 6903 6904 6905 6906 6907 6908 6909 6910 6911 6912 6913 6914 6915 6916 6917 6918 6919 6920 6921 6922 6923 6924 6925 6926 6927 6928 6929 6930 6931 6932 6933 6934 6935 6936 6937 6938 6939 6940 6941 6942 6943 6944 6945 6946 6947 6948 6949 6950 6951 6952 6953 6954 6955 6956 6957 6958 6959 6960 6961 6962 6963 6964 6965 6966 6967 6968 6969 6970 6971 6972 6973 6974 6975 6976 6977 6978 6979 6980 6981 6982 6983 6984 6985 6986 6987 6988 6989 6990 6991 6992 6993 6994 6995 6996 6997 6998 6999 7000 7001 7002 7003 7004 7005 7006 7007 7008 7009 7010 7011 7012 7013 7014 7015 7016 7017 7018 7019 7020 7021 7022 7023 7024 7025 7026 7027 7028 7029 7030 7031 7032 7033 7034 7035 7036 7037 7038 7039 7040 7041 7042 7043 7044 7045 7046 7047 7048 7049 7050 7051 7052 7053 7054 7055 7056 7057 7058 7059 7060 7061 7062 7063 7064 7065 7066 7067 7068 7069 7070 7071 7072 7073 7074 7075 7076 7077 7078 7079 7080 7081 7082 7083 7084 7085 7086 7087 7088 7089 7090 7091 7092 7093 7094 7095 7096 7097 7098 7099 7100 7101 7102 7103 7104 7105 7106 7107 7108 7109 7110 7111 7112 7113 7114 7115 7116 7117 7118 7119 7120 7121 7122 7123 7124 7125 7126 7127 7128 7129 7130 7131 7132 7133 7134 7135 7136 7137 7138 7139 7140 7141 7142 7143 7144 7145 7146 7147 7148 7149 7150 7151 7152 7153 7154 7155 7156 7157 7158 7159 7160 7161 7162 7163 7164 7165 7166 7167 7168 7169 7170 7171 7172 7173 7174 7175 7176 7177 7178 7179 7180 7181 7182 7183 7184 7185 7186 7187 7188 7189 7190 7191 7192 7193 7194 7195 7196 7197 7198 7199 7200 7201 7202 7203 7204 7205 7206 7207 7208 7209 7210 7211 7212 7213 7214 7215 7216 7217 7218 7219 7220 7221 7222 7223 7224 7225 7226 7227 7228 7229 7230 7231 7232 7233 7234 7235 7236 7237 7238 7239 7240 7241 7242 7243 7244 7245 7246 7247 7248 7249 7250 7251 7252 7253 7254 7255 7256 7257 7258 7259 7260 7261 7262 7263 7264 7265 7266 7267 7268 7269 7270 7271 7272 7273 7274 7275 7276 7277 7278 7279 7280 7281 7282 7283 7284 7285 7286 7287 7288 7289 7290 7291 7292 7293 7294 7295 7296 7297 7298 7299 7300 7301 7302 7303 7304 7305 7306 7307 7308 7309 7310 7311 7312 7313 7314 7315 7316 7317 7318 7319 7320 7321 7322 7323 7324 7325 7326 7327 7328 7329 7330 7331 7332 7333 7334 7335 7336 7337 7338 7339 7340 7341 7342 7343 7344 7345 7346 7347 7348 7349 7350 7351 7352 7353 7354 7355 7356 7357 7358 7359 7360 7361 7362 7363 7364 7365 7366 7367 7368 7369 7370 7371 7372 7373 7374 7375 7376 7377 7378 7379 7380 7381 7382 7383 7384 7385 7386 7387 7388 7389 7390 7391 7392 7393 7394 7395 7396 7397 7398 7399 7400 7401 7402 7403 7404 7405 7406 7407 7408 7409 7410 7411 7412 7413 7414 7415 7416 7417 7418 7419 7420 7421 7422 7423 7424 7425 7426 7427 7428 7429 7430 7431 7432 7433 7434 7435 7436 7437 7438 7439 7440 7441 7442 7443 7444 7445 7446 7447 7448 7449 7450 7451 7452 7453 7454 7455 7456 7457 7458 7459 7460 7461 7462 7463 7464 7465 7466 7467 7468 7469 7470 7471 7472 7473 7474 7475 7476 7477 7478 7479 7480 7481 7482 7483 7484 7485 7486 7487 7488 7489 7490 7491 7492 7493 7494 7495 7496 7497 7498 7499 7500 7501 7502 7503 7504 7505 7506 7507 7508 7509 7510 7511 7512 7513 7514 7515 7516 7517 7518 7519 7520 7521 7522 7523 7524 7525 7526 7527 7528 7529 7530 7531 7532 7533 7534 7535 7536 7537 7538 7539 7540 7541 7542 7543 7544 7545 7546 7547 7548 7549 7550 7551 7552 7553 7554 7555 7556 7557 7558 7559 7560 7561 7562 7563 7564 7565 7566 7567 7568 7569 7570 7571 7572 7573 7574 7575 7576 7577 7578 7579 7580 7581 7582 7583 7584 7585 7586 7587 7588 7589 7590 7591 7592 7593 7594 7595 7596 7597 7598 7599 7600 7601 7602 7603 7604 7605 7606 7607 7608 7609 7610 7611 7612 7613 7614 7615 7616 7617 7618 7619 7620 7621 7622 7623 7624 7625 7626 7627 7628 7629 7630 7631 7632 7633 7634 7635 7636 7637 7638 7639 7640 7641 7642 7643 7644 7645 7646 7647 7648 7649 7650 7651 7652 7653 7654 7655 7656 7657 7658 7659 7660 7661 7662 7663 7664 7665 7666 7667 7668 7669 7670 7671 7672 7673 7674 7675 7676 7677 7678 7679 7680 7681 7682 7683 7684 7685 7686 7687 7688 7689 7690 7691 7692 7693 7694 7695 7696 7697 7698 7699 7700 7701 7702 7703 7704 7705 7706 7707 7708 7709 7710 7711 7712 7713 7714 7715 7716 7717 7718 7719 7720 7721 7722 7723 7724 7725 7726 7727 7728 7729 7730 7731 7732 7733 7734 7735 7736 7737 7738 7739 7740 7741 7742 7743 7744 7745 7746 7747 7748 7749 7750 7751 7752 7753 7754 7755 7756 7757 7758 7759 7760 7761 7762 7763 7764 7765 7766 7767 7768 7769 7770 7771 7772 7773 7774 7775 7776 7777 7778 7779 7780 7781 7782 7783 7784 7785 7786 7787 7788 7789 7790 7791 7792 7793 7794 7795 7796 7797 7798 7799 7800 7801 7802 7803 7804 7805 7806 7807 7808 7809 7810 7811 7812 7813 7814 7815 7816 7817 7818 7819 7820 7821 7822 7823 7824 7825 7826 7827 7828 7829 7830 7831 7832 7833 7834 7835 7836 7837 7838 7839 7840 7841 7842 7843 7844 7845 7846 7847 7848 7849 7850 7851 7852 7853 7854 7855 7856 7857 7858 7859 7860 7861 7862 7863 7864 7865 7866 7867 7868 7869 7870 7871 7872 7873 7874 7875 7876 7877 7878 7879 7880 7881 7882 7883 7884 7885 7886 7887 7888 7889 7890 7891 7892 7893 7894 7895 7896 7897 7898 7899 7900 7901 7902 7903 7904 7905 7906 7907 7908 7909 7910 7911 7912 7913 7914 7915 7916 7917 7918 7919 7920 7921 7922 7923 7924 7925 7926 7927 7928 7929 7930 7931 7932 7933 7934 7935 7936 7937 7938 7939 7940 7941 7942 7943 7944 7945 7946 7947 7948 7949 7950 7951 7952 7953 7954 7955 7956 7957 7958 7959 7960 7961 7962 7963 7964 7965 7966 7967 7968 7969 7970 7971 7972 7973 7974 7975 7976 7977 7978 7979 7980 7981 7982 7983 7984 7985 7986 7987 7988 7989 7990 7991 7992 7993 7994 7995 7996 7997 7998 7999 8000 8001 8002 8003 8004 8005 8006 8007 8008 8009 8010 8011 8012 8013 8014 8015 8016 8017 8018 8019 8020 8021 8022 8023 8024 8025 8026 8027 8028 8029 8030 8031 8032 8033 8034 8035 8036 8037 8038 8039 8040 8041 8042 8043 8044 8045 8046 8047 8048 8049 8050 8051 8052 8053 8054 8055 8056 8057 8058 8059 8060 8061 8062 8063 8064 8065 8066 8067 8068 8069 8070 8071 8072 8073 8074 8075 8076 8077 8078 8079 8080 8081 8082 8083 8084 8085 8086 8087 8088 8089 8090 8091 8092 8093 8094 8095 8096 8097 8098 8099 8100 8101 8102 8103 8104 8105 8106 8107 8108 8109 8110 8111 8112 8113 8114 8115 8116 8117 8118 8119 8120 8121 8122 8123 8124 8125 8126 8127 8128 8129 8130 8131 8132 8133 8134 8135 8136 8137 8138 8139 8140 8141 8142 8143 8144 8145 8146 8147 8148 8149 8150 8151 8152 8153 8154 8155 8156 8157 8158 8159 8160 8161 8162 8163 8164 8165 8166 8167 8168 8169 8170 8171 8172 8173 8174 8175 8176 8177 8178 8179 8180 8181 8182 8183 8184 8185 8186 8187 8188 8189 8190 8191 8192 8193 8194 8195 8196 8197 8198 8199 8200 8201 8202 8203 8204 8205 8206 8207 8208 8209 8210 8211 8212 8213 8214 8215 8216 8217 8218 8219 8220 8221 8222 8223 8224 8225 8226 8227 8228 8229 8230 8231 8232 8233 8234 8235 8236 8237 8238 8239 8240 8241 8242 8243 8244 8245 8246 8247 8248 8249 8250 8251 8252 8253 8254 8255 8256 8257 8258 8259 8260 8261 8262 8263 8264 8265 8266 8267 8268 8269 8270 8271 8272 8273 8274 8275 8276 8277 8278 8279 8280 8281 8282 8283 8284 8285 8286 8287 8288 8289 8290 8291 8292 8293 8294 8295 8296 8297 8298 8299 8300 8301 8302 8303 8304 8305 8306 8307 8308 8309 8310 8311 8312 8313 8314 8315 8316 8317 8318 8319 8320 8321 8322 8323 8324 8325 8326 8327 8328 8329 8330 8331 8332 8333 8334 8335 8336 8337 8338 8339 8340 8341 8342 8343 8344 8345 8346 8347 8348 8349 8350 8351 8352 8353 8354 8355 8356 8357 8358 8359 8360 8361 8362 8363 8364 8365 8366 8367 8368 8369 8370 8371 8372 8373 8374 8375 8376 8377 8378 8379 8380 8381 8382 8383 8384 8385 8386 8387 8388 8389 8390 8391 8392 8393 8394 8395 8396 8397 8398 8399 8400 8401 8402 8403 8404 8405 8406 8407 8408 8409 8410 8411 8412 8413 8414 8415 8416 8417 8418 8419 8420 8421 8422 8423 8424 8425 8426 8427 8428 8429 8430 8431 8432 8433 8434 8435 8436 8437 8438 8439 8440 8441 8442 8443 8444 8445 8446 8447 8448 8449 8450 8451 8452 8453 8454 8455 8456 8457 8458 8459 8460 8461 8462 8463 8464 8465 8466 8467 8468 8469 8470 8471 8472 8473 8474 8475 8476 8477 8478 8479 8480 8481 8482 8483 8484 8485 8486 8487 8488 8489 8490 8491 8492 8493 8494 8495 8496 8497 8498 8499 8500 8501 8502 8503 8504 8505 8506 8507 8508 8509 8510 8511 8512 8513 8514 8515 8516 8517 8518 8519 8520 8521 8522 8523 8524 8525 8526 8527 8528 8529 8530 8531 8532 8533 8534 8535 8536 8537 8538 8539 8540 8541 8542 8543 8544 8545 8546 8547 8548 8549 8550 8551 8552 8553 8554 8555 8556 8557 8558 8559 8560 8561 8562 8563 8564 8565 8566 8567 8568 8569 8570 8571 8572 8573 8574 8575 8576 8577 8578 8579 8580 8581 8582 8583 8584 8585 8586 8587 8588 8589 8590 8591 8592 8593 8594 8595 8596 8597 8598 8599 8600 8601 8602 8603 8604 8605 8606 8607 8608 8609 8610 8611 8612 8613 8614 8615 8616 8617 8618 8619 8620 8621 8622 8623 8624 8625 8626 8627 8628 8629 8630 8631 8632 8633 8634 8635 8636 8637 8638 8639 8640 8641 8642 8643 8644 8645 8646 8647 8648 8649 8650 8651 8652 8653 8654 8655 8656 8657 8658 8659 8660 8661 8662 8663 8664 8665 8666 8667 8668 8669 8670 8671 8672 8673 8674 8675 8676 8677 8678 8679 8680 8681 8682 8683 8684 8685 8686 8687 8688 8689 8690 8691 8692 8693 8694 8695 8696 8697 8698 8699 8700 8701 8702 8703 8704 8705 8706 8707 8708 8709 8710 8711 8712 8713 8714 8715 8716 8717 8718 8719 8720 8721 8722 8723 8724 8725 8726 8727 8728 8729 8730 8731 8732 8733 8734 8735 8736 8737 8738 8739 8740 8741 8742 8743 8744 8745 8746 8747 8748 8749 8750 8751 8752 8753 8754 8755 8756 8757 8758 8759 8760 8761 8762 8763 8764 8765 8766 8767 8768 8769 8770 8771 8772 8773 8774 8775 8776 8777 8778 8779 8780 8781 8782 8783 8784 8785 8786 8787 8788 8789 8790 8791 8792 8793 8794 8795 8796 8797 8798 8799 8800 8801 8802 8803 8804 8805 8806 8807 8808 8809 8810 8811 8812 8813 8814 8815 8816 8817 8818 8819 8820 8821 8822 8823 8824 8825 8826 8827 8828 8829 8830 8831 8832 8833 8834 8835 8836 8837 8838 8839 8840 8841 8842 8843 8844 8845 8846 8847 8848 8849 8850 8851 8852 8853 8854 8855 8856 8857 8858 8859 8860 8861 8862 8863 8864 8865 8866 8867 8868 8869 8870 8871 8872 8873 8874 8875 8876 8877 8878 8879 8880 8881 8882 8883 8884 8885 8886 8887 8888 8889 8890 8891 8892 8893 8894 8895 8896 8897 8898 8899 8900 8901 8902 8903 8904 8905 8906 8907 8908 8909 8910 8911 8912 8913 8914 8915 8916 8917 8918 8919 8920 8921 8922 8923 8924 8925 8926 8927 8928 8929 8930 8931 8932 8933 8934 8935 8936 8937 8938 8939 8940 8941 8942 8943 8944 8945 8946 8947 8948 8949 8950 8951 8952 8953 8954 8955 8956 8957 8958 8959 8960 8961 8962 8963 8964 8965 8966 8967 8968 8969 8970 8971 8972 8973 8974 8975 8976 8977 8978 8979 8980 8981 8982 8983 8984 8985 8986 8987 8988 8989 8990 8991 8992 8993 8994 8995 8996 8997 8998 8999 9000 9001 9002 9003 9004 9005 9006 9007 9008 9009 9010 9011 9012 9013 9014 9015 9016 9017 9018 9019 9020 9021 9022 9023 9024 9025 9026 9027 9028 9029 9030 9031 9032 9033 9034 9035 9036 9037 9038 9039 9040 9041 9042 9043 9044 9045 9046 9047 9048 9049 9050 9051 9052 9053 9054 9055 9056 9057 9058 9059 9060 9061 9062 9063 9064 9065 9066 9067 9068 9069 9070 9071 9072 9073 9074 9075 9076 9077 9078 9079 9080 9081 9082 9083 9084 9085 9086 9087 9088 9089 9090 9091 9092 9093 9094 9095 9096 9097 9098 9099 9100 9101 9102 9103 9104 9105 9106 9107 9108 9109 9110 9111 9112 9113 9114 9115 9116 9117 9118 9119 9120 9121 9122 9123 9124 9125 9126 9127 9128 9129 9130 9131 9132 9133 9134 9135 9136 9137 9138 9139 9140 9141 9142 9143 9144 9145 9146 9147 9148 9149 9150 9151 9152 9153 9154 9155 9156 9157 9158 9159 9160 9161 9162 9163 9164 9165 9166 9167 9168 9169 9170 9171 9172 9173 9174 9175 9176 9177 9178 9179 9180 9181 9182 9183 9184 9185 9186 9187 9188 9189 9190 9191 9192 9193 9194 9195 9196 9197 9198 9199 9200 9201 9202 9203 9204 9205 9206 9207 9208 9209 9210 9211 9212 9213 9214 9215 9216 9217 9218 9219 9220 9221 9222 9223 9224 9225 9226 9227 9228 9229 9230 9231 9232 9233 9234 9235 9236 9237 9238 9239 9240 9241 9242 9243 9244 9245 9246 9247 9248 9249 9250 9251 9252 9253 9254 9255 9256 9257 9258 9259 9260 9261 9262 9263 9264 9265 9266 9267 9268 9269 9270 9271 9272 9273 9274 9275 9276 9277 9278 9279 9280 9281 9282 9283 9284 9285 9286 9287 9288 9289 9290 9291 9292 9293 9294 9295 9296 9297 9298 9299 9300 9301 9302 9303 9304 9305 9306 9307 9308 9309 9310 9311 9312 9313 9314 9315 9316 9317 9318 9319 9320 9321 9322 9323 9324 9325 9326 9327 9328 9329 9330 9331 9332 9333 9334 9335 9336 9337 9338 9339 9340 9341 9342 9343 9344 9345 9346 9347 9348 9349 9350 9351 9352 9353 9354 9355 9356 9357 9358 9359 9360 9361 9362 9363 9364 9365 9366 9367 9368 9369 9370 9371 9372 9373 9374 9375 9376 9377 9378 9379 9380 9381 9382 9383 9384 9385 9386 9387 9388 9389 9390 9391 9392 9393 9394 9395 9396 9397 9398 9399 9400 9401 9402 9403 9404 9405 9406 9407 9408 9409 9410 9411 9412 9413 9414 9415 9416 9417 9418 9419 9420 9421 9422 9423 9424 9425 9426 9427 9428 9429 9430 9431 9432 9433 9434 9435 9436 9437 9438 9439 9440 9441 9442 9443 9444 9445 9446 9447 9448 9449 9450 9451 9452 9453 9454 9455 9456 9457 9458 9459 9460 9461 9462 9463 9464 9465 9466 9467 9468 9469 9470 9471 9472 9473 9474 9475 9476 9477 9478 9479 9480 9481 9482 9483 9484 9485 9486 9487 9488 9489 9490 9491 9492 9493 9494 9495 9496 9497 9498 9499 9500 9501 9502 9503 9504 9505 9506 9507 9508 9509 9510 9511 9512 9513 9514 9515 9516 9517 9518 9519 9520 9521 9522 9523 9524 9525 9526 9527 9528 9529 9530 9531 9532 9533 9534 9535 9536 9537 9538 9539 9540 9541 9542 9543 9544 9545 9546 9547 9548 9549 9550 9551 9552 9553 9554 9555 9556 9557 9558 9559 9560 9561 9562 9563 9564 9565 9566 9567 9568 9569 9570 9571 9572 9573 9574 9575 9576 9577 9578 9579 9580 9581 9582 9583 9584 9585 9586 9587 9588 9589 9590 9591 9592 9593 9594 9595 9596 9597 9598 9599 9600 9601 9602 9603 9604 9605 9606 9607 9608 9609 9610 9611 9612 9613 9614 9615 9616 9617 9618 9619 9620 9621 9622 9623 9624 9625 9626 9627 9628 9629 9630 9631 9632 9633 9634 9635 9636 9637 9638 9639 9640 9641 9642 9643 9644 9645 9646 9647 9648 9649 9650 9651 9652 9653 9654 9655 9656 9657 9658 9659 9660 9661 9662 9663 9664 9665 9666 9667 9668 9669 9670 9671 9672 9673 9674 9675 9676 9677 9678 9679 9680 9681 9682 9683 9684 9685 9686 9687 9688 9689 9690 9691 9692 9693 9694 9695 9696 9697 9698 9699 9700 9701 9702 9703 9704 9705 9706 9707 9708 9709 9710 9711 9712 9713 9714 9715 9716 9717 9718 9719 9720 9721 9722 9723 9724 9725 9726 9727 9728 9729 9730 9731 9732 9733 9734 9735 9736 9737 9738 9739 9740 9741 9742 9743 9744 9745 9746 9747 9748 9749 9750 9751 9752 9753 9754 9755 9756 9757 9758 9759 9760 9761 9762 9763 9764 9765 9766 9767 9768 9769 9770 9771 9772 9773 9774 9775 9776 9777 9778 9779 9780 9781 9782 9783 9784 9785 9786 9787 9788 9789 9790 9791 9792 9793 9794 9795 9796 9797 9798 9799 9800 9801 9802 9803 9804 9805 9806 9807 9808 9809 9810 9811 9812 9813 9814 9815 9816 9817 9818 9819 9820 9821 9822 9823 9824 9825 9826 9827 9828 9829 9830 9831 9832 9833 9834 9835 9836 9837 9838 9839 9840 9841 9842 9843 9844 9845 9846 9847 9848 9849 9850 9851 9852 9853 9854 9855 9856 9857 9858 9859 9860 9861 9862 9863 9864 9865 9866 9867 9868 9869 9870 9871 9872 9873 9874 9875 9876 9877 9878 9879 9880 9881 9882 9883 9884 9885 9886 9887 9888 9889 9890 9891 9892 9893 9894 9895 9896 9897 9898 9899 9900 9901 9902 9903 9904 9905 9906 9907 9908 9909 9910 9911 9912 9913 9914 9915 9916 9917 9918 9919 9920 9921 9922 9923 9924 9925 9926 9927 9928 9929 9930 9931 9932 9933 9934 9935 9936 9937 9938 9939 9940 9941 9942 9943 9944 9945 9946 9947 9948 9949 9950 9951 9952 9953 9954 9955 9956 9957 9958 9959 9960 9961 9962 9963 9964 9965 9966 9967 9968 9969 9970 9971 9972 9973 9974 9975 9976 9977 9978 9979 9980 9981 9982 9983 9984 9985 9986 9987 9988 9989 9990 9991 9992 9993 9994 9995 9996 9997 9998 9999 10000 10001 10002 10003 10004 10005 10006 10007 10008 10009 10010 10011 10012 10013 10014 10015 10016 10017 10018 10019 10020 10021 10022 10023 10024 10025 10026 10027 10028 10029 10030 10031 10032 10033 10034 10035 10036 10037 10038 10039 10040 10041 10042 10043 10044 10045 10046 10047 10048 10049 10050 10051 10052 10053 10054 10055 10056 10057 10058 10059 10060 10061 10062 10063 10064 10065 10066 10067 10068 10069 10070 10071 10072 10073 10074 10075 10076 10077 10078 10079 10080 10081 10082 10083 10084 10085 10086 10087 10088 10089 10090 10091 10092 10093 10094 10095 10096 10097 10098 10099 10100 10101 10102 10103 10104 10105 10106 10107 10108 10109 10110 10111 10112 10113 10114 10115 10116 10117 10118 10119 10120 10121 10122 10123 10124 10125 10126 10127 10128 10129 10130 10131 10132 10133 10134 10135 10136 10137 10138 10139 10140 10141 10142 10143 10144 10145 10146 10147 10148 10149 10150 10151 10152 10153 10154 10155 10156 10157 10158 10159 10160 10161 10162 10163 10164 10165 10166 10167 10168 10169 10170 10171 10172 10173 10174 10175 10176 10177 10178 10179 10180 10181 10182 10183 10184 10185 10186 10187 10188 10189 10190 10191 10192 10193 10194 10195 10196 10197 10198 10199 10200 10201 10202 10203 10204 10205 10206 10207 10208 10209 10210 10211 10212 10213 10214 10215 10216 10217 10218 10219 10220 10221 10222 10223 10224 10225 10226 10227 10228 10229 10230 10231 10232 10233 10234 10235 10236 10237 10238 10239 10240 10241 10242 10243 10244 10245 10246 10247 10248 10249 10250 10251 10252 10253 10254 10255 10256 10257 10258 10259 10260 10261 10262 10263 10264 10265 10266 10267 10268 10269 10270 10271 10272 10273 10274 10275 10276 10277 10278 10279 10280 10281 10282 10283 10284 10285 10286 10287 10288 10289 10290 10291 10292 10293 10294 10295 10296 10297 10298 10299 10300 10301 10302 10303 10304 10305 10306 10307 10308 10309 10310 10311 10312 10313 10314 10315 10316 10317 10318 10319 10320 10321 10322 10323 10324 10325 10326 10327 10328 10329 10330 10331 10332 10333 10334 10335 10336 10337 10338 10339 10340 10341 10342 10343 10344 10345 10346 10347 10348 10349 10350 10351 10352 10353 10354 10355 10356 10357 10358 10359 10360 10361 10362 10363 10364 10365 10366 10367 10368 10369 10370 10371 10372 10373 10374 10375 10376 10377 10378 10379 10380 10381 10382 10383 10384 10385 10386 10387 10388 10389 10390 10391 10392 10393 10394 10395 10396 10397 10398 10399 10400 10401 10402 10403 10404 10405 10406 10407 10408 10409 10410 10411 10412 10413 10414 10415 10416 10417 10418 10419 10420 10421 10422 10423 10424 10425 10426 10427 10428 10429 10430 10431 10432 10433 10434 10435 10436 10437 10438 10439 10440 10441 10442 10443 10444 10445 10446 10447 10448 10449 10450 10451 10452 10453 10454 10455 10456 10457 10458 10459 10460 10461 10462 10463 10464 10465 10466 10467 10468 10469 10470 10471 10472 10473 10474 10475 10476 10477 10478 10479 10480 10481 10482 10483 10484 10485 10486 10487 10488 10489 10490 10491 10492 10493 10494 10495 10496 10497 10498 10499 10500 10501 10502 10503 10504 10505 10506 10507 10508 10509 10510 10511 10512 10513 10514 10515 10516 10517 10518 10519 10520 10521 10522 10523 10524 10525 10526 10527 10528 10529 10530 10531 10532 10533 10534 10535 10536 10537 10538 10539 10540 10541 10542 10543 10544 10545 10546 10547 10548 10549 10550 10551 10552 10553 10554 10555 10556 10557 10558 10559 10560 10561 10562 10563 10564 10565 10566 10567 10568 10569 10570 10571 10572 10573 10574 10575 10576 10577 10578 10579 10580 10581 10582 10583 10584 10585 10586 10587 10588 10589 10590 10591 10592 10593 10594 10595 10596 10597 10598 10599 10600 10601 10602 10603 10604 10605 10606 10607 10608 10609 10610 10611 10612 10613 10614 10615 10616 10617 10618 10619 10620 10621 10622 10623 10624 10625 10626 10627 10628 10629 10630 10631 10632 10633 10634 10635 10636 10637 10638 10639 10640 10641 10642 10643 10644 10645 10646 10647 10648 10649 10650 10651 10652 10653 10654 10655 10656 10657 10658 10659 10660 10661 10662 10663 10664 10665 10666 10667 10668 10669 10670 10671 10672 10673 10674 10675 10676 10677 10678 10679 10680 10681 10682 10683 10684 10685 10686 10687 10688 10689 10690 10691 10692 10693 10694 10695 10696 10697 10698 10699 10700 10701 10702 10703 10704 10705 10706 10707 10708 10709 10710 10711 10712 10713 10714 10715 10716 10717 10718 10719 10720 10721 10722 10723 10724 10725 10726 10727 10728 10729 10730 10731 10732 10733 10734 10735 10736 10737 10738 10739 10740 10741 10742 10743 10744 10745 10746 10747 10748 10749 10750 10751 10752 10753 10754 10755 10756 10757 10758 10759 10760 10761 10762 10763 10764 10765 10766 10767 10768 10769 10770 10771 10772 10773 10774 10775 10776 10777 10778 10779 10780 10781 10782 10783 10784 10785 10786 10787 10788 10789 10790 10791 10792 10793 10794 10795 10796 10797 10798 10799 10800 10801 10802 10803 10804 10805 10806 10807 10808 10809 10810 10811 10812 10813 10814 10815 10816 10817 10818 10819 10820 10821 10822 10823 10824 10825 10826 10827 10828 10829 10830 10831 10832 10833 10834 10835 10836 10837 10838 10839 10840 10841 10842 10843 10844 10845 10846 10847 10848 10849 10850 10851 10852 10853 10854 10855 10856 10857 10858 10859 10860 10861 10862 10863 10864 10865 10866 10867 10868 10869 10870 10871 10872 10873 10874 10875 10876 10877 10878 10879 10880 10881 10882 10883 10884 10885 10886 10887 10888 10889 10890 10891 10892 10893 10894 10895 10896 10897 10898 10899 10900 10901 10902 10903 10904 10905 10906 10907 10908 10909 10910 10911 10912 10913 10914 10915 10916 10917 10918 10919 10920 10921 10922 10923 10924 10925 10926 10927 10928 10929 10930 10931 10932 10933 10934 10935 10936 10937 10938 10939 10940 10941 10942 10943 10944 10945 10946 10947 10948 10949 10950 10951 10952 10953 10954 10955 10956 10957 10958 10959 10960 10961 10962 10963 10964 10965 10966 10967 10968 10969 10970 10971 10972 10973 10974 10975 10976 10977 10978 10979 10980 10981 10982 10983 10984 10985 10986 10987 10988 10989 10990 10991 10992 10993 10994 10995 10996 10997 10998 10999 11000 11001 11002 11003 11004 11005 11006 11007 11008 11009 11010 11011 11012 11013 11014 11015 11016 11017 11018 11019 11020 11021 11022 11023 11024 11025 11026 11027 11028 11029 11030 11031 11032 11033 11034 11035 11036 11037 11038 11039 11040 11041 11042 11043 11044 11045 11046 11047 11048 11049 11050 11051 11052 11053 11054 11055 11056 11057 11058 11059 11060 11061 11062 11063 11064 11065 11066 11067 11068 11069 11070 11071 11072 11073 11074 11075 11076 11077 11078 11079 11080 11081 11082 11083 11084 11085 11086 11087 11088 11089 11090 11091 11092 11093 11094 11095 11096 11097 11098 11099 11100 11101 11102 11103 11104 11105 11106 11107 11108 11109 11110 11111 11112 11113 11114 11115 11116 11117 11118 11119 11120 11121 11122 11123 11124 11125 11126 11127 11128 11129 11130 11131 11132 11133 11134 11135 11136 11137 11138 11139 11140 11141 11142 11143 11144 11145 11146 11147 11148 11149 11150 11151 11152 11153 11154 11155 11156 11157 11158 11159 11160 11161 11162 11163 11164 11165 11166 11167 11168 11169 11170 11171 11172 11173 11174 11175 11176 11177 11178 11179 11180 11181 11182 11183 11184 11185 11186 11187 11188 11189 11190 11191 11192 11193 11194 11195 11196 11197 11198 11199 11200 11201 11202 11203 11204 11205 11206 11207 11208 11209 11210 11211 11212 11213 11214 11215 11216 11217 11218 11219 11220 11221 11222 11223 11224 11225 11226 11227 11228 11229 11230 11231 11232 11233 11234 11235 11236 11237 11238 11239 11240 11241 11242 11243 11244 11245 11246 11247 11248 11249 11250 11251 11252 11253 11254 11255 11256 11257 11258 11259 11260 11261 11262 11263 11264 11265 11266 11267 11268 11269 11270 11271 11272 11273 11274 11275 11276 11277 11278 11279 11280 11281 11282 11283 11284 11285 11286 11287 11288 11289 11290 11291 11292 11293 11294 11295 11296 11297 11298 11299 11300 11301 11302 11303 11304 11305 11306 11307 11308 11309 11310 11311 11312 11313 11314 11315 11316 11317 11318 11319 11320 11321 11322 11323 11324 11325 11326 11327 11328 11329 11330 11331 11332 11333 11334 11335 11336 11337 11338 11339 11340 11341 11342 11343 11344 11345 11346 11347 11348 11349 11350 11351 11352 11353 11354 11355 11356 11357 11358 11359 11360 11361 11362 11363 11364 11365 11366 11367 11368 11369 11370 11371 11372 11373 11374 11375 11376 11377 11378 11379 11380 11381 11382 11383 11384 11385 11386 11387 11388 11389 11390 11391 11392 11393 11394 11395 11396 11397 11398 11399 11400 11401 11402 11403 11404 11405 11406 11407 11408 11409 11410 11411 11412 11413 11414 11415 11416 11417 11418 11419 11420 11421 11422 11423 11424 11425 11426 11427 11428 11429 11430 11431 11432 11433 11434 11435 11436 11437 11438 11439 11440 11441 11442 11443 11444 11445 11446 11447 11448 11449 11450 11451 11452 11453 11454 11455 11456 11457 11458 11459 11460 11461 11462 11463 11464 11465 11466 11467 11468 11469 11470 11471 11472 11473 11474 11475 11476 11477 11478 11479 11480 11481 11482 11483 11484 11485 11486 11487 11488 11489 11490 11491 11492 11493 11494 11495 11496 11497 11498 11499 11500 11501 11502 11503 11504 11505 11506 11507 11508 11509 11510 11511 11512 11513 11514 11515 11516 11517 11518 11519 11520 11521 11522 11523 11524 11525 11526 11527 11528 11529 11530 11531 11532 11533 11534 11535 11536 11537 11538 11539 11540 11541 11542 11543 11544 11545 11546 11547 11548 11549 11550 11551 11552 11553 11554 11555 11556 11557 11558 11559 11560 11561 11562 11563 11564 11565 11566 11567 11568 11569 11570 11571 11572 11573 11574 11575 11576 11577 11578 11579 11580 11581 11582 11583 11584 11585 11586 11587 11588 11589 11590 11591 11592 11593 11594 11595 11596 11597 11598 11599 11600 11601 11602 11603 11604 11605 11606 11607 11608 11609 11610 11611 11612 11613 11614 11615 11616 11617 11618 11619 11620 11621 11622 11623 11624 11625 11626 11627 11628 11629 11630 11631 11632 11633 11634 11635 11636 11637 11638 11639 11640 11641 11642 11643 11644 11645 11646 11647 11648 11649 11650 11651 11652 11653 11654 11655 11656 11657 11658 11659 11660 11661 11662 11663 11664 11665 11666 11667 11668 11669 11670 11671 11672 11673 11674 11675 11676 11677 11678 11679 11680 11681 11682 11683 11684 11685 11686 11687 11688 11689 11690 11691 11692 11693 11694 11695 11696 11697 11698 11699 11700 11701 11702 11703 11704 11705 11706 11707 11708 11709 11710 11711 11712 11713 11714 11715 11716 11717 11718 11719 11720 11721 11722 11723 11724 11725 11726 11727 11728 11729 11730 11731 11732 11733 11734 11735 11736 11737 11738 11739 11740 11741 11742 11743 11744 11745 11746 11747 11748 11749 11750 11751 11752 11753 11754 11755 11756 11757 11758 11759 11760 11761 11762 11763 11764 11765 11766 11767 11768 11769 11770 11771 11772 11773 11774 11775 11776 11777 11778 11779 11780 11781 11782 11783 11784 11785 11786 11787 11788 11789 11790 11791 11792 11793 11794 11795 11796 11797 11798 11799 11800 11801 11802 11803 11804 11805 11806 11807 11808 11809 11810 11811 11812 11813 11814 11815 11816 11817 11818 11819 11820 11821 11822 11823 11824 11825 11826 11827 11828 11829 11830 11831 11832 11833 11834 11835 11836 11837 11838 11839 11840 11841 11842 11843 11844 11845 11846 11847 11848 11849 11850 11851 11852 11853 11854 11855 11856 11857 11858 11859 11860 11861 11862 11863 11864 11865 11866 11867 11868 11869 11870 11871 11872 11873 11874 11875 11876 11877 11878 11879 11880 11881 11882 11883 11884 11885 11886 11887 11888 11889 11890 11891 11892 11893 11894 11895 11896 11897 11898 11899 11900 11901 11902 11903 11904 11905 11906 11907 11908 11909 11910 11911 11912 11913 11914 11915 11916 11917 11918 11919 11920 11921 11922 11923 11924 11925 11926 11927 11928 11929 11930 11931 11932 11933 11934 11935 11936 11937 11938 11939 11940 11941 11942 11943 11944 11945 11946 11947 11948 11949 11950 11951 11952 11953 11954 11955 11956 11957 11958 11959 11960 11961 11962 11963 11964 11965 11966 11967 11968 11969 11970 11971 11972 11973 11974 11975 11976 11977 11978 11979 11980 11981 11982 11983 11984 11985 11986 11987 11988 11989 11990 11991 11992 11993 11994 11995 11996 11997 11998 11999 12000 12001 12002 12003 12004 12005 12006 12007 12008 12009 12010 12011 12012 12013 12014 12015 12016 12017 12018 12019 12020 12021 12022 12023 12024 12025 12026 12027 12028 12029 12030 12031 12032 12033 12034 12035 12036 12037 12038 12039 12040 12041 12042 12043 12044 12045 12046 12047 12048 12049 12050 12051 12052 12053 12054 12055 12056 12057 12058 12059 12060 12061 12062 12063 12064 12065 12066 12067 12068 12069 12070 12071 12072 12073 12074 12075 12076 12077 12078 12079 12080 12081 12082 12083 12084 12085 12086 12087 12088 12089 12090 12091 12092 12093 12094 12095 12096 12097 12098 12099 12100 12101 12102 12103 12104 12105 12106 12107 12108 12109 12110 12111 12112 12113 12114 12115 12116 12117 12118 12119 12120 12121 12122 12123 12124 12125 12126 12127 12128 12129 12130 12131 12132 12133 12134 12135 12136 12137 12138 12139 12140 12141 12142 12143 12144 12145 12146 12147 12148 12149 12150 12151 12152 12153 12154 12155 12156 12157 12158 12159 12160 12161 12162 12163 12164 12165 12166 12167 12168 12169 12170 12171 12172 12173 12174 12175 12176 12177 12178 12179 12180 12181 12182 12183 12184 12185 12186 12187 12188 12189 12190 12191 12192 12193 12194 12195 12196 12197 12198 12199 12200 12201 12202 12203 12204 12205 12206 12207 12208 12209 12210 12211 12212 12213 12214 12215 12216 12217 12218 12219 12220 12221 12222 12223 12224 12225 12226 12227 12228 12229 12230 12231 12232 12233 12234 12235 12236 12237 12238 12239 12240 12241 12242 12243 12244 12245 12246 12247 12248 12249 12250 12251 12252 12253 12254 12255 12256 12257 12258 12259 12260 12261 12262 12263 12264 12265 12266 12267 12268 12269 12270 12271 12272 12273 12274 12275 12276 12277 12278 12279 12280 12281 12282 12283 12284 12285 12286 12287 12288 12289 12290 12291 12292 12293 12294 12295 12296 12297 12298 12299 12300 12301 12302 12303 12304 12305 12306 12307 12308 12309 12310 12311 12312 12313 12314 12315 12316 12317 12318 12319 12320 12321 12322 12323 12324 12325 12326 12327 12328 12329 12330 12331 12332 12333 12334 12335 12336 12337 12338 12339 12340 12341 12342 12343 12344 12345 12346 12347 12348 12349 12350 12351 12352 12353 12354 12355 12356 12357 12358 12359 12360 12361 12362 12363 12364 12365 12366 12367 12368 12369 12370 12371 12372 12373 12374 12375 12376 12377 12378 12379 12380 12381 12382 12383 12384 12385 12386 12387 12388 12389 12390 12391 12392 12393 12394 12395 12396 12397 12398 12399 12400 12401 12402 12403 12404 12405 12406 12407 12408 12409 12410 12411 12412 12413 12414 12415 12416 12417 12418 12419 12420 12421 12422 12423 12424 12425 12426 12427 12428 12429 12430 12431 12432 12433 12434 12435 12436 12437 12438 12439 12440 12441 12442 12443 12444 12445 12446 12447 12448 12449 12450 12451 12452 12453 12454 12455 12456 12457 12458 12459 12460 12461 12462 12463 12464 12465 12466 12467 12468 12469 12470 12471 12472 12473 12474 12475 12476 12477 12478 12479 12480 12481 12482 12483 12484 12485 12486 12487 12488 12489 12490 12491 12492 12493 12494 12495 12496 12497 12498 12499 12500 12501 12502 12503 12504 12505 12506 12507 12508 12509 12510 12511 12512 12513 12514 12515 12516 12517 12518 12519 12520 12521 12522 12523 12524 12525 12526 12527 12528 12529 12530 12531 12532 12533 12534 12535 12536 12537 12538 12539 12540 12541 12542 12543 12544 12545 12546 12547 12548 12549 12550 12551 12552 12553 12554 12555 12556 12557 12558 12559 12560 12561 12562 12563 12564 12565 12566 12567 12568 12569 12570 12571 12572 12573 12574 12575 12576 12577 12578 12579 12580 12581 12582 12583 12584 12585 12586 12587 12588 12589 12590 12591 12592 12593 12594 12595 12596 12597 12598 12599 12600 12601 12602 12603 12604 12605 12606 12607 12608 12609 12610 12611 12612 12613 12614 12615 12616 12617 12618 12619 12620 12621 12622 12623 12624 12625 12626 12627 12628 12629 12630 12631 12632 12633 12634 12635 12636 12637 12638 12639 12640 12641 12642 12643 12644 12645 12646 12647 12648 12649 12650 12651 12652 12653 12654 12655 12656 12657 12658 12659 12660 12661 12662 12663 12664 12665 12666 12667 12668 12669 12670 12671 12672 12673 12674 12675 12676 12677 12678 12679 12680 12681 12682 12683 12684 12685 12686 12687 12688 12689 12690 12691 12692 12693 12694 12695 12696 12697 12698 12699 12700 12701 12702 12703 12704 12705 12706 12707 12708 12709 12710 12711 12712 12713 12714 12715 12716 12717 12718 12719 12720 12721 12722 12723 12724 12725 12726 12727 12728 12729 12730 12731 12732 12733 12734 12735 12736 12737 12738 12739 12740 12741 12742 12743 12744 12745 12746 12747 12748 12749 12750 12751 12752 12753 12754 12755 12756 12757 12758 12759 12760 12761 12762 12763 12764 12765 12766 12767 12768 12769 12770 12771 12772 12773 12774 12775 12776 12777 12778 12779 12780 12781 12782 12783 12784 12785 12786 12787 12788 12789 12790 12791 12792 12793 12794 12795 12796 12797 12798 12799 12800 12801 12802 12803 12804 12805 12806 12807 12808 12809 12810 12811 12812 12813 12814 12815 12816 12817 12818 12819 12820 12821 12822 12823 12824 12825 12826 12827 12828 12829 12830 12831 12832 12833 12834 12835 12836 12837 12838 12839 12840 12841 12842 12843 12844 12845 12846 12847 12848 12849 12850 12851 12852 12853 12854 12855 12856 12857 12858 12859 12860 12861 12862 12863 12864 12865 12866 12867 12868 12869 12870 12871 12872 12873 12874 12875 12876 12877 12878 12879 12880 12881 12882 12883 12884 12885 12886 12887 12888 12889 12890 12891 12892 12893 12894 12895 12896 12897 12898 12899 12900 12901 12902 12903 12904 12905 12906 12907 12908 12909 12910 12911 12912 12913 12914 12915 12916 12917 12918 12919 12920 12921 12922 12923 12924 12925 12926 12927 12928 12929 12930 12931 12932 12933 12934 12935 12936 12937 12938 12939 12940 12941 12942 12943 12944 12945 12946 12947 12948 12949 12950 12951 12952 12953 12954 12955 12956 12957 12958 12959 12960 12961 12962 12963 12964 12965 12966 12967 12968 12969 12970 12971 12972 12973 12974 12975 12976 12977 12978 12979 12980 12981 12982 12983 12984 12985 12986 12987 12988 12989 12990 12991 12992 12993 12994 12995 12996 12997 12998 12999 13000 13001 13002 13003 13004 13005 13006 13007 13008 13009 13010 13011 13012 13013 13014 13015 13016 13017 13018 13019 13020 13021 13022 13023 13024 13025 13026 13027 13028 13029 13030 13031 13032 13033 13034 13035 13036 13037 13038 13039 13040 13041 13042 13043 13044 13045 13046 13047 13048 13049 13050 13051 13052 13053 13054 13055 13056 13057 13058 13059 13060 13061 13062 13063 13064 13065 13066 13067 13068 13069 13070 13071 13072 13073 13074 13075 13076 13077 13078 13079 13080 13081 13082 13083 13084 13085 13086 13087 13088 13089 13090 13091 13092 13093 13094 13095 13096 13097 13098 13099 13100 13101 13102 13103 13104 13105 13106 13107 13108 13109 13110 13111 13112 13113 13114 13115 13116 13117 13118 13119 13120 13121 13122 13123 13124 13125 13126 13127 13128 13129 13130 13131 13132 13133 13134 13135 13136 13137 13138 13139 13140 13141 13142 13143 13144 13145 13146 13147 13148 13149 13150 13151 13152 13153 13154 13155 13156 13157 13158 13159 13160 13161 13162 13163 13164 13165 13166 13167 13168 13169 13170 13171 13172 13173 13174 13175 13176 13177 13178 13179 13180 13181 13182 13183 13184 13185 13186 13187 13188 13189 13190 13191 13192 13193 13194 13195 13196 13197 13198 13199 13200 13201 13202 13203 13204 13205 13206 13207 13208 13209 13210 13211 13212 13213 13214 13215 13216 13217 13218 13219 13220 13221 13222 13223 13224 13225 13226 13227 13228 13229 13230 13231 13232 13233 13234 13235 13236 13237 13238 13239 13240 13241 13242 13243 13244 13245 13246 13247 13248 13249 13250 13251 13252 13253 13254 13255 13256 13257 13258 13259 13260 13261 13262 13263 13264 13265 13266 13267 13268 13269 13270 13271 13272 13273 13274 13275 13276 13277 13278 13279 13280 13281 13282 13283 13284 13285 13286 13287 13288 13289 13290 13291 13292 13293 13294 13295 13296 13297 13298 13299 13300 13301 13302 13303 13304 13305 13306 13307 13308 13309 13310 13311 13312 13313 13314 13315 13316 13317 13318 13319 13320 13321 13322 13323 13324 13325 13326 13327 13328 13329 13330 13331 13332 13333 13334 13335 13336 13337 13338 13339 13340 13341 13342 13343 13344 13345 13346 13347 13348 13349 13350 13351 13352 13353 13354 13355 13356 13357 13358 13359 13360 13361 13362 13363 13364 13365 13366 13367 13368 13369 13370 13371 13372 13373 13374 13375 13376 13377 13378 13379 13380 13381 13382 13383 13384 13385 13386 13387 13388 13389 13390 13391 13392 13393 13394 13395 13396 13397 13398 13399 13400 13401 13402 13403 13404 13405 13406 13407 13408 13409 13410 13411 13412 13413 13414 13415 13416 13417 13418 13419 13420 13421 13422 13423 13424 13425 13426 13427 13428 13429 13430 13431 13432 13433 13434 13435 13436 13437 13438 13439 13440 13441 13442 13443 13444 13445 13446 13447 13448 13449 13450 13451 13452 13453 13454 13455 13456 13457 13458 13459 13460 13461 13462 13463 13464 13465 13466 13467 13468 13469 13470 13471 13472 13473 13474 13475 13476 13477 13478 13479 13480 13481 13482 13483 13484 13485 13486 13487 13488 13489 13490 13491 13492 13493 13494 13495 13496 13497 13498 13499 13500 13501 13502 13503 13504 13505 13506 13507 13508 13509 13510 13511 13512 13513 13514 13515 13516 13517 13518 13519 13520 13521 13522 13523 13524 13525 13526 13527 13528 13529 13530 13531 13532 13533 13534 13535 13536 13537 13538 13539 13540 13541 13542 13543 13544 13545 13546 13547 13548 13549 13550 13551 13552 13553 13554 13555 13556 13557 13558 13559 13560 13561 13562 13563 13564 13565 13566 13567 13568 13569 13570 13571 13572 13573 13574 13575 13576 13577 13578 13579 13580 13581 13582 13583 13584 13585 13586 13587 13588 13589 13590 13591 13592 13593 13594 13595 13596 13597 13598 13599 13600 13601 13602 13603 13604 13605 13606 13607 13608 13609 13610 13611 13612 13613 13614 13615 13616 13617 13618 13619 13620 13621 13622 13623 13624 13625 13626 13627 13628 13629 13630 13631 13632 13633 13634 13635 13636 13637 13638 13639 13640 13641 13642 13643 13644 13645 13646 13647 13648 13649 13650 13651 13652 13653 13654 13655 13656 13657 13658 13659 13660 13661 13662 13663 13664 13665 13666 13667 13668 13669 13670 13671 13672 13673 13674 13675 13676 13677 13678 13679 13680 13681 13682 13683 13684 13685 13686 13687 13688 13689 13690 13691 13692 13693 13694 13695 13696 13697 13698 13699 13700 13701 13702 13703 13704 13705 13706 13707 13708 13709 13710 13711 13712 13713 13714 13715 13716 13717 13718 13719 13720 13721 13722 13723 13724 13725 13726 13727 13728 13729 13730 13731 13732 13733 13734 13735 13736 13737 13738 13739 13740 13741 13742 13743 13744 13745 13746 13747 13748 13749 13750 13751 13752 13753 13754 13755 13756 13757 13758 13759 13760 13761 13762 13763 13764 13765 13766 13767 13768 13769 13770 13771 13772 13773 13774 13775 13776 13777 13778 13779 13780 13781 13782 13783 13784 13785 13786 13787 13788 13789 13790 13791 13792 13793 13794 13795 13796 13797 13798 13799 13800 13801 13802 13803 13804 13805 13806 13807 13808 13809 13810 13811 13812 13813 13814 13815 13816 13817 13818 13819 13820 13821 13822 13823 13824 13825 13826 13827 13828 13829 13830 13831 13832 13833 13834 13835 13836 13837 13838 13839 13840 13841 13842 13843 13844 13845 13846 13847 13848 13849 13850 13851 13852 13853 13854 13855 13856 13857 13858 13859 13860 13861 13862 13863 13864 13865 13866 13867 13868 13869 13870 13871 13872 13873 13874 13875 13876 13877 13878 13879 13880 13881 13882 13883 13884 13885 13886 13887 13888 13889 13890 13891 13892 13893 13894 13895 13896 13897 13898 13899 13900 13901 13902 13903 13904 13905 13906 13907 13908 13909 13910 13911 13912 13913 13914 13915 13916 13917 13918 13919 13920 13921 13922 13923 13924 13925 13926 13927 13928 13929 13930 13931 13932 13933 13934 13935 13936 13937 13938 13939 13940 13941 13942 13943 13944 13945 13946 13947 13948 13949 13950 13951 13952 13953 13954 13955 13956 13957 13958 13959 13960 13961 13962 13963 13964 13965 13966 13967 13968 13969 13970 13971 13972 13973 13974 13975 13976 13977 13978 13979 13980 13981 13982 13983 13984 13985 13986 13987 13988 13989 13990 13991 13992 13993 13994 13995 13996 13997 13998 13999 14000 14001 14002 14003 14004 14005 14006 14007 14008 14009 14010 14011 14012 14013 14014 14015 14016 14017 14018 14019 14020 14021 14022 14023 14024 14025 14026 14027 14028 14029 14030 14031 14032 14033 14034 14035 14036 14037 14038 14039 14040 14041 14042 14043 14044 14045 14046 14047 14048 14049 14050 14051 14052 14053 14054 14055 14056 14057 14058 14059 14060 14061 14062 14063 14064 14065 14066 14067 14068 14069 14070 14071 14072 14073 14074 14075 14076 14077 14078 14079 14080 14081 14082 14083 14084 14085 14086 14087 14088 14089 14090 14091 14092 14093 14094 14095 14096 14097 14098 14099 14100 14101 14102 14103 14104 14105 14106 14107 14108 14109 14110 14111 14112 14113 14114 14115 14116 14117 14118 14119 14120 14121 14122 14123 14124 14125 14126 14127 14128 14129 14130 14131 14132 14133 14134 14135 14136 14137 14138 14139 14140 14141 14142 14143 14144 14145 14146 14147 14148 14149 14150 14151 14152 14153 14154 14155 14156 14157 14158 14159 14160 14161 14162 14163 14164 14165 14166 14167 14168 14169 14170 14171 14172 14173 14174 14175 14176 14177 14178 14179 14180 14181 14182 14183 14184 14185 14186 14187 14188 14189 14190 14191 14192 14193 14194 14195 14196 14197 14198 14199 14200 14201 14202 14203 14204 14205 14206 14207 14208 14209 14210 14211 14212 14213 14214 14215 14216 14217 14218 14219 14220 14221 14222 14223 14224 14225 14226 14227 14228 14229 14230 14231 14232 14233 14234 14235 14236 14237 14238 14239 14240 14241 14242 14243 14244 14245 14246 14247 14248 14249 14250 14251 14252 14253 14254 14255 14256 14257 14258 14259 14260 14261 14262 14263 14264 14265 14266 14267 14268 14269 14270 14271 14272 14273 14274 14275 14276 14277 14278 14279 14280 14281 14282 14283 14284 14285 14286 14287 14288 14289 14290 14291 14292 14293 14294 14295 14296 14297 14298 14299 14300 14301 14302 14303 14304 14305 14306 14307 14308 14309 14310 14311 14312 14313 14314 14315 14316 14317 14318 14319 14320 14321 14322 14323 14324 14325 14326 14327 14328 14329 14330 14331 14332 14333 14334 14335 14336 14337 14338 14339 14340 14341 14342 14343 14344 14345 14346 14347 14348 14349 14350 14351 14352 14353 14354 14355 14356 14357 14358 14359 14360 14361 14362 14363 14364 14365 14366 14367 14368 14369 14370 14371 14372 14373 14374 14375 14376 14377 14378 14379 14380 14381 14382 14383 14384 14385 14386 14387 14388 14389 14390 14391 14392 14393 14394 14395 14396 14397 14398 14399 14400 14401 14402 14403 14404 14405 14406 14407 14408 14409 14410 14411 14412 14413 14414 14415 14416 14417 14418 14419 14420 14421 14422 14423 14424 14425 14426 14427 14428 14429 14430 14431 14432 14433 14434 14435 14436 14437 14438 14439 14440 14441 14442 14443 14444 14445 14446 14447 14448 14449 14450 14451 14452 14453 14454 14455 14456 14457 14458 14459 14460 14461 14462 14463 14464 14465 14466 14467 14468 14469 14470 14471 14472 14473 14474 14475 14476 14477 14478 14479 14480 14481 14482 14483 14484 14485 14486 14487 14488 14489 14490 14491 14492 14493 14494 14495 14496 14497 14498 14499 14500 14501 14502 14503 14504 14505 14506 14507 14508 14509 14510 14511 14512 14513 14514 14515 14516 14517 14518 14519 14520 14521 14522 14523 14524 14525 14526 14527 14528 14529 14530 14531 14532 14533 14534 14535 14536 14537 14538 14539 14540 14541 14542 14543 14544 14545 14546 14547 14548 14549 14550 14551 14552 14553 14554 14555 14556 14557 14558 14559 14560 14561 14562 14563 14564 14565 14566 14567 14568 14569 14570 14571 14572 14573 14574 14575 14576 14577 14578 14579 14580 14581 14582 14583 14584 14585 14586 14587 14588 14589 14590 14591 14592 14593 14594 14595 14596 14597 14598 14599 14600 14601 14602 14603 14604 14605 14606 14607 14608 14609 14610 14611 14612 14613 14614 14615 14616 14617 14618 14619 14620 14621 14622 14623 14624 14625 14626 14627 14628 14629 14630 14631 14632 14633 14634 14635 14636 14637 14638 14639 14640 14641 14642 14643 14644 14645 14646 14647 14648 14649 14650 14651 14652 14653 14654 14655 14656 14657 14658 14659 14660 14661 14662 14663 14664 14665 14666 14667 14668 14669 14670 14671 14672 14673 14674 14675 14676 14677 14678 14679 14680 14681 14682 14683 14684 14685 14686 14687 14688 14689 14690 14691 14692 14693 14694 14695 14696 14697 14698 14699 14700 14701 14702 14703 14704 14705 14706 14707 14708 14709 14710 14711 14712 14713 14714 14715 14716 14717 14718 14719 14720 14721 14722 14723 14724 14725 14726 14727 14728 14729 14730 14731 14732 14733 14734 14735 14736 14737 14738 14739 14740 14741 14742 14743 14744 14745 14746 14747 14748 14749 14750 14751 14752 14753 14754 14755 14756 14757 14758 14759 14760 14761 14762 14763 14764 14765 14766 14767 14768 14769 14770 14771 14772 14773 14774 14775 14776 14777 14778 14779 14780 14781 14782 14783 14784 14785 14786 14787 14788 14789 14790 14791 14792 14793 14794 14795 14796 14797 14798 14799 14800 14801 14802 14803 14804 14805 14806 14807 14808 14809 14810 14811 14812 14813 14814 14815 14816 14817 14818 14819 14820 14821 14822 14823 14824 14825 14826 14827 14828 14829 14830 14831 14832 14833 14834 14835 14836 14837 14838 14839 14840 14841 14842 14843 14844 14845 14846 14847 14848 14849 14850 14851 14852 14853 14854 14855 14856 14857 14858 14859 14860 14861 14862 14863 14864 14865 14866 14867 14868 14869 14870 14871 14872 14873 14874 14875 14876 14877 14878 14879 14880 14881 14882 14883 14884 14885 14886 14887 14888 14889 14890 14891 14892 14893 14894 14895 14896 14897 14898 14899 14900 14901 14902 14903 14904 14905 14906 14907 14908 14909 14910 14911 14912 14913 14914 14915 14916 14917 14918 14919 14920 14921 14922 14923 14924 14925 14926 14927 14928 14929 14930 14931 14932 14933 14934 14935 14936 14937 14938 14939 14940 14941 14942 14943 14944 14945 14946 14947 14948 14949 14950 14951 14952 14953 14954 14955 14956 14957 14958 14959 14960 14961 14962 14963 14964 14965 14966 14967 14968 14969 14970 14971 14972 14973 14974 14975 14976 14977 14978 14979 14980 14981 14982 14983 14984 14985 14986 14987 14988 14989 14990 14991 14992 14993 14994 14995 14996 14997 14998 14999 15000 15001 15002 15003 15004 15005 15006 15007 15008 15009 15010 15011 15012 15013 15014 15015 15016 15017 15018 15019 15020 15021 15022 15023 15024 15025 15026 15027 15028 15029 15030 15031 15032 15033 15034 15035 15036 15037 15038 15039 15040 15041 15042 15043 15044 15045 15046 15047 15048 15049 15050 15051 15052 15053 15054 15055 15056 15057 15058 15059 15060 15061 15062 15063 15064 15065 15066 15067 15068 15069 15070 15071 15072 15073 15074 15075 15076 15077 15078 15079 15080 15081 15082 15083 15084 15085 15086 15087 15088 15089 15090 15091 15092 15093 15094 15095 15096 15097 15098 15099 15100 15101 15102 15103 15104 15105 15106 15107 15108 15109 15110 15111 15112 15113 15114 15115 15116 15117 15118 15119 15120 15121 15122 15123 15124 15125 15126 15127 15128 15129 15130 15131 15132 15133 15134 15135 15136 15137 15138 15139 15140 15141 15142 15143 15144 15145 15146 15147 15148 15149 15150 15151 15152 15153 15154 15155 15156 15157 15158 15159 15160 15161 15162 15163 15164 15165 15166 15167 15168 15169 15170 15171 15172 15173 15174 15175 15176 15177 15178 15179 15180 15181 15182 15183 15184 15185 15186 15187 15188 15189 15190 15191 15192 15193 15194 15195 15196 15197 15198 15199 15200 15201 15202 15203 15204 15205 15206 15207 15208 15209 15210 15211 15212 15213 15214 15215 15216 15217 15218 15219 15220 15221 15222 15223 15224 15225 15226 15227 15228 15229 15230 15231 15232 15233 15234 15235 15236 15237 15238 15239 15240 15241 15242 15243 15244 15245 15246 15247 15248 15249 15250 15251 15252 15253 15254 15255 15256 15257 15258 15259 15260 15261 15262 15263 15264 15265 15266 15267 15268 15269 15270 15271 15272 15273 15274 15275 15276 15277 15278 15279 15280 15281 15282 15283 15284 15285 15286 15287 15288 15289 15290 15291 15292 15293 15294 15295 15296 15297 15298 15299 15300 15301 15302 15303 15304 15305 15306 15307 15308 15309 15310 15311 15312 15313 15314 15315 15316 15317 15318 15319 15320 15321 15322 15323 15324 15325 15326 15327 15328 15329 15330 15331 15332 15333 15334 15335 15336 15337 15338 15339 15340 15341 15342 15343 15344 15345 15346 15347 15348 15349 15350 15351 15352 15353 15354 15355 15356 15357 15358 15359 15360 15361 15362 15363 15364 15365 15366 15367 15368 15369 15370 15371 15372 15373 15374 15375 15376 15377 15378 15379 15380 15381 15382 15383 15384 15385 15386 15387 15388 15389 15390 15391 15392 15393 15394 15395 15396 15397 15398 15399 15400 15401 15402 15403 15404 15405 15406 15407 15408 15409 15410 15411 15412 15413 15414 15415 15416 15417 15418 15419 15420 15421 15422 15423 15424 15425 15426 15427 15428 15429 15430 15431 15432 15433 15434 15435 15436 15437 15438 15439 15440 15441 15442 15443 15444 15445 15446 15447 15448 15449 15450 15451 15452 15453 15454 15455 15456 15457 15458 15459 15460 15461 15462 15463 15464 15465 15466 15467 15468 15469 15470 15471 15472 15473 15474 15475 15476 15477 15478 15479 15480 15481 15482 15483 15484 15485 15486 15487 15488 15489 15490 15491 15492 15493 15494 15495 15496 15497 15498 15499 15500 15501 15502 15503 15504 15505 15506 15507 15508 15509 15510 15511 15512 15513 15514 15515 15516 15517 15518 15519 15520 15521 15522 15523 15524 15525 15526 15527 15528 15529 15530 15531 15532 15533 15534 15535 15536 15537 15538 15539 15540 15541 15542 15543 15544 15545 15546 15547 15548 15549 15550 15551 15552 15553 15554 15555 15556 15557 15558 15559 15560 15561 15562 15563 15564 15565 15566 15567 15568 15569 15570 15571 15572 15573 15574 15575 15576 15577 15578 15579 15580 15581 15582 15583 15584 15585 15586 15587 15588 15589 15590 15591 15592 15593 15594 15595 15596 15597 15598 15599 15600 15601 15602 15603 15604 15605 15606 15607 15608 15609 15610 15611 15612 15613 15614 15615 15616 15617 15618 15619 15620 15621 15622 15623 15624 15625 15626 15627 15628 15629 15630 15631 15632 15633 15634 15635 15636 15637 15638 15639 15640 15641 15642 15643 15644 15645 15646 15647 15648 15649 15650 15651 15652 15653 15654 15655 15656 15657 15658 15659 15660 15661 15662 15663 15664 15665 15666 15667 15668 15669 15670 15671 15672 15673 15674 15675 15676 15677 15678 15679 15680 15681 15682 15683 15684 15685 15686 15687 15688 15689 15690 15691 15692 15693 15694 15695 15696 15697 15698 15699 15700 15701 15702 15703 15704 15705 15706 15707 15708 15709 15710 15711 15712 15713 15714 15715 15716 15717 15718 15719 15720 15721 15722 15723 15724 15725 15726 15727 15728 15729 15730 15731 15732 15733 15734 15735 15736 15737 15738 15739 15740 15741 15742 15743 15744 15745 15746 15747 15748 15749 15750 15751 15752 15753 15754 15755 15756 15757 15758 15759 15760 15761 15762 15763 15764 15765 15766 15767 15768 15769 15770 15771 15772 15773 15774 15775 15776 15777 15778 15779 15780 15781 15782 15783 15784 15785 15786 15787 15788 15789 15790 15791 15792 15793 15794 15795 15796 15797 15798 15799 15800 15801 15802 15803 15804 15805 15806 15807 15808 15809 15810 15811 15812 15813 15814 15815 15816 15817 15818 15819 15820 15821 15822 15823 15824 15825 15826 15827 15828 15829 15830 15831 15832 15833 15834 15835 15836 15837 15838 15839 15840 15841 15842 15843 15844 15845 15846 15847 15848 15849 15850 15851 15852 15853 15854 15855 15856 15857 15858 15859 15860 15861 15862 15863 15864 15865 15866 15867 15868 15869 15870 15871 15872 15873 15874 15875 15876 15877 15878 15879 15880 15881 15882 15883 15884 15885 15886 15887 15888 15889 15890 15891 15892 15893 15894 15895 15896 15897 15898 15899 15900 15901 15902 15903 15904 15905 15906 15907 15908 15909 15910 15911 15912 15913 15914 15915 15916 15917 15918 15919 15920 15921 15922 15923 15924 15925 15926 15927 15928 15929 15930 15931 15932 15933 15934 15935 15936 15937 15938 15939 15940 15941 15942 15943 15944 15945 15946 15947 15948 15949 15950 15951 15952 15953 15954 15955 15956 15957 15958 15959 15960 15961 15962 15963 15964 15965 15966 15967 15968 15969 15970 15971 15972 15973 15974 15975 15976 15977 15978 15979 15980 15981 15982 15983 15984 15985 15986 15987 15988 15989 15990 15991 15992 15993 15994 15995 15996 15997 15998 15999 16000 16001 16002 16003 16004 16005 16006 16007 16008 16009 16010 16011 16012 16013 16014 16015 16016 16017 16018 16019 16020 16021 16022 16023 16024 16025 16026 16027 16028 16029 16030 16031 16032 16033 16034 16035 16036 16037 16038 16039 16040 16041 16042 16043 16044 16045 16046 16047 16048 16049 16050 16051 16052 16053 16054 16055 16056 16057 16058 16059 16060 16061 16062 16063 16064 16065 16066 16067 16068 16069 16070 16071 16072 16073 16074 16075 16076 16077 16078 16079 16080 16081 16082 16083 16084 16085 16086 16087 16088 16089 16090 16091 16092 16093 16094 16095 16096 16097 16098 16099 16100 16101 16102 16103 16104 16105 16106 16107 16108 16109 16110 16111 16112 16113 16114 16115 16116 16117 16118 16119 16120 16121 16122 16123 16124 16125 16126 16127 16128 16129 16130 16131 16132 16133 16134 16135 16136 16137 16138 16139 16140 16141 16142 16143 16144 16145 16146 16147 16148 16149 16150 16151 16152 16153 16154 16155 16156 16157 16158 16159 16160 16161 16162 16163 16164 16165 16166 16167 16168 16169 16170 16171 16172 16173 16174 16175 16176 16177 16178 16179 16180 16181 16182 16183 16184 16185 16186 16187 16188 16189 16190 16191 16192 16193 16194 16195 16196 16197 16198 16199 16200 16201 16202 16203 16204 16205 16206 16207 16208 16209 16210 16211 16212 16213 16214 16215 16216 16217 16218 16219 16220 16221 16222 16223 16224 16225 16226 16227 16228 16229 16230 16231 16232 16233 16234 16235 16236 16237 16238 16239 16240 16241 16242 16243 16244 16245 16246 16247 16248 16249 16250 16251 16252 16253 16254 16255 16256 16257 16258 16259 16260 16261 16262 16263 16264 16265 16266 16267 16268 16269 16270 16271 16272 16273 16274 16275 16276 16277 16278 16279 16280 16281 16282 16283 16284 16285 16286 16287 16288 16289 16290 16291 16292 16293 16294 16295 16296 16297 16298 16299 16300 16301 16302 16303 16304 16305 16306 16307 16308 16309 16310 16311 16312 16313 16314 16315 16316 16317 16318 16319 16320 16321 16322 16323 16324 16325 16326 16327 16328 16329 16330 16331 16332 16333 16334 16335 16336 16337 16338 16339 16340 16341 16342 16343 16344 16345 16346 16347 16348 16349 16350 16351 16352 16353 16354 16355 16356 16357 16358 16359 16360 16361 16362 16363 16364 16365 16366 16367 16368 16369 16370 16371 16372 16373 16374 16375 16376 16377 16378 16379 16380 16381 16382 16383 16384 16385 16386 16387 16388 16389 16390 16391 16392 16393 16394 16395 16396 16397 16398 16399 16400 16401 16402 16403 16404 16405 16406 16407 16408 16409 16410 16411 16412 16413 16414 16415 16416 16417 16418 16419 16420 16421 16422 16423 16424 16425 16426 16427 16428 16429 16430 16431 16432 16433 16434 16435 16436 16437 16438 16439 16440 16441 16442 16443 16444 16445 16446 16447 16448 16449 16450 16451 16452 16453 16454 16455 16456 16457 16458 16459 16460 16461 16462 16463 16464 16465 16466 16467 16468 16469 16470 16471 16472 16473 16474 16475 16476 16477 16478 16479 16480 16481 16482 16483 16484 16485 16486 16487 16488 16489 16490 16491 16492 16493 16494 16495 16496 16497 16498 16499 16500 16501 16502 16503 16504 16505 16506 16507 16508 16509 16510 16511 16512 16513 16514 16515 16516 16517 16518 16519 16520 16521 16522 16523 16524 16525 16526 16527 16528 16529 16530 16531 16532 16533 16534 16535 16536 16537 16538 16539 16540 16541 16542 16543 16544 16545 16546 16547 16548 16549 16550 16551 16552 16553 16554 16555 16556 16557 16558 16559 16560 16561 16562 16563 16564 16565 16566 16567 16568 16569 16570 16571 16572 16573 16574 16575 16576 16577 16578 16579 16580 16581 16582 16583 16584 16585 16586 16587 16588 16589 16590 16591 16592 16593 16594 16595 16596 16597 16598 16599 16600 16601 16602 16603 16604 16605 16606 16607 16608 16609 16610 16611 16612 16613 16614 16615 16616 16617 16618 16619 16620 16621 16622 16623 16624 16625 16626 16627 16628 16629 16630 16631 16632 16633 16634 16635 16636 16637 16638 16639 16640 16641 16642 16643 16644 16645 16646 16647 16648 16649 16650 16651 16652 16653 16654 16655 16656 16657 16658 16659 16660 16661 16662 16663 16664 16665 16666 16667 16668 16669 16670 16671 16672 16673 16674 16675 16676 16677 16678 16679 16680 16681 16682 16683 16684 16685 16686 16687 16688 16689 16690 16691 16692 16693 16694 16695 16696 16697 16698 16699 16700 16701 16702 16703 16704 16705 16706 16707 16708 16709 16710 16711 16712 16713 16714 16715 16716 16717 16718 16719 16720 16721 16722 16723 16724 16725 16726 16727 16728 16729 16730 16731 16732 16733 16734 16735 16736 16737 16738 16739 16740 16741 16742 16743 16744 16745 16746 16747 16748 16749 16750 16751 16752 16753 16754 16755 16756 16757 16758 16759 16760 16761 16762 16763 16764 16765 16766 16767 16768 16769 16770 16771 16772 16773 16774 16775 16776 16777 16778 16779 16780 16781 16782 16783 16784 16785 16786 16787 16788 16789 16790 16791 16792 16793 16794 16795 16796 16797 16798 16799 16800 16801 16802 16803 16804 16805 16806 16807 16808 16809 16810 16811 16812 16813 16814 16815 16816 16817 16818 16819 16820 16821 16822 16823 16824 16825 16826 16827 16828 16829 16830 16831 16832 16833 16834 16835 16836 16837 16838 16839 16840 16841 16842 16843 16844 16845 16846 16847 16848 16849 16850 16851 16852 16853 16854 16855 16856 16857 16858 16859 16860 16861 16862 16863 16864 16865 16866 16867 16868 16869 16870 16871 16872 16873 16874 16875 16876 16877 16878 16879 16880 16881 16882 16883 16884 16885 16886 16887 16888 16889 16890 16891 16892 16893 16894 16895 16896 16897 16898 16899 16900 16901 16902 16903 16904 16905 16906 16907 16908 16909 16910 16911 16912 16913 16914 16915 16916 16917 16918 16919 16920 16921 16922 16923 16924 16925 16926 16927 16928 16929 16930 16931 16932 16933 16934 16935 16936 16937 16938 16939 16940 16941 16942 16943 16944 16945 16946 16947 16948 16949 16950 16951 16952 16953 16954 16955 16956 16957 16958 16959 16960 16961 16962 16963 16964 16965 16966 16967 16968 16969 16970 16971 16972 16973 16974 16975 16976 16977 16978 16979 16980 16981 16982 16983 16984 16985 16986 16987 16988 16989 16990 16991 16992 16993 16994 16995 16996 16997 16998 16999 17000 17001 17002 17003 17004 17005 17006 17007 17008 17009 17010 17011 17012 17013 17014 17015 17016 17017 17018 17019 17020 17021 17022 17023 17024 17025 17026 17027 17028 17029 17030 17031 17032 17033 17034 17035 17036 17037 17038 17039 17040 17041 17042 17043 17044 17045 17046 17047 17048 17049 17050 17051 17052 17053 17054 17055 17056 17057 17058 17059 17060 17061 17062 17063 17064 17065 17066 17067 17068 17069 17070 17071 17072 17073 17074 17075 17076 17077 17078 17079 17080 17081 17082 17083 17084 17085 17086 17087 17088 17089 17090 17091 17092 17093 17094 17095 17096 17097 17098 17099 17100 17101 17102 17103 17104 17105 17106 17107 17108 17109 17110 17111 17112 17113 17114 17115 17116 17117 17118 17119 17120 17121 17122 17123 17124 17125 17126 17127 17128 17129 17130 17131 17132 17133 17134 17135 17136 17137 17138 17139 17140 17141 17142 17143 17144 17145 17146 17147 17148 17149 17150 17151 17152 17153 17154 17155 17156 17157 17158 17159 17160 17161 17162 17163 17164 17165 17166 17167 17168 17169 17170 17171 17172 17173 17174 17175 17176 17177 17178 17179 17180 17181 17182 17183 17184 17185 17186 17187 17188 17189 17190 17191 17192 17193 17194 17195 17196 17197 17198 17199 17200 17201 17202 17203 17204 17205 17206 17207 17208 17209 17210 17211 17212 17213 17214 17215 17216 17217 17218 17219 17220 17221 17222 17223 17224 17225 17226 17227 17228 17229 17230 17231 17232 17233 17234 17235 17236 17237 17238 17239 17240 17241 17242 17243 17244 17245 17246 17247 17248 17249 17250 17251 17252 17253 17254 17255 17256 17257 17258 17259 17260 17261 17262 17263 17264 17265 17266 17267 17268 17269 17270 17271 17272 17273 17274 17275 17276 17277 17278 17279 17280 17281 17282 17283 17284 17285 17286 17287 17288 17289 17290 17291 17292 17293 17294 17295 17296 17297 17298 17299 17300 17301 17302 17303 17304 17305 17306 17307 17308 17309 17310 17311 17312 17313 17314 17315 17316 17317 17318 17319 17320 17321 17322 17323 17324 17325 17326 17327 17328 17329 17330 17331 17332 17333 17334 17335 17336 17337 17338 17339 17340 17341 17342 17343 17344 17345 17346 17347 17348 17349 17350 17351 17352 17353 17354 17355 17356 17357 17358 17359 17360 17361 17362 17363 17364 17365 17366 17367 17368 17369 17370 17371 17372 17373 17374 17375 17376 17377 17378 17379 17380 17381 17382 17383 17384 17385 17386 17387 17388 17389 17390 17391 17392 17393 17394 17395 17396 17397 17398 17399 17400 17401 17402 17403 17404 17405 17406 17407 17408 17409 17410 17411 17412 17413 17414 17415 17416 17417 17418 17419 17420 17421 17422 17423 17424 17425 17426 17427 17428 17429 17430 17431 17432 17433 17434 17435 17436 17437 17438 17439 17440 17441 17442 17443 17444 17445 17446 17447 17448 17449 17450 17451 17452 17453 17454 17455 17456 17457 17458 17459 17460 17461 17462 17463 17464 17465 17466 17467 17468 17469 17470 17471 17472 17473 17474 17475 17476 17477 17478 17479 17480 17481 17482 17483 17484 17485 17486 17487 17488 17489 17490 17491 17492 17493 17494 17495 17496 17497 17498 17499 17500 17501 17502 17503 17504 17505 17506 17507 17508 17509 17510 17511 17512 17513 17514 17515 17516 17517 17518 17519 17520 17521 17522 17523 17524 17525 17526 17527 17528 17529 17530 17531 17532 17533 17534 17535 17536 17537 17538 17539 17540 17541 17542 17543 17544 17545 17546 17547 17548 17549 17550 17551 17552 17553 17554 17555 17556 17557 17558 17559 17560 17561 17562 17563 17564 17565 17566 17567 17568 17569 17570 17571 17572 17573 17574 17575 17576 17577 17578 17579 17580 17581 17582 17583 17584 17585 17586 17587 17588 17589 17590 17591 17592 17593 17594 17595 17596 17597 17598 17599 17600 17601 17602 17603 17604 17605 17606 17607 17608 17609 17610 17611 17612 17613 17614 17615 17616 17617 17618 17619 17620 17621 17622 17623 17624 17625 17626 17627 17628 17629 17630 17631 17632 17633 17634 17635 17636 17637 17638 17639 17640 17641 17642 17643 17644 17645 17646 17647 17648 17649 17650 17651 17652 17653 17654 17655 17656 17657 17658 17659 17660 17661 17662 17663 17664 17665 17666 17667 17668 17669 17670 17671 17672 17673 17674 17675 17676 17677 17678 17679 17680 17681 17682 17683 17684 17685 17686 17687 17688 17689 17690 17691 17692 17693 17694 17695 17696 17697 17698 17699 17700 17701 17702 17703 17704 17705 17706 17707 17708 17709 17710 17711 17712 17713 17714 17715 17716 17717 17718 17719 17720 17721 17722 17723 17724 17725 17726 17727 17728 17729 17730 17731 17732 17733 17734 17735 17736 17737 17738 17739 17740 17741 17742 17743 17744 17745 17746 17747 17748 17749 17750 17751 17752 17753 17754 17755 17756 17757 17758 17759 17760 17761 17762 17763 17764 17765 17766 17767 17768 17769 17770 17771 17772 17773 17774 17775 17776 17777 17778 17779 17780 17781 17782 17783 17784 17785 17786 17787 17788 17789 17790 17791 17792 17793 17794 17795 17796 17797 17798 17799 17800 17801 17802 17803 17804 17805 17806 17807 17808 17809 17810 17811 17812 17813 17814 17815 17816 17817 17818 17819 17820 17821 17822 17823 17824 17825 17826 17827 17828 17829 17830 17831 17832 17833 17834 17835 17836 17837 17838 17839 17840 17841 17842 17843 17844 17845 17846 17847 17848 17849 17850 17851 17852 17853 17854 17855 17856 17857 17858 17859 17860 17861 17862 17863 17864 17865 17866 17867 17868 17869 17870 17871 17872 17873 17874 17875 17876 17877 17878 17879 17880 17881 17882 17883 17884 17885 17886 17887 17888 17889 17890 17891 17892 17893 17894 17895 17896 17897 17898 17899 17900 17901 17902 17903 17904 17905 17906 17907 17908 17909 17910 17911 17912 17913 17914 17915 17916 17917 17918 17919 17920 17921 17922 17923 17924 17925 17926 17927 17928 17929 17930 17931 17932 17933 17934 17935 17936 17937 17938 17939 17940 17941 17942 17943 17944 17945 17946 17947 17948 17949 17950 17951 17952 17953 17954 17955 17956 17957 17958 17959 17960 17961 17962 17963 17964 17965 17966 17967 17968 17969 17970 17971 17972 17973 17974 17975 17976 17977 17978 17979 17980 17981 17982 17983 17984 17985 17986 17987 17988 17989 17990 17991 17992 17993 17994 17995 17996 17997 17998 17999 18000 18001 18002 18003 18004 18005 18006 18007 18008 18009 18010 18011 18012 18013 18014 18015 18016 18017 18018 18019 18020 18021 18022 18023 18024 18025 18026 18027 18028 18029 18030 18031 18032 18033 18034 18035 18036 18037 18038 18039 18040 18041 18042 18043 18044 18045 18046 18047 18048 18049 18050 18051 18052 18053 18054 18055 18056 18057 18058 18059 18060 18061 18062 18063 18064 18065 18066 18067 18068 18069 18070 18071 18072 18073 18074 18075 18076 18077 18078 18079 18080 18081 18082 18083 18084 18085 18086 18087 18088 18089 18090 18091 18092 18093 18094 18095 18096 18097 18098 18099 18100 18101 18102 18103 18104 18105 18106 18107 18108 18109 18110 18111 18112 18113 18114 18115 18116 18117 18118 18119 18120 18121 18122 18123 18124 18125 18126 18127 18128 18129 18130 18131 18132 18133 18134 18135 18136 18137 18138 18139 18140 18141 18142 18143 18144 18145 18146 18147 18148 18149 18150 18151 18152 18153 18154 18155 18156 18157 18158 18159 18160 18161 18162 18163 18164 18165 18166 18167 18168 18169 18170 18171 18172 18173 18174 18175 18176 18177 18178 18179 18180 18181 18182 18183 18184 18185 18186 18187 18188 18189 18190 18191 18192 18193 18194 18195 18196 18197 18198 18199 18200 18201 18202 18203 18204 18205 18206 18207 18208 18209 18210 18211 18212 18213 18214 18215 18216 18217 18218 18219 18220 18221 18222 18223 18224 18225 18226 18227 18228 18229 18230 18231 18232 18233 18234 18235 18236 18237 18238 18239 18240 18241 18242 18243 18244 18245 18246 18247 18248 18249 18250 18251 18252 18253 18254 18255 18256 18257 18258 18259 18260 18261 18262 18263 18264 18265 18266 18267 18268 18269 18270 18271 18272 18273 18274 18275 18276 18277 18278 18279 18280 18281 18282 18283 18284 18285 18286 18287 18288 18289 18290 18291 18292 18293 18294 18295 18296 18297 18298 18299 18300 18301 18302 18303 18304 18305 18306 18307 18308 18309 18310 18311 18312 18313 18314 18315 18316 18317 18318 18319 18320 18321 18322 18323 18324 18325 18326 18327 18328 18329 18330 18331 18332 18333 18334 18335 18336 18337 18338 18339 18340 18341 18342 18343 18344 18345 18346 18347 18348 18349 18350 18351 18352 18353 18354 18355 18356 18357 18358 18359 18360 18361 18362 18363 18364 18365 18366 18367 18368 18369 18370 18371 18372 18373 18374 18375 18376 18377 18378 18379 18380 18381 18382 18383 18384 18385 18386 18387 18388 18389 18390 18391 18392 18393 18394 18395 18396 18397 18398 18399 18400 18401 18402 18403 18404 18405 18406 18407 18408 18409 18410 18411 18412 18413 18414 18415 18416 18417 18418 18419 18420 18421 18422 18423 18424 18425 18426 18427 18428 18429 18430 18431 18432 18433 18434 18435 18436 18437 18438 18439 18440 18441 18442 18443 18444 18445 18446 18447 18448 18449 18450 18451 18452 18453 18454 18455 18456 18457 18458 18459 18460 18461 18462 18463 18464 18465 18466 18467 18468 18469 18470 18471 18472 18473 18474 18475 18476 18477 18478 18479 18480 18481 18482 18483 18484 18485 18486 18487 18488 18489 18490 18491 18492 18493 18494 18495 18496 18497 18498 18499 18500 18501 18502 18503 18504 18505 18506 18507 18508 18509 18510 18511 18512 18513 18514 18515 18516 18517 18518 18519 18520 18521 18522 18523 18524 18525 18526 18527 18528 18529 18530 18531 18532 18533 18534 18535 18536 18537 18538 18539 18540 18541 18542 18543 18544 18545 18546 18547 18548 18549 18550 18551 18552 18553 18554 18555 18556 18557 18558 18559 18560 18561 18562 18563 18564 18565 18566 18567 18568 18569 18570 18571 18572 18573 18574 18575 18576 18577 18578 18579 18580 18581 18582 18583 18584 18585 18586 18587 18588 18589 18590 18591 18592 18593 18594 18595 18596 18597 18598 18599 18600 18601 18602 18603 18604 18605 18606 18607 18608 18609 18610 18611 18612 18613 18614 18615 18616 18617 18618 18619 18620 18621 18622 18623 18624 18625 18626 18627 18628 18629 18630 18631 18632 18633 18634 18635 18636 18637 18638 18639 18640 18641 18642 18643 18644 18645 18646 18647 18648 18649 18650 18651 18652 18653 18654 18655 18656 18657 18658 18659 18660 18661 18662 18663 18664 18665 18666 18667 18668 18669 18670 18671 18672 18673 18674 18675 18676 18677 18678 18679 18680 18681 18682 18683 18684 18685 18686 18687 18688 18689 18690 18691 18692 18693 18694 18695 18696 18697 18698 18699 18700 18701 18702 18703 18704 18705 18706 18707 18708 18709 18710 18711 18712 18713 18714 18715 18716 18717 18718 18719 18720 18721 18722 18723 18724 18725 18726 18727 18728 18729 18730 18731 18732 18733 18734 18735 18736 18737 18738 18739 18740 18741 18742 18743 18744 18745 18746 18747 18748 18749 18750 18751 18752 18753 18754 18755 18756 18757 18758 18759 18760 18761 18762 18763 18764 18765 18766 18767 18768 18769 18770 18771 18772 18773 18774 18775 18776 18777 18778 18779 18780 18781 18782 18783 18784 18785 18786 18787 18788 18789 18790 18791 18792 18793 18794 18795 18796 18797 18798 18799 18800 18801 18802 18803 18804 18805 18806 18807 18808 18809 18810 18811 18812 18813 18814 18815 18816 18817 18818 18819 18820 18821 18822 18823 18824 18825 18826 18827 18828 18829 18830 18831 18832 18833 18834 18835 18836 18837 18838 18839 18840 18841 18842 18843 18844 18845 18846 18847 18848 18849 18850 18851 18852 18853 18854 18855 18856 18857 18858 18859 18860 18861 18862 18863 18864 18865 18866 18867 18868 18869 18870 18871 18872 18873 18874 18875 18876 18877 18878 18879 18880 18881 18882 18883 18884 18885 18886 18887 18888 18889 18890 18891 18892 18893 18894 18895 18896 18897 18898 18899 18900 18901 18902 18903 18904 18905 18906 18907 18908 18909 18910 18911 18912 18913 18914 18915 18916 18917 18918 18919 18920 18921 18922 18923 18924 18925 18926 18927 18928 18929 18930 18931 18932 18933 18934 18935 18936 18937 18938 18939 18940 18941 18942 18943 18944 18945 18946 18947 18948 18949 18950 18951 18952 18953 18954 18955 18956 18957 18958 18959 18960 18961 18962 18963 18964 18965 18966 18967 18968 18969 18970 18971 18972 18973 18974 18975 18976 18977 18978 18979 18980 18981 18982 18983 18984 18985 18986 18987 18988 18989 18990 18991 18992 18993 18994 18995 18996 18997 18998 18999 19000 19001 19002 19003 19004 19005 19006 19007 19008 19009 19010 19011 19012 19013 19014 19015 19016 19017 19018 19019 19020 19021 19022 19023 19024 19025 19026 19027 19028 19029 19030 19031 19032 19033 19034 19035 19036 19037 19038 19039 19040 19041 19042 19043 19044 19045 19046 19047 19048 19049 19050 19051 19052 19053 19054 19055 19056 19057 19058 19059 19060 19061 19062 19063 19064 19065 19066 19067 19068 19069 19070 19071 19072 19073 19074 19075 19076 19077 19078 19079 19080 19081 19082 19083 19084 19085 19086 19087 19088 19089 19090 19091 19092 19093 19094 19095 19096 19097 19098 19099 19100 19101 19102 19103 19104 19105 19106 19107 19108 19109 19110 19111 19112 19113 19114 19115 19116 19117 19118 19119 19120 19121 19122 19123 19124 19125 19126 19127 19128 19129 19130 19131 19132 19133 19134 19135 19136 19137 19138 19139 19140 19141 19142 19143 19144 19145 19146 19147 19148 19149 19150 19151 19152 19153 19154 19155 19156 19157 19158 19159 19160 19161 19162 19163 19164 19165 19166 19167 19168 19169 19170 19171 19172 19173 19174 19175 19176 19177 19178 19179 19180 19181 19182 19183 19184 19185 19186 19187 19188 19189 19190 19191 19192 19193 19194 19195 19196 19197 19198 19199 19200 19201 19202 19203 19204 19205 19206 19207 19208 19209 19210 19211 19212 19213 19214 19215 19216 19217 19218 19219 19220 19221 19222 19223 19224 19225 19226 19227 19228 19229 19230 19231 19232 19233 19234 19235 19236 19237 19238 19239 19240 19241 19242 19243 19244 19245 19246 19247 19248 19249 19250 19251 19252 19253 19254 19255 19256 19257 19258 19259 19260 19261 19262 19263 19264 19265 19266 19267 19268 19269 19270 19271 19272 19273 19274 19275 19276 19277 19278 19279 19280 19281 19282 19283 19284 19285 19286 19287 19288 19289 19290 19291 19292 19293 19294 19295 19296 19297 19298 19299 19300 19301 19302 19303 19304 19305 19306 19307 19308 19309 19310 19311 19312 19313 19314 19315 19316 19317 19318 19319 19320 19321 19322 19323 19324 19325 19326 19327 19328 19329 19330 19331 19332 19333 19334 19335 19336 19337 19338 19339 19340 19341 19342 19343 19344 19345 19346 19347 19348 19349 19350 19351 19352 19353 19354 19355 19356 19357 19358 19359 19360 19361 19362 19363 19364 19365 19366 19367 19368 19369 19370 19371 19372 19373 19374 19375 19376 19377 19378 19379 19380 19381 19382 19383 19384 19385 19386 19387 19388 19389 19390 19391 19392 19393 19394 19395 19396 19397 19398 19399 19400 19401 19402 19403 19404 19405 19406 19407 19408 19409 19410 19411 19412 19413 19414 19415 19416 19417 19418 19419 19420 19421 19422 19423 19424 19425 19426 19427 19428 19429 19430 19431 19432 19433 19434 19435 19436 19437 19438 19439 19440 19441 19442 19443 19444 19445 19446 19447 19448 19449 19450 19451 19452 19453 19454 19455 19456 19457 19458 19459 19460 19461 19462 19463 19464 19465 19466 19467 19468 19469 19470 19471 19472 19473 19474 19475 19476 19477 19478 19479 19480 19481 19482 19483 19484 19485 19486 19487 19488 19489 19490 19491 19492 19493 19494 19495 19496 19497 19498 19499 19500 19501 19502 19503 19504 19505 19506 19507 19508 19509 19510 19511 19512 19513 19514 19515 19516 19517 19518 19519 19520 19521 19522 19523 19524 19525 19526 19527 19528 19529 19530 19531 19532 19533 19534 19535 19536 19537 19538 19539 19540 19541 19542 19543 19544 19545 19546 19547 19548 19549 19550 19551 19552 19553 19554 19555 19556 19557 19558 19559 19560 19561 19562 19563 19564 19565 19566 19567 19568 19569 19570 19571 19572 19573 19574 19575 19576 19577 19578 19579 19580 19581 19582 19583 19584 19585 19586 19587 19588 19589 19590 19591 19592 19593 19594 19595 19596 19597 19598 19599 19600 19601 19602 19603 19604 19605 19606 19607 19608 19609 19610 19611 19612 19613 19614 19615 19616 19617 19618 19619 19620 19621 19622 19623 19624 19625 19626 19627 19628 19629 19630 19631 19632 19633 19634 19635 19636 19637 19638 19639 19640 19641 19642 19643 19644 19645 19646 19647 19648 19649 19650 19651 19652 19653 19654 19655 19656 19657 19658 19659 19660 19661 19662 19663 19664 19665 19666 19667 19668 19669 19670 19671 19672 19673 19674 19675 19676 19677 19678 19679 19680 19681 19682 19683 19684 19685 19686 19687 19688 19689 19690 19691 19692 19693 19694 19695 19696 19697 19698 19699 19700 19701 19702 19703 19704 19705 19706 19707 19708 19709 19710 19711 19712 19713 19714 19715 19716 19717 19718 19719 19720 19721 19722 19723 19724 19725 19726 19727 19728 19729 19730 19731 19732 19733 19734 19735 19736 19737 19738 19739 19740 19741 19742 19743 19744 19745 19746 19747 19748 19749 19750 19751 19752 19753 19754 19755 19756 19757 19758 19759 19760 19761 19762 19763 19764 19765 19766 19767 19768 19769 19770 19771 19772 19773 19774 19775 19776 19777 19778 19779 19780 19781 19782 19783 19784 19785 19786 19787 19788 19789 19790 19791 19792 19793 19794 19795 19796 19797 19798 19799 19800 19801 19802 19803 19804 19805 19806 19807 19808 19809 19810 19811 19812 19813 19814 19815 19816 19817 19818 19819 19820 19821 19822 19823 19824 19825 19826 19827 19828 19829 19830 19831 19832 19833 19834 19835 19836 19837 19838 19839 19840 19841 19842 19843 19844 19845 19846 19847 19848 19849 19850 19851 19852 19853 19854 19855 19856 19857 19858 19859 19860 19861 19862 19863 19864 19865 19866 19867 19868 19869 19870 19871 19872 19873 19874 19875 19876 19877 19878 19879 19880 19881 19882 19883 19884 19885 19886 19887 19888 19889 19890 19891 19892 19893 19894 19895 19896 19897 19898 19899 19900 19901 19902 19903 19904 19905 19906 19907 19908 19909 19910 19911 19912 19913 19914 19915 19916 19917 19918 19919 19920 19921 19922 19923 19924 19925 19926 19927 19928 19929 19930 19931 19932 19933 19934 19935 19936 19937 19938 19939 19940 19941 19942 19943 19944 19945 19946 19947 19948 19949 19950 19951 19952 19953 19954 19955 19956 19957 19958 19959 19960 19961 19962 19963 19964 19965 19966 19967 19968 19969 19970 19971 19972 19973 19974 19975 19976 19977 19978 19979 19980 19981 19982 19983 19984 19985 19986 19987 19988 19989 19990 19991 19992 19993 19994 19995 19996 19997 19998 19999 20000 20001 20002 20003 20004 20005 20006 20007 20008 20009 20010 20011 20012 20013 20014 20015 20016 20017 20018 20019 20020 20021 20022 20023 20024 20025 20026 20027 20028 20029 20030 20031 20032 20033 20034 20035 20036 20037 20038 20039 20040 20041 20042 20043 20044 20045 20046 20047 20048 20049 20050 20051 20052 20053 20054 20055 20056 20057 20058 20059 20060 20061 20062 20063 20064 20065 20066 20067 20068 20069 20070 20071 20072 20073 20074 20075 20076 20077 20078 20079 20080 20081 20082 20083 20084 20085 20086 20087 20088 20089 20090 20091 20092 20093 20094 20095 20096 20097 20098 20099 20100 20101 20102 20103 20104 20105 20106 20107 20108 20109 20110 20111 20112 20113 20114 20115 20116 20117 20118 20119 20120 20121 20122 20123 20124 20125 20126 20127 20128 20129 20130 20131 20132 20133 20134 20135 20136 20137 20138 20139 20140 20141 20142 20143 20144 20145 20146 20147 20148 20149 20150 20151 20152 20153 20154 20155 20156 20157 20158 20159 20160 20161 20162 20163 20164 20165 20166 20167 20168 20169 20170 20171 20172 20173 20174 20175 20176 20177 20178 20179 20180 20181 20182 20183 20184 20185 20186 20187 20188 20189 20190 20191 20192 20193 20194 20195 20196 20197 20198 20199 20200 20201 20202 20203 20204 20205 20206 20207 20208 20209 20210 20211 20212 20213 20214 20215 20216 20217 20218 20219 20220 20221 20222 20223 20224 20225 20226 20227 20228 20229 20230 20231 20232 20233 20234 20235 20236 20237 20238 20239 20240 20241 20242 20243 20244 20245 20246 20247 20248 20249 20250 20251 20252 20253 20254 20255 20256 20257 20258 20259 20260 20261 20262 20263 20264 20265 20266 20267 20268 20269 20270 20271 20272 20273 20274 20275 20276 20277 20278 20279 20280 20281 20282 20283 20284 20285 20286 20287 20288 20289 20290 20291 20292 20293 20294 20295 20296 20297 20298 20299 20300 20301 20302 20303 20304 20305 20306 20307 20308 20309 20310 20311 20312 20313 20314 20315 20316 20317 20318 20319 20320 20321 20322 20323 20324 20325 20326 20327 20328 20329 20330 20331 20332 20333 20334 20335 20336 20337 20338 20339 20340 20341 20342 20343 20344 20345 20346 20347 20348 20349 20350 20351 20352 20353 20354 20355 20356 20357 20358 20359 20360 20361 20362 20363 20364 20365 20366 20367 20368 20369 20370 20371 20372 20373 20374 20375 20376 20377 20378 20379 20380 20381 20382 20383 20384 20385 20386 20387 20388 20389 20390 20391 20392 20393 20394 20395 20396 20397 20398 20399 20400 20401 20402 20403 20404 20405 20406 20407 20408 20409 20410 20411 20412 20413 20414 20415 20416 20417 20418 20419 20420 20421 20422 20423 20424 20425 20426 20427 20428 20429 20430 20431 20432 20433 20434 20435 20436 20437 20438 20439 20440 20441 20442 20443 20444 20445 20446 20447 20448 20449 20450 20451 20452 20453 20454 20455 20456 20457 20458 20459 20460 20461 20462 20463 20464 20465 20466 20467 20468 20469 20470 20471 20472 20473 20474 20475 20476 20477 20478 20479 20480 20481 20482 20483 20484 20485 20486 20487 20488 20489 20490 20491 20492 20493 20494 20495 20496 20497 20498 20499 20500 20501 20502 20503 20504 20505 20506 20507 20508 20509 20510 20511 20512 20513 20514 20515 20516 20517 20518 20519 20520 20521 20522 20523 20524 20525 20526 20527 20528 20529 20530 20531 20532 20533 20534 20535 20536 20537 20538 20539 20540 20541 20542 20543 20544 20545 20546 20547 20548 20549 20550 20551 20552 20553 20554 20555 20556 20557 20558 20559 20560 20561 20562 20563 20564 20565 20566 20567 20568 20569 20570 20571 20572 20573 20574 20575 20576 20577 20578 20579 20580 20581 20582 20583 20584 20585 20586 20587 20588 20589 20590 20591 20592 20593 20594 20595 20596 20597 20598 20599 20600 20601 20602 20603 20604 20605 20606 20607 20608 20609 20610 20611 20612 20613 20614 20615 20616 20617 20618 20619 20620 20621 20622 20623 20624 20625 20626 20627 20628 20629 20630 20631 20632 20633 20634 20635 20636 20637 20638 20639 20640 20641 20642 20643 20644 20645 20646 20647 20648 20649 20650 20651 20652 20653 20654 20655 20656 20657 20658 20659 20660 20661 20662 20663 20664 20665 20666 20667 20668 20669 20670 20671 20672 20673 20674 20675 20676 20677 20678 20679 20680 20681 20682 20683 20684 20685 20686 20687 20688 20689 20690 20691 20692 20693 20694 20695 20696 20697 20698 20699 20700 20701 20702 20703 20704 20705 20706 20707 20708 20709 20710 20711 20712 20713 20714 20715 20716 20717 20718 20719 20720 20721 20722 20723 20724 20725 20726 20727 20728 20729 20730 20731 20732 20733 20734 20735 20736 20737 20738 20739 20740 20741 20742 20743 20744 20745 20746 20747 20748 20749 20750 20751 20752 20753 20754 20755 20756 20757 20758 20759 20760 20761 20762 20763 20764 20765 20766 20767 20768 20769 20770 20771 20772 20773 20774 20775 20776 20777 20778 20779 20780 20781 20782 20783 20784 20785 20786 20787 20788 20789 20790 20791 20792 20793 20794 20795 20796 20797 20798 20799 20800 20801 20802 20803 20804 20805 20806 20807 20808 20809 20810 20811 20812 20813 20814 20815 20816 20817 20818 20819 20820 20821 20822 20823 20824 20825 20826 20827 20828 20829 20830 20831 20832 20833 20834 20835 20836 20837 20838 20839 20840 20841 20842 20843 20844 20845 20846 20847 20848 20849 20850 20851 20852 20853 20854 20855 20856 20857 20858 20859 20860 20861 20862 20863 20864 20865 20866 20867 20868 20869 20870 20871 20872 20873 20874 20875 20876 20877 20878 20879 20880 20881 20882 20883 20884 20885 20886 20887 20888 20889 20890 20891 20892 20893 20894 20895 20896 20897 20898 20899 20900 20901 20902 20903 20904 20905 20906 20907 20908 20909 20910 20911 20912 20913 20914 20915 20916 20917 20918 20919 20920 20921 20922 20923 20924 20925 20926 20927 20928 20929 20930 20931 20932 20933 20934 20935 20936 20937 20938 20939 20940 20941 20942 20943 20944 20945 20946 20947 20948 20949 20950 20951 20952 20953 20954 20955 20956 20957 20958 20959 20960 20961 20962 20963 20964 20965 20966 20967 20968 20969 20970 20971 20972 20973 20974 20975 20976 20977 20978 20979 20980 20981 20982 20983 20984 20985 20986 20987 20988 20989 20990 20991 20992 20993 20994 20995 20996 20997 20998 20999 21000 21001 21002 21003 21004 21005 21006 21007 21008 21009 21010 21011 21012 21013 21014 21015 21016 21017 21018 21019 21020 21021 21022 21023 21024 21025 21026 21027 21028 21029 21030 21031 21032 21033 21034 21035 21036 21037 21038 21039 21040 21041 21042 21043 21044 21045 21046 21047 21048 21049 21050 21051 21052 21053 21054 21055 21056 21057 21058 21059 21060 21061 21062 21063 21064 21065 21066 21067 21068 21069 21070 21071 21072 21073 21074 21075 21076 21077 21078 21079 21080 21081 21082 21083 21084 21085 21086 21087 21088 21089 21090 21091 21092 21093 21094 21095 21096 21097 21098 21099 21100 21101 21102 21103 21104 21105 21106 21107 21108 21109 21110 21111 21112 21113 21114 21115 21116 21117 21118 21119 21120 21121 21122 21123 21124 21125 21126 21127 21128 21129 21130 21131 21132 21133 21134 21135 21136 21137 21138 21139 21140 21141 21142 21143 21144 21145 21146 21147 21148 21149 21150 21151 21152 21153 21154 21155 21156 21157 21158 21159 21160 21161 21162 21163 21164 21165 21166 21167 21168 21169 21170 21171 21172 21173 21174 21175 21176 21177 21178 21179 21180 21181 21182 21183 21184 21185 21186 21187 21188 21189 21190 21191 21192 21193 21194 21195 21196 21197 21198 21199 21200 21201 21202 21203 21204 21205 21206 21207 21208 21209 21210 21211 21212 21213 21214 21215 21216 21217 21218 21219 21220 21221 21222 21223 21224 21225 21226 21227 21228 21229 21230 21231 21232 21233 21234 21235 21236 21237 21238 21239 21240 21241 21242 21243 21244 21245 21246 21247 21248 21249 21250 21251 21252 21253 21254 21255 21256 21257 21258 21259 21260 21261 21262 21263 21264 21265 21266 21267 21268 21269 21270 21271 21272 21273 21274 21275 21276 21277 21278 21279 21280 21281 21282 21283 21284 21285 21286 21287 21288 21289 21290 21291 21292 21293 21294 21295 21296 21297 21298 21299 21300 21301 21302 21303 21304 21305 21306 21307 21308 21309 21310 21311 21312 21313 21314 21315 21316 21317 21318 21319 21320 21321 21322 21323 21324 21325 21326 21327 21328 21329 21330 21331 21332 21333 21334 21335 21336 21337 21338 21339 21340 21341 21342 21343 21344 21345 21346 21347 21348 21349 21350 21351 21352 21353 21354 21355 21356 21357 21358 21359 21360 21361 21362 21363 21364 21365 21366 21367 21368 21369 21370 21371 21372 21373 21374 21375 21376 21377 21378 21379 21380 21381 21382 21383 21384 21385 21386 21387 21388 21389 21390 21391 21392 21393 21394 21395 21396 21397 21398 21399 21400 21401 21402 21403 21404 21405 21406 21407 21408 21409 21410 21411 21412 21413 21414 21415 21416 21417 21418 21419 21420 21421 21422 21423 21424 21425 21426 21427 21428 21429 21430 21431 21432 21433 21434 21435 21436 21437 21438 21439 21440 21441 21442 21443 21444 21445 21446 21447 21448 21449 21450 21451 21452 21453 21454 21455 21456 21457 21458 21459 21460 21461 21462 21463 21464 21465 21466 21467 21468 21469 21470 21471 21472 21473 21474 21475 21476 21477 21478 21479 21480 21481 21482 21483 21484 21485 21486 21487 21488 21489 21490 21491 21492 21493 21494 21495 21496 21497 21498 21499 21500 21501 21502 21503 21504 21505 21506 21507 21508 21509 21510 21511 21512 21513 21514 21515 21516 21517 21518 21519 21520 21521 21522 21523 21524 21525 21526 21527 21528 21529 21530 21531 21532 21533 21534 21535 21536 21537 21538 21539 21540 21541 21542 21543 21544 21545 21546 21547 21548 21549 21550 21551 21552 21553 21554 21555 21556 21557 21558 21559 21560 21561 21562 21563 21564 21565 21566 21567 21568 21569 21570 21571 21572 21573 21574 21575 21576 21577 21578 21579 21580 21581 21582 21583 21584 21585 21586 21587 21588 21589 21590 21591 21592 21593 21594 21595 21596 21597 21598 21599 21600 21601 21602 21603 21604 21605 21606 21607 21608 21609 21610 21611 21612 21613 21614 21615 21616 21617 21618 21619 21620 21621 21622 21623 21624 21625 21626 21627 21628 21629 21630 21631 21632 21633 21634 21635 21636 21637 21638 21639 21640 21641 21642 21643 21644 21645 21646 21647 21648 21649 21650 21651 21652 21653 21654 21655 21656 21657 21658 21659 21660 21661 21662 21663 21664 21665 21666 21667 21668 21669 21670 21671 21672 21673 21674 21675 21676 21677 21678 21679 21680 21681 21682 21683 21684 21685 21686 21687 21688 21689 21690 21691 21692 21693 21694 21695 21696 21697 21698 21699 21700 21701 21702 21703 21704 21705 21706 21707 21708 21709 21710 21711 21712 21713 21714 21715 21716 21717 21718 21719 21720 21721 21722 21723 21724 21725 21726 21727 21728 21729 21730 21731 21732 21733 21734 21735 21736 21737 21738 21739 21740 21741 21742 21743 21744 21745 21746 21747 21748 21749 21750 21751 21752 21753 21754 21755 21756 21757 21758 21759 21760 21761 21762 21763 21764 21765 21766 21767 21768 21769 21770 21771 21772 21773 21774 21775 21776 21777 21778 21779 21780 21781 21782 21783 21784 21785 21786 21787 21788 21789 21790 21791 21792 21793 21794 21795 21796 21797 21798 21799 21800 21801 21802 21803 21804 21805 21806 21807 21808 21809 21810 21811 21812 21813 21814 21815 21816 21817 21818 21819 21820 21821 21822 21823 21824 21825 21826 21827 21828 21829 21830 21831 21832 21833 21834 21835 21836 21837 21838 21839 21840 21841 21842 21843 21844 21845 21846 21847 21848 21849 21850 21851 21852 21853 21854 21855 21856 21857 21858 21859 21860 21861 21862 21863 21864 21865 21866 21867 21868 21869 21870 21871 21872 21873 21874 21875 21876 21877 21878 21879 21880 21881 21882 21883 21884 21885 21886 21887 21888 21889 21890 21891 21892 21893 21894 21895 21896 21897 21898 21899 21900 21901 21902 21903 21904 21905 21906 21907 21908 21909 21910 21911 21912 21913 21914 21915 21916 21917 21918 21919 21920 21921 21922 21923 21924 21925 21926 21927 21928 21929 21930 21931 21932 21933 21934 21935 21936 21937 21938 21939 21940 21941 21942 21943 21944 21945 21946 21947 21948 21949 21950 21951 21952 21953 21954 21955 21956 21957 21958 21959 21960 21961 21962 21963 21964 21965 21966 21967 21968 21969 21970 21971 21972 21973 21974 21975 21976 21977 21978 21979 21980 21981 21982 21983 21984 21985 21986 21987 21988 21989 21990 21991 21992 21993 21994 21995 21996 21997 21998 21999 22000 22001 22002 22003 22004 22005 22006 22007 22008 22009 22010 22011 22012 22013 22014 22015 22016 22017 22018 22019 22020 22021 22022 22023 22024 22025 22026 22027 22028 22029 22030 22031 22032 22033 22034 22035 22036 22037 22038 22039 22040 22041 22042 22043 22044 22045 22046 22047 22048 22049 22050 22051 22052 22053 22054 22055 22056 22057 22058 22059 22060 22061 22062 22063 22064 22065 22066 22067 22068 22069 22070 22071 22072 22073 22074 22075 22076 22077 22078 22079 22080 22081 22082 22083 22084 22085 22086 22087 22088 22089 22090 22091 22092 22093 22094 22095 22096 22097 22098 22099 22100 22101 22102 22103 22104 22105 22106 22107 22108 22109 22110 22111 22112 22113 22114 22115 22116 22117 22118 22119 22120 22121 22122 22123 22124 22125 22126 22127 22128 22129 22130 22131 22132 22133 22134 22135 22136 22137 22138 22139 22140 22141 22142 22143 22144 22145 22146 22147 22148 22149 22150 22151 22152 22153 22154 22155 22156 22157 22158 22159 22160 22161 22162 22163 22164 22165 22166 22167 22168 22169 22170 22171 22172 22173 22174 22175 22176 22177 22178 22179 22180 22181 22182 22183 22184 22185 22186 22187 22188 22189 22190 22191 22192 22193 22194 22195 22196 22197 22198 22199 22200 22201 22202 22203 22204 22205 22206 22207 22208 22209 22210 22211 22212 22213 22214 22215 22216 22217 22218 22219 22220 22221 22222 22223 22224 22225 22226 22227 22228 22229 22230 22231 22232 22233 22234 22235 22236 22237 22238 22239 22240 22241 22242 22243 22244 22245 22246 22247 22248 22249 22250 22251 22252 22253 22254 22255 22256 22257 22258 22259 22260 22261 22262 22263 22264 22265 22266 22267 22268 22269 22270 22271 22272 22273 22274 22275 22276 22277 22278 22279 22280 22281 22282 22283 22284 22285 22286 22287 22288 22289 22290 22291 22292 22293 22294 22295 22296 22297 22298 22299 22300 22301 22302 22303 22304 22305 22306 22307 22308 22309 22310 22311 22312 22313 22314 22315 22316 22317 22318 22319 22320 22321 22322 22323 22324 22325 22326 22327 22328 22329 22330 22331 22332 22333 22334 22335 22336 22337 22338 22339 22340 22341 22342 22343 22344 22345 22346 22347 22348 22349 22350 22351 22352 22353 22354 22355 22356 22357 22358 22359 22360 22361 22362 22363 22364 22365 22366 22367 22368 22369 22370 22371 22372 22373 22374 22375 22376 22377 22378 22379 22380 22381 22382 22383 22384 22385 22386 22387 22388 22389 22390 22391 22392 22393 22394 22395 22396 22397 22398 22399 22400 22401 22402 22403 22404 22405 22406 22407 22408 22409 22410 22411 22412 22413 22414 22415 22416 22417 22418 22419 22420 22421 22422 22423 22424 22425 22426 22427 22428 22429 22430 22431 22432 22433 22434 22435 22436 22437 22438 22439 22440 22441 22442 22443 22444 22445 22446 22447 22448 22449 22450 22451 22452 22453 22454 22455 22456 22457 22458 22459 22460 22461 22462 22463 22464 22465 22466 22467 22468 22469 22470 22471 22472 22473 22474 22475 22476 22477 22478 22479 22480 22481 22482 22483 22484 22485 22486 22487 22488 22489 22490 22491 22492 22493 22494 22495 22496 22497 22498 22499 22500 22501 22502 22503 22504 22505 22506 22507 22508 22509 22510 22511 22512 22513 22514 22515 22516 22517 22518 22519 22520 22521 22522 22523 22524 22525 22526 22527 22528 22529 22530 22531 22532 22533 22534 22535 22536 22537 22538 22539 22540 22541 22542 22543 22544 22545 22546 22547 22548 22549 22550 22551 22552 22553 22554 22555 22556 22557 22558 22559 22560 22561 22562 22563 22564 22565 22566 22567 22568 22569 22570 22571 22572 22573 22574 22575 22576 22577 22578 22579 22580 22581 22582 22583 22584 22585 22586 22587 22588 22589 22590 22591 22592 22593 22594 22595 22596 22597 22598 22599 22600 22601 22602 22603 22604 22605 22606 22607 22608 22609 22610 22611 22612 22613 22614 22615 22616 22617 22618 22619 22620 22621 22622 22623 22624 22625 22626 22627 22628 22629 22630 22631 22632 22633 22634 22635 22636 22637 22638 22639 22640 22641 22642 22643 22644 22645 22646 22647 22648 22649 22650 22651 22652 22653 22654 22655 22656 22657 22658 22659 22660 22661 22662 22663 22664 22665 22666 22667 22668 22669 22670 22671 22672 22673 22674 22675 22676 22677 22678 22679 22680 22681 22682 22683 22684 22685 22686 22687 22688 22689 22690 22691 22692 22693 22694 22695 22696 22697 22698 22699 22700 22701 22702 22703 22704 22705 22706 22707 22708 22709 22710 22711 22712 22713 22714 22715 22716 22717 22718 22719 22720 22721 22722 22723 22724 22725 22726 22727 22728 22729 22730 22731 22732 22733 22734 22735 22736 22737 22738 22739 22740 22741 22742 22743 22744 22745 22746 22747 22748 22749 22750 22751 22752 22753 22754 22755 22756 22757 22758 22759 22760 22761 22762 22763 22764 22765 22766 22767 22768 22769 22770 22771 22772 22773 22774 22775 22776 22777 22778 22779 22780 22781 22782 22783 22784 22785 22786 22787 22788 22789 22790 22791 22792 22793 22794 22795 22796 22797 22798 22799 22800 22801 22802 22803 22804 22805 22806 22807 22808 22809 22810 22811 22812 22813 22814 22815 22816 22817 22818 22819 22820 22821 22822 22823 22824 22825 22826 22827 22828 22829 22830 22831 22832 22833 22834 22835 22836 22837 22838 22839 22840 22841 22842 22843 22844 22845 22846 22847 22848 22849 22850 22851 22852 22853 22854 22855 22856 22857 22858 22859 22860 22861 22862 22863 22864 22865 22866 22867 22868 22869 22870 22871 22872 22873 22874 22875 22876 22877 22878 22879 22880 22881 22882 22883 22884 22885 22886 22887 22888 22889 22890 22891 22892 22893 22894 22895 22896 22897 22898 22899 22900 22901 22902 22903 22904 22905 22906 22907 22908 22909 22910 22911 22912 22913 22914 22915 22916 22917 22918 22919 22920 22921 22922 22923 22924 22925 22926 22927 22928 22929 22930 22931 22932 22933 22934 22935 22936 22937 22938 22939 22940 22941 22942 22943 22944 22945 22946 22947 22948 22949 22950 22951 22952 22953 22954 22955 22956 22957 22958 22959 22960 22961 22962 22963 22964 22965 22966 22967 22968 22969 22970 22971 22972 22973 22974 22975 22976 22977 22978 22979 22980 22981 22982 22983 22984 22985 22986 22987 22988 22989 22990 22991 22992 22993 22994 22995 22996 22997 22998 22999 23000 23001 23002 23003 23004 23005 23006 23007 23008 23009 23010 23011 23012 23013 23014 23015 23016 23017 23018 23019 23020 23021 23022 23023 23024 23025 23026 23027 23028 23029 23030 23031 23032 23033 23034 23035 23036 23037 23038 23039 23040 23041 23042 23043 23044 23045 23046 23047 23048 23049 23050 23051 23052 23053 23054 23055 23056 23057 23058 23059 23060 23061 23062 23063 23064 23065 23066 23067 23068 23069 23070 23071 23072 23073 23074 23075 23076 23077 23078 23079 23080 23081 23082 23083 23084 23085 23086 23087 23088 23089 23090 23091 23092 23093 23094 23095 23096 23097 23098 23099 23100 23101 23102 23103 23104 23105 23106 23107 23108 23109 23110 23111 23112 23113 23114 23115 23116 23117 23118 23119 23120 23121 23122 23123 23124 23125 23126 23127 23128 23129 23130 23131 23132 23133 23134 23135 23136 23137 23138 23139 23140 23141 23142 23143 23144 23145 23146 23147 23148 23149 23150 23151 23152 23153 23154 23155 23156 23157 23158 23159 23160 23161 23162 23163 23164 23165 23166 23167 23168 23169 23170 23171 23172 23173 23174 23175 23176 23177 23178 23179 23180 23181 23182 23183 23184 23185 23186 23187 23188 23189 23190 23191 23192 23193 23194 23195 23196 23197 23198 23199 23200 23201 23202 23203 23204 23205 23206 23207 23208 23209 23210 23211 23212 23213 23214 23215 23216 23217 23218 23219 23220 23221 23222 23223 23224 23225 23226 23227 23228 23229 23230 23231 23232 23233 23234 23235 23236 23237 23238 23239 23240 23241 23242 23243 23244 23245 23246 23247 23248 23249 23250 23251 23252 23253 23254 23255 23256 23257 23258 23259 23260 23261 23262 23263 23264 23265 23266 23267 23268 23269 23270 23271 23272 23273 23274 23275 23276 23277 23278 23279 23280 23281 23282 23283 23284 23285 23286 23287 23288 23289 23290 23291 23292 23293 23294 23295 23296 23297 23298 23299 23300 23301 23302 23303 23304 23305 23306 23307 23308 23309 23310 23311 23312 23313 23314 23315 23316 23317 23318 23319 23320 23321 23322 23323 23324 23325 23326 23327 23328 23329 23330 23331 23332 23333 23334 23335 23336 23337 23338 23339 23340 23341 23342 23343 23344 23345 23346 23347 23348 23349 23350 23351 23352 23353 23354 23355 23356 23357 23358 23359 23360 23361 23362 23363 23364 23365 23366 23367 23368 23369 23370 23371 23372 23373 23374 23375 23376 23377 23378 23379 23380 23381 23382 23383 23384 23385 23386 23387 23388 23389 23390 23391 23392 23393 23394 23395 23396 23397 23398 23399 23400 23401 23402 23403 23404 23405 23406 23407 23408 23409 23410 23411 23412 23413 23414 23415 23416 23417 23418 23419 23420 23421 23422 23423 23424 23425 23426 23427 23428 23429 23430 23431 23432 23433 23434 23435 23436 23437 23438 23439 23440 23441 23442 23443 23444 23445 23446 23447 23448 23449 23450 23451 23452 23453 23454 23455 23456 23457 23458 23459 23460 23461 23462 23463 23464 23465 23466 23467 23468 23469 23470 23471 23472 23473 23474 23475 23476 23477 23478 23479 23480 23481 23482 23483 23484 23485 23486 23487 23488 23489 23490 23491 23492 23493 23494 23495 23496 23497 23498 23499 23500 23501 23502 23503 23504 23505 23506 23507 23508 23509 23510 23511 23512 23513 23514 23515 23516 23517 23518 23519 23520 23521 23522 23523 23524 23525 23526 23527 23528 23529 23530 23531 23532 23533 23534 23535 23536 23537 23538 23539 23540 23541 23542 23543 23544 23545 23546 23547 23548 23549 23550 23551 23552 23553 23554 23555 23556 23557 23558 23559 23560 23561 23562 23563 23564 23565 23566 23567 23568 23569 23570 23571 23572 23573 23574 23575 23576 23577 23578 23579 23580 23581 23582 23583 23584 23585 23586 23587 23588 23589 23590 23591 23592 23593 23594 23595 23596 23597 23598 23599 23600 23601 23602 23603 23604 23605 23606 23607 23608 23609 23610 23611 23612 23613 23614 23615 23616 23617 23618 23619 23620 23621 23622 23623 23624 23625 23626 23627 23628 23629 23630 23631 23632 23633 23634 23635 23636 23637 23638 23639 23640 23641 23642 23643 23644 23645 23646 23647 23648 23649 23650 23651 23652 23653 23654 23655 23656 23657 23658 23659 23660 23661 23662 23663 23664 23665 23666 23667 23668 23669 23670 23671 23672 23673 23674 23675 23676 23677 23678 23679 23680 23681 23682 23683 23684 23685 23686 23687 23688 23689 23690 23691 23692 23693 23694 23695 23696 23697 23698 23699 23700 23701 23702 23703 23704 23705 23706 23707 23708 23709 23710 23711 23712 23713 23714 23715 23716 23717 23718 23719 23720 23721 23722 23723 23724 23725 23726 23727 23728 23729 23730 23731 23732 23733 23734 23735 23736 23737 23738 23739 23740 23741 23742 23743 23744 23745 23746 23747 23748 23749 23750 23751 23752 23753 23754 23755 23756 23757 23758 23759 23760 23761 23762 23763 23764 23765 23766 23767 23768 23769 23770 23771 23772 23773 23774 23775 23776 23777 23778 23779 23780 23781 23782 23783 23784 23785 23786 23787 23788 23789 23790 23791 23792 23793 23794 23795 23796 23797 23798 23799 23800 23801 23802 23803 23804 23805 23806 23807 23808 23809 23810 23811 23812 23813 23814 23815 23816 23817 23818 23819 23820 23821 23822 23823 23824 23825 23826 23827 23828 23829 23830 23831 23832 23833 23834 23835 23836 23837 23838 23839 23840 23841 23842 23843 23844 23845 23846 23847 23848 23849 23850 23851 23852 23853 23854 23855 23856 23857 23858 23859 23860 23861 23862 23863 23864 23865 23866 23867 23868 23869 23870 23871 23872 23873 23874 23875 23876 23877 23878 23879 23880 23881 23882 23883 23884 23885 23886 23887 23888 23889 23890 23891 23892 23893 23894 23895 23896 23897 23898 23899 23900 23901 23902 23903 23904 23905 23906 23907 23908 23909 23910 23911 23912 23913 23914 23915 23916 23917 23918 23919 23920 23921 23922 23923 23924 23925 23926 23927 23928 23929 23930 23931 23932 23933 23934 23935 23936 23937 23938 23939 23940 23941 23942 23943 23944 23945 23946 23947 23948 23949 23950 23951 23952 23953 23954 23955 23956 23957 23958 23959 23960 23961 23962 23963 23964 23965 23966 23967 23968 23969 23970 23971 23972 23973 23974 23975 23976 23977 23978 23979 23980 23981 23982 23983 23984 23985 23986 23987 23988 23989 23990 23991 23992 23993 23994 23995 23996 23997 23998 23999 24000 24001 24002 24003 24004 24005 24006 24007 24008 24009 24010 24011 24012 24013 24014 24015 24016 24017 24018 24019 24020 24021 24022 24023 24024 24025 24026 24027 24028 24029 24030 24031 24032 24033 24034 24035 24036 24037 24038 24039 24040 24041 24042 24043 24044 24045 24046 24047 24048 24049 24050 24051 24052 24053 24054 24055 24056 24057 24058 24059 24060 24061 24062 24063 24064 24065 24066 24067 24068 24069 24070 24071 24072 24073 24074 24075 24076 24077 24078 24079 24080 24081 24082 24083 24084 24085 24086 24087 24088 24089 24090 24091 24092 24093 24094 24095 24096 24097 24098 24099 24100 24101 24102 24103 24104 24105 24106 24107 24108 24109 24110 24111 24112 24113 24114 24115 24116 24117 24118 24119 24120 24121 24122 24123 24124 24125 24126 24127 24128 24129 24130 24131 24132 24133 24134 24135 24136 24137 24138 24139 24140 24141 24142 24143 24144 24145 24146 24147 24148 24149 24150 24151 24152 24153 24154 24155 24156 24157 24158 24159 24160 24161 24162 24163 24164 24165 24166 24167 24168 24169 24170 24171 24172 24173 24174 24175 24176 24177 24178 24179 24180 24181 24182 24183 24184 24185 24186 24187 24188 24189 24190 24191 24192 24193 24194 24195 24196 24197 24198 24199 24200 24201 24202 24203 24204 24205 24206 24207 24208 24209 24210 24211 24212 24213 24214 24215 24216 24217 24218 24219 24220 24221 24222 24223 24224 24225 24226 24227 24228 24229 24230 24231 24232 24233 24234 24235 24236 24237 24238 24239 24240 24241 24242 24243 24244 24245 24246 24247 24248 24249 24250 24251 24252 24253 24254 24255 24256 24257 24258 24259 24260 24261 24262 24263 24264 24265 24266 24267 24268 24269 24270 24271 24272 24273 24274 24275 24276 24277 24278 24279 24280 24281 24282 24283 24284 24285 24286 24287 24288 24289 24290 24291 24292 24293 24294 24295 24296 24297 24298 24299 24300 24301 24302 24303 24304 24305 24306 24307 24308 24309 24310 24311 24312 24313 24314 24315 24316 24317 24318 24319 24320 24321 24322 24323 24324 24325 24326 24327 24328 24329 24330 24331 24332 24333 24334 24335 24336 24337 24338 24339 24340 24341 24342 24343 24344 24345 24346 24347 24348 24349 24350 24351 24352 24353 24354 24355 24356 24357 24358 24359 24360 24361 24362 24363 24364 24365 24366 24367 24368 24369 24370 24371 24372 24373 24374 24375 24376 24377 24378 24379 24380 24381 24382 24383 24384 24385 24386 24387 24388 24389 24390 24391 24392 24393 24394 24395 24396 24397 24398 24399 24400 24401 24402 24403 24404 24405 24406 24407 24408 24409 24410 24411 24412 24413 24414 24415 24416 24417 24418 24419 24420 24421 24422 24423 24424 24425 24426 24427 24428 24429 24430 24431 24432 24433 24434 24435 24436 24437 24438 24439 24440 24441 24442 24443 24444 24445 24446 24447 24448 24449 24450 24451 24452 24453 24454 24455 24456 24457 24458 24459 24460 24461 24462 24463 24464 24465 24466 24467 24468 24469 24470 24471 24472 24473 24474 24475 24476 24477 24478 24479 24480 24481 24482 24483 24484 24485 24486 24487 24488 24489 24490 24491 24492 24493 24494 24495 24496 24497 24498 24499 24500 24501 24502 24503 24504 24505 24506 24507 24508 24509 24510 24511 24512 24513 24514 24515 24516 24517 24518 24519 24520 24521 24522 24523 24524 24525 24526 24527 24528 24529 24530 24531 24532 24533 24534 24535 24536 24537 24538 24539 24540 24541 24542 24543 24544 24545 24546 24547 24548 24549 24550 24551 24552 24553 24554 24555 24556 24557 24558 24559 24560 24561 24562 24563 24564 24565 24566 24567 24568 24569 24570 24571 24572 24573 24574 24575 24576 24577 24578 24579 24580 24581 24582 24583 24584 24585 24586 24587 24588 24589 24590 24591 24592 24593 24594 24595 24596 24597 24598 24599 24600 24601 24602 24603 24604 24605 24606 24607 24608 24609 24610 24611 24612 24613 24614 24615 24616 24617 24618 24619 24620 24621 24622 24623 24624 24625 24626 24627 24628 24629 24630 24631 24632 24633 24634 24635 24636 24637 24638 24639 24640 24641 24642 24643 24644 24645 24646 24647 24648 24649 24650 24651 24652 24653 24654 24655 24656 24657 24658 24659 24660 24661 24662 24663 24664 24665 24666 24667 24668 24669 24670 24671 24672 24673 24674 24675 24676 24677 24678 24679 24680 24681 24682 24683 24684 24685 24686 24687 24688 24689 24690 24691 24692 24693 24694 24695 24696 24697 24698 24699 24700 24701 24702 24703 24704 24705 24706 24707 24708 24709 24710 24711 24712 24713 24714 24715 24716 24717 24718 24719 24720 24721 24722 24723 24724 24725 24726 24727 24728 24729 24730 24731 24732 24733 24734 24735 24736 24737 24738 24739 24740 24741 24742 24743 24744 24745 24746 24747 24748 24749 24750 24751 24752 24753 24754 24755 24756 24757 24758 24759 24760 24761 24762 24763 24764 24765 24766 24767 24768 24769 24770 24771 24772 24773 24774 24775 24776 24777 24778 24779 24780 24781 24782 24783 24784 24785 24786 24787 24788 24789 24790 24791 24792 24793 24794 24795 24796 24797 24798 24799 24800 24801 24802 24803 24804 24805 24806 24807 24808 24809 24810 24811 24812 24813 24814 24815 24816 24817 24818 24819 24820 24821 24822 24823 24824 24825 24826 24827 24828 24829 24830 24831 24832 24833 24834 24835 24836 24837 24838 24839 24840 24841 24842 24843 24844 24845 24846 24847 24848 24849 24850 24851 24852 24853 24854 24855 24856 24857 24858 24859 24860 24861 24862 24863 24864 24865 24866 24867 24868 24869 24870 24871 24872 24873 24874 24875 24876 24877 24878 24879 24880 24881 24882 24883 24884 24885 24886 24887 24888 24889 24890 24891 24892 24893 24894 24895 24896 24897 24898 24899 24900 24901 24902 24903 24904 24905 24906 24907 24908 24909 24910 24911 24912 24913 24914 24915 24916 24917 24918 24919 24920 24921 24922 24923 24924 24925 24926 24927 24928 24929 24930 24931 24932 24933 24934 24935 24936 24937 24938 24939 24940 24941 24942 24943 24944 24945 24946 24947 24948 24949 24950 24951 24952 24953 24954 24955 24956 24957 24958 24959 24960 24961 24962 24963 24964 24965 24966 24967 24968 24969 24970 24971 24972 24973 24974 24975 24976 24977 24978 24979 24980 24981 24982 24983 24984 24985 24986 24987 24988 24989 24990 24991 24992 24993 24994 24995 24996 24997 24998 24999 25000 25001 25002 25003 25004 25005 25006 25007 25008 25009 25010 25011 25012 25013 25014 25015 25016 25017 25018 25019 25020 25021 25022 25023 25024 25025 25026 25027 25028 25029 25030 25031 25032 25033 25034 25035 25036 25037 25038 25039 25040 25041 25042 25043 25044 25045 25046 25047 25048 25049 25050 25051 25052 25053 25054 25055 25056 25057 25058 25059 25060 25061 25062 25063 25064 25065 25066 25067 25068 25069 25070 25071 25072 25073 25074 25075 25076 25077 25078 25079 25080 25081 25082 25083 25084 25085 25086 25087 25088 25089 25090 25091 25092 25093 25094 25095 25096 25097 25098 25099 25100 25101 25102 25103 25104 25105 25106 25107 25108 25109 25110 25111 25112 25113 25114 25115 25116 25117 25118 25119 25120 25121 25122 25123 25124 25125 25126 25127 25128 25129 25130 25131 25132 25133 25134 25135 25136 25137 25138 25139 25140 25141 25142 25143 25144 25145 25146 25147 25148 25149 25150 25151 25152 25153 25154 25155 25156 25157 25158 25159 25160 25161 25162 25163 25164 25165 25166 25167 25168 25169 25170 25171 25172 25173 25174 25175 25176 25177 25178 25179 25180 25181 25182 25183 25184 25185 25186 25187 25188 25189 25190 25191 25192 25193 25194 25195 25196 25197 25198 25199 25200 25201 25202 25203 25204 25205 25206 25207 25208 25209 25210 25211 25212 25213 25214 25215 25216 25217 25218 25219 25220 25221 25222 25223 25224 25225 25226 25227 25228 25229 25230 25231 25232 25233 25234 25235 25236 25237 25238 25239 25240 25241 25242 25243 25244 25245 25246 25247 25248 25249 25250 25251 25252 25253 25254 25255 25256 25257 25258 25259 25260 25261 25262 25263 25264 25265 25266 25267 25268 25269 25270 25271 25272 25273 25274 25275 25276 25277 25278 25279 25280 25281 25282 25283 25284 25285 25286 25287 25288 25289 25290 25291 25292 25293 25294 25295 25296 25297 25298 25299 25300 25301 25302 25303 25304 25305 25306 25307 25308 25309 25310 25311 25312 25313 25314 25315 25316 25317 25318 25319 25320 25321 25322 25323 25324 25325 25326 25327 25328 25329 25330 25331 25332 25333 25334 25335 25336 25337 25338 25339 25340 25341 25342 25343 25344 25345 25346 25347 25348 25349 25350 25351 25352 25353 25354 25355 25356 25357 25358 25359 25360 25361 25362 25363 25364 25365 25366 25367 25368 25369 25370 25371 25372 25373 25374 25375 25376 25377 25378 25379 25380 25381 25382 25383 25384 25385 25386 25387 25388 25389 25390 25391 25392 25393 25394 25395 25396 25397 25398 25399 25400 25401 25402 25403 25404 25405 25406 25407 25408 25409 25410 25411 25412 25413 25414 25415 25416 25417 25418 25419 25420 25421 25422 25423 25424 25425 25426 25427 25428 25429 25430 25431 25432 25433 25434 25435 25436 25437 25438 25439 25440 25441 25442 25443 25444 25445 25446 25447 25448 25449 25450 25451 25452 25453 25454 25455 25456 25457 25458 25459 25460 25461 25462 25463 25464 25465 25466 25467 25468 25469 25470 25471 25472 25473 25474 25475 25476 25477 25478 25479 25480 25481 25482 25483 25484 25485 25486 25487 25488 25489 25490 25491 25492 25493 25494 25495 25496 25497 25498 25499 25500 25501 25502 25503 25504 25505 25506 25507 25508 25509 25510 25511 25512 25513 25514 25515 25516 25517 25518 25519 25520 25521 25522 25523 25524 25525 25526 25527 25528 25529 25530 25531 25532 25533 25534 25535 25536 25537 25538 25539 25540 25541 25542 25543 25544 25545 25546 25547 25548 25549 25550 25551 25552 25553 25554 25555 25556 25557 25558 25559 25560 25561 25562 25563 25564 25565 25566 25567 25568 25569 25570 25571 25572 25573 25574 25575 25576 25577 25578 25579 25580 25581 25582 25583 25584 25585 25586 25587 25588 25589 25590 25591 25592 25593 25594 25595 25596 25597 25598 25599 25600 25601 25602 25603 25604 25605 25606 25607 25608 25609 25610 25611 25612 25613 25614 25615 25616 25617 25618 25619 25620 25621 25622 25623 25624 25625 25626 25627 25628 25629 25630 25631 25632 25633 25634 25635 25636 25637 25638 25639 25640 25641 25642 25643 25644 25645 25646 25647 25648 25649 25650 25651 25652 25653 25654 25655 25656 25657 25658 25659 25660 25661 25662 25663 25664 25665 25666 25667 25668 25669 25670 25671 25672 25673 25674 25675 25676 25677 25678 25679 25680 25681 25682 25683 25684 25685 25686 25687 25688 25689 25690 25691 25692 25693 25694 25695 25696 25697 25698 25699 25700 25701 25702 25703 25704 25705 25706 25707 25708 25709 25710 25711 25712 25713 25714 25715 25716 25717 25718 25719 25720 25721 25722 25723 25724 25725 25726 25727 25728 25729 25730 25731 25732 25733 25734 25735 25736 25737 25738 25739 25740 25741 25742 25743 25744 25745 25746 25747 25748 25749 25750 25751 25752 25753 25754 25755 25756 25757 25758 25759 25760 25761 25762 25763 25764 25765 25766 25767 25768 25769 25770 25771 25772 25773 25774 25775 25776 25777 25778 25779 25780 25781 25782 25783 25784 25785 25786 25787 25788 25789 25790 25791 25792 25793 25794 25795 25796 25797 25798 25799 25800 25801 25802 25803 25804 25805 25806 25807 25808 25809 25810 25811 25812 25813 25814 25815 25816 25817 25818 25819 25820 25821 25822 25823 25824 25825 25826 25827 25828 25829 25830 25831 25832 25833 25834 25835 25836 25837 25838 25839 25840 25841 25842 25843 25844 25845 25846 25847 25848 25849 25850 25851 25852 25853 25854 25855 25856 25857 25858 25859 25860 25861 25862 25863 25864 25865 25866 25867 25868 25869 25870 25871 25872 25873 25874 25875 25876 25877 25878 25879 25880 25881 25882 25883 25884 25885 25886 25887 25888 25889 25890 25891 25892 25893 25894 25895 25896 25897 25898 25899 25900 25901 25902 25903 25904 25905 25906 25907 25908 25909 25910 25911 25912 25913 25914 25915 25916 25917 25918 25919 25920 25921 25922 25923 25924 25925 25926 25927 25928 25929 25930 25931 25932 25933 25934 25935 25936 25937 25938 25939 25940 25941 25942 25943 25944 25945 25946 25947 25948 25949 25950 25951 25952 25953 25954 25955 25956 25957 25958 25959 25960 25961 25962 25963 25964 25965 25966 25967 25968 25969 25970 25971 25972 25973 25974 25975 25976 25977 25978 25979 25980 25981 25982 25983 25984 25985 25986 25987 25988 25989 25990 25991 25992 25993 25994 25995 25996 25997 25998 25999 26000 26001 26002 26003 26004 26005 26006 26007 26008 26009 26010 26011 26012 26013 26014 26015 26016 26017 26018 26019 26020 26021 26022 26023 26024 26025 26026 26027 26028 26029 26030 26031 26032 26033 26034 26035 26036 26037 26038 26039 26040 26041 26042 26043 26044 26045 26046 26047 26048 26049 26050 26051 26052 26053 26054 26055 26056 26057 26058 26059 26060 26061 26062 26063 26064 26065 26066 26067 26068 26069 26070 26071 26072 26073 26074 26075 26076 26077 26078 26079 26080 26081 26082 26083 26084 26085 26086 26087 26088 26089 26090 26091 26092 26093 26094 26095 26096 26097 26098 26099 26100 26101 26102 26103 26104 26105 26106 26107 26108 26109 26110 26111 26112 26113 26114 26115 26116 26117 26118 26119 26120 26121 26122 26123 26124 26125 26126 26127 26128 26129 26130 26131 26132 26133 26134 26135 26136 26137 26138 26139 26140 26141 26142 26143 26144 26145 26146 26147 26148 26149 26150 26151 26152 26153 26154 26155 26156 26157 26158 26159 26160 26161 26162 26163 26164 26165 26166 26167 26168 26169 26170 26171 26172 26173 26174 26175 26176 26177 26178 26179 26180 26181 26182 26183 26184 26185 26186 26187 26188 26189 26190 26191 26192 26193 26194 26195 26196 26197 26198 26199 26200 26201 26202 26203 26204 26205 26206 26207 26208 26209 26210 26211 26212 26213 26214 26215 26216 26217 26218 26219 26220 26221 26222 26223 26224 26225 26226 26227 26228 26229 26230 26231 26232 26233 26234 26235 26236 26237 26238 26239 26240 26241 26242 26243 26244 26245 26246 26247 26248 26249 26250 26251 26252 26253 26254 26255 26256 26257 26258 26259 26260 26261 26262 26263 26264 26265 26266 26267 26268 26269 26270 26271 26272 26273 26274 26275 26276 26277 26278 26279 26280 26281 26282 26283 26284 26285 26286 26287 26288 26289 26290 26291 26292 26293 26294 26295 26296 26297 26298 26299 26300 26301 26302 26303 26304 26305 26306 26307 26308 26309 26310 26311 26312 26313 26314 26315 26316 26317 26318 26319 26320 26321 26322 26323 26324 26325 26326 26327 26328 26329 26330 26331 26332 26333 26334 26335 26336 26337 26338 26339 26340 26341 26342 26343 26344 26345 26346 26347 26348 26349 26350 26351 26352 26353 26354 26355 26356 26357 26358 26359 26360 26361 26362 26363 26364 26365 26366 26367 26368 26369 26370 26371 26372 26373 26374 26375 26376 26377 26378 26379 26380 26381 26382 26383 26384 26385 26386 26387 26388 26389 26390 26391 26392 26393 26394 26395 26396 26397 26398 26399 26400 26401 26402 26403 26404 26405 26406 26407 26408 26409 26410 26411 26412 26413 26414 26415 26416 26417 26418 26419 26420 26421 26422 26423 26424 26425 26426 26427 26428 26429 26430 26431 26432 26433 26434 26435 26436 26437 26438 26439 26440 26441 26442 26443 26444 26445 26446 26447 26448 26449 26450 26451 26452 26453 26454 26455 26456 26457 26458 26459 26460 26461 26462 26463 26464 26465 26466 26467 26468 26469 26470 26471 26472 26473 26474 26475 26476 26477 26478 26479 26480 26481 26482 26483 26484 26485 26486 26487 26488 26489 26490 26491 26492 26493 26494 26495 26496 26497 26498 26499 26500 26501 26502 26503 26504 26505 26506 26507 26508 26509 26510 26511 26512 26513 26514 26515 26516 26517 26518 26519 26520 26521 26522 26523 26524 26525 26526 26527 26528 26529 26530 26531 26532 26533 26534 26535 26536 26537 26538 26539 26540 26541 26542 26543 26544 26545 26546 26547 26548 26549 26550 26551 26552 26553 26554 26555 26556 26557 26558 26559 26560 26561 26562 26563 26564 26565 26566 26567 26568 26569 26570 26571 26572 26573 26574 26575 26576 26577 26578 26579 26580 26581 26582 26583 26584 26585 26586 26587 26588 26589 26590 26591 26592 26593 26594 26595 26596 26597 26598 26599 26600 26601 26602 26603 26604 26605 26606 26607 26608 26609 26610 26611 26612 26613 26614 26615 26616 26617 26618 26619 26620 26621 26622 26623 26624 26625 26626 26627 26628 26629 26630 26631 26632 26633 26634 26635 26636 26637 26638 26639 26640 26641 26642 26643 26644 26645 26646 26647 26648 26649 26650 26651 26652 26653 26654 26655 26656 26657 26658 26659 26660 26661 26662 26663 26664 26665 26666 26667 26668 26669 26670 26671 26672 26673 26674 26675 26676 26677 26678 26679 26680 26681 26682 26683 26684 26685 26686 26687 26688 26689 26690 26691 26692 26693 26694 26695 26696 26697 26698 26699 26700 26701 26702 26703 26704 26705 26706 26707 26708 26709 26710 26711 26712 26713 26714 26715 26716 26717 26718 26719 26720 26721 26722 26723 26724 26725 26726 26727 26728 26729 26730 26731 26732 26733 26734 26735 26736 26737 26738 26739 26740 26741 26742 26743 26744 26745 26746 26747 26748 26749 26750 26751 26752 26753 26754 26755 26756 26757 26758 26759 26760 26761 26762 26763 26764 26765 26766 26767 26768 26769 26770 26771 26772 26773 26774 26775 26776 26777 26778 26779 26780 26781 26782 26783 26784 26785 26786 26787 26788 26789 26790 26791 26792 26793 26794 26795 26796 26797 26798 26799 26800 26801 26802 26803 26804 26805 26806 26807 26808 26809 26810 26811 26812 26813 26814 26815 26816 26817 26818 26819 26820 26821 26822 26823 26824 26825 26826 26827 26828 26829 26830 26831 26832 26833 26834 26835 26836 26837 26838 26839 26840 26841 26842 26843 26844 26845 26846 26847 26848 26849 26850 26851 26852 26853 26854 26855 26856 26857 26858 26859 26860 26861 26862 26863 26864 26865 26866 26867 26868 26869 26870 26871 26872 26873 26874 26875 26876 26877 26878 26879 26880 26881 26882 26883 26884 26885 26886 26887 26888 26889 26890 26891 26892 26893 26894 26895 26896 26897 26898 26899 26900 26901 26902 26903 26904 26905 26906 26907 26908 26909 26910 26911 26912 26913 26914 26915 26916 26917 26918 26919 26920 26921 26922 26923 26924 26925 26926 26927 26928 26929 26930 26931 26932 26933 26934 26935 26936 26937 26938 26939 26940 26941 26942 26943 26944 26945 26946 26947 26948 26949 26950 26951 26952 26953 26954 26955 26956 26957 26958 26959 26960 26961 26962 26963 26964 26965 26966 26967 26968 26969 26970 26971 26972 26973 26974 26975 26976 26977 26978 26979 26980 26981 26982 26983 26984 26985 26986 26987 26988 26989 26990 26991 26992 26993 26994 26995 26996 26997 26998 26999 27000 27001 27002 27003 27004 27005 27006 27007 27008 27009 27010 27011 27012 27013 27014 27015 27016 27017 27018 27019 27020 27021 27022 27023 27024 27025 27026 27027 27028 27029 27030 27031 27032 27033 27034 27035 27036 27037 27038 27039 27040 27041 27042 27043 27044 27045 27046 27047 27048 27049 27050 27051 27052 27053 27054 27055 27056 27057 27058 27059 27060 27061 27062 27063 27064 27065 27066 27067 27068 27069 27070 27071 27072 27073 27074 27075 27076 27077 27078 27079 27080 27081 27082 27083 27084 27085 27086 27087 27088 27089 27090 27091 27092 27093 27094 27095 27096 27097 27098 27099 27100 27101 27102 27103 27104 27105 27106 27107 27108 27109 27110 27111 27112 27113 27114 27115 27116 27117 27118 27119 27120 27121 27122 27123 27124 27125 27126 27127 27128 27129 27130 27131 27132 27133 27134 27135 27136 27137 27138 27139 27140 27141 27142 27143 27144 27145 27146 27147 27148 27149 27150 27151 27152 27153 27154 27155 27156 27157 27158 27159 27160 27161 27162 27163 27164 27165 27166 27167 27168 27169 27170 27171 27172 27173 27174 27175 27176 27177 27178 27179 27180 27181 27182 27183 27184 27185 27186 27187 27188 27189 27190 27191 27192 27193 27194 27195 27196 27197 27198 27199 27200 27201 27202 27203 27204 27205 27206 27207 27208 27209 27210 27211 27212 27213 27214 27215 27216 27217 27218 27219 27220 27221 27222 27223 27224 27225 27226 27227 27228 27229 27230 27231 27232 27233 27234 27235 27236 27237 27238 27239 27240 27241 27242 27243 27244 27245 27246 27247 27248 27249 27250 27251 27252 27253 27254 27255 27256 27257 27258 27259 27260 27261 27262 27263 27264 27265 27266 27267 27268 27269 27270 27271 27272 27273 27274 27275 27276 27277 27278 27279 27280 27281 27282 27283 27284 27285 27286 27287 27288 27289 27290 27291 27292 27293 27294 27295 27296 27297 27298 27299 27300 27301 27302 27303 27304 27305 27306 27307 27308 27309 27310 27311 27312 27313 27314 27315 27316 27317 27318 27319 27320 27321 27322 27323 27324 27325 27326 27327 27328 27329 27330 27331 27332 27333 27334 27335 27336 27337 27338 27339 27340 27341 27342 27343 27344 27345 27346 27347 27348 27349 27350 27351 27352 27353 27354 27355 27356 27357 27358 27359 27360 27361 27362 27363 27364 27365 27366 27367 27368 27369 27370 27371 27372 27373 27374 27375 27376 27377 27378 27379 27380 27381 27382 27383 27384 27385 27386 27387 27388 27389 27390 27391 27392 27393 27394 27395 27396 27397 27398 27399 27400 27401 27402 27403 27404 27405 27406 27407 27408 27409 27410 27411 27412 27413 27414 27415 27416 27417 27418 27419 27420 27421 27422 27423 27424 27425 27426 27427 27428 27429 27430 27431 27432 27433 27434 27435 27436 27437 27438 27439 27440 27441 27442 27443 27444 27445 27446 27447 27448 27449 27450 27451 27452 27453 27454 27455 27456 27457 27458 27459 27460 27461 27462 27463 27464 27465 27466 27467 27468 27469 27470 27471 27472 27473 27474 27475 27476 27477 27478 27479 27480 27481 27482 27483 27484 27485 27486 27487 27488 27489 27490 27491 27492 27493 27494 27495 27496 27497 27498 27499 27500 27501 27502 27503 27504 27505 27506 27507 27508 27509 27510 27511 27512 27513 27514 27515 27516 27517 27518 27519 27520 27521 27522 27523 27524 27525 27526 27527 27528 27529 27530 27531 27532 27533 27534 27535 27536 27537 27538 27539 27540 27541 27542 27543 27544 27545 27546 27547 27548 27549 27550 27551 27552 27553 27554 27555 27556 27557 27558 27559 27560 27561 27562 27563 27564 27565 27566 27567 27568 27569 27570 27571 27572 27573 27574 27575 27576 27577 27578 27579 27580 27581 27582 27583 27584 27585 27586 27587 27588 27589 27590 27591 27592 27593 27594 27595 27596 27597 27598 27599 27600 27601 27602 27603 27604 27605 27606 27607 27608 27609 27610 27611 27612 27613 27614 27615 27616 27617 27618 27619 27620 27621 27622 27623 27624 27625 27626 27627 27628 27629 27630 27631 27632 27633 27634 27635 27636 27637 27638 27639 27640 27641 27642 27643 27644 27645 27646 27647 27648 27649 27650 27651 27652 27653 27654 27655 27656 27657 27658 27659 27660 27661 27662 27663 27664 27665 27666 27667 27668 27669 27670 27671 27672 27673 27674 27675 27676 27677 27678 27679 27680 27681 27682 27683 27684 27685 27686 27687 27688 27689 27690 27691 27692 27693 27694 27695 27696 27697 27698 27699 27700 27701 27702 27703 27704 27705 27706 27707 27708 27709 27710 27711 27712 27713 27714 27715 27716 27717 27718 27719 27720 27721 27722 27723 27724 27725 27726 27727 27728 27729 27730 27731 27732 27733 27734 27735 27736 27737 27738 27739 27740 27741 27742 27743 27744 27745 27746 27747 27748 27749 27750 27751 27752 27753 27754 27755 27756 27757 27758 27759 27760 27761 27762 27763 27764 27765 27766 27767 27768 27769 27770 27771 27772 27773 27774 27775 27776 27777 27778 27779 27780 27781 27782 27783 27784 27785 27786 27787 27788 27789 27790 27791 27792 27793 27794 27795 27796 27797 27798 27799 27800 27801 27802 27803 27804 27805 27806 27807 27808 27809 27810 27811 27812 27813 27814 27815 27816 27817 27818 27819 27820 27821 27822 27823 27824 27825 27826 27827 27828 27829 27830 27831 27832 27833 27834 27835 27836 27837 27838 27839 27840 27841 27842 27843 27844 27845 27846 27847 27848 27849 27850 27851 27852 27853 27854 27855 27856 27857 27858 27859 27860 27861 27862 27863 27864 27865 27866 27867 27868 27869 27870 27871 27872 27873 27874 27875 27876 27877 27878 27879 27880 27881 27882 27883 27884 27885 27886 27887 27888 27889 27890 27891 27892 27893 27894 27895 27896 27897 27898 27899 27900 27901 27902 27903 27904 27905 27906 27907 27908 27909 27910 27911 27912 27913 27914 27915 27916 27917 27918 27919 27920 27921 27922 27923 27924 27925 27926 27927 27928 27929 27930 27931 27932 27933 27934 27935 27936 27937 27938 27939 27940 27941 27942 27943 27944 27945 27946 27947 27948 27949 27950 27951 27952 27953 27954 27955 27956 27957 27958 27959 27960 27961 27962 27963 27964 27965 27966 27967 27968 27969 27970 27971 27972 27973 27974 27975 27976 27977 27978 27979 27980 27981 27982 27983 27984 27985 27986 27987 27988 27989 27990 27991 27992 27993 27994 27995 27996 27997 27998 27999 28000 28001 28002 28003 28004 28005 28006 28007 28008 28009 28010 28011 28012 28013 28014 28015 28016 28017 28018 28019 28020 28021 28022 28023 28024 28025 28026 28027 28028 28029 28030 28031 28032 28033 28034 28035 28036 28037 28038 28039 28040 28041 28042 28043 28044 28045 28046 28047 28048 28049 28050 28051 28052 28053 28054 28055 28056 28057 28058 28059 28060 28061 28062 28063 28064 28065 28066 28067 28068 28069 28070 28071 28072 28073 28074 28075 28076 28077 28078 28079 28080 28081 28082 28083 28084 28085 28086 28087 28088 28089 28090 28091 28092 28093 28094 28095 28096 28097 28098 28099 28100 28101 28102 28103 28104 28105 28106 28107 28108 28109 28110 28111 28112 28113 28114 28115 28116 28117 28118 28119 28120 28121 28122 28123 28124 28125 28126 28127 28128 28129 28130 28131 28132 28133 28134 28135 28136 28137 28138 28139 28140 28141 28142 28143 28144 28145 28146 28147 28148 28149 28150 28151 28152 28153 28154 28155 28156 28157 28158 28159 28160 28161 28162 28163 28164 28165 28166 28167 28168 28169 28170 28171 28172 28173 28174 28175 28176 28177 28178 28179 28180 28181 28182 28183 28184 28185 28186 28187 28188 28189 28190 28191 28192 28193 28194 28195 28196 28197 28198 28199 28200 28201 28202 28203 28204 28205 28206 28207 28208 28209 28210 28211 28212 28213 28214 28215 28216 28217 28218 28219 28220 28221 28222 28223 28224 28225 28226 28227 28228 28229 28230 28231 28232 28233 28234 28235 28236 28237 28238 28239 28240 28241 28242 28243 28244 28245 28246 28247 28248 28249 28250 28251 28252 28253 28254 28255 28256 28257 28258 28259 28260 28261 28262 28263 28264 28265 28266 28267 28268 28269 28270 28271 28272 28273 28274 28275 28276 28277 28278 28279 28280 28281 28282 28283 28284 28285 28286 28287 28288 28289 28290 28291 28292 28293 28294 28295 28296 28297 28298 28299 28300 28301 28302 28303 28304 28305 28306 28307 28308 28309 28310 28311 28312 28313 28314 28315 28316 28317 28318 28319 28320 28321 28322 28323 28324 28325 28326 28327 28328 28329 28330 28331 28332 28333 28334 28335 28336 28337 28338 28339 28340 28341 28342 28343 28344 28345 28346 28347 28348 28349 28350 28351 28352 28353 28354 28355 28356 28357 28358 28359 28360 28361 28362 28363 28364 28365 28366 28367 28368 28369 28370 28371 28372 28373 28374 28375 28376 28377 28378 28379 28380 28381 28382 28383 28384 28385 28386 28387 28388 28389 28390 28391 28392 28393 28394 28395 28396 28397 28398 28399 28400 28401 28402 28403 28404 28405 28406 28407 28408 28409 28410 28411 28412 28413 28414 28415 28416 28417 28418 28419 28420 28421 28422 28423 28424 28425 28426 28427 28428 28429 28430 28431 28432 28433 28434 28435 28436 28437 28438 28439 28440 28441 28442 28443 28444 28445 28446 28447 28448 28449 28450 28451 28452 28453 28454 28455 28456 28457 28458 28459 28460 28461 28462 28463 28464 28465 28466 28467 28468 28469 28470 28471 28472 28473 28474 28475 28476 28477 28478 28479 28480 28481 28482 28483 28484 28485 28486 28487 28488 28489 28490 28491 28492 28493 28494 28495 28496 28497 28498 28499 28500 28501 28502 28503 28504 28505 28506 28507 28508 28509 28510 28511 28512 28513 28514 28515 28516 28517 28518 28519 28520 28521 28522 28523 28524 28525 28526 28527 28528 28529 28530 28531 28532 28533 28534 28535 28536 28537 28538 28539 28540 28541 28542 28543 28544 28545 28546 28547 28548 28549 28550 28551 28552 28553 28554 28555 28556 28557 28558 28559 28560 28561 28562 28563 28564 28565 28566 28567 28568 28569 28570 28571 28572 28573 28574 28575 28576 28577 28578 28579 28580 28581 28582 28583 28584 28585 28586 28587 28588 28589 28590 28591 28592 28593 28594 28595 28596 28597 28598 28599 28600 28601 28602 28603 28604 28605 28606 28607 28608 28609 28610 28611 28612 28613 28614 28615 28616 28617 28618 28619 28620 28621 28622 28623 28624 28625 28626 28627 28628 28629 28630 28631 28632 28633 28634 28635 28636 28637 28638 28639 28640 28641 28642 28643 28644 28645 28646 28647 28648 28649 28650 28651 28652 28653 28654 28655 28656 28657 28658 28659 28660 28661 28662 28663 28664 28665 28666 28667 28668 28669 28670 28671 28672 28673 28674 28675 28676 28677 28678 28679 28680 28681 28682 28683 28684 28685 28686 28687 28688 28689 28690 28691 28692 28693 28694 28695 28696 28697 28698 28699 28700 28701 28702 28703 28704 28705 28706 28707 28708 28709 28710 28711 28712 28713 28714 28715 28716 28717 28718 28719 28720 28721 28722 28723 28724 28725 28726 28727 28728 28729 28730 28731 28732 28733 28734 28735 28736 28737 28738 28739 28740 28741 28742 28743 28744 28745 28746 28747 28748 28749 28750 28751 28752 28753 28754 28755 28756 28757 28758 28759 28760 28761 28762 28763 28764 28765 28766 28767 28768 28769 28770 28771 28772 28773 28774 28775 28776 28777 28778 28779 28780 28781 28782 28783 28784 28785 28786 28787 28788 28789 28790 28791 28792 28793 28794 28795 28796 28797 28798 28799 28800 28801 28802 28803 28804 28805 28806 28807 28808 28809 28810 28811 28812 28813 28814 28815 28816 28817 28818 28819 28820 28821 28822 28823 28824 28825 28826 28827 28828 28829 28830 28831 28832 28833 28834 28835 28836 28837 28838 28839 28840 28841 28842 28843 28844 28845 28846 28847 28848 28849 28850 28851 28852 28853 28854 28855 28856 28857 28858 28859 28860 28861 28862 28863 28864 28865 28866 28867 28868 28869 28870 28871 28872 28873 28874 28875 28876 28877 28878 28879 28880 28881 28882 28883 28884 28885 28886 28887 28888 28889 28890 28891 28892 28893 28894 28895 28896 28897 28898 28899 28900 28901 28902 28903 28904 28905 28906 28907 28908 28909 28910 28911 28912 28913 28914 28915 28916 28917 28918 28919 28920 28921 28922 28923 28924 28925 28926 28927 28928 28929 28930 28931 28932 28933 28934 28935 28936 28937 28938 28939 28940 28941 28942 28943 28944 28945 28946 28947 28948 28949 28950 28951 28952 28953 28954 28955 28956 28957 28958 28959 28960 28961 28962 28963 28964 28965 28966 28967 28968 28969 28970 28971 28972 28973 28974 28975 28976 28977 28978 28979 28980 28981 28982 28983 28984 28985 28986 28987 28988 28989 28990 28991 28992 28993 28994 28995 28996 28997 28998 28999 29000 29001 29002 29003 29004 29005 29006 29007 29008 29009 29010 29011 29012 29013 29014 29015 29016 29017 29018 29019 29020 29021 29022 29023 29024 29025 29026 29027 29028 29029 29030 29031 29032 29033 29034 29035 29036 29037 29038 29039 29040 29041 29042 29043 29044 29045 29046 29047 29048 29049 29050 29051 29052 29053 29054 29055 29056 29057 29058 29059 29060 29061 29062 29063 29064 29065 29066 29067 29068 29069 29070 29071 29072 29073 29074 29075 29076 29077 29078 29079 29080 29081 29082 29083 29084 29085 29086 29087 29088 29089 29090 29091 29092 29093 29094 29095 29096 29097 29098 29099 29100 29101 29102 29103 29104 29105 29106 29107 29108 29109 29110 29111 29112 29113 29114 29115 29116 29117 29118 29119 29120 29121 29122 29123 29124 29125 29126 29127 29128 29129 29130 29131 29132 29133 29134 29135 29136 29137 29138 29139 29140 29141 29142 29143 29144 29145 29146 29147 29148 29149 29150 29151 29152 29153 29154 29155 29156 29157 29158 29159 29160 29161 29162 29163 29164 29165 29166 29167 29168 29169 29170 29171 29172 29173 29174 29175 29176 29177 29178 29179 29180 29181 29182 29183 29184 29185 29186 29187 29188 29189 29190 29191 29192 29193 29194 29195 29196 29197 29198 29199 29200 29201 29202 29203 29204 29205 29206 29207 29208 29209 29210 29211 29212 29213 29214 29215 29216 29217 29218 29219 29220 29221 29222 29223 29224 29225 29226 29227 29228 29229 29230 29231 29232 29233 29234 29235 29236 29237 29238 29239 29240 29241 29242 29243 29244 29245 29246 29247 29248 29249 29250 29251 29252 29253 29254 29255 29256 29257 29258 29259 29260 29261 29262 29263 29264 29265 29266 29267 29268 29269 29270 29271 29272 29273 29274 29275 29276 29277 29278 29279 29280 29281 29282 29283 29284 29285 29286 29287 29288 29289 29290 29291 29292 29293 29294 29295 29296 29297 29298 29299 29300 29301 29302 29303 29304 29305 29306 29307 29308 29309 29310 29311 29312 29313 29314 29315 29316 29317 29318 29319 29320 29321 29322 29323 29324 29325 29326 29327 29328 29329 29330 29331 29332 29333 29334 29335 29336 29337 29338 29339 29340 29341 29342 29343 29344 29345 29346 29347 29348 29349 29350 29351 29352 29353 29354 29355 29356 29357 29358 29359 29360 29361 29362 29363 29364 29365 29366 29367 29368 29369 29370 29371 29372 29373 29374 29375 29376 29377 29378 29379 29380 29381 29382 29383 29384 29385 29386 29387 29388 29389 29390 29391 29392 29393 29394 29395 29396 29397 29398 29399 29400 29401 29402 29403 29404 29405 29406 29407 29408 29409 29410 29411 29412 29413 29414 29415 29416 29417 29418 29419 29420 29421 29422 29423 29424 29425 29426 29427 29428 29429 29430 29431 29432 29433 29434 29435 29436 29437 29438 29439 29440 29441 29442 29443 29444 29445 29446 29447 29448 29449 29450 29451 29452 29453 29454 29455 29456 29457 29458 29459 29460 29461 29462 29463 29464 29465 29466 29467 29468 29469 29470 29471 29472 29473 29474 29475 29476 29477 29478 29479 29480 29481 29482 29483 29484 29485 29486 29487 29488 29489 29490 29491 29492 29493 29494 29495 29496 29497 29498 29499 29500 29501 29502 29503 29504 29505 29506 29507 29508 29509 29510 29511 29512 29513 29514 29515 29516 29517 29518 29519 29520 29521 29522 29523 29524 29525 29526 29527 29528 29529 29530 29531 29532 29533 29534 29535 29536 29537 29538 29539 29540 29541 29542 29543 29544 29545 29546 29547 29548 29549 29550 29551 29552 29553 29554 29555 29556 29557 29558 29559 29560 29561 29562 29563 29564 29565 29566 29567 29568 29569 29570 29571 29572 29573 29574 29575 29576 29577 29578 29579 29580 29581 29582 29583 29584 29585 29586 29587 29588 29589 29590 29591 29592 29593 29594 29595 29596 29597 29598 29599 29600 29601 29602 29603 29604 29605 29606 29607 29608 29609 29610 29611 29612 29613 29614 29615 29616 29617 29618 29619 29620 29621 29622 29623 29624 29625 29626 29627 29628 29629 29630 29631 29632 29633 29634 29635 29636 29637 29638 29639 29640 29641 29642 29643 29644 29645 29646 29647 29648 29649 29650 29651 29652 29653 29654 29655 29656 29657 29658 29659 29660 29661 29662 29663 29664 29665 29666 29667 29668 29669 29670 29671 29672 29673 29674 29675 29676 29677 29678 29679 29680 29681 29682 29683 29684 29685 29686 29687 29688 29689 29690 29691 29692 29693 29694 29695 29696 29697 29698 29699 29700 29701 29702 29703 29704 29705 29706 29707 29708 29709 29710 29711 29712 29713 29714 29715 29716 29717 29718 29719 29720 29721 29722 29723 29724 29725 29726 29727 29728 29729 29730 29731 29732 29733 29734 29735 29736 29737 29738 29739 29740 29741 29742 29743 29744 29745 29746 29747 29748 29749 29750 29751 29752 29753 29754 29755 29756 29757 29758 29759 29760 29761 29762 29763 29764 29765 29766 29767 29768 29769 29770 29771 29772 29773 29774 29775 29776 29777 29778 29779 29780 29781 29782 29783 29784 29785 29786 29787 29788 29789 29790 29791 29792 29793 29794 29795 29796 29797 29798 29799 29800 29801 29802 29803 29804 29805 29806 29807 29808 29809 29810 29811 29812 29813 29814 29815 29816 29817 29818 29819 29820 29821 29822 29823 29824 29825 29826 29827 29828 29829 29830 29831 29832 29833 29834 29835 29836 29837 29838 29839 29840 29841 29842 29843 29844 29845 29846 29847 29848 29849 29850 29851 29852 29853 29854 29855 29856 29857 29858 29859 29860 29861 29862 29863 29864 29865 29866 29867 29868 29869 29870 29871 29872 29873 29874 29875 29876 29877 29878 29879 29880 29881 29882 29883 29884 29885 29886 29887 29888 29889 29890 29891 29892 29893 29894 29895 29896 29897 29898 29899 29900 29901 29902 29903 29904 29905 29906 29907 29908 29909 29910 29911 29912 29913 29914 29915 29916 29917 29918 29919 29920 29921 29922 29923 29924 29925 29926 29927 29928 29929 29930 29931 29932 29933 29934 29935 29936 29937 29938 29939 29940 29941 29942 29943 29944 29945 29946 29947 29948 29949 29950 29951 29952 29953 29954 29955 29956 29957 29958 29959 29960 29961 29962 29963 29964 29965 29966 29967 29968 29969 29970 29971 29972 29973 29974 29975 29976 29977 29978 29979 29980 29981 29982 29983 29984 29985 29986 29987 29988 29989 29990 29991 29992 29993 29994 29995 29996 29997 29998 29999 30000 30001 30002 30003 30004 30005 30006 30007 30008 30009 30010 30011 30012 30013 30014 30015 30016 30017 30018 30019 30020 30021 30022 30023 30024 30025 30026 30027 30028 30029 30030 30031 30032 30033 30034 30035 30036 30037 30038 30039 30040 30041 30042 30043 30044 30045 30046 30047 30048 30049 30050 30051 30052 30053 30054 30055 30056 30057 30058 30059 30060 30061 30062 30063 30064 30065 30066 30067 30068 30069 30070 30071 30072 30073 30074 30075 30076 30077 30078 30079 30080 30081 30082 30083 30084 30085 30086 30087 30088 30089 30090 30091 30092 30093 30094 30095 30096 30097 30098 30099 30100 30101 30102 30103 30104 30105 30106 30107 30108 30109 30110 30111 30112 30113 30114 30115 30116 30117 30118 30119 30120 30121 30122 30123 30124 30125 30126 30127 30128 30129 30130 30131 30132 30133 30134 30135 30136 30137 30138 30139 30140 30141 30142 30143 30144 30145 30146 30147 30148 30149 30150 30151 30152 30153 30154 30155 30156 30157 30158 30159 30160 30161 30162 30163 30164 30165 30166 30167 30168 30169 30170 30171 30172 30173 30174 30175 30176 30177 30178 30179 30180 30181 30182 30183 30184 30185 30186 30187 30188 30189 30190 30191 30192 30193 30194 30195 30196 30197 30198 30199 30200 30201 30202 30203 30204 30205 30206 30207 30208 30209 30210 30211 30212 30213 30214 30215 30216 30217 30218 30219 30220 30221 30222 30223 30224 30225 30226 30227 30228 30229 30230 30231 30232 30233 30234 30235 30236 30237 30238 30239 30240 30241 30242 30243 30244 30245 30246 30247 30248 30249 30250 30251 30252 30253 30254 30255 30256 30257 30258 30259 30260 30261 30262 30263 30264 30265 30266 30267 30268 30269 30270 30271 30272 30273 30274 30275 30276 30277 30278 30279 30280 30281 30282 30283 30284 30285 30286 30287 30288 30289 30290 30291 30292 30293 30294 30295 30296 30297 30298 30299 30300 30301 30302 30303 30304 30305 30306 30307 30308 30309 30310 30311 30312 30313 30314 30315 30316 30317 30318 30319 30320 30321 30322 30323 30324 30325 30326 30327 30328 30329 30330 30331 30332 30333 30334 30335 30336 30337 30338 30339 30340 30341 30342 30343 30344 30345 30346 30347 30348 30349 30350 30351 30352 30353 30354 30355 30356 30357 30358 30359 30360 30361 30362 30363 30364 30365 30366 30367 30368 30369 30370 30371 30372 30373 30374 30375 30376 30377 30378 30379 30380 30381 30382 30383 30384 30385 30386 30387 30388 30389 30390 30391 30392 30393 30394 30395 30396 30397 30398 30399 30400 30401 30402 30403 30404 30405 30406 30407 30408 30409 30410 30411 30412 30413 30414 30415 30416 30417 30418 30419 30420 30421 30422 30423 30424 30425 30426 30427 30428 30429 30430 30431 30432 30433 30434 30435 30436 30437 30438 30439 30440 30441 30442 30443 30444 30445 30446 30447 30448 30449 30450 30451 30452 30453 30454 30455 30456 30457 30458 30459 30460 30461 30462 30463 30464 30465 30466 30467 30468 30469 30470 30471 30472 30473 30474 30475 30476 30477 30478 30479 30480 30481 30482 30483 30484 30485 30486 30487 30488 30489 30490 30491 30492 30493 30494 30495 30496 30497 30498 30499 30500 30501 30502 30503 30504 30505 30506 30507 30508 30509 30510 30511 30512 30513 30514 30515 30516 30517 30518 30519 30520 30521 30522 30523 30524 30525 30526 30527 30528 30529 30530 30531 30532 30533 30534 30535 30536 30537 30538 30539 30540 30541 30542 30543 30544 30545 30546 30547 30548 30549 30550 30551 30552 30553 30554 30555 30556 30557 30558 30559 30560 30561 30562 30563 30564 30565 30566 30567 30568 30569 30570 30571 30572 30573 30574 30575 30576 30577 30578 30579 30580 30581 30582 30583 30584 30585 30586 30587 30588 30589 30590 30591 30592 30593 30594 30595 30596 30597 30598 30599 30600 30601 30602 30603 30604 30605 30606 30607 30608 30609 30610 30611 30612 30613 30614 30615 30616 30617 30618 30619 30620 30621 30622 30623 30624 30625 30626 30627 30628 30629 30630 30631 30632 30633 30634 30635 30636 30637 30638 30639 30640 30641 30642 30643 30644 30645 30646 30647 30648 30649 30650 30651 30652 30653 30654 30655 30656 30657 30658 30659 30660 30661 30662 30663 30664 30665 30666 30667 30668 30669 30670 30671 30672 30673 30674 30675 30676 30677 30678 30679 30680 30681 30682 30683 30684 30685 30686 30687 30688 30689 30690 30691 30692 30693 30694 30695 30696 30697 30698 30699 30700 30701 30702 30703 30704 30705 30706 30707 30708 30709 30710 30711 30712 30713 30714 30715 30716 30717 30718 30719 30720 30721 30722 30723 30724 30725 30726 30727 30728 30729 30730 30731 30732 30733 30734 30735 30736 30737 30738 30739 30740 30741 30742 30743 30744 30745 30746 30747 30748 30749 30750 30751 30752 30753 30754 30755 30756 30757 30758 30759 30760 30761 30762 30763 30764 30765 30766 30767 30768 30769 30770 30771 30772 30773 30774 30775 30776 30777 30778 30779 30780 30781 30782 30783 30784 30785 30786 30787 30788 30789 30790 30791 30792 30793 30794 30795 30796 30797 30798 30799 30800 30801 30802 30803 30804 30805 30806 30807 30808 30809 30810 30811 30812 30813 30814 30815 30816 30817 30818 30819 30820 30821 30822 30823 30824 30825 30826 30827 30828 30829 30830 30831 30832 30833 30834 30835 30836 30837 30838 30839 30840 30841 30842 30843 30844 30845 30846 30847 30848 30849 30850 30851 30852 30853 30854 30855 30856 30857 30858 30859 30860 30861 30862 30863 30864 30865 30866 30867 30868 30869 30870 30871 30872 30873 30874 30875 30876 30877 30878 30879 30880 30881 30882 30883 30884 30885 30886 30887 30888 30889 30890 30891 30892 30893 30894 30895 30896 30897 30898 30899 30900 30901 30902 30903 30904 30905 30906 30907 30908 30909 30910 30911 30912 30913 30914 30915 30916 30917 30918 30919 30920 30921 30922 30923 30924 30925 30926 30927 30928 30929 30930 30931 30932 30933 30934 30935 30936 30937 30938 30939 30940 30941 30942 30943 30944 30945 30946 30947 30948 30949 30950 30951 30952 30953 30954 30955 30956 30957 30958 30959 30960 30961 30962 30963 30964 30965 30966 30967 30968 30969 30970 30971 30972 30973 30974 30975 30976 30977 30978 30979 30980 30981 30982 30983 30984 30985 30986 30987 30988 30989 30990 30991 30992 30993 30994 30995 30996 30997 30998 30999 31000 31001 31002 31003 31004 31005 31006 31007 31008 31009 31010 31011 31012 31013 31014 31015 31016 31017 31018 31019 31020 31021 31022 31023 31024 31025 31026 31027 31028 31029 31030 31031 31032 31033 31034 31035 31036 31037 31038 31039 31040 31041 31042 31043 31044 31045 31046 31047 31048 31049 31050 31051 31052 31053 31054 31055 31056 31057 31058 31059 31060 31061 31062 31063 31064 31065 31066 31067 31068 31069 31070 31071 31072 31073 31074 31075 31076 31077 31078 31079 31080 31081 31082 31083 31084 31085 31086 31087 31088 31089 31090 31091 31092 31093 31094 31095 31096 31097 31098 31099 31100 31101 31102 31103 31104 31105 31106 31107 31108 31109 31110 31111 31112 31113 31114 31115 31116 31117 31118 31119 31120 31121 31122 31123 31124 31125 31126 31127 31128 31129 31130 31131 31132 31133 31134 31135 31136 31137 31138 31139 31140 31141 31142 31143 31144 31145 31146 31147 31148 31149 31150 31151 31152 31153 31154 31155 31156 31157 31158 31159 31160 31161 31162 31163 31164 31165 31166 31167 31168 31169 31170 31171 31172 31173 31174 31175 31176 31177 31178 31179 31180 31181 31182 31183 31184 31185 31186 31187 31188 31189 31190 31191 31192 31193 31194 31195 31196 31197 31198 31199 31200 31201 31202 31203 31204 31205 31206 31207 31208 31209 31210 31211 31212 31213 31214 31215 31216 31217 31218 31219 31220 31221 31222 31223 31224 31225 31226 31227 31228 31229 31230 31231 31232 31233 31234 31235 31236 31237 31238 31239 31240 31241 31242 31243 31244 31245 31246 31247 31248 31249 31250 31251 31252 31253 31254 31255 31256 31257 31258 31259 31260 31261 31262 31263 31264 31265 31266 31267 31268 31269 31270 31271 31272 31273 31274 31275 
</DataArray>
<DataArray type="UInt32" Name="offsets" format="ascii">
3 6 9 12 15 17 20 23 26 29 32 35 38 41 43 46 49 52 55 58 61 63 66 68 71 73 76 78 81 84 87 89 92 95 97 100 103 106 109 112 115 118 120 123 126 129 132 134 136 139 142 145 148 151 154 156 159 162 165 168 171 174 177 180 183 186 189 192 195 198 201 203 206 209 212 215 218 221 224 227 230 233 235 238 241 243 246 249 251 254 256 258 261 263 265 268 271 274 276 279 282 285 288 290 293 296 298 301 304 306 309 312 315 317 320 323 326 329 331 333 336 339 341 344 347 349 352 355 358 361 363 366 369 372 375 378 381 384 387 390 392 394 397 399 402 405 408 411 413 416 418 421 424 426 429 432 435 437 440 443 446 448 450 453 455 458 461 464 467 470 473 476 479 482 485 488 491 494 497 499 502 504 506 508 511 514 517 520 522 525 528 531 533 536 538 540 543 545 547 550 553 556 558 561 564 566 569 572 575 577 580 583 586 589 592 594 597 600 603 606 609 611 613 616 619 622 625 627 630 633 636 639 642 644 647 650 653 655 658 661 664 667 670 672 675 678 681 684 687 689 692 695 698 701 704 707 710 712 715 718 721 723 726 729 732 735 738 741 744 747 750 753 756 758 761 764 767 770 773 775 778 781 784 786 789 792 795 798 800 803 806 809 811 814 817 820 823 826 828 831 834 837 840 843 846 848 851 854 857 860 863 866 869 872 875 877 880 883 886 889 892 895 897 900 903 906 909 911 914 917 920 923 926 929 931 934 937 940 943 946 948 951 954 957 959 962 965 968 971 974 977 980 983 986 989 991 994 997 1000 1003 1006 1009 1012 1015 1018 1021 1024 1027 1030 1033 1036 1039 1042 1045 1048 1051 1054 1057 1060 1063 1066 1069 1072 1075 1078 1081 1084 1086 1089 1092 1094 1097 1100 1103 1106 1109 1112 1114 1117 1120 1123 1126 1129 1132 1135 1138 1141 1143 1146 1149 1151 1154 1157 1160 1163 1165 1168 1171 1173 1176 1179 1182 1184 1187 1190 1193 1195 1198 1201 1204 1206 1209 1212 1215 1218 1220 1223 1226 1228 1231 1234 1236 1239 1242 1245 1248 1251 1253 1256 1259 1262 1265 1268 1271 1274 1277 1279 1282 1285 1288 1290 1293 1296 1299 1302 1305 1307 1310 1313 1316 1319 1322 1325 1328 1331 1334 1337 1340 1343 1346 1349 1352 1355 1358 1360 1363 1366 1369 1372 1375 1378 1381 1384 1387 1390 1393 1396 1399 1402 1405 1408 1411 1414 1417 1420 1423 1426 1429 1432 1434 1437 1440 1443 1446 1448 1451 1454 1457 1460 1463 1466 1469 1471 1474 1477 1480 1483 1486 1488 1491 1494 1497 1500 1503 1506 1509 1512 1515 1518 1521 1524 1527 1530 1533 1536 1538 1541 1543 1546 1549 1551 1554 1556 1559 1562 1565 1568 1571 1574 1576 1579 1582 1585 1588 1591 1594 1597 1599 1602 1605 1607 1610 1613 1615 1618 1621 1624 1627 1630 1632 1635 1637 1640 1642 1645 1648 1651 1654 1656 1659 1662 1665 1667 1670 1672 1675 1678 1681 1684 1687 1689 1692 1694 1697 1700 1703 1706 1709 1712 1715 1718 1721 1724 1727 1730 1733 1736 1739 1741 1744 1747 1750 1753 1756 1759 1762 1765 1768 1771 1774 1777 1780 1783 1786 1788 1791 1794 1797 1800 1803 1806 1809 1812 1815 1818 1821 1824 1827 1830 1833 1836 1839 1842 1844 1847 1850 1853 1856 1859 1862 1865 1868 1871 1873 1876 1879 1881 1884 1887 1890 1893 1896 1899 1902 1905 1908 1911 1913 1916 1918 1921 1924 1927 1930 1933 1936 1939 1942 1945 1947 1950 1953 1956 1959 1962 1965 1968 1970 1973 1976 1979 1982 1985 1988 1991 1993 1996 1999 2002 2005 2008 2010 2013 2016 2019 2022 2025 2028 2031 2034 2037 2040 2042 2045 2048 2051 2054 2057 2060 2063 2066 2069 2072 2075 2078 2080 2083 2086 2089 2092 2095 2098 2101 2104 2107 2110 2113 2116 2119 2122 2125 2128 2131 2134 2137 2139 2141 2144 2147 2150 2153 2155 2157 2160 2163 2166 2169 2172 2175 2178 2181 2184 2187 2190 2193 2196 2198 2201 2204 2207 2210 2213 2216 2219 2222 2225 2228 2231 2234 2237 2240 2243 2246 2249 2252 2255 2258 2261 2264 2267 2270 2273 2276 2279 2282 2285 2288 2291 2294 2297 2300 2303 2306 2309 2312 2315 2318 2321 2324 2327 2330 2332 2335 2338 2340 2343 2346 2348 2351 2354 2356 2359 2362 2365 2368 2370 2373 2375 2378 2380 2383 2386 2388 2391 2394 2396 2399 2402 2405 2408 2410 2413 2416 2419 2422 2425 2428 2430 2433 2435 2438 2441 2444 2447 2450 2453 2456 2458 2461 2464 2467 2470 2472 2475 2478 2481 2484 2487 2490 2492 2495 2498 2501 2503 2506 2509 2512 2515 2518 2521 2524 2527 2530 2533 2536 2539 2542 2545 2547 2550 2553 2556 2558 2560 2563 2566 2569 2572 2575 2578 2581 2583 2586 2589 2592 2595 2598 2601 2603 2606 2609 2611 2614 2617 2620 2623 2626 2628 2630 2632 2635 2638 2641 2644 2646 2649 2652 2654 2657 2659 2662 2665 2668 2671 2673 2676 2679 2681 2684 2687 2690 2693 2696 2698 2701 2704 2706 2709 2712 2714 2717 2720 2723 2725 2728 2730 2733 2736 2739 2742 2745 2748 2751 2754 2756 2759 2762 2765 2767 2769 2772 2775 2777 2780 2783 2785 2788 2791 2794 2797 2800 2803 2806 2809 2812 2815 2818 2821 2824 2827 2830 2832 2835 2838 2841 2844 2847 2850 2853 2855 2858 2861 2864 2867 2870 2873 2876 2879 2882 2885 2888 2891 2894 2897 2900 2903 2906 2908 2910 2913 2916 2919 2922 2925 2928 2931 2934 2937 2940 2943 2946 2949 2952 2955 2958 2961 2964 2967 2970 2973 2975 2978 2981 2984 2987 2989 2992 2995 2997 3000 3003 3006 3009 3012 3014 3017 3020 3023 3026 3029 3032 3035 3038 3040 3043 3046 3049 3052 3055 3058 3061 3064 3067 3070 3073 3076 3079 3082 3085 3088 3091 3094 3097 3100 3103 3105 3108 3111 3114 3116 3119 3122 3125 3128 3131 3134 3137 3140 3143 3146 3149 3152 3155 3158 3161 3164 3167 3170 3172 3175 3178 3180 3183 3186 3189 3192 3195 3198 3201 3204 3207 3210 3213 3216 3219 3222 3225 3228 3231 3234 3237 3240 3243 3246 3249 3252 3255 3258 3261 3264 3267 3270 3273 3276 3279 3282 3285 3288 3291 3294 3297 3300 3302 3305 3308 3310 3313 3316 3318 3321 3324 3327 3330 3333 3336 3339 3341 3344 3347 3350 3353 3355 3358 3361 3364 3366 3369 3372 3375 3377 3380 3383 3386 3389 3392 3394 3397 3399 3402 3405 3408 3411 3414 3417 3420 3423 3426 3429 3432 3435 3438 3441 3444 3447 3450 3453 3456 3459 3462 3465 3468 3471 3474 3476 3479 3481 3484 3487 3490 3493 3496 3499 3501 3504 3507 3510 3513 3516 3518 3521 3524 3527 3530 3533 3535 3538 3541 3544 3547 3550 3553 3556 3559 3561 3564 3567 3570 3573 3576 3579 3582 3585 3588 3590 3593 3596 3598 3601 3604 3607 3610 3613 3616 3619 3622 3624 3627 3630 3633 3636 3639 3641 3644 3647 3650 3653 3655 3658 3661 3663 3666 3669 3672 3674 3677 3680 3683 3686 3689 3692 3695 3698 3701 3704 3707 3710 3713 3716 3718 3721 3724 3727 3730 3733 3736 3739 3741 3744 3746 3749 3752 3755 3758 3761 3764 3767 3770 3773 3776 3778 3781 3784 3786 3789 3792 3795 3798 3801 3804 3806 3809 3812 3815 3818 3821 3824 3827 3829 3832 3835 3838 3841 3844 3847 3850 3853 3856 3859 3862 3865 3868 3871 3874 3877 3880 3883 3886 3889 3892 3895 3898 3901 3904 3907 3910 3913 3916 3919 3922 3925 3927 3930 3933 3936 3938 3941 3944 3947 3949 3952 3955 3958 3961 3963 3966 3969 3972 3975 3978 3980 3983 3986 3989 3991 3994 3997 4000 4003 4006 4009 4012 4015 4018 4021 4024 4027 4030 4033 4036 4039 4041 4044 4047 4050 4053 4056 4059 4062 4065 4068 4071 4073 4076 4079 4081 4084 4087 4090 4092 4095 4098 4101 4104 4107 4109 4112 4115 4117 4120 4122 4125 4128 4130 4133 4136 4138 4141 4144 4146 4149 4152 4155 4158 4161 4164 4167 4170 4173 4176 4179 4182 4184 4187 4190 4193 4196 4199 4202 4205 4208 4210 4213 4216 4219 4222 4225 4228 4231 4234 4237 4240 4242 4245 4247 4250 4253 4256 4258 4261 4264 4267 4270 4273 4276 4278 4281 4284 4287 4290 4293 4296 4299 4302 4305 4308 4311 4314 4317 4320 4323 4326 4329 4332 4335 4338 4341 4344 4347 4350 4353 4356 4359 4362 4365 4368 4370 4373 4376 4378 4381 4383 4386 4389 4392 4395 4397 4400 4403 4406 4409 4412 4415 4418 4420 4423 4426 4429 4432 4435 4438 4441 4444 4447 4450 4453 4456 4459 4462 4465 4468 4471 4473 4476 4479 4481 4484 4487 4490 4493 4496 4499 4502 4505 4508 4511 4514 4517 4520 4523 4526 4529 4532 4534 4537 4540 4543 4546 4549 4552 4555 4558 4560 4563 4566 4569 4572 4575 4577 4580 4582 4585 4588 4591 4594 4597 4600 4603 4606 4609 4612 4615 4618 4621 4624 4626 4629 4632 4634 4637 4640 4643 4646 4649 4652 4655 4658 4661 4664 4667 4670 4673 4676 4679 4682 4685 4688 4691 4693 4696 4699 4702 4705 4708 4710 4713 4715 4717 4720 4723 4725 4728 4731 4733 4736 4739 4742 4745 4748 4751 4753 4756 4759 4761 4764 4766 4769 4772 4775 4777 4780 4783 4786 4789 4792 4795 4797 4800 4803 4806 4809 4812 4815 4817 4820 4823 4826 4829 4832 4835 4838 4841 4844 4847 4849 4852 4855 4858 4861 4864 4867 4870 4873 4875 4878 4881 4884 4887 4890 4893 4896 4899 4902 4905 4907 4910 4913 4916 4918 4921 4924 4927 4930 4933 4936 4939 4942 4945 4948 4950 4953 4956 4958 4961 4964 4967 4969 4972 4975 4978 4981 4984 4987 4990 4993 4996 4998 5001 5004 5007 5009 5012 5015 5018 5021 5024 5027 5030 5032 5035 5038 5041 5044 5047 5049 5052 5055 5058 5061 5064 5067 5070 5073 5076 5079 5082 5085 5087 5090 5093 5096 5099 5101 5104 5107 5110 5112 5115 5118 5121 5124 5127 5130 5132 5135 5138 5140 5143 5146 5149 5152 5155 5158 5161 5164 5167 5170 5173 5176 5179 5181 5184 5187 5190 5193 5196 5199 5202 5205 5208 5211 5214 5217 5219 5222 5224 5227 5230 5233 5235 5238 5241 5243 5246 5249 5252 5255 5258 5261 5264 5267 5270 5273 5276 5279 5282 5285 5288 5291 5294 5297 5300 5303 5305 5308 5311 5314 5317 5320 5323 5326 5329 5332 5335 5338 5341 5344 5347 5350 5353 5356 5359 5362 5365 5368 5371 5374 5376 5379 5382 5385 5387 5390 5393 5396 5399 5402 5405 5408 5411 5413 5416 5419 5422 5425 5428 5431 5434 5436 5439 5442 5445 5448 5451 5454 5457 5460 5462 5465 5468 5471 5474 5476 5479 5482 5484 5487 5490 5493 5496 5499 5502 5505 5508 5511 5514 5517 5520 5523 5526 5529 5532 5535 5538 5541 5544 5547 5550 5553 5556 5559 5562 5565 5568 5571 5574 5577 5580 5583 5586 5589 5592 5595 5598 5601 5604 5607 5610 5613 5616 5619 5622 5624 5627 5630 5633 5636 5639 5642 5645 5648 5650 5653 5656 5658 5661 5664 5667 5670 5673 5676 5679 5682 5685 5688 5690 5693 5696 5699 5702 5705 5708 5711 5714 5717 5720 5723 5726 5729 5732 5735 5738 5741 5744 5747 5750 5753 5756 5759 5762 5765 5768 5771 5774 5777 5780 5783 5786 5789 5792 5795 5798 5801 5804 5807 5810 5813 5816 5819 5822 5825 5828 5831 5834 5837 5840 5843 5846 5849 5852 5855 5858 5861 5864 5867 5870 5873 5876 5879 5882 5885 5888 5891 5894 5897 5900 5903 5906 5909 5912 5915 5918 5921 5924 5927 5930 5933 5936 5938 5941 5944 5947 5950 5952 5955 5958 5961 5964 5967 5970 5973 5976 5979 5982 5985 5988 5991 5994 5997 6000 6003 6006 6009 6012 6015 6018 6021 6024 6027 6030 6032 6035 6038 6041 6044 6047 6050 6053 6055 6058 6061 6064 6067 6070 6073 6076 6079 6082 6085 6088 6091 6094 6096 6099 6101 6104 6107 6110 6113 6116 6119 6122 6125 6128 6131 6134 6137 6140 6143 6145 6148 6151 6154 6157 6160 6163 6166 6169 6172 6175 6178 6181 6184 6187 6190 6193 6196 6199 6202 6205 6208 6210 6213 6216 6219 6222 6224 6227 6229 6232 6235 6238 6241 6244 6247 6249 6251 6254 6257 6260 6263 6266 6269 6272 6274 6277 6280 6283 6286 6289 6292 6295 6298 6301 6304 6307 6310 6313 6316 6319 6322 6325 6327 6330 6333 6336 6339 6342 6344 6347 6350 6353 6356 6359 6362 6365 6367 6370 6373 6376 6379 6382 6385 6388 6391 6394 6397 6400 6403 6406 6409 6412 6415 6418 6420 6423 6426 6429 6432 6435 6438 6441 6444 6447 6450 6453 6456 6459 6462 6465 6468 6471 6474 6477 6479 6482 6485 6488 6491 6494 6496 6499 6502 6505 6508 6511 6514 6517 6520 6523 6526 6529 6532 6535 6538 6541 6544 6547 6550 6553 6556 6559 6561 6564 6567 6569 6572 6575 6578 6581 6584 6587 6590 6593 6596 6599 6602 6605 6608 6611 6614 6617 6620 6623 6626 6629 6632 6635 6638 6641 6644 6647 6650 6653 6656 6659 6662 6665 6667 6670 6673 6676 6679 6682 6685 6688 6691 6694 6697 6700 6703 6706 6709 6712 6715 6717 6720 6723 6726 6729 6732 6735 6737 6740 6743 6746 6749 6752 6754 6757 6759 6762 6765 6768 6771 6773 6776 6779 6782 6785 6788 6791 6794 6797 6800 6803 6806 6809 6811 6813 6816 6819 6822 6825 6828 6831 6833 6836 6839 6842 6844 6846 6849 6852 6854 6857 6859 6862 6864 6867 6870 6873 6876 6878 6881 6884 6887 6889 6892 6895 6898 6901 6904 6907 6909 6911 6914 6917 6920 6923 6926 6929 6932 6935 6937 6940 6943 6946 6949 6951 6954 6956 6959 6962 6965 6968 6971 6974 6977 6980 6983 6986 6989 6992 6994 6997 7000 7003 7006 7009 7012 7015 7017 7020 7023 7026 7029 7032 7035 7038 7041 7044 7047 7050 7053 7056 7059 7062 7065 7068 7071 7074 7077 7079 7082 7084 7087 7090 7093 7096 7099 7102 7105 7108 7111 7114 7117 7120 7123 7126 7129 7132 7135 7138 7141 7144 7147 7150 7152 7155 7157 7160 7163 7166 7169 7172 7175 7178 7180 7183 7186 7189 7192 7195 7198 7200 7203 7206 7209 7212 7215 7218 7221 7224 7226 7229 7232 7235 7238 7241 7244 7247 7250 7253 7256 7259 7262 7265 7268 7271 7274 7277 7280 7283 7286 7289 7292 7295 7298 7301 7303 7306 7309 7312 7314 7316 7319 7322 7325 7327 7330 7333 7336 7338 7341 7344 7347 7350 7353 7356 7359 7362 7365 7367 7370 7373 7376 7379 7382 7385 7387 7390 7392 7395 7398 7401 7404 7406 7408 7410 7413 7416 7419 7422 7425 7428 7431 7434 7437 7440 7443 7446 7449 7452 7455 7457 7460 7463 7466 7469 7472 7475 7478 7481 7483 7486 7489 7492 7495 7498 7501 7504 7507 7510 7513 7516 7518 7521 7523 7526 7529 7532 7535 7538 7541 7544 7547 7550 7553 7556 7559 7562 7565 7568 7571 7574 7577 7579 7581 7584 7587 7590 7593 7596 7599 7601 7604 7607 7610 7613 7616 7618 7621 7624 7627 7630 7633 7636 7639 7642 7645 7648 7651 7654 7656 7659 7662 7665 7668 7670 7673 7676 7678 7681 7684 7687 7690 7693 7696 7699 7702 7704 7707 7710 7713 7716 7719 7722 7725 7728 7731 7734 7737 7740 7743 7745 7748 7751 7754 7757 7759 7762 7765 7768 7770 7773 7775 7778 7780 7783 7786 7789 7792 7795 7798 7801 7804 7807 7810 7813 7815 7818 7821 7824 7827 7830 7832 7835 7838 7840 7843 7845 7848 7851 7854 7857 7859 7862 7865 7868 7871 7874 7877 7879 7882 7885 7888 7891 7894 7897 7900 7903 7906 7908 7911 7914 7917 7920 7923 7926 7928 7931 7934 7937 7940 7943 7946 7949 7952 7955 7958 7961 7964 7967 7970 7972 7975 7978 7981 7983 7985 7988 7990 7993 7995 7997 7999 8002 8005 8008 8011 8014 8016 8019 8022 8025 8028 8031 8034 8037 8039 8042 8044 8047 8050 8053 8056 8059 8062 8065 8068 8071 8073 8076 8079 8082 8085 8088 8091 8093 8096 8099 8102 8104 8107 8110 8113 8116 8119 8122 8125 8127 8130 8133 8136 8139 8142 8144 8146 8149 8152 8155 8158 8161 8164 8166 8168 8171 8174 8177 8180 8182 8185 8188 8191 8194 8196 8198 8201 8203 8206 8208 8211 8214 8217 8220 8223 8225 8228 8231 8234 8237 8239 8242 8245 8248 8251 8254 8257 8260 8262 8265 8267 8270 8273 8276 8279 8282 8285 8288 8291 8294 8297 8300 8303 8306 8309 8312 8315 8317 8319 8322 8325 8327 8330 8333 8336 8339 8342 8345 8347 8350 8353 8355 8358 8361 8363 8366 8368 8371 8374 8376 8379 8382 8385 8388 8391 8394 8397 8400 8403 8406 8409 8412 8415 8418 8421 8424 8427 8430 8433 8435 8438 8440 8443 8446 8449 8452 8455 8458 8461 8464 8467 8469 8472 8475 8478 8481 8483 8486 8489 8492 8494 8497 8500 8502 8505 8508 8511 8514 8516 8519 8522 8525 8527 8530 8532 8535 8538 8541 8544 8547 8550 8553 8556 8559 8562 8565 8568 8571 8574 8576 8579 8582 8585 8588 8590 8592 8595 8598 8601 8604 8607 8610 8613 8616 8619 8622 8625 8628 8630 8633 8636 8639 8642 8645 8648 8650 8653 8656 8659 8662 8664 8667 8670 8673 8676 8679 8682 8685 8688 8691 8694 8697 8700 8703 8706 8709 8711 8714 8717 8720 8723 8726 8729 8732 8735 8738 8741 8744 8747 8750 8753 8756 8759 8762 8765 8768 8771 8774 8777 8780 8782 8785 8788 8791 8794 8796 8799 8802 8804 8807 8809 8812 8815 8817 8820 8823 8826 8829 8832 8834 8836 8839 8842 8845 8848 8851 8854 8857 8859 8862 8865 8868 8871 8874 8877 8880 8883 8885 8888 8891 8894 8897 8900 8903 8906 8909 8912 8915 8918 8921 8924 8927 8930 8933 8935 8938 8941 8944 8947 8950 8953 8956 8959 8962 8965 8968 8970 8972 8975 8978 8981 8984 8986 8989 8992 8995 8997 9000 9003 9006 9009 9012 9015 9017 9020 9022 9025 9028 9030 9033 9036 9039 9041 9043 9046 9048 9050 9053 9055 9058 9061 9064 9067 9069 9072 9075 9078 9081 9084 9087 9090 9093 9096 9099 9102 9105 9108 9110 9112 9115 9117 9120 9123 9126 9129 9132 9135 9138 9141 9144 9147 9150 9153 9156 9159 9162 9165 9167 9170 9173 9176 9179 9181 9183 9186 9189 9192 9195 9198 9201 9204 9207 9210 9213 9216 9219 9222 9225 9228 9230 9233 9236 9239 9242 9245 9248 9251 9254 9256 9259 9262 9265 9268 9271 9274 9277 9280 9283 9285 9288 9291 9294 9297 9300 9303 9306 9309 9312 9315 9318 9321 9324 9327 9329 9332 9335 9338 9341 9344 9347 9350 9353 9356 9359 9362 9364 9367 9370 9373 9376 9379 9382 9385 9388 9391 9393 9396 9399 9401 9404 9407 9409 9411 9414 9417 9420 9422 9425 9428 9431 9433 9436 9439 9442 9445 9448 9450 9453 9456 9459 9462 9465 9468 9471 9474 9477 9480 9483 9486 9489 9491 9494 9496 9499 9502 9504 9506 9509 9512 9515 9518 9521 9523 9526 9529 9532 9535 9538 9541 9544 9547 9550 9553 9556 9558 9561 9564 9567 9570 9573 9576 9579 9582 9585 9588 9591 9594 9597 9599 9601 9604 9607 9610 9613 9616 9619 9622 9625 9628 9631 9634 9637 9640 9643 9646 9649 9652 9655 9658 9661 9663 9666 9669 9671 9674 9677 9680 9683 9686 9689 9692 9694 9697 9700 9703 9706 9709 9712 9715 9717 9720 9723 9726 9728 9730 9733 9736 9738 9741 9744 9747 9750 9752 9754 9757 9759 9762 9765 9768 9771 9774 9777 9780 9783 9786 9789 9792 9795 9798 9800 9803 9806 9808 9811 9814 9817 9819 9822 9825 9828 9831 9834 9837 9840 9843 9846 9849 9852 9855 9858 9860 9863 9866 9869 9872 9875 9878 9881 9884 9887 9890 9893 9896 9898 9901 9904 9907 9910 9913 9916 9919 9922 9925 9928 9931 9934 9936 9939 9942 9944 9947 9950 9953 9956 9959 9962 9965 9968 9971 9974 9977 9980 9983 9986 9989 9992 9995 9997 10000 10003 10005 10008 10011 10013 10016 10019 10021 10024 10027 10030 10033 10035 10037 10039 10042 10044 10047 10050 10053 10056 10059 10062 10064 10067 10070 10073 10076 10079 10082 10085 10088 10091 10094 10097 10100 10103 10106 10109 10112 10115 10118 10121 10124 10127 10130 10133 10136 10138 10141 10144 10147 10150 10152 10155 10158 10161 10164 10167 10170 10173 10176 10179 10181 10183 10186 10189 10192 10195 10198 10201 10204 10207 10210 10212 10215 10218 10221 10224 10227 10230 10232 10235 10237 10240 10243 10245 10248 10251 10254 10256 10258 10261 10264 10266 10268 10271 10274 10277 10280 10283 10286 10288 10291 10294 10297 10300 10302 10305 10308 10311 10314 10317 10320 10323 10326 10329 10332 10335 10338 10340 10343 10346 10348 10351 10354 10357 10360 10363 10365 10367 10370 10373 10376 10378 10381 10384 10387 10390 10393 10396 10399 10402 10405 10407 10410 10413 10416 10419 10422 10425 10428 10431 10434 10437 10440 10443 10446 10449 10452 10455 10458 10461 10464 10467 10470 10472 10475 10478 10481 10484 10487 10490 10493 10496 10499 10501 10504 10507 10510 10513 10516 10519 10522 10525 10527 10530 10533 10536 10539 10542 10545 10547 10550 10553 10556 10559 10562 10565 10568 10571 10574 10577 10580 10583 10585 10588 10591 10594 10596 10599 10602 10605 10608 10611 10614 10617 10620 10623 10626 10629 10632 10634 10637 10640 10643 10646 10649 10652 10655 10658 10661 10664 10666 10669 10672 10675 10678 10681 10684 10687 10690 10693 10696 10699 10701 10704 10707 10710 10712 10715 10718 10721 10724 10727 10730 10733 10736 10739 10742 10745 10747 10750 10753 10756 10758 10761 10764 10766 10769 10772 10775 10778 10781 10784 10787 10790 10793 10796 10799 10802 10805 10807 10810 10813 10815 10818 10821 10823 10826 10829 10831 10833 10836 10839 10842 10844 10847 10850 10852 10855 10858 10861 10864 10866 10869 10872 10875 10878 10881 10884 10887 10890 10893 10896 10899 10902 10905 10907 10910 10913 10916 10919 10921 10924 10927 10930 10933 10936 10938 10941 10944 10947 10949 10952 10955 10958 10961 10964 10967 10970 10973 10975 10978 10981 10984 10987 10990 10993 10995 10998 11001 11004 11007 11010 11012 11015 11017 11020 11023 11026 11028 11030 11033 11036 11039 11042 11045 11048 11050 11053 11056 11059 11062 11065 11068 11071 11074 11077 11079 11082 11085 11088 11090 11093 11096 11098 11101 11103 11106 11109 11112 11115 11118 11121 11124 11126 11129 11132 11135 11138 11140 11143 11146 11149 11152 11155 11158 11160 11163 11166 11169 11172 11175 11178 11181 11184 11187 11190 11193 11196 11198 11201 11204 11207 11210 11212 11215 11217 11220 11223 11226 11229 11232 11234 11237 11240 11243 11245 11248 11251 11254 11257 11259 11262 11265 11268 11271 11274 11277 11280 11283 11286 11289 11292 11295 11298 11301 11304 11307 11310 11313 11316 11319 11322 11325 11328 11331 11334 11337 11340 11343 11346 11349 11351 11354 11357 11360 11363 11366 11369 11372 11375 11378 11381 11384 11387 11390 11393 11396 11399 11402 11405 11408 11411 11414 11417 11420 11423 11426 11429 11432 11435 11438 11441 11444 11447 11450 11453 11456 11459 11462 11465 11468 11471 11474 11477 11480 11483 11486 11489 11492 11495 11498 11501 11504 11507 11510 11513 11516 11519 11522 11525 11528 11531 11534 11537 11540 11543 11546 11549 11552 11554 11557 11560 11563 11566 11569 11572 11575 11578 11581 11584 11587 11590 11593 11596 11599 11602 11605 11608 11611 11614 11617 11620 11623 11626 11628 11631 11634 11637 11640 11643 11646 11649 11652 11655 11658 11660 11663 11666 11669 11672 11675 11678 11681 11683 11685 11688 11691 11694 11697 11700 11703 11706 11709 11712 11715 11718 11721 11724 11727 11730 11733 11736 11739 11742 11745 11748 11751 11754 11757 11760 11763 11766 11769 11772 11775 11778 11780 11783 11786 11789 11792 11795 11798 11801 11804 11807 11810 11812 11814 11817 11819 11822 11825 11828 11831 11834 11837 11839 11842 11845 11848 11851 11854 11856 11859 11862 11865 11868 11871 11873 11876 11879 11882 11885 11887 11890 11893 11896 11899 11902 11905 11908 11911 11914 11917 11920 11923 11926 11929 11932 11935 11938 11941 11944 11946 11949 11952 11955 11958 11961 11964 11967 11970 11973 11975 11978 11981 11984 11987 11990 11993 11996 11999 12002 12005 12007 12010 12013 12016 12018 12021 12024 12027 12029 12032 12035 12037 12039 12042 12045 12048 12051 12053 12056 12059 12062 12065 12068 12071 12074 12077 12079 12082 12085 12088 12091 12094 12097 12100 12103 12106 12109 12112 12115 12118 12121 12124 12127 12130 12133 12136 12139 12142 12145 12148 12151 12154 12157 12160 12163 12166 12169 12172 12175 12178 12180 12183 12186 12188 12191 12193 12196 12198 12201 12204 12207 12209 12211 12213 12216 12219 12222 12224 12227 12230 12233 12236 12239 12242 12245 12248 12251 12254 12257 12260 12263 12266 12268 12271 12274 12277 12280 12283 12286 12289 12292 12295 12298 12301 12304 12307 12310 12313 12315 12318 12321 12323 12325 12328 12331 12334 12336 12339 12342 12344 12347 12349 12352 12354 12357 12360 12363 12366 12369 12372 12375 12378 12380 12383 12386 12388 12391 12394 12397 12399 12402 12404 12407 12410 12413 12416 12419 12422 12425 12428 12431 12434 12437 12440 12443 12446 12449 12452 12455 12458 12461 12464 12467 12470 12473 12476 12479 12482 12485 12488 12491 12494 12497 12500 12503 12506 12509 12512 12515 12518 12521 12524 12527 12530 12533 12536 12539 12541 12544 12547 12550 12553 12556 12559 12561 12563 12566 12569 12572 12575 12578 12580 12583 12585 12587 12590 12592 12594 12597 12599 12602 12604 12607 12610 12613 12616 12619 12622 12625 12628 12631 12633 12636 12639 12642 12645 12648 12651 12653 12656 12659 12662 12665 12668 12671 12674 12677 12680 12683 12686 12688 12690 12693 12696 12699 12702 12705 12708 12710 12712 12715 12718 12720 12723 12726 12729 12732 12735 12738 12741 12744 12746 12749 12752 12755 12758 12761 12764 12767 12770 12773 12776 12779 12782 12785 12788 12791 12794 12797 12800 12803 12806 12808 12811 12813 12816 12819 12821 12824 12827 12830 12833 12835 12837 12839 12842 12845 12848 12850 12852 12855 12858 12860 12863 12866 12869 12871 12874 12876 12879 12882 12884 12887 12889 12891 12894 12896 12899 12902 12905 12908 12911 12913 12915 12918 12921 12924 12927 12930 12933 12936 12938 12941 12944 12947 12950 12953 12955 12958 12961 12964 12966 12969 12972 12975 12978 12980 12983 12985 12988 12990 12993 12996 12998 13000 13003 13006 13009 13011 13014 13016 13019 13022 13025 13028 13031 13034 13037 13040 13043 13046 13049 13052 13055 13058 13061 13064 13067 13070 13073 13076 13078 13081 13084 13087 13090 13093 13096 13099 13102 13105 13107 13110 13113 13116 13119 13121 13124 13127 13130 13133 13135 13138 13141 13144 13147 13150 13153 13156 13159 13162 13165 13167 13170 13173 13176 13179 13181 13184 13187 13190 13193 13196 13199 13202 13205 13208 13211 13214 13217 13220 13223 13226 13229 13232 13235 13238 13240 13243 13246 13248 13251 13254 13256 13259 13262 13265 13267 13269 13272 13275 13278 13281 13284 13287 13290 13293 13295 13298 13301 13304 13307 13310 13313 13316 13319 13322 13325 13328 13331 13334 13337 13340 13343 13346 13349 13352 13355 13357 13360 13363 13366 13369 13372 13375 13378 13381 13384 13387 13390 13393 13396 13399 13402 13405 13408 13411 13414 13417 13420 13423 13426 13429 13432 13435 13437 13440 13443 13446 13449 13452 13455 13458 13461 13464 13466 13469 13472 13474 13477 13479 13481 13484 13487 13490 13493 13496 13499 13501 13504 13507 13510 13513 13516 13519 13522 13525 13528 13531 13534 13537 13540 13543 13546 13549 13552 13555 13558 13561 13564 13567 13570 13573 13576 13579 13582 13585 13588 13591 13594 13597 13600 13603 13606 13608 13611 13614 13617 13620 13623 13626 13629 13632 13635 13638 13641 13644 13647 13650 13653 13656 13659 13662 13665 13668 13671 13674 13677 13680 13683 13686 13689 13692 13695 13697 13700 13703 13706 13709 13712 13715 13718 13720 13723 13726 13728 13731 13734 13737 13740 13743 13745 13748 13750 13753 13756 13758 13761 13764 13767 13770 13773 13776 13779 13782 13785 13788 13791 13794 13797 13800 13803 13806 13809 13812 13815 13818 13821 13824 13827 13830 13833 13836 13839 13842 13845 13848 13851 13854 13857 13860 13863 13866 13869 13872 13875 13877 13880 13882 13885 13888 13891 13894 13897 13900 13903 13905 13907 13910 13913 13916 13918 13921 13924 13927 13930 13933 13936 13939 13942 13945 13948 13950 13953 13956 13958 13961 13964 13966 13969 13972 13975 13978 13981 13984 13987 13989 13992 13995 13998 14001 14004 14007 14010 14012 14015 14018 14021 14024 14027 14030 14033 14036 14039 14042 14045 14047 14050 14053 14056 14059 14062 14064 14067 14070 14073 14076 14079 14082 14084 14087 14090 14093 14096 14098 14101 14103 14106 14109 14112 14114 14116 14119 14121 14124 14127 14130 14133 14136 14139 14141 14144 14147 14150 14153 14156 14159 14162 14165 14167 14170 14173 14175 14178 14181 14184 14186 14189 14192 14194 14197 14200 14202 14205 14208 14211 14214 14216 14219 14222 14225 14227 14230 14233 14236 14239 14241 14244 14247 14250 14253 14256 14259 14262 14265 14268 14271 14274 14277 14280 14283 14286 14288 14291 14294 14297 14300 14303 14305 14308 14311 14314 14317 14320 14323 14326 14329 14332 14335 14338 14341 14344 14347 14350 14353 14356 14358 14361 14364 14366 14369 14372 14375 14378 14381 14384 14386 14389 14392 14395 14398 14401 14404 14407 14410 14413 14416 14419 14422 14425 14428 14431 14434 14437 14439 14442 14445 14448 14451 14454 14457 14460 14463 14466 14468 14471 14473 14476 14479 14481 14484 14487 14490 14492 14494 14497 14500 14503 14506 14509 14512 14515 14518 14520 14523 14526 14529 14531 14534 14536 14538 14541 14544 14546 14549 14552 14555 14558 14561 14564 14567 14570 14572 14575 14578 14581 14583 14585 14587 14590 14592 14595 14598 14600 14603 14606 14608 14611 14613 14616 14619 14622 14625 14628 14631 14634 14637 14640 14643 14646 14649 14652 14655 14658 14661 14664 14667 14670 14673 14676 14679 14682 14685 14688 14691 14694 14697 14700 14703 14706 14709 14712 14715 14718 14721 14724 14727 14730 14733 14736 14739 14742 14745 14748 14751 14754 14757 14760 14763 14766 14769 14771 14774 14777 14779 14782 14785 14788 14791 14794 14797 14800 14803 14805 14808 14811 14813 14816 14819 14822 14824 14827 14830 14833 14836 14839 14842 14845 14848 14851 14854 14857 14860 14863 14866 14869 14872 14875 14878 14881 14884 14886 14889 14891 14894 14896 14899 14902 14905 14907 14910 14913 14915 14918 14921 14924 14927 14930 14933 14936 14939 14942 14945 14948 14951 14954 14957 14960 14963 14966 14969 14972 14975 14978 14980 14983 14986 14988 14991 14994 14996 14999 15002 15005 15008 15011 15014 15017 15019 15022 15025 15028 15031 15034 15036 15039 15042 15045 15047 15050 15053 15055 15058 15061 15064 15067 15070 15073 15076 15079 15082 15085 15088 15091 15094 15097 15100 15103 15106 15109 15112 15115 15118 15121 15124 15127 15130 15133 15136 15139 15142 15145 15148 15151 15153 15156 15159 15161 15164 15167 15170 15172 15174 15177 15179 15182 15184 15187 15190 15193 15195 15198 15201 15204 15207 15210 15212 15215 15218 15221 15224 15227 15230 15233 15236 15239 15242 15244 15247 15250 15253 15256 15259 15261 15264 15267 15270 15273 15275 15278 15281 15284 15287 15290 15293 15296 15299 15302 15305 15308 15311 15313 15316 15319 15322 15325 15328 15331 15334 15336 15339 15342 15345 15348 15351 15354 15357 15360 15363 15366 15369 15372 15375 15378 15381 15384 15387 15390 15393 15395 15398 15401 15404 15407 15410 15413 15415 15418 15421 15424 15427 15430 15433 15436 15439 15442 15445 15448 15451 15453 15456 15459 15462 15465 15468 15471 15474 15477 15480 15482 15485 15487 15490 15493 15496 15499 15502 15505 15508 15511 15514 15516 15519 15521 15524 15527 15530 15533 15536 15539 15542 15545 15548 15550 15553 15556 15559 15562 15565 15568 15571 15573 15576 15579 15582 15584 15587 15590 15593 15596 15599 15602 15604 15607 15610 15613 15616 15619 15622 15624 15627 15630 15633 15636 15638 15641 15644 15647 15649 15652 15655 15658 15660 15663 15666 15669 15671 15674 15677 15680 15683 15686 15688 15690 15693 15696 15699 15702 15705 15708 15711 15714 15717 15720 15723 15726 15729 15731 15734 15737 15740 15743 15745 15748 15751 15754 15757 15760 15763 15766 15769 15772 15775 15778 15781 15784 15787 15790 15793 15796 15799 15802 15804 15807 15809 15812 15815 15818 15821 15824 15827 15830 15833 15836 15839 15842 15845 15847 15850 15853 15856 15859 15862 15864 15867 15870 15873 15876 15879 15882 15885 15887 15890 15893 15896 15898 15900 15903 15906 15909 15912 15915 15918 15921 15924 15927 15930 15932 15935 15938 15941 15944 15947 15950 15952 15955 15958 15961 15964 15967 15970 15973 15976 15979 15982 15985 15988 15990 15993 15996 15998 16001 16004 16007 16010 16012 16015 16018 16021 16024 16027 16029 16031 16034 16037 16039 16042 16045 16048 16051 16054 16056 16059 16061 16064 16066 16068 16071 16073 16076 16079 16081 16084 16087 16090 16093 16096 16099 16102 16104 16106 16109 16111 16114 16116 16119 16122 16125 16128 16131 16134 16137 16140 16143 16146 16149 16151 16154 16157 16160 16163 16166 16169 16172 16175 16178 16181 16184 16187 16190 16193 16196 16198 16201 16204 16207 16210 16213 16216 16219 16222 16224 16227 16230 16233 16236 16239 16242 16245 16248 16251 16254 16257 16260 16263 16266 16269 16272 16274 16277 16280 16283 16286 16289 16292 16295 16298 16301 16304 16307 16310 16313 16315 16318 16320 16323 16326 16329 16332 16335 16338 16341 16344 16347 16350 16353 16356 16359 16362 16365 16368 16371 16374 16377 16379 16382 16385 16388 16390 16393 16396 16399 16402 16405 16408 16411 16414 16417 16420 16423 16426 16429 16432 16435 16438 16441 16444 16447 16450 16453 16456 16459 16462 16465 16468 16471 16473 16476 16479 16482 16485 16488 16491 16494 16497 16499 16502 16505 16508 16511 16514 16517 16520 16523 16525 16527 16530 16533 16536 16539 16542 16545 16548 16551 16554 16557 16560 16563 16566 16569 16572 16575 16578 16581 16584 16587 16590 16593 16596 16599 16602 16605 16608 16611 16614 16617 16619 16622 16625 16628 16631 16634 16637 16640 16643 16646 16649 16652 16654 16656 16659 16662 16665 16667 16669 16672 16675 16678 16680 16683 16686 16689 16691 16694 16697 16700 16703 16706 16708 16711 16714 16716 16719 16722 16725 16728 16731 16734 16737 16740 16743 16746 16749 16752 16755 16758 16761 16764 16767 16770 16773 16776 16779 16782 16785 16788 16791 16794 16797 16800 16803 16806 16808 16811 16814 16817 16820 16823 16826 16829 16832 16835 16838 16841 16844 16847 16850 16852 16855 16858 16861 16864 16867 16870 16873 16876 16879 16882 16885 16888 16891 16894 16897 16900 16903 16906 16909 16912 16915 16917 16920 16923 16926 16929 16932 16935 16938 16941 16943 16946 16948 16951 16954 16956 16958 16961 16964 16966 16969 16972 16975 16977 16979 16982 16984 16987 16989 16992 16995 16997 17000 17003 17006 17009 17011 17014 17017 17020 17023 17026 17029 17032 17035 17037 17040 17043 17046 17049 17052 17055 17058 17061 17064 17067 17070 17073 17076 17079 17082 17085 17088 17091 17094 17097 17100 17103 17106 17108 17111 17114 17117 17120 17123 17126 17129 17132 17135 17138 17141 17144 17147 17150 17153 17156 17158 17161 17164 17167 17170 17173 17176 17179 17182 17185 17187 17189 17192 17195 17198 17200 17203 17206 17209 17212 17215 17218 17221 17224 17226 17229 17232 17235 17238 17241 17244 17247 17250 17253 17256 17259 17261 17264 17266 17269 17272 17275 17278 17281 17284 17287 17290 17293 17296 17299 17301 17304 17307 17310 17313 17316 17319 17321 17324 17327 17330 17333 17336 17339 17342 17345 17348 17351 17354 17357 17360 17363 17366 17369 17372 17375 17378 17381 17384 17387 17390 17393 17396 17399 17402 17405 17408 17411 17414 17417 17420 17423 17426 17429 17432 17434 17436 17439 17442 17445 17447 17450 17453 17456 17459 17462 17465 17468 17471 17474 17477 17480 17483 17486 17489 17492 17495 17498 17501 17504 17507 17510 17513 17516 17519 17522 17525 17528 17531 17534 17537 17540 17543 17546 17549 17552 17555 17558 17561 17563 17566 17569 17572 17575 17578 17580 17583 17586 17589 17592 17595 17597 17600 17602 17605 17608 17610 17613 17616 17619 17622 17625 17628 17631 17633 17636 17639 17642 17645 17648 17651 17654 17657 17660 17663 17666 17669 17672 17675 17678 17681 17684 17687 17690 17693 17696 17699 17702 17705 17708 17711 17714 17716 17719 17722 17724 17727 17730 17732 17735 17738 17741 17744 17746 17749 17752 17755 17758 17761 17764 17767 17770 17773 17776 17779 17782 17785 17788 17791 17794 17797 17800 17803 17806 17809 17812 17815 17817 17820 17823 17825 17828 17831 17834 17837 17840 17843 17846 17849 17852 17855 17858 17861 17864 17867 17870 17872 17875 17878 17881 17884 17887 17890 17892 17895 17897 17900 17903 17906 17909 17912 17915 17918 17921 17924 17927 17930 17933 17936 17939 17942 17945 17948 17951 17954 17957 17960 17962 17965 17968 17971 17973 17975 17978 17981 17984 17987 17989 17992 17995 17998 18000 18003 18006 18009 18012 18015 18018 18020 18023 18025 18028 18031 18034 18037 18039 18042 18045 18048 18051 18053 18056 18059 18062 18065 18067 18070 18073 18075 18078 18081 18084 18087 18090 18093 18096 18099 18102 18105 18108 18111 18114 18117 18120 18123 18126 18129 18132 18135 18138 18140 18143 18146 18148 18151 18154 18157 18160 18163 18166 18169 18172 18175 18178 18181 18184 18187 18190 18193 18196 18199 18202 18205 18208 18211 18214 18217 18220 18223 18226 18229 18232 18235 18238 18241 18244 18247 18250 18253 18256 18259 18262 18265 18268 18271 18274 18277 18280 18283 18286 18289 18292 18295 18298 18301 18304 18307 18310 18313 18316 18319 18322 18325 18327 18330 18333 18336 18339 18342 18345 18348 18351 18354 18357 18360 18363 18366 18369 18371 18374 18377 18380 18383 18386 18389 18392 18395 18398 18401 18403 18406 18409 18412 18415 18418 18421 18424 18427 18430 18433 18436 18439 18442 18445 18448 18451 18454 18456 18459 18462 18465 18467 18470 18473 18476 18479 18482 18485 18488 18491 18493 18496 18499 18502 18505 18508 18510 18513 18516 18519 18522 18525 18528 18531 18534 18536 18539 18542 18545 18548 18551 18554 18556 18559 18562 18565 18568 18571 18574 18577 18580 18583 18586 18589 18592 18594 18597 18600 18602 18604 18607 18609 18612 18615 18618 18621 18624 18626 18629 18632 18635 18638 18641 18644 18647 18650 18652 18654 18657 18659 18662 18665 18668 18671 18674 18677 18680 18683 18686 18688 18691 18694 18697 18700 18703 18706 18709 18712 18715 18718 18721 18724 18727 18730 18733 18736 18739 18741 18744 18747 18750 18753 18755 18758 18761 18764 18766 18769 18772 18775 18777 18780 18783 18786 18789 18792 18795 18798 18801 18803 18806 18809 18812 18815 18817 18820 18823 18826 18829 18832 18835 18838 18841 18844 18846 18849 18852 18855 18858 18861 18864 18867 18870 18873 18876 18879 18882 18885 18888 18891 18894 18897 18900 18903 18906 18909 18912 18915 18918 18921 18924 18926 18928 18931 18934 18937 18940 18943 18946 18949 18952 18955 18958 18961 18964 18967 18969 18972 18975 18978 18981 18984 18987 18989 18992 18995 18998 19001 19004 19007 19010 19013 19016 19019 19022 19025 19028 19031 19034 19037 19039 19042 19045 19048 19051 19054 19057 19060 19063 19066 19069 19072 19075 19078 19081 19084 19087 19090 19093 19096 19099 19102 19105 19108 19111 19114 19117 19120 19123 19126 19129 19132 19135 19137 19140 19143 19146 19149 19152 19155 19158 19161 19164 19167 19170 19173 19176 19179 19182 19185 19188 19191 19194 19197 19200 19203 19206 19209 19212 19215 19218 19221 19224 19227 19230 19233 19236 19239 19242 19245 19248 19251 19254 19257 19260 19263 19266 19269 19272 19275 19278 19281 19284 19287 19290 19293 19296 19299 19302 19305 19308 19311 19314 19317 19320 19323 19326 19328 19331 19334 19337 19340 19343 19346 19349 19352 19355 19358 19360 19363 19366 19369 19372 19375 19378 19381 19384 19386 19389 19391 19394 19396 19398 19401 19404 19407 19410 19412 19415 19418 19421 19424 19426 19429 19432 19435 19438 19441 19444 19446 19449 19452 19455 19458 19461 19464 19467 19470 19473 19476 19479 19482 19485 19488 19490 19493 19496 19498 19501 19504 19507 19510 19513 19516 19519 19522 19525 19528 19531 19534 19537 19540 19543 19546 19549 19552 19555 19558 19561 19564 19567 19570 19573 19576 19579 19582 19585 19588 19591 19594 19597 19600 19603 19605 19608 19610 19613 19616 19619 19622 19625 19628 19630 19633 19636 19639 19642 19645 19648 19651 19654 19657 19660 19663 19666 19669 19672 19675 19678 19681 19684 19687 19690 19692 19695 19698 19701 19704 19707 19710 19713 19716 19719 19722 19725 19728 19731 19734 19737 19740 19743 19746 19748 19750 19753 19756 19759 19762 19765 19768 19770 19773 19776 19779 19782 19785 19788 19791 19794 19797 19800 19803 19806 19809 19812 19815 19818 19821 19823 19826 19829 19832 19835 19838 19841 19844 19847 19850 19853 19856 19859 19862 19865 19868 19871 19874 19877 19880 19883 19886 19889 19891 19894 19896 19898 19901 19904 19907 19909 19911 19914 19916 19918 19921 19924 19927 19929 19932 19935 19937 19940 19943 19946 19949 19952 19955 19958 19961 19964 19967 19970 19973 19976 19978 19981 19984 19987 19989 19992 19995 19997 20000 20003 20006 20008 20011 20014 20017 20019 20022 20024 20027 20030 20032 20035 20038 20040 20043 20046 20048 20051 20054 20057 20060 20063 20066 20069 20072 20075 20078 20081 20084 20087 20089 20091 20094 20097 20100 20103 20105 20107 20110 20113 20115 20118 20121 20124 20127 20130 20133 20136 20139 20142 20145 20148 20151 20154 20157 20160 20163 20166 20169 20172 20175 20178 20181 20184 20187 20189 20192 20195 20197 20200 20203 20205 20208 20211 20213 20216 20219 20222 20224 20227 20230 20233 20236 20239 20242 20245 20248 20251 20254 20257 20260 20263 20266 20268 20271 20274 20277 20280 20283 20286 20289 20292 20295 20298 20301 20304 20307 20310 20313 20316 20319 20322 20325 20328 20331 20334 20337 20340 20343 20346 20349 20352 20355 20358 20361 20364 20367 20370 20373 20376 20379 20382 20385 20388 20391 20394 20397 20400 20403 20406 20409 20412 20415 20418 20421 20424 20427 20430 20433 20435 20438 20441 20444 20447 20449 20451 20454 20457 20460 20463 20465 20468 20471 20474 20477 20479 20481 20484 20487 20490 20493 20496 20498 20501 20504 20507 20509 20512 20515 20518 20521 20524 20526 20529 20532 20535 20538 20541 20543 20546 20549 20552 20555 20558 20561 20564 20567 20569 20572 20574 20577 20580 20583 20586 20589 20592 20595 20597 20599 20602 20605 20608 20611 20613 20616 20618 20621 20624 20627 20630 20633 20636 20639 20642 20644 20647 20650 20653 20655 20658 20661 20664 20666 20668 20671 20674 20677 20680 20683 20685 20688 20691 20693 20696 20698 20701 20704 20707 20710 20712 20715 20717 20719 20722 20724 20726 20729 20732 20735 20738 20741 20744 20747 20750 20753 20756 20759 20762 20765 20768 20771 20774 20776 20779 20782 20785 20787 20790 20793 20796 20799 20802 20805 20808 20811 20814 20817 20820 20823 20825 20828 20831 20834 20837 20840 20843 20846 20849 20852 20855 20858 20861 20864 20866 20869 20872 20875 20877 20880 20883 20886 20889 20892 20895 20898 20901 20904 20907 20910 20913 20916 20919 20922 20924 20927 20930 20933 20935 20938 20941 20944 20947 20950 20953 20956 20959 20962 20965 20968 20971 20974 20977 20980 20983 20986 20989 20992 20995 20998 21001 21004 21007 21010 21013 21016 21019 21022 21025 21028 21031 21034 21037 21040 21043 21046 21049 21052 21055 21058 21060 21063 21065 21068 21071 21074 21077 21079 21082 21084 21087 21089 21092 21095 21098 21101 21104 21107 21110 21113 21116 21119 21122 21125 21128 21130 21133 21136 21139 21142 21145 21148 21151 21153 21156 21159 21161 21164 21166 21169 21172 21175 21178 21180 21183 21186 21188 21190 21192 21195 21198 21201 21204 21207 21210 21213 21216 21219 21222 21225 21228 21231 21234 21237 21240 21243 21246 21249 21252 21255 21258 21261 21264 21266 21269 21272 21275 21278 21281 21284 21287 21289 21292 21295 21297 21299 21302 21305 21308 21311 21314 21317 21320 21323 21326 21329 21332 21335 21338 21341 21344 21347 21350 21353 21356 21359 21362 21365 21368 21371 21374 21377 21380 21383 21385 21388 21391 21394 21397 21400 21402 21405 21408 21411 21413 21416 21419 21422 21425 21428 21431 21434 21437 21440 21442 21444 21447 21450 21453 21456 21459 21462 21465 21468 21471 21474 21476 21479 21482 21485 21488 21491 21494 21497 21500 21503 21505 21508 21511 21514 21517 21520 21523 21526 21529 21532 21535 21538 21541 21544 21547 21550 21553 21556 21558 21561 21563 21566 21569 21572 21575 21578 21581 21584 21587 21590 21593 21596 21599 21602 21605 21608 21611 21614 21617 21620 21623 21626 21629 21632 21635 21638 21641 21644 21647 21650 21653 21656 21659 21662 21665 21668 21671 21674 21676 21679 21681 21684 21687 21690 21693 21696 21699 21702 21705 21708 21710 21713 21716 21719 21721 21724 21727 21729 21732 21734 21737 21740 21742 21745 21748 21751 21754 21757 21759 21762 21765 21768 21771 21774 21777 21780 21783 21785 21788 21790 21793 21795 21798 21801 21804 21807 21810 21813 21816 21819 21822 21825 21828 21831 21833 21836 21839 21842 21844 21847 21850 21853 21855 21858 21860 21863 21866 21869 21872 21875 21877 21880 21882 21885 21888 21891 21893 21896 21899 21901 21904 21907 21910 21913 21916 21919 21922 21925 21928 21930 21933 21936 21938 21941 21944 21947 21950 21953 21956 21959 21962 21965 21968 21971 21974 21976 21979 21982 21984 21987 21989 21992 21995 21998 22001 22004 22006 22009 22012 22015 22017 22019 22022 22025 22028 22031 22034 22037 22039 22042 22045 22048 22051 22053 22056 22059 22062 22065 22067 22069 22072 22075 22077 22080 22083 22086 22088 22091 22094 22097 22100 22103 22106 22108 22111 22114 22116 22119 22121 22124 22126 22129 22132 22135 22138 22141 22144 22147 22150 22153 22156 22159 22162 22165 22168 22171 22174 22177 22180 22182 22185 22188 22191 22194 22197 22200 22203 22206 22209 22212 22215 22218 22221 22224 22227 22230 22233 22236 22239 22242 22245 22248 22250 22253 22256 22258 22261 22264 22267 22270 22273 22276 22279 22282 22285 22288 22290 22293 22296 22298 22301 22304 22307 22309 22312 22315 22318 22321 22323 22325 22328 22331 22334 22336 22339 22341 22343 22346 22349 22351 22354 22357 22360 22363 22365 22368 22370 22373 22376 22379 22382 22385 22387 22390 22393 22395 22398 22401 22404 22407 22410 22413 22416 22419 22422 22425 22428 22431 22434 22437 22440 22442 22445 22448 22451 22454 22457 22460 22463 22466 22469 22472 22475 22478 22481 22484 22487 22490 22493 22496 22499 22501 22504 22507 22510 22512 22515 22518 22521 22524 22527 22530 22533 22536 22539 22542 22545 22547 22550 22552 22555 22558 22561 22564 22566 22569 22572 22575 22578 22580 22583 22586 22589 22592 22595 22598 22601 22604 22606 22609 22612 22614 22617 22620 22623 22626 22629 22632 22635 22638 22641 22644 22647 22650 22653 22656 22659 22662 22665 22668 22671 22674 22677 22680 22683 22686 22688 22691 22694 22696 22699 22702 22704 22707 22710 22713 22715 22718 22721 22724 22727 22730 22733 22736 22739 22742 22745 22747 22750 22753 22756 22759 22762 22764 22767 22770 22773 22776 22779 22782 22785 22787 22790 22793 22796 22799 22802 22805 22808 22811 22814 22817 22820 22822 22824 22826 22829 22831 22834 22837 22840 22842 22845 22848 22851 22853 22856 22859 22862 22865 22867 22870 22873 22876 22879 22882 22885 22887 22890 22893 22896 22899 22902 22904 22907 22910 22913 22916 22919 22922 22925 22928 22931 22934 22937 22940 22942 22945 22948 22951 22954 22957 22960 22963 22966 22969 22972 22975 22978 22981 22984 22986 22989 22992 22995 22998 23001 23004 23007 23010 23013 23015 23018 23021 23024 23027 23029 23032 23035 23038 23041 23044 23047 23050 23053 23055 23057 23060 23063 23066 23069 23071 23074 23077 23080 23083 23086 23089 23092 23095 23098 23101 23104 23107 23110 23113 23116 23119 23122 23125 23128 23131 23134 23137 23140 23143 23146 23149 23152 23155 23158 23161 23164 23166 23169 23172 23175 23178 23181 23184 23187 23190 23193 23196 23199 23202 23205 23207 23210 23213 23216 23219 23222 23225 23228 23230 23233 23236 23239 23242 23245 23248 23250 23253 23256 23258 23261 23264 23267 23270 23272 23275 23278 23281 23284 23287 23290 23292 23295 23298 23301 23304 23307 23310 23313 23316 23319 23322 23325 23328 23331 23334 23337 23340 23343 23346 23349 23352 23355 23358 23361 23364 23367 23370 23373 23376 23379 23382 23385 23388 23391 23394 23397 23400 23403 23406 23408 23411 23414 23416 23419 23421 23424 23426 23429 23432 23435 23438 23441 23443 23446 23449 23452 23455 23458 23461 23464 23467 23469 23472 23475 23478 23481 23484 23486 23489 23492 23495 23498 23501 23503 23506 23509 23512 23514 23517 23520 23523 23525 23528 23531 23534 23537 23540 23543 23546 23549 23552 23555 23558 23561 23564 23567 23570 23573 23576 23579 23582 23584 23587 23590 23593 23596 23599 23602 23605 23608 23611 23613 23616 23619 23621 23624 23627 23630 23633 23636 23639 23641 23644 23647 23650 23653 23656 23659 23662 23665 23668 23671 23674 23677 23680 23683 23686 23689 23692 23695 23698 23701 23704 23707 23710 23713 23716 23719 23722 23725 23728 23731 23734 23737 23740 23743 23746 23749 23752 23755 23758 23761 23764 23767 23770 23773 23776 23779 23782 23785 23788 23791 23794 23797 23800 23803 23806 23809 23812 23815 23818 23821 23824 23827 23830 23833 23836 23839 23842 23845 23848 23851 23854 23857 23860 23863 23866 23869 23872 23875 23878 23881 23884 23887 23890 23893 23896 23899 23902 23905 23908 23911 23914 23917 23920 23923 23926 23929 23932 23935 23938 23941 23944 23947 23950 23953 23956 23959 23962 23965 23968 23971 23974 23977 23980 23983 23986 23989 23992 23995 23998 24001 24004 24007 24010 24013 24016 24019 24022 24025 24028 24031 24034 24037 24040 24043 24046 24049 24052 24055 24058 24061 24064 24067 24070 24073 24075 24078 24081 24084 24087 24090 24093 24096 24099 24102 24105 24107 24110 24113 24116 24119 24122 24125 24128 24131 24134 24137 24140 24143 24145 24148 24151 24153 24155 24158 24161 24163 24166 24169 24172 24175 24177 24180 24182 24185 24188 24191 24194 24196 24199 24201 24203 24206 24209 24212 24214 24217 24220 24223 24226 24228 24231 24234 24237 24240 24243 24246 24249 24252 24255 24258 24261 24264 24266 24269 24272 24275 24278 24281 24284 24287 24290 24293 24296 24299 24301 24303 24306 24309 24312 24315 24318 24321 24324 24327 24330 24333 24335 24338 24341 24344 24347 24350 24352 24355 24358 24361 24364 24366 24369 24372 24375 24378 24380 24383 24386 24389 24392 24395 24397 24400 24402 24405 24408 24410 24413 24416 24419 24422 24424 24427 24430 24433 24436 24439 24442 24445 24447 24450 24453 24456 24459 24462 24465 24468 24471 24474 24476 24479 24482 24485 24488 24491 24494 24497 24500 24503 24506 24509 24512 24515 24518 24521 24524 24527 24530 24533 24536 24539 24542 24545 24548 24551 24554 24557 24560 24563 24566 24569 24572 24575 24578 24581 24584 24587 24590 24593 24596 24599 24602 24605 24608 24611 24614 24617 24620 24623 24626 24629 24632 24635 24638 24641 24644 24647 24650 24653 24655 24658 24661 24664 24666 24669 24672 24675 24678 24681 24684 24687 24690 24693 24695 24698 24700 24703 24706 24709 24712 24715 24718 24721 24724 24727 24730 24732 24735 24738 24741 24744 24747 24750 24753 24756 24759 24761 24764 24767 24770 24773 24776 24778 24781 24783 24786 24789 24792 24795 24798 24800 24803 24806 24809 24812 24815 24818 24821 24824 24827 24830 24832 24835 24837 24840 24843 24845 24848 24850 24853 24855 24857 24860 24863 24866 24869 24872 24875 24878 24881 24884 24886 24889 24892 24895 24898 24901 24904 24907 24909 24912 24915 24918 24921 24924 24927 24929 24932 24935 24938 24941 24944 24946 24949 24951 24953 24956 24959 24961 24964 24967 24970 24973 24976 24979 24982 24985 24987 24990 24993 24996 24999 25002 25005 25008 25011 25014 25017 25019 25022 25025 25028 25030 25033 25036 25039 25042 25045 25048 25051 25054 25057 25060 25063 25066 25069 25072 25075 25078 25081 25084 25087 25090 25093 25096 25099 25102 25105 25108 25111 25114 25117 25120 25123 25126 25129 25132 25135 25138 25141 25144 25147 25150 25153 25156 25159 25162 25165 25168 25171 25174 25177 25180 25183 25185 25188 25191 25194 25196 25199 25202 25205 25208 25211 25213 25216 25218 25221 25224 25226 25229 25231 25234 25237 25240 25243 25246 25249 25252 25254 25256 25259 25262 25265 25268 25271 25274 25277 25280 25283 25286 25289 25292 25295 25298 25301 25304 25307 25309 25312 25315 25318 25320 25323 25325 25327 25329 25332 25335 25337 25340 25342 25345 25348 25351 25354 25357 25359 25361 25364 25367 25370 25373 25376 25379 25382 25385 25388 25391 25394 25397 25400 25403 25406 25409 25411 25414 25416 25419 25422 25425 25428 25430 25433 25435 25438 25441 25444 25447 25450 25453 25455 25458 25460 25463 25465 25467 25470 25472 25475 25478 25480 25483 25485 25488 25491 25494 25496 25499 25502 25505 25508 25511 25513 25516 25519 25522 25525 25528 25531 25534 25537 25540 25542 25545 25548 25551 25554 25557 25560 25562 25564 25567 25569 25572 25575 25577 25580 25583 25586 25588 25591 25594 25597 25600 25602 25605 25608 25611 25614 25617 25620 25623 25626 25629 25631 25634 25637 25640 25642 25644 25647 25649 25652 25655 25658 25661 25664 25667 25670 25673 25676 25679 25682 25685 25687 25690 25692 25695 25698 25701 25704 25707 25710 25713 25716 25719 25721 25723 25726 25729 25732 25735 25738 25741 25744 25747 25750 25753 25755 25757 25760 25763 25766 25769 25772 25775 25777 25780 25783 25786 25789 25792 25795 25798 25801 25804 25806 25809 25811 25814 25817 25820 25823 25826 25829 25831 25834 25837 25839 25841 25844 25847 25850 25853 25856 25859 25861 25864 25866 25869 25872 25875 25878 25880 25883 25885 25888 25891 25894 25897 25899 25902 25905 25907 25910 25913 25916 25919 25922 25924 25926 25929 25932 25935 25938 25941 25943 25946 25949 25952 25955 25957 25960 25963 25966 25968 25970 25973 25976 25979 25982 25985 25988 25990 25993 25996 25999 26002 26005 26008 26010 26013 26016 26019 26021 26024 26026 26029 26032 26035 26038 26041 26044 26047 26050 26053 26056 26059 26062 26065 26068 26071 26074 26076 26079 26081 26084 26087 26090 26092 26095 26098 26101 26104 26107 26109 26112 26115 26118 26121 26124 26126 26129 26132 26134 26137 26140 26142 26145 26148 26151 26154 26157 26160 26162 26165 26168 26171 26173 26176 26179 26182 26185 26188 26191 26194 26197 26200 26203 26206 26209 26211 26214 26216 26219 26222 26225 26228 26231 26234 26237 26240 26243 26246 26249 26252 26255 26258 26261 26264 26267 26270 26273 26276 26279 26282 26285 26288 26291 26294 26297 26300 26303 26306 26309 26312 26315 26318 26321 26324 26327 26330 26333 26336 26339 26342 26345 26348 26351 26354 26357 26359 26362 26365 26368 26371 26373 26376 26379 26382 26385 26388 26391 26394 26396 26399 26402 26405 26408 26410 26413 26416 26419 26422 26425 26428 26431 26434 26437 26440 26443 26446 26449 26452 26454 26457 26460 26463 26466 26469 26472 26475 26477 26480 26483 26486 26489 26492 26495 26498 26501 26504 26507 26510 26513 26516 26519 26522 26525 26528 26531 26534 26537 26540 26543 26546 26549 26551 26554 26557 26559 26562 26565 26568 26571 26574 26577 26580 26583 26586 26589 26592 26595 26598 26601 26604 26607 26610 26613 26616 26619 26622 26625 26628 26631 26633 26636 26639 26642 26645 26648 26651 26654 26657 26660 26663 26666 26669 26672 26675 26677 26680 26683 26686 26689 26692 26695 26698 26700 26703 26706 26709 26712 26715 26718 26721 26724 26727 26730 26733 26736 26739 26742 26745 26748 26751 26754 26757 26760 26763 26766 26769 26772 26775 26778 26781 26784 26787 26790 26793 26796 26799 26802 26805 26808 26811 26814 26817 26820 26823 26826 26829 26832 26835 26838 26841 26844 26847 26850 26853 26856 26859 26862 26864 26866 26869 26872 26875 26877 26880 26883 26885 26888 26891 26894 26896 26899 26902 26905 26908 26911 26914 26917 26920 26923 26926 26929 26932 26935 26938 26941 26944 26947 26950 26953 26956 26959 26962 26965 26968 26971 26974 26977 26979 26982 26985 26988 26991 26994 26997 26999 27002 27005 27008 27010 27013 27016 27018 27021 27023 27025 27028 27031 27034 27036 27039 27041 27044 27047 27050 27052 27054 27057 27059 27062 27065 27068 27070 27073 27075 27077 27080 27083 27085 27088 27091 27094 27097 27100 27103 27106 27109 27112 27115 27118 27120 27123 27125 27128 27130 27133 27136 27138 27141 27143 27145 27148 27151 27154 27157 27160 27162 27164 27167 27170 27173 27176 27179 27182 27185 27188 27190 27193 27196 27199 27202 27205 27208 27211 27213 27216 27218 27220 27223 27226 27229 27231 27233 27236 27239 27241 27244 27247 27249 27251 27254 27256 27259 27262 27265 27268 27271 27274 27277 27279 27282 27285 27288 27291 27294 27297 27300 27303 27305 27308 27311 27314 27317 27319 27322 27325 27327 27330 27332 27335 27338 27341 27344 27347 27350 27353 27356 27359 27362 27365 27368 27371 27374 27377 27380 27383 27386 27389 27391 27394 27397 27399 27402 27405 27408 27411 27414 27417 27419 27422 27424 27427 27430 27432 27435 27438 27441 27443 27446 27449 27451 27453 27456 27458 27461 27464 27467 27470 27473 27476 27479 27482 27484 27487 27489 27492 27495 27498 27501 27504 27506 27509 27512 27514 27516 27519 27522 27525 27528 27531 27533 27536 27539 27541 27544 27547 27549 27552 27555 27557 27560 27562 27565 27567 27570 27572 27575 27577 27580 27583 27586 27589 27592 27595 27598 27601 27604 27606 27609 27612 27615 27618 27621 27623 27626 27628 27631 27634 27637 27640 27643 27645 27648 27651 27654 27657 27660 27663 27666 27669 27671 27674 27677 27679 27682 27685 27688 27691 27694 27697 27700 27703 27706 27709 27712 27714 27717 27720 27723 27726 27729 27732 27734 27737 27740 27743 27746 27749 27751 27754 27757 27760 27763 27766 27769 27772 27775 27778 27781 27784 27787 27790 27793 27796 27799 27802 27805 27808 27810 27812 27815 27818 27821 27824 27827 27830 27833 27836 27838 27841 27844 27847 27850 27853 27856 27859 27862 27865 27868 27871 27874 27877 27880 27883 27885 27887 27890 27893 27895 27898 27901 27904 27906 27909 27911 27914 27917 27920 27923 27926 27929 27931 27933 27936 27939 27942 27945 27948 27951 27954 27957 27960 27963 27966 27969 27972 27975 27978 27980 27982 27985 27988 27991 27994 27997 28000 28003 28005 28008 28011 28014 28017 28020 28023 28026 28029 28031 28034 28037 28040 28043 28046 28049 28052 28055 28058 28061 28064 28067 28070 28073 28076 28079 28082 28085 28088 28091 28094 28097 28100 28103 28106 28108 28111 28114 28116 28119 28122 28125 28128 28131 28134 28137 28140 28143 28146 28149 28152 28155 28158 28161 28164 28167 28170 28173 28176 28179 28182 28185 28188 28191 28194 28197 28200 28203 28206 28208 28211 28214 28217 28220 28223 28226 28228 28231 28234 28237 28240 28242 28245 28248 28250 28253 28256 28258 28261 28263 28266 28269 28272 28274 28277 28279 28282 28285 28288 28290 28293 28295 28298 28301 28304 28306 28308 28311 28314 28317 28319 28322 28325 28328 28331 28334 28337 28340 28343 28346 28349 28352 28355 28357 28360 28363 28365 28368 28371 28373 28376 28378 28381 28383 28386 28389 28391 28394 28397 28400 28403 28406 28409 28412 28415 28418 28421 28423 28426 28429 28432 28434 28437 28439 28442 28444 28447 28450 28453 28456 28459 28461 28464 28466 28469 28472 28475 28478 28480 28483 28485 28488 28491 28494 28497 28500 28503 28506 28509 28512 28515 28518 28521 28524 28527 28530 28533 28536 28539 28542 28545 28548 28551 28554 28557 28560 28563 28566 28568 28571 28574 28577 28580 28583 28586 28589 28592 28595 28598 28601 28604 28607 28610 28613 28616 28619 28622 28624 28627 28630 28633 28636 28639 28642 28645 28648 28651 28654 28657 28660 28663 28666 28668 28671 28673 28676 28679 28681 28683 28685 28688 28691 28694 28697 28700 28702 28705 28707 28710 28712 28715 28718 28721 28723 28726 28729 28731 28734 28736 28738 28740 28743 28746 28749 28752 28755 28758 28761 28763 28766 28769 28772 28775 28778 28780 28783 28786 28789 28792 28795 28798 28801 28804 28807 28810 28813 28816 28819 28822 28825 28828 28831 28834 28836 28839 28842 28845 28848 28851 28854 28857 28859 28862 28865 28868 28871 28874 28877 28880 28883 28886 28889 28892 28895 28897 28900 28903 28905 28908 28911 28914 28917 28920 28923 28926 28929 28932 28935 28937 28940 28942 28945 28948 28951 28954 28957 28960 28963 28965 28968 28971 28974 28977 28979 28982 28985 28988 28991 28994 28997 29000 29003 29006 29009 29011 29014 29017 29020 29023 29026 29028 29031 29034 29037 29040 29043 29046 29048 29051 29054 29057 29060 29063 29066 29069 29072 29075 29078 29081 29084 29086 29089 29092 29095 29098 29101 29104 29107 29110 29112 29115 29118 29121 29124 29126 29129 29132 29135 29137 29140 29143 29146 29149 29152 29155 29157 29160 29163 29166 29168 29171 29174 29177 29180 29183 29186 29189 29191 29194 29197 29199 29202 29205 29207 29210 29213 29216 29219 29222 29225 29228 29231 29233 29236 29238 29241 29244 29247 29250 29253 29255 29258 29261 29264 29267 29270 29273 29276 29279 29282 29284 29287 29290 29292 29295 29298 29301 29304 29306 29309 29312 29314 29317 29320 29323 29326 29328 29331 29334 29337 29340 29343 29346 29348 29351 29354 29357 29360 29363 29366 29369 29371 29374 29376 29379 29382 29385 29388 29391 29394 29397 29400 29403 29406 29409 29412 29415 29418 29420 29423 29426 29429 29432 29435 29438 29441 29444 29446 29448 29451 29454 29457 29460 29463 29466 29468 29471 29474 29477 29480 29483 29486 29489 29492 29495 29498 29501 29504 29507 29510 29513 29516 29519 29522 29525 29528 29531 29534 29537 29539 29542 29545 29548 29551 29554 29557 29560 29563 29566 29569 29572 29575 29578 29581 29584 29586 29589 29592 29595 29598 29601 29604 29607 29610 29613 29616 29619 29622 29625 29628 29631 29634 29637 29640 29643 29646 29649 29652 29655 29658 29661 29664 29667 29670 29673 29675 29678 29681 29684 29687 29690 29693 29696 29699 29702 29705 29708 29710 29713 29716 29719 29721 29724 29727 29730 29733 29736 29739 29742 29745 29748 29750 29753 29756 29759 29762 29765 29768 29770 29773 29776 29779 29781 29783 29786 29788 29790 29793 29795 29798 29801 29804 29807 29810 29813 29816 29819 29822 29825 29828 29830 29833 29836 29839 29842 29844 29847 29850 29852 29855 29858 29861 29864 29867 29870 29873 29876 29879 29882 29884 29887 29890 29893 29896 29899 29902 29904 29907 29910 29913 29915 29918 29921 29924 29927 29930 29933 29936 29939 29942 29945 29948 29951 29953 29956 29959 29962 29965 29968 29971 29973 29975 29978 29981 29984 29987 29990 29993 29996 29999 30002 30005 30008 30011 30014 30017 30020 30023 30026 30029 30032 30035 30038 30041 30044 30047 30050 30052 30055 30058 30061 30064 30067 30070 30073 30075 30078 30081 30084 30087 30090 30092 30095 30097 30100 30103 30106 30109 30112 30115 30118 30120 30123 30126 30129 30132 30135 30138 30141 30144 30147 30150 30153 30156 30159 30162 30165 30168 30171 30174 30177 30180 30183 30186 30189 30192 30195 30198 30201 30204 30207 30210 30213 30216 30219 30222 30225 30228 30231 30234 30237 30240 30243 30246 30249 30252 30255 30258 30261 30263 30266 30269 30272 30274 30277 30280 30283 30285 30288 30291 30294 30297 30300 30302 30305 30308 30311 30314 30317 30320 30323 30326 30329 30332 30335 30338 30341 30344 30347 30350 30353 30356 30359 30362 30365 30368 30370 30373 30376 30379 30382 30384 30386 30389 30392 30395 30398 30400 30403 30406 30408 30411 30413 30416 30418 30420 30423 30426 30428 30430 30433 30436 30439 30442 30445 30448 30450 30453 30456 30459 30462 30465 30468 30471 30474 30476 30479 30482 30485 30488 30491 30494 30497 30500 30503 30506 30509 30512 30515 30518 30521 30524 30527 30530 30533 30536 30539 30542 30545 30548 30551 30554 30557 30560 30563 30566 30569 30572 30575 30578 30581 30584 30587 30590 30593 30596 30599 30602 30605 30608 30611 30614 30617 30620 30623 30626 30629 30632 30635 30638 30641 30644 30647 30650 30653 30656 30659 30662 30664 30667 30670 30673 30675 30678 30681 30684 30687 30690 30693 30696 30699 30702 30705 30708 30711 30714 30717 30720 30723 30726 30729 30732 30735 30738 30741 30744 30747 30750 30753 30756 30759 30761 30764 30767 30770 30773 30776 30779 30782 30785 30788 30791 30794 30797 30799 30802 30805 30808 30811 30813 30816 30819 30822 30825 30828 30831 30833 30836 30838 30841 30844 30847 30850 30853 30856 30859 30862 30864 30867 30870 30873 30876 30879 30882 30884 30887 30889 30892 30895 30897 30900 30903 30906 30908 30911 30914 30917 30920 30923 30926 30929 30932 30935 30938 30941 30944 30947 30950 30953 30955 30958 30961 30964 30967 30970 30973 30976 30979 30982 30985 30987 30990 30993 30996 30999 31002 31005 31008 31011 31014 31017 31020 31023 31026 31029 31032 31035 31038 31041 31044 31047 31050 31053 31056 31059 31061 31063 31066 31069 31071 31074 31077 31080 31083 31086 31089 31092 31095 31097 31100 31103 31106 31109 31112 31115 31118 31121 31124 31126 31129 31132 31135 31138 31141 31144 31147 31150 31153 31156 31159 31162 31165 31168 31171 31174 31177 31180 31183 31186 31189 31192 31195 31198 31201 31204 31207 31210 31212 31215 31218 31221 31224 31227 31230 31233 31236 31239 31241 31244 31247 31250 31253 31256 31259 31262 31265 31268 31271 31274 31276 
</DataArray>
<DataArray type="UInt32" Name="types" format="ascii">
5 5 5 5 5 3 5 5 5 5 5 5 5 5 3 5 5 5 5 5 5 3 5 3 5 3 5 3 5 5 5 3 5 5 3 5 5 5 5 5 5 5 3 5 5 5 5 3 3 5 5 5 5 5 5 3 5 5 5 5 5 5 5 5 5 5 5 5 5 5 5 3 5 5 5 5 5 5 5 5 5 5 3 5 5 3 5 5 3 5 3 3 5 3 3 5 5 5 3 5 5 5 5 3 5 5 3 5 5 3 5 5 5 3 5 5 5 5 3 3 5 5 3 5 5 3 5 5 5 5 3 5 5 5 5 5 5 5 5 5 3 3 5 3 5 5 5 5 3 5 3 5 5 3 5 5 5 3 5 5 5 3 3 5 3 5 5 5 5 5 5 5 5 5 5 5 5 5 5 3 5 3 3 3 5 5 5 5 3 5 5 5 3 5 3 3 5 3 3 5 5 5 3 5 5 3 5 5 5 3 5 5 5 5 5 3 5 5 5 5 5 3 3 5 5 5 5 3 5 5 5 5 5 3 5 5 5 3 5 5 5 5 5 3 5 5 5 5 5 3 5 5 5 5 5 5 5 3 5 5 5 3 5 5 5 5 5 5 5 5 5 5 5 3 5 5 5 5 5 3 5 5 5 3 5 5 5 5 3 5 5 5 3 5 5 5 5 5 3 5 5 5 5 5 5 3 5 5 5 5 5 5 5 5 5 3 5 5 5 5 5 5 3 5 5 5 5 3 5 5 5 5 5 5 3 5 5 5 5 5 3 5 5 5 3 5 5 5 5 5 5 5 5 5 5 3 5 5 5 5 5 5 5 5 5 5 5 5 5 5 5 5 5 5 5 5 5 5 5 5 5 5 5 5 5 5 5 3 5 5 3 5 5 5 5 5 5 3 5 5 5 5 5 5 5 5 5 3 5 5 3 5 5 5 5 3 5 5 3 5 5 5 3 5 5 5 3 5 5 5 3 5 5 5 5 3 5 5 3 5 5 3 5 5 5 5 5 3 5 5 5 5 5 5 5 5 3 5 5 5 3 5 5 5 5 5 3 5 5 5 5 5 5 5 5 5 5 5 5 5 5 5 5 5 3 5 5 5 5 5 5 5 5 5 5 5 5 5 5 5 5 5 5 5 5 5 5 5 5 3 5 5 5 5 3 5 5 5 5 5 5 5 3 5 5 5 5 5 3 5 5 5 5 5 5 5 5 5 5 5 5 5 5 5 5 3 5 3 5 5 3 5 3 5 5 5 5 5 5 3 5 5 5 5 5 5 5 3 5 5 3 5 5 3 5 5 5 5 5 3 5 3 5 3 5 5 5 5 3 5 5 5 3 5 3 5 5 5 5 5 3 5 3 5 5 5 5 5 5 5 5 5 5 5 5 5 5 5 3 5 5 5 5 5 5 5 5 5 5 5 5 5 5 5 3 5 5 5 5 5 5 5 5 5 5 5 5 5 5 5 5 5 5 3 5 5 5 5 5 5 5 5 5 3 5 5 3 5 5 5 5 5 5 5 5 5 5 3 5 3 5 5 5 5 5 5 5 5 5 3 5 5 5 5 5 5 5 3 5 5 5 5 5 5 5 3 5 5 5 5 5 3 5 5 5 5 5 5 5 5 5 5 3 5 5 5 5 5 5 5 5 5 5 5 5 3 5 5 5 5 5 5 5 5 5 5 5 5 5 5 5 5 5 5 5 3 3 5 5 5 5 3 3 5 5 5 5 5 5 5 5 5 5 5 5 5 3 5 5 5 5 5 5 5 5 5 5 5 5 5 5 5 5 5 5 5 5 5 5 5 5 5 5 5 5 5 5 5 5 5 5 5 5 5 5 5 5 5 5 5 5 3 5 5 3 5 5 3 5 5 3 5 5 5 5 3 5 3 5 3 5 5 3 5 5 3 5 5 5 5 3 5 5 5 5 5 5 3 5 3 5 5 5 5 5 5 5 3 5 5 5 5 3 5 5 5 5 5 5 3 5 5 5 3 5 5 5 5 5 5 5 5 5 5 5 5 5 5 3 5 5 5 3 3 5 5 5 5 5 5 5 3 5 5 5 5 5 5 3 5 5 3 5 5 5 5 5 3 3 3 5 5 5 5 3 5 5 3 5 3 5 5 5 5 3 5 5 3 5 5 5 5 5 3 5 5 3 5 5 3 5 5 5 3 5 3 5 5 5 5 5 5 5 5 3 5 5 5 3 3 5 5 3 5 5 3 5 5 5 5 5 5 5 5 5 5 5 5 5 5 5 3 5 5 5 5 5 5 5 3 5 5 5 5 5 5 5 5 5 5 5 5 5 5 5 5 5 3 3 5 5 5 5 5 5 5 5 5 5 5 5 5 5 5 5 5 5 5 5 5 3 5 5 5 5 3 5 5 3 5 5 5 5 5 3 5 5 5 5 5 5 5 5 3 5 5 5 5 5 5 5 5 5 5 5 5 5 5 5 5 5 5 5 5 5 3 5 5 5 3 5 5 5 5 5 5 5 5 5 5 5 5 5 5 5 5 5 5 3 5 5 3 5 5 5 5 5 5 5 5 5 5 5 5 5 5 5 5 5 5 5 5 5 5 5 5 5 5 5 5 5 5 5 5 5 5 5 5 5 5 5 5 3 5 5 3 5 5 3 5 5 5 5 5 5 5 3 5 5 5 5 3 5 5 5 3 5 5 5 3 5 5 5 5 5 3 5 3 5 5 5 5 5 5 5 5 5 5 5 5 5 5 5 5 5 5 5 5 5 5 5 5 5 3 5 3 5 5 5 5 5 5 3 5 5 5 5 5 3 5 5 5 5 5 3 5 5 5 5 5 5 5 5 3 5 5 5 5 5 5 5 5 5 3 5 5 3 5 5 5 5 5 5 5 5 3 5 5 5 5 5 3 5 5 5 5 3 5 5 3 5 5 5 3 5 5 5 5 5 5 5 5 5 5 5 5 5 5 3 5 5 5 5 5 5 5 3 5 3 5 5 5 5 5 5 5 5 5 5 3 5 5 3 5 5 5 5 5 5 3 5 5 5 5 5 5 5 3 5 5 5 5 5 5 5 5 5 5 5 5 5 5 5 5 5 5 5 5 5 5 5 5 5 5 5 5 5 5 5 5 3 5 5 5 3 5 5 5 3 5 5 5 5 3 5 5 5 5 5 3 5 5 5 3 5 5 5 5 5 5 5 5 5 5 5 5 5 5 5 5 3 5 5 5 5 5 5 5 5 5 5 3 5 5 3 5 5 5 3 5 5 5 5 5 3 5 5 3 5 3 5 5 3 5 5 3 5 5 3 5 5 5 5 5 5 5 5 5 5 5 5 3 5 5 5 5 5 5 5 5 3 5 5 5 5 5 5 5 5 5 5 3 5 3 5 5 5 3 5 5 5 5 5 5 3 5 5 5 5 5 5 5 5 5 5 5 5 5 5 5 5 5 5 5 5 5 5 5 5 5 5 5 5 5 5 3 5 5 3 5 3 5 5 5 5 3 5 5 5 5 5 5 5 3 5 5 5 5 5 5 5 5 5 5 5 5 5 5 5 5 5 3 5 5 3 5 5 5 5 5 5 5 5 5 5 5 5 5 5 5 5 5 3 5 5 5 5 5 5 5 5 3 5 5 5 5 5 3 5 3 5 5 5 5 5 5 5 5 5 5 5 5 5 5 3 5 5 3 5 5 5 5 5 5 5 5 5 5 5 5 5 5 5 5 5 5 5 3 5 5 5 5 5 3 5 3 3 5 5 3 5 5 3 5 5 5 5 5 5 3 5 5 3 5 3 5 5 5 3 5 5 5 5 5 5 3 5 5 5 5 5 5 3 5 5 5 5 5 5 5 5 5 5 3 5 5 5 5 5 5 5 5 3 5 5 5 5 5 5 5 5 5 5 3 5 5 5 3 5 5 5 5 5 5 5 5 5 5 3 5 5 3 5 5 5 3 5 5 5 5 5 5 5 5 5 3 5 5 5 3 5 5 5 5 5 5 5 3 5 5 5 5 5 3 5 5 5 5 5 5 5 5 5 5 5 5 3 5 5 5 5 3 5 5 5 3 5 5 5 5 5 5 3 5 5 3 5 5 5 5 5 5 5 5 5 5 5 5 5 3 5 5 5 5 5 5 5 5 5 5 5 5 3 5 3 5 5 5 3 5 5 3 5 5 5 5 5 5 5 5 5 5 5 5 5 5 5 5 5 5 5 5 3 5 5 5 5 5 5 5 5 5 5 5 5 5 5 5 5 5 5 5 5 5 5 5 3 5 5 5 3 5 5 5 5 5 5 5 5 3 5 5 5 5 5 5 5 3 5 5 5 5 5 5 5 5 3 5 5 5 5 3 5 5 3 5 5 5 5 5 5 5 5 5 5 5 5 5 5 5 5 5 5 5 5 5 5 5 5 5 5 5 5 5 5 5 5 5 5 5 5 5 5 5 5 5 5 5 5 5 5 3 5 5 5 5 5 5 5 5 3 5 5 3 5 5 5 5 5 5 5 5 5 5 3 5 5 5 5 5 5 5 5 5 5 5 5 5 5 5 5 5 5 5 5 5 5 5 5 5 5 5 5 5 5 5 5 5 5 5 5 5 5 5 5 5 5 5 5 5 5 5 5 5 5 5 5 5 5 5 5 5 5 5 5 5 5 5 5 5 5 5 5 5 5 5 5 5 5 5 5 5 5 5 5 5 5 3 5 5 5 5 3 5 5 5 5 5 5 5 5 5 5 5 5 5 5 5 5 5 5 5 5 5 5 5 5 5 5 3 5 5 5 5 5 5 5 3 5 5 5 5 5 5 5 5 5 5 5 5 5 3 5 3 5 5 5 5 5 5 5 5 5 5 5 5 5 5 3 5 5 5 5 5 5 5 5 5 5 5 5 5 5 5 5 5 5 5 5 5 3 5 5 5 5 3 5 3 5 5 5 5 5 5 3 3 5 5 5 5 5 5 5 3 5 5 5 5 5 5 5 5 5 5 5 5 5 5 5 5 5 3 5 5 5 5 5 3 5 5 5 5 5 5 5 3 5 5 5 5 5 5 5 5 5 5 5 5 5 5 5 5 5 3 5 5 5 5 5 5 5 5 5 5 5 5 5 5 5 5 5 5 5 3 5 5 5 5 5 3 5 5 5 5 5 5 5 5 5 5 5 5 5 5 5 5 5 5 5 5 5 3 5 5 3 5 5 5 5 5 5 5 5 5 5 5 5 5 5 5 5 5 5 5 5 5 5 5 5 5 5 5 5 5 5 5 5 3 5 5 5 5 5 5 5 5 5 5 5 5 5 5 5 5 3 5 5 5 5 5 5 3 5 5 5 5 5 3 5 3 5 5 5 5 3 5 5 5 5 5 5 5 5 5 5 5 5 3 3 5 5 5 5 5 5 3 5 5 5 3 3 5 5 3 5 3 5 3 5 5 5 5 3 5 5 5 3 5 5 5 5 5 5 3 3 5 5 5 5 5 5 5 5 3 5 5 5 5 3 5 3 5 5 5 5 5 5 5 5 5 5 5 5 3 5 5 5 5 5 5 5 3 5 5 5 5 5 5 5 5 5 5 5 5 5 5 5 5 5 5 5 5 3 5 3 5 5 5 5 5 5 5 5 5 5 5 5 5 5 5 5 5 5 5 5 5 5 3 5 3 5 5 5 5 5 5 5 3 5 5 5 5 5 5 3 5 5 5 5 5 5 5 5 3 5 5 5 5 5 5 5 5 5 5 5 5 5 5 5 5 5 5 5 5 5 5 5 5 5 3 5 5 5 3 3 5 5 5 3 5 5 5 3 5 5 5 5 5 5 5 5 5 3 5 5 5 5 5 5 3 5 3 5 5 5 5 3 3 3 5 5 5 5 5 5 5 5 5 5 5 5 5 5 5 3 5 5 5 5 5 5 5 5 3 5 5 5 5 5 5 5 5 5 5 5 3 5 3 5 5 5 5 5 5 5 5 5 5 5 5 5 5 5 5 5 5 3 3 5 5 5 5 5 5 3 5 5 5 5 5 3 5 5 5 5 5 5 5 5 5 5 5 5 3 5 5 5 5 3 5 5 3 5 5 5 5 5 5 5 5 3 5 5 5 5 5 5 5 5 5 5 5 5 5 3 5 5 5 5 3 5 5 5 3 5 3 5 3 5 5 5 5 5 5 5 5 5 5 5 3 5 5 5 5 5 3 5 5 3 5 3 5 5 5 5 3 5 5 5 5 5 5 3 5 5 5 5 5 5 5 5 5 3 5 5 5 5 5 5 3 5 5 5 5 5 5 5 5 5 5 5 5 5 5 3 5 5 5 3 3 5 3 5 3 3 3 5 5 5 5 5 3 5 5 5 5 5 5 5 3 5 3 5 5 5 5 5 5 5 5 5 3 5 5 5 5 5 5 3 5 5 5 3 5 5 5 5 5 5 5 3 5 5 5 5 5 3 3 5 5 5 5 5 5 3 3 5 5 5 5 3 5 5 5 5 3 3 5 3 5 3 5 5 5 5 5 3 5 5 5 5 3 5 5 5 5 5 5 5 3 5 3 5 5 5 5 5 5 5 5 5 5 5 5 5 5 5 5 3 3 5 5 3 5 5 5 5 5 5 3 5 5 3 5 5 3 5 3 5 5 3 5 5 5 5 5 5 5 5 5 5 5 5 5 5 5 5 5 5 5 3 5 3 5 5 5 5 5 5 5 5 5 3 5 5 5 5 3 5 5 5 3 5 5 3 5 5 5 5 3 5 5 5 3 5 3 5 5 5 5 5 5 5 5 5 5 5 5 5 5 3 5 5 5 5 3 3 5 5 5 5 5 5 5 5 5 5 5 5 3 5 5 5 5 5 5 3 5 5 5 5 3 5 5 5 5 5 5 5 5 5 5 5 5 5 5 5 3 5 5 5 5 5 5 5 5 5 5 5 5 5 5 5 5 5 5 5 5 5 5 5 3 5 5 5 5 3 5 5 3 5 3 5 5 3 5 5 5 5 5 3 3 5 5 5 5 5 5 5 3 5 5 5 5 5 5 5 5 3 5 5 5 5 5 5 5 5 5 5 5 5 5 5 5 5 3 5 5 5 5 5 5 5 5 5 5 5 3 3 5 5 5 5 3 5 5 5 3 5 5 5 5 5 5 3 5 3 5 5 3 5 5 5 3 3 5 3 3 5 3 5 5 5 5 3 5 5 5 5 5 5 5 5 5 5 5 5 5 3 3 5 3 5 5 5 5 5 5 5 5 5 5 5 5 5 5 5 5 3 5 5 5 5 3 3 5 5 5 5 5 5 5 5 5 5 5 5 5 5 5 3 5 5 5 5 5 5 5 5 3 5 5 5 5 5 5 5 5 5 3 5 5 5 5 5 5 5 5 5 5 5 5 5 5 3 5 5 5 5 5 5 5 5 5 5 5 3 5 5 5 5 5 5 5 5 5 3 5 5 3 5 5 3 3 5 5 5 3 5 5 5 3 5 5 5 5 5 3 5 5 5 5 5 5 5 5 5 5 5 5 5 3 5 3 5 5 3 3 5 5 5 5 5 3 5 5 5 5 5 5 5 5 5 5 5 3 5 5 5 5 5 5 5 5 5 5 5 5 5 3 3 5 5 5 5 5 5 5 5 5 5 5 5 5 5 5 5 5 5 5 5 3 5 5 3 5 5 5 5 5 5 5 3 5 5 5 5 5 5 5 3 5 5 5 3 3 5 5 3 5 5 5 5 3 3 5 3 5 5 5 5 5 5 5 5 5 5 5 5 5 3 5 5 3 5 5 5 3 5 5 5 5 5 5 5 5 5 5 5 5 5 3 5 5 5 5 5 5 5 5 5 5 5 5 3 5 5 5 5 5 5 5 5 5 5 5 5 3 5 5 3 5 5 5 5 5 5 5 5 5 5 5 5 5 5 5 5 5 3 5 5 3 5 5 3 5 5 3 5 5 5 5 3 3 3 5 3 5 5 5 5 5 5 3 5 5 5 5 5 5 5 5 5 5 5 5 5 5 5 5 5 5 5 5 5 5 5 5 3 5 5 5 5 3 5 5 5 5 5 5 5 5 5 3 3 5 5 5 5 5 5 5 5 5 3 5 5 5 5 5 5 3 5 3 5 5 3 5 5 5 3 3 5 5 3 3 5 5 5 5 5 5 3 5 5 5 5 3 5 5 5 5 5 5 5 5 5 5 5 5 3 5 5 3 5 5 5 5 5 3 3 5 5 5 3 5 5 5 5 5 5 5 5 5 3 5 5 5 5 5 5 5 5 5 5 5 5 5 5 5 5 5 5 5 5 5 3 5 5 5 5 5 5 5 5 5 3 5 5 5 5 5 5 5 5 3 5 5 5 5 5 5 3 5 5 5 5 5 5 5 5 5 5 5 5 3 5 5 5 3 5 5 5 5 5 5 5 5 5 5 5 5 3 5 5 5 5 5 5 5 5 5 5 3 5 5 5 5 5 5 5 5 5 5 5 3 5 5 5 3 5 5 5 5 5 5 5 5 5 5 5 3 5 5 5 3 5 5 3 5 5 5 5 5 5 5 5 5 5 5 5 5 3 5 5 3 5 5 3 5 5 3 3 5 5 5 3 5 5 3 5 5 5 5 3 5 5 5 5 5 5 5 5 5 5 5 5 5 3 5 5 5 5 3 5 5 5 5 5 3 5 5 5 3 5 5 5 5 5 5 5 5 3 5 5 5 5 5 5 3 5 5 5 5 5 3 5 3 5 5 5 3 3 5 5 5 5 5 5 3 5 5 5 5 5 5 5 5 5 3 5 5 5 3 5 5 3 5 3 5 5 5 5 5 5 5 3 5 5 5 5 3 5 5 5 5 5 5 3 5 5 5 5 5 5 5 5 5 5 5 5 3 5 5 5 5 3 5 3 5 5 5 5 5 3 5 5 5 3 5 5 5 5 3 5 5 5 5 5 5 5 5 5 5 5 5 5 5 5 5 5 5 5 5 5 5 5 5 5 5 5 5 5 5 3 5 5 5 5 5 5 5 5 5 5 5 5 5 5 5 5 5 5 5 5 5 5 5 5 5 5 5 5 5 5 5 5 5 5 5 5 5 5 5 5 5 5 5 5 5 5 5 5 5 5 5 5 5 5 5 5 5 5 5 5 5 5 5 5 5 5 5 3 5 5 5 5 5 5 5 5 5 5 5 5 5 5 5 5 5 5 5 5 5 5 5 5 3 5 5 5 5 5 5 5 5 5 5 3 5 5 5 5 5 5 5 3 3 5 5 5 5 5 5 5 5 5 5 5 5 5 5 5 5 5 5 5 5 5 5 5 5 5 5 5 5 5 5 5 3 5 5 5 5 5 5 5 5 5 5 3 3 5 3 5 5 5 5 5 5 3 5 5 5 5 5 3 5 5 5 5 5 3 5 5 5 5 3 5 5 5 5 5 5 5 5 5 5 5 5 5 5 5 5 5 5 5 3 5 5 5 5 5 5 5 5 5 3 5 5 5 5 5 5 5 5 5 5 3 5 5 5 3 5 5 5 3 5 5 3 3 5 5 5 5 3 5 5 5 5 5 5 5 5 3 5 5 5 5 5 5 5 5 5 5 5 5 5 5 5 5 5 5 5 5 5 5 5 5 5 5 5 5 5 5 5 5 5 3 5 5 3 5 3 5 3 5 5 5 3 3 3 5 5 5 3 5 5 5 5 5 5 5 5 5 5 5 5 5 5 3 5 5 5 5 5 5 5 5 5 5 5 5 5 5 5 3 5 5 3 3 5 5 5 3 5 5 3 5 3 5 3 5 5 5 5 5 5 5 5 3 5 5 3 5 5 5 3 5 3 5 5 5 5 5 5 5 5 5 5 5 5 5 5 5 5 5 5 5 5 5 5 5 5 5 5 5 5 5 5 5 5 5 5 5 5 5 5 5 5 5 5 5 5 5 3 5 5 5 5 5 5 3 3 5 5 5 5 5 3 5 3 3 5 3 3 5 3 5 3 5 5 5 5 5 5 5 5 5 3 5 5 5 5 5 5 3 5 5 5 5 5 5 5 5 5 5 5 3 3 5 5 5 5 5 5 3 3 5 5 3 5 5 5 5 5 5 5 5 3 5 5 5 5 5 5 5 5 5 5 5 5 5 5 5 5 5 5 5 5 3 5 3 5 5 3 5 5 5 5 3 3 3 5 5 5 3 3 5 5 3 5 5 5 3 5 3 5 5 3 5 3 3 5 3 5 5 5 5 5 3 3 5 5 5 5 5 5 5 3 5 5 5 5 5 3 5 5 5 3 5 5 5 5 3 5 3 5 3 5 5 3 3 5 5 5 3 5 3 5 5 5 5 5 5 5 5 5 5 5 5 5 5 5 5 5 5 5 5 3 5 5 5 5 5 5 5 5 5 3 5 5 5 5 3 5 5 5 5 3 5 5 5 5 5 5 5 5 5 5 3 5 5 5 5 3 5 5 5 5 5 5 5 5 5 5 5 5 5 5 5 5 5 5 5 3 5 5 3 5 5 3 5 5 5 3 3 5 5 5 5 5 5 5 5 3 5 5 5 5 5 5 5 5 5 5 5 5 5 5 5 5 5 5 5 5 3 5 5 5 5 5 5 5 5 5 5 5 5 5 5 5 5 5 5 5 5 5 5 5 5 5 5 3 5 5 5 5 5 5 5 5 5 3 5 5 3 5 3 3 5 5 5 5 5 5 3 5 5 5 5 5 5 5 5 5 5 5 5 5 5 5 5 5 5 5 5 5 5 5 5 5 5 5 5 5 5 5 5 5 5 5 3 5 5 5 5 5 5 5 5 5 5 5 5 5 5 5 5 5 5 5 5 5 5 5 5 5 5 5 5 5 3 5 5 5 5 5 5 5 3 5 5 3 5 5 5 5 5 3 5 3 5 5 3 5 5 5 5 5 5 5 5 5 5 5 5 5 5 5 5 5 5 5 5 5 5 5 5 5 5 5 5 5 5 5 5 5 5 5 5 5 5 5 3 5 3 5 5 5 5 5 5 5 3 3 5 5 5 3 5 5 5 5 5 5 5 5 5 5 3 5 5 3 5 5 3 5 5 5 5 5 5 5 3 5 5 5 5 5 5 5 3 5 5 5 5 5 5 5 5 5 5 5 3 5 5 5 5 5 3 5 5 5 5 5 5 3 5 5 5 5 3 5 3 5 5 5 3 3 5 3 5 5 5 5 5 5 3 5 5 5 5 5 5 5 5 3 5 5 3 5 5 5 3 5 5 3 5 5 3 5 5 5 5 3 5 5 5 3 5 5 5 5 3 5 5 5 5 5 5 5 5 5 5 5 5 5 5 5 3 5 5 5 5 5 3 5 5 5 5 5 5 5 5 5 5 5 5 5 5 5 5 5 3 5 5 3 5 5 5 5 5 5 3 5 5 5 5 5 5 5 5 5 5 5 5 5 5 5 5 5 3 5 5 5 5 5 5 5 5 5 3 5 3 5 5 3 5 5 5 3 3 5 5 5 5 5 5 5 5 3 5 5 5 3 5 3 3 5 5 3 5 5 5 5 5 5 5 5 3 5 5 5 3 3 3 5 3 5 5 3 5 5 3 5 3 5 5 5 5 5 5 5 5 5 5 5 5 5 5 5 5 5 5 5 5 5 5 5 5 5 5 5 5 5 5 5 5 5 5 5 5 5 5 5 5 5 5 5 5 5 5 5 5 5 5 5 5 3 5 5 3 5 5 5 5 5 5 5 5 3 5 5 3 5 5 5 3 5 5 5 5 5 5 5 5 5 5 5 5 5 5 5 5 5 5 5 5 3 5 3 5 3 5 5 5 3 5 5 3 5 5 5 5 5 5 5 5 5 5 5 5 5 5 5 5 5 5 5 5 5 3 5 5 3 5 5 3 5 5 5 5 5 5 5 3 5 5 5 5 5 3 5 5 5 3 5 5 3 5 5 5 5 5 5 5 5 5 5 5 5 5 5 5 5 5 5 5 5 5 5 5 5 5 5 5 5 5 5 5 5 3 5 5 3 5 5 5 3 3 5 3 5 3 5 5 5 3 5 5 5 5 5 3 5 5 5 5 5 5 5 5 5 5 3 5 5 5 5 5 3 5 5 5 5 3 5 5 5 5 5 5 5 5 5 5 5 5 3 5 5 5 5 5 5 5 3 5 5 5 5 5 5 5 5 5 5 5 5 5 5 5 5 5 5 5 3 5 5 5 5 5 5 3 5 5 5 5 5 5 5 5 5 5 5 5 3 5 5 5 5 5 5 5 5 5 3 5 3 5 5 5 5 5 5 5 5 5 3 5 3 5 5 5 5 5 5 5 5 5 3 5 5 5 5 5 5 5 3 5 5 5 3 5 5 5 5 5 5 3 5 5 5 5 5 5 3 5 5 5 5 3 5 5 5 3 5 5 5 3 5 5 5 3 5 5 5 5 5 3 3 5 5 5 5 5 5 5 5 5 5 5 5 5 3 5 5 5 5 3 5 5 5 5 5 5 5 5 5 5 5 5 5 5 5 5 5 5 5 3 5 3 5 5 5 5 5 5 5 5 5 5 5 5 3 5 5 5 5 5 3 5 5 5 5 5 5 5 3 5 5 5 3 3 5 5 5 5 5 5 5 5 5 5 3 5 5 5 5 5 5 3 5 5 5 5 5 5 5 5 5 5 5 5 3 5 5 3 5 5 5 5 3 5 5 5 5 5 3 3 5 5 3 5 5 5 5 5 3 5 3 5 3 3 5 3 5 5 3 5 5 5 5 5 5 5 3 3 5 3 5 3 5 5 5 5 5 5 5 5 5 5 5 3 5 5 5 5 5 5 5 5 5 5 5 5 5 5 5 3 5 5 5 5 5 5 5 5 3 5 5 5 5 5 5 5 5 5 5 5 5 5 5 5 5 3 5 5 5 5 5 5 5 5 5 5 5 5 5 3 5 3 5 5 5 5 5 5 5 5 5 5 5 5 5 5 5 5 5 5 5 3 5 5 5 3 5 5 5 5 5 5 5 5 5 5 5 5 5 5 5 5 5 5 5 5 5 5 5 5 5 5 5 3 5 5 5 5 5 5 5 5 3 5 5 5 5 5 5 5 5 3 3 5 5 5 5 5 5 5 5 5 5 5 5 5 5 5 5 5 5 5 5 5 5 5 5 5 5 5 5 5 5 3 5 5 5 5 5 5 5 5 5 5 5 3 3 5 5 5 3 3 5 5 5 3 5 5 5 3 5 5 5 5 5 3 5 5 3 5 5 5 5 5 5 5 5 5 5 5 5 5 5 5 5 5 5 5 5 5 5 5 5 5 5 5 5 5 5 3 5 5 5 5 5 5 5 5 5 5 5 5 5 5 3 5 5 5 5 5 5 5 5 5 5 5 5 5 5 5 5 5 5 5 5 5 3 5 5 5 5 5 5 5 5 3 5 3 5 5 3 3 5 5 3 5 5 5 3 3 5 3 5 3 5 5 3 5 5 5 5 3 5 5 5 5 5 5 5 5 3 5 5 5 5 5 5 5 5 5 5 5 5 5 5 5 5 5 5 5 5 5 5 5 3 5 5 5 5 5 5 5 5 5 5 5 5 5 5 5 5 3 5 5 5 5 5 5 5 5 5 3 3 5 5 5 3 5 5 5 5 5 5 5 5 3 5 5 5 5 5 5 5 5 5 5 5 3 5 3 5 5 5 5 5 5 5 5 5 5 5 3 5 5 5 5 5 5 3 5 5 5 5 5 5 5 5 5 5 5 5 5 5 5 5 5 5 5 5 5 5 5 5 5 5 5 5 5 5 5 5 5 5 5 5 5 3 3 5 5 5 3 5 5 5 5 5 5 5 5 5 5 5 5 5 5 5 5 5 5 5 5 5 5 5 5 5 5 5 5 5 5 5 5 5 5 5 5 5 5 3 5 5 5 5 5 3 5 5 5 5 5 3 5 3 5 5 3 5 5 5 5 5 5 5 3 5 5 5 5 5 5 5 5 5 5 5 5 5 5 5 5 5 5 5 5 5 5 5 5 5 5 5 3 5 5 3 5 5 3 5 5 5 5 3 5 5 5 5 5 5 5 5 5 5 5 5 5 5 5 5 5 5 5 5 5 5 5 3 5 5 3 5 5 5 5 5 5 5 5 5 5 5 5 5 5 5 3 5 5 5 5 5 5 3 5 3 5 5 5 5 5 5 5 5 5 5 5 5 5 5 5 5 5 5 5 5 5 3 5 5 5 3 3 5 5 5 5 3 5 5 5 3 5 5 5 5 5 5 3 5 3 5 5 5 5 3 5 5 5 5 3 5 5 5 5 3 5 5 3 5 5 5 5 5 5 5 5 5 5 5 5 5 5 5 5 5 5 5 5 5 3 5 5 3 5 5 5 5 5 5 5 5 5 5 5 5 5 5 5 5 5 5 5 5 5 5 5 5 5 5 5 5 5 5 5 5 5 5 5 5 5 5 5 5 5 5 5 5 5 5 5 5 5 5 5 5 5 5 5 5 5 5 5 3 5 5 5 5 5 5 5 5 5 5 5 5 5 5 3 5 5 5 5 5 5 5 5 5 5 3 5 5 5 5 5 5 5 5 5 5 5 5 5 5 5 5 5 3 5 5 5 3 5 5 5 5 5 5 5 5 3 5 5 5 5 5 3 5 5 5 5 5 5 5 5 3 5 5 5 5 5 5 3 5 5 5 5 5 5 5 5 5 5 5 5 3 5 5 3 3 5 3 5 5 5 5 5 3 5 5 5 5 5 5 5 5 3 3 5 3 5 5 5 5 5 5 5 5 5 3 5 5 5 5 5 5 5 5 5 5 5 5 5 5 5 5 5 3 5 5 5 5 3 5 5 5 3 5 5 5 3 5 5 5 5 5 5 5 5 3 5 5 5 5 3 5 5 5 5 5 5 5 5 5 3 5 5 5 5 5 5 5 5 5 5 5 5 5 5 5 5 5 5 5 5 5 5 5 5 5 5 3 3 5 5 5 5 5 5 5 5 5 5 5 5 5 3 5 5 5 5 5 5 3 5 5 5 5 5 5 5 5 5 5 5 5 5 5 5 5 3 5 5 5 5 5 5 5 5 5 5 5 5 5 5 5 5 5 5 5 5 5 5 5 5 5 5 5 5 5 5 5 5 3 5 5 5 5 5 5 5 5 5 5 5 5 5 5 5 5 5 5 5 5 5 5 5 5 5 5 5 5 5 5 5 5 5 5 5 5 5 5 5 5 5 5 5 5 5 5 5 5 5 5 5 5 5 5 5 5 5 5 5 5 5 5 5 3 5 5 5 5 5 5 5 5 5 5 3 5 5 5 5 5 5 5 5 3 5 3 5 3 3 5 5 5 5 3 5 5 5 5 3 5 5 5 5 5 5 3 5 5 5 5 5 5 5 5 5 5 5 5 5 5 3 5 5 3 5 5 5 5 5 5 5 5 5 5 5 5 5 5 5 5 5 5 5 5 5 5 5 5 5 5 5 5 5 5 5 5 5 5 5 3 5 3 5 5 5 5 5 5 3 5 5 5 5 5 5 5 5 5 5 5 5 5 5 5 5 5 5 5 5 3 5 5 5 5 5 5 5 5 5 5 5 5 5 5 5 5 5 5 3 3 5 5 5 5 5 5 3 5 5 5 5 5 5 5 5 5 5 5 5 5 5 5 5 5 3 5 5 5 5 5 5 5 5 5 5 5 5 5 5 5 5 5 5 5 5 5 5 3 5 3 3 5 5 5 3 3 5 3 3 5 5 5 3 5 5 3 5 5 5 5 5 5 5 5 5 5 5 5 5 3 5 5 5 3 5 5 3 5 5 5 3 5 5 5 3 5 3 5 5 3 5 5 3 5 5 3 5 5 5 5 5 5 5 5 5 5 5 5 5 3 3 5 5 5 5 3 3 5 5 3 5 5 5 5 5 5 5 5 5 5 5 5 5 5 5 5 5 5 5 5 5 5 5 5 3 5 5 3 5 5 3 5 5 3 5 5 5 3 5 5 5 5 5 5 5 5 5 5 5 5 5 5 3 5 5 5 5 5 5 5 5 5 5 5 5 5 5 5 5 5 5 5 5 5 5 5 5 5 5 5 5 5 5 5 5 5 5 5 5 5 5 5 5 5 5 5 5 5 5 5 5 5 5 5 5 5 5 5 3 5 5 5 5 3 3 5 5 5 5 3 5 5 5 5 3 3 5 5 5 5 5 3 5 5 5 3 5 5 5 5 5 3 5 5 5 5 5 3 5 5 5 5 5 5 5 5 3 5 3 5 5 5 5 5 5 5 3 3 5 5 5 5 3 5 3 5 5 5 5 5 5 5 5 3 5 5 5 3 5 5 5 3 3 5 5 5 5 5 3 5 5 3 5 3 5 5 5 5 3 5 3 3 5 3 3 5 5 5 5 5 5 5 5 5 5 5 5 5 5 5 5 3 5 5 5 3 5 5 5 5 5 5 5 5 5 5 5 5 3 5 5 5 5 5 5 5 5 5 5 5 5 5 3 5 5 5 3 5 5 5 5 5 5 5 5 5 5 5 5 5 5 5 3 5 5 5 3 5 5 5 5 5 5 5 5 5 5 5 5 5 5 5 5 5 5 5 5 5 5 5 5 5 5 5 5 5 5 5 5 5 5 5 5 5 5 5 5 5 3 5 3 5 5 5 5 3 5 3 5 3 5 5 5 5 5 5 5 5 5 5 5 5 5 3 5 5 5 5 5 5 5 3 5 5 3 5 3 5 5 5 5 3 5 5 3 3 3 5 5 5 5 5 5 5 5 5 5 5 5 5 5 5 5 5 5 5 5 5 5 5 5 3 5 5 5 5 5 5 5 3 5 5 3 3 5 5 5 5 5 5 5 5 5 5 5 5 5 5 5 5 5 5 5 5 5 5 5 5 5 5 5 5 3 5 5 5 5 5 3 5 5 5 3 5 5 5 5 5 5 5 5 5 3 3 5 5 5 5 5 5 5 5 5 5 3 5 5 5 5 5 5 5 5 5 3 5 5 5 5 5 5 5 5 5 5 5 5 5 5 5 5 5 3 5 3 5 5 5 5 5 5 5 5 5 5 5 5 5 5 5 5 5 5 5 5 5 5 5 5 5 5 5 5 5 5 5 5 5 5 5 5 5 3 5 3 5 5 5 5 5 5 5 5 5 3 5 5 5 3 5 5 3 5 3 5 5 3 5 5 5 5 5 3 5 5 5 5 5 5 5 5 3 5 3 5 3 5 5 5 5 5 5 5 5 5 5 5 5 3 5 5 5 3 5 5 5 3 5 3 5 5 5 5 5 3 5 3 5 5 5 3 5 5 3 5 5 5 5 5 5 5 5 5 3 5 5 3 5 5 5 5 5 5 5 5 5 5 5 5 3 5 5 3 5 3 5 5 5 5 5 3 5 5 5 3 3 5 5 5 5 5 5 3 5 5 5 5 3 5 5 5 5 3 3 5 5 3 5 5 5 3 5 5 5 5 5 5 3 5 5 3 5 3 5 3 5 5 5 5 5 5 5 5 5 5 5 5 5 5 5 5 5 5 3 5 5 5 5 5 5 5 5 5 5 5 5 5 5 5 5 5 5 5 5 5 5 3 5 5 3 5 5 5 5 5 5 5 5 5 5 3 5 5 3 5 5 5 3 5 5 5 5 3 3 5 5 5 3 5 3 3 5 5 3 5 5 5 5 3 5 3 5 5 5 5 5 3 5 5 3 5 5 5 5 5 5 5 5 5 5 5 5 5 5 5 3 5 5 5 5 5 5 5 5 5 5 5 5 5 5 5 5 5 5 5 3 5 5 5 3 5 5 5 5 5 5 5 5 5 5 5 3 5 3 5 5 5 5 3 5 5 5 5 3 5 5 5 5 5 5 5 5 3 5 5 3 5 5 5 5 5 5 5 5 5 5 5 5 5 5 5 5 5 5 5 5 5 5 5 5 3 5 5 3 5 5 3 5 5 5 3 5 5 5 5 5 5 5 5 5 5 3 5 5 5 5 5 3 5 5 5 5 5 5 5 3 5 5 5 5 5 5 5 5 5 5 5 3 3 3 5 3 5 5 5 3 5 5 5 3 5 5 5 5 3 5 5 5 5 5 5 3 5 5 5 5 5 3 5 5 5 5 5 5 5 5 5 5 5 5 3 5 5 5 5 5 5 5 5 5 5 5 5 5 5 3 5 5 5 5 5 5 5 5 5 3 5 5 5 5 3 5 5 5 5 5 5 5 5 3 3 5 5 5 5 3 5 5 5 5 5 5 5 5 5 5 5 5 5 5 5 5 5 5 5 5 5 5 5 5 5 5 5 5 5 5 5 3 5 5 5 5 5 5 5 5 5 5 5 5 5 3 5 5 5 5 5 5 5 3 5 5 5 5 5 5 3 5 5 3 5 5 5 5 3 5 5 5 5 5 5 3 5 5 5 5 5 5 5 5 5 5 5 5 5 5 5 5 5 5 5 5 5 5 5 5 5 5 5 5 5 5 5 5 5 5 5 5 5 5 3 5 5 3 5 3 5 3 5 5 5 5 5 3 5 5 5 5 5 5 5 5 3 5 5 5 5 5 3 5 5 5 5 5 3 5 5 5 3 5 5 5 3 5 5 5 5 5 5 5 5 5 5 5 5 5 5 5 5 5 5 5 3 5 5 5 5 5 5 5 5 5 3 5 5 3 5 5 5 5 5 5 3 5 5 5 5 5 5 5 5 5 5 5 5 5 5 5 5 5 5 5 5 5 5 5 5 5 5 5 5 5 5 5 5 5 5 5 5 5 5 5 5 5 5 5 5 5 5 5 5 5 5 5 5 5 5 5 5 5 5 5 5 5 5 5 5 5 5 5 5 5 5 5 5 5 5 5 5 5 5 5 5 5 5 5 5 5 5 5 5 5 5 5 5 5 5 5 5 5 5 5 5 5 5 5 5 5 5 5 5 5 5 5 5 5 5 5 5 5 5 5 5 5 5 5 5 5 5 5 5 5 5 5 5 5 5 5 5 5 5 5 5 5 5 5 5 3 5 5 5 5 5 5 5 5 5 5 3 5 5 5 5 5 5 5 5 5 5 5 5 3 5 5 3 3 5 5 3 5 5 5 5 3 5 3 5 5 5 5 3 5 3 3 5 5 5 3 5 5 5 5 3 5 5 5 5 5 5 5 5 5 5 5 5 3 5 5 5 5 5 5 5 5 5 5 5 3 3 5 5 5 5 5 5 5 5 5 5 3 5 5 5 5 5 3 5 5 5 5 3 5 5 5 5 3 5 5 5 5 5 3 5 3 5 5 3 5 5 5 5 3 5 5 5 5 5 5 5 3 5 5 5 5 5 5 5 5 5 3 5 5 5 5 5 5 5 5 5 5 5 5 5 5 5 5 5 5 5 5 5 5 5 5 5 5 5 5 5 5 5 5 5 5 5 5 5 5 5 5 5 5 5 5 5 5 5 5 5 5 5 5 5 5 5 5 5 5 5 3 5 5 5 3 5 5 5 5 5 5 5 5 5 3 5 3 5 5 5 5 5 5 5 5 5 5 3 5 5 5 5 5 5 5 5 5 3 5 5 5 5 5 3 5 3 5 5 5 5 5 3 5 5 5 5 5 5 5 5 5 5 3 5 3 5 5 3 5 3 5 3 3 5 5 5 5 5 5 5 5 5 3 5 5 5 5 5 5 5 3 5 5 5 5 5 5 3 5 5 5 5 5 3 5 3 3 5 5 3 5 5 5 5 5 5 5 5 3 5 5 5 5 5 5 5 5 5 5 3 5 5 5 3 5 5 5 5 5 5 5 5 5 5 5 5 5 5 5 5 5 5 5 5 5 5 5 5 5 5 5 5 5 5 5 5 5 5 5 5 5 5 5 5 5 5 5 5 5 5 5 5 5 5 5 3 5 5 5 3 5 5 5 5 5 3 5 3 5 5 3 5 3 5 5 5 5 5 5 5 3 3 5 5 5 5 5 5 5 5 5 5 5 5 5 5 5 5 5 3 5 5 5 3 5 3 3 3 5 5 3 5 3 5 5 5 5 5 3 3 5 5 5 5 5 5 5 5 5 5 5 5 5 5 5 5 3 5 3 5 5 5 5 3 5 3 5 5 5 5 5 5 3 5 3 5 3 3 5 3 5 5 3 5 3 5 5 5 3 5 5 5 5 5 3 5 5 5 5 5 5 5 5 5 3 5 5 5 5 5 5 3 3 5 3 5 5 3 5 5 5 3 5 5 5 5 3 5 5 5 5 5 5 5 5 5 3 5 5 5 3 3 5 3 5 5 5 5 5 5 5 5 5 5 5 5 3 5 3 5 5 5 5 5 5 5 5 5 3 3 5 5 5 5 5 5 5 5 5 5 3 3 5 5 5 5 5 5 3 5 5 5 5 5 5 5 5 5 3 5 3 5 5 5 5 5 5 3 5 5 3 3 5 5 5 5 5 5 3 5 3 5 5 5 5 3 5 3 5 5 5 5 3 5 5 3 5 5 5 5 5 3 3 5 5 5 5 5 3 5 5 5 5 3 5 5 5 3 3 5 5 5 5 5 5 3 5 5 5 5 5 5 3 5 5 5 3 5 3 5 5 5 5 5 5 5 5 5 5 5 5 5 5 5 5 3 5 3 5 5 5 3 5 5 5 5 5 3 5 5 5 5 5 3 5 5 3 5 5 3 5 5 5 5 5 5 3 5 5 5 3 5 5 5 5 5 5 5 5 5 5 5 5 3 5 3 5 5 5 5 5 5 5 5 5 5 5 5 5 5 5 5 5 5 5 5 5 5 5 5 5 5 5 5 5 5 5 5 5 5 5 5 5 5 5 5 5 5 5 5 5 5 5 3 5 5 5 5 3 5 5 5 5 5 5 5 3 5 5 5 5 3 5 5 5 5 5 5 5 5 5 5 5 5 5 5 3 5 5 5 5 5 5 5 3 5 5 5 5 5 5 5 5 5 5 5 5 5 5 5 5 5 5 5 5 5 5 5 5 3 5 5 3 5 5 5 5 5 5 5 5 5 5 5 5 5 5 5 5 5 5 5 5 5 5 5 5 3 5 5 5 5 5 5 5 5 5 5 5 5 5 5 3 5 5 5 5 5 5 5 3 5 5 5 5 5 5 5 5 5 5 5 5 5 5 5 5 5 5 5 5 5 5 5 5 5 5 5 5 5 5 5 5 5 5 5 5 5 5 5 5 5 5 5 5 5 5 5 5 5 5 5 5 5 5 3 3 5 5 5 3 5 5 3 5 5 5 3 5 5 5 5 5 5 5 5 5 5 5 5 5 5 5 5 5 5 5 5 5 5 5 5 5 5 5 3 5 5 5 5 5 5 3 5 5 5 3 5 5 3 5 3 3 5 5 5 3 5 3 5 5 5 3 3 5 3 5 5 5 3 5 3 3 5 5 3 5 5 5 5 5 5 5 5 5 5 5 3 5 3 5 3 5 5 3 5 3 3 5 5 5 5 5 3 3 5 5 5 5 5 5 5 5 3 5 5 5 5 5 5 5 3 5 3 3 5 5 5 3 3 5 5 3 5 5 3 3 5 3 5 5 5 5 5 5 5 3 5 5 5 5 5 5 5 5 3 5 5 5 5 3 5 5 3 5 3 5 5 5 5 5 5 5 5 5 5 5 5 5 5 5 5 5 5 5 3 5 5 3 5 5 5 5 5 5 3 5 3 5 5 3 5 5 5 3 5 5 3 3 5 3 5 5 5 5 5 5 5 5 3 5 3 5 5 5 5 5 3 5 5 3 3 5 5 5 5 5 3 5 5 3 5 5 3 5 5 3 5 3 5 3 5 3 5 3 5 5 5 5 5 5 5 5 5 3 5 5 5 5 5 3 5 3 5 5 5 5 5 3 5 5 5 5 5 5 5 5 3 5 5 3 5 5 5 5 5 5 5 5 5 5 5 3 5 5 5 5 5 5 3 5 5 5 5 5 3 5 5 5 5 5 5 5 5 5 5 5 5 5 5 5 5 5 5 5 3 3 5 5 5 5 5 5 5 5 3 5 5 5 5 5 5 5 5 5 5 5 5 5 5 5 3 3 5 5 3 5 5 5 3 5 3 5 5 5 5 5 5 3 3 5 5 5 5 5 5 5 5 5 5 5 5 5 5 5 3 3 5 5 5 5 5 5 5 3 5 5 5 5 5 5 5 5 3 5 5 5 5 5 5 5 5 5 5 5 5 5 5 5 5 5 5 5 5 5 5 5 5 5 3 5 5 3 5 5 5 5 5 5 5 5 5 5 5 5 5 5 5 5 5 5 5 5 5 5 5 5 5 5 5 5 5 5 3 5 5 5 5 5 5 3 5 5 5 5 3 5 5 3 5 5 3 5 3 5 5 5 3 5 3 5 5 5 3 5 3 5 5 5 3 3 5 5 5 3 5 5 5 5 5 5 5 5 5 5 5 5 3 5 5 3 5 5 3 5 3 5 3 5 5 3 5 5 5 5 5 5 5 5 5 5 3 5 5 5 3 5 3 5 3 5 5 5 5 5 3 5 3 5 5 5 5 3 5 3 5 5 5 5 5 5 5 5 5 5 5 5 5 5 5 5 5 5 5 5 5 5 5 5 5 5 5 3 5 5 5 5 5 5 5 5 5 5 5 5 5 5 5 5 5 5 3 5 5 5 5 5 5 5 5 5 5 5 5 5 5 3 5 3 5 5 3 3 3 5 5 5 5 5 3 5 3 5 3 5 5 5 3 5 5 3 5 3 3 3 5 5 5 5 5 5 5 3 5 5 5 5 5 3 5 5 5 5 5 5 5 5 5 5 5 5 5 5 5 5 5 5 3 5 5 5 5 5 5 5 3 5 5 5 5 5 5 5 5 5 5 5 5 3 5 5 3 5 5 5 5 5 5 5 5 5 5 3 5 3 5 5 5 5 5 5 5 3 5 5 5 5 3 5 5 5 5 5 5 5 5 5 5 3 5 5 5 5 5 3 5 5 5 5 5 5 3 5 5 5 5 5 5 5 5 5 5 5 5 3 5 5 5 5 5 5 5 5 3 5 5 5 5 3 5 5 5 3 5 5 5 5 5 5 3 5 5 5 3 5 5 5 5 5 5 5 3 5 5 3 5 5 3 5 5 5 5 5 5 5 5 3 5 3 5 5 5 5 5 3 5 5 5 5 5 5 5 5 5 3 5 5 3 5 5 5 5 3 5 5 3 5 5 5 5 3 5 5 5 5 5 5 3 5 5 5 5 5 5 5 3 5 3 5 5 5 5 5 5 5 5 5 5 5 5 5 5 3 5 5 5 5 5 5 5 5 3 3 5 5 5 5 5 5 3 5 5 5 5 5 5 5 5 5 5 5 5 5 5 5 5 5 5 5 5 5 5 5 3 5 5 5 5 5 5 5 5 5 5 5 5 5 5 5 3 5 5 5 5 5 5 5 5 5 5 5 5 5 5 5 5 5 5 5 5 5 5 5 5 5 5 5 5 5 3 5 5 5 5 5 5 5 5 5 5 5 3 5 5 5 3 5 5 5 5 5 5 5 5 5 3 5 5 5 5 5 5 3 5 5 5 3 3 5 3 3 5 3 5 5 5 5 5 5 5 5 5 5 5 3 5 5 5 5 3 5 5 3 5 5 5 5 5 5 5 5 5 5 3 5 5 5 5 5 5 3 5 5 5 3 5 5 5 5 5 5 5 5 5 5 5 5 3 5 5 5 5 5 5 3 3 5 5 5 5 5 5 5 5 5 5 5 5 5 5 5 5 5 5 5 5 5 5 5 5 5 3 5 5 5 5 5 5 5 3 5 5 5 5 5 3 5 3 5 5 5 5 5 5 5 3 5 5 5 5 5 5 5 5 5 5 5 5 5 5 5 5 5 5 5 5 5 5 5 5 5 5 5 5 5 5 5 5 5 5 5 5 5 5 5 5 5 5 5 5 5 5 5 3 5 5 5 3 5 5 5 3 5 5 5 5 5 3 5 5 5 5 5 5 5 5 5 5 5 5 5 5 5 5 5 5 5 5 5 5 3 5 5 5 5 3 3 5 5 5 5 3 5 5 3 5 3 5 3 3 5 5 3 3 5 5 5 5 5 5 3 5 5 5 5 5 5 5 5 3 5 5 5 5 5 5 5 5 5 5 5 5 5 5 5 5 5 5 5 5 5 5 5 5 5 5 5 5 5 5 5 5 5 5 5 5 5 5 5 5 5 5 5 5 5 5 5 5 5 5 5 5 5 5 5 5 5 5 5 5 5 5 3 5 5 5 3 5 5 5 5 5 5 5 5 5 5 5 5 5 5 5 5 5 5 5 5 5 5 5 5 5 5 5 5 3 5 5 5 5 5 5 5 5 5 5 5 5 3 5 5 5 5 3 5 5 5 5 5 5 3 5 3 5 5 5 5 5 5 5 5 3 5 5 5 5 5 5 3 5 3 5 5 3 5 5 5 3 5 5 5 5 5 5 5 5 5 5 5 5 5 5 5 3 5 5 5 5 5 5 5 5 5 5 3 5 5 5 5 5 5 5 5 5 5 5 5 5 5 5 5 5 5 5 5 5 5 5 5 3 3 5 5 3 5 5 5 5 5 5 5 5 3 5 5 5 5 5 5 5 5 5 3 5 5 5 5 5 5 5 5 5 5 5 5 5 5 5 5 5 5 5 5 5 5 5 5 5 5 5 5 3 5 5 5 5 5 5 5 5 5 3 5 5 5 5 5 5 5 5 5 5 5 3 
</DataArray>
</Cells>
<PointData Scalars="" Vectors="displacement," Tensors="">
<DataArray type="Float64" Name="displacement" NumberOfComponents="3" format="ascii">
0.0049996348572134653 1.8486885204909798e-07 0 0.0048423699731119816 2.8930843533491273e-05 0 0.0043691880130226918 -3.9840122937508237e-07 0 0.0049996348572134653 1.8486885204909798e-07 0 0.0048423699731119816 2.8930843533491273e-05 0 0.0049998785752697443 8.8904850765225972e-09 0 0.0048423699731119816 2.8930843533491273e-05 0 0.004740030600805089 -8.3209595802492638e-05 0 0.0043691880130226918 -3.9840122937508237e-07 0 0.0048423699731119816 2.8930843533491273e-05 0 0.004740030600805089 -8.3209595802492638e-05 0 0.0048884246409382857 -2.0556025423226615e-05 0 0.0048884246409382857 -2.0556025423226615e-05 0 0.0049659098832339306 -1.8656305515397021e-05 0 0.0048986804383896717 -0.00012093866191761744 0 0.0049420320585912428 -2.9840552792002263e-06 0 0.004951156264121577 -5.1201742733228822e-05 0 0.0049338622439137154 1.9898880112482379e-05 0 0.0049145138517888813 2.4620408577650077e-05 0 0.0049238742536661002 2.2330748967940274e-05 0 0.004740030600805089 -8.3209595802492638e-05 0 0.0048884246409382857 -2.0556025423226615e-05 0 0.0048986804383896717 -0.00012093866191761744 0 0.0048423699731119816 2.8930843533491273e-05 0 0.0048884246409382857 -2.0556025423226615e-05 0 0.0049654361810361368 1.652967120660441e-05 0 0.0048884246409382857 -2.0556025423226615e-05 0 0.0049659098832339306 -1.8656305515397021e-05 0 0.0049654361810361368 1.652967120660441e-05 0 0.0049659098832339306 -1.8656305515397021e-05 0 0.0049654361810361368 1.652967120660441e-05 0 0.0049852196771092028 5.6243661453473269e-06 0 0.0049654361810361368 1.652967120660441e-05 0 0.0049998785752697443 8.8904850765225972e-09 0 0.0050000093877880115 1.8462962762804103e-08 0 0.0048423699731119816 2.8930843533491273e-05 0 0.0049654361810361368 1.652967120660441e-05 0 0.0049998785752697443 8.8904850765225972e-09 0 0.0049654361810361368 1.652967120660441e-05 0 0.0050000093877880115 1.8462962762804103e-08 0 0.0049852196771092028 5.6243661453473269e-06 0 0.0049999844867333583 -4.3811520035458487e-11 0 0.0049711090907196579 7.5899694526959425e-06 0 0.0049998900732758332 8.0346303122732411e-09 0 0.0049537227161808844 1.2526344532042429e-05 0 0.0049607131387033885 1.0105823272153409e-05 0 0.0049537227161808844 1.2526344532042429e-05 0 0.0049607131387033885 1.0105823272153409e-05 0 0.0049422326727192618 1.442281306758305e-05 0 0.0049998114311402527 -3.0089088296930762e-08 0 0.0049999996989967916 9.5851333170364659e-12 0 0.0049999991544456487 -2.1931508684515082e-10 0 0.0049998900732758332 8.0346303122732411e-09 0 0.0049920265339448867 -3.2900154571929523e-07 0 0.0049607131387033885 1.0105823272153409e-05 0 0.0049644929018347935 3.5787107498278397e-06 0 0.0049920265339448867 -3.2900154571929523e-07 0 0.0049607131387033885 1.0105823272153409e-05 0 0.0049998900732758332 8.0346303122732411e-09 0 0.005000027842578492 -2.0894260229131146e-09 0 0.0049920265339448867 -3.2900154571929523e-07 0 0.0049513443279180728 -2.6299810184719277e-05 0 0.0049999648479791426 -1.8570595941638556e-09 0 0.0050002620099342922 -6.2948834352571599e-06 0 0.005000027842578492 -2.0894260229131146e-09 0 0.0049920265339448867 -3.2900154571929523e-07 0 0.0049513443279180728 -2.6299810184719277e-05 0 0.0049886524801849488 -9.3528143472609498e-06 0 0.0049644929018347935 3.5787107498278397e-06 0 0.0049607131387033885 1.0105823272153409e-05 0 0.0049364686105372105 1.2437323914433319e-05 0 0.0049513443279180728 -2.6299810184719277e-05 0 0.0049089370616959178 -1.2230766219573703e-05 0 0.0048880360337654081 -8.352903312957209e-05 0 0.0048834922252080012 -3.7325502285370481e-05 0 0.0048480967209124448 -6.3048622997405573e-05 0 0.0049513443279180728 -2.6299810184719277e-05 0 0.0049319258885652207 -3.3305604792612862e-05 0 0.0048834922252080012 -3.7325502285370481e-05 0 0.0048480967209124448 -6.3048622997405573e-05 0 0.0048561975905120685 -4.1884310245329882e-05 0 0.0049607131387033885 1.0105823272153409e-05 0 0.0049364686105372105 1.2437323914433319e-05 0 0.0049274559330508647 1.5153895896439156e-05 0 0.0049364686105372105 1.2437323914433319e-05 0 0.0049274559330508647 1.5153895896439156e-05 0 0.0049016912862011285 1.8596984341989926e-05 0 0.0049089370616959178 -1.2230766219573703e-05 0 0.0048706792500304904 1.1473714479188305e-05 0 0.0048834922252080012 -3.7325502285370481e-05 0 0.0048793878954725102 1.5576205912573127e-05 0 0.0048561975905120685 -4.1884310245329882e-05 0 0.0049338622439137154 1.9898880112482379e-05 0 0.0049537227161808844 1.2526344532042429e-05 0 0.0049422326727192618 1.442281306758305e-05 0 0.0049420320585912428 -2.9840552792002263e-06 0 0.0049711090907196579 7.5899694526959425e-06 0 0.0049607131387033885 1.0105823272153409e-05 0 0.0049274559330508647 1.5153895896439156e-05 0 0.0049422326727192618 1.442281306758305e-05 0 0.0049274559330508647 1.5153895896439156e-05 0 0.0049313812105196246 2.1807808576935489e-05 0 0.00492541298459029 2.7378145345911445e-05 0 0.0049274559330508647 1.5153895896439156e-05 0 0.0049422326727192618 1.442281306758305e-05 0 0.0049313812105196246 2.1807808576935489e-05 0 0.0049338622439137154 1.9898880112482379e-05 0 0.0049422326727192618 1.442281306758305e-05 0 0.0049313812105196246 2.1807808576935489e-05 0 0.0049338622439137154 1.9898880112482379e-05 0 0.0049313812105196246 2.1807808576935489e-05 0 0.0049238742536661002 2.2330748967940274e-05 0 0.0049313812105196246 2.1807808576935489e-05 0 0.0049220777924534288 2.2280024168572159e-05 0 0.0049238742536661002 2.2330748967940274e-05 0 0.0049313812105196246 2.1807808576935489e-05 0 0.00492541298459029 2.7378145345911445e-05 0 0.0049220777924534288 2.2280024168572159e-05 0 0.0041463038678471566 0.00013990508840896833 0 0.0041145530816224648 0.00016899477759565096 0 0.0032816426985514211 0.00024208360772151082 0 0.0033529294240793603 0.00028784913357561619 0 0.003316500924170275 0.00022863068642658065 0 0.00492541298459029 2.7378145345911445e-05 0 0.0049220777924534288 2.2280024168572159e-05 0 0.0049180704881932654 4.9991258612113945e-05 0 0.0048523331627348971 -1.1411548067448394e-05 0 0.0048430859704782234 4.4462335164108892e-05 0 0.0047666146452882479 5.1401508589525999e-07 0 0.0048430859704782234 4.4462335164108892e-05 0 0.0047666146452882479 5.1401508589525999e-07 0 0.004765660853549944 7.0895995913405663e-05 0 0.0048706792500304904 1.1473714479188305e-05 0 0.0048857856812239671 1.6936375165884187e-05 0 0.0048706792500304904 1.1473714479188305e-05 0 0.0048560192895553342 2.9578681584327759e-05 0 0.0048563142762553012 -5.2869853683708385e-06 0 0.0048430859704782234 4.4462335164108892e-05 0 0.004895778183451072 1.8129809989415674e-05 0 0.0049274559330508647 1.5153895896439156e-05 0 0.0049016912862011285 1.8596984341989926e-05 0 0.004895778183451072 1.8129809989415674e-05 0 0.0049274559330508647 1.5153895896439156e-05 0 0.00492541298459029 2.7378145345911445e-05 0 0.004895778183451072 1.8129809989415674e-05 0 0.00492541298459029 2.7378145345911445e-05 0 0.004895778183451072 1.8129809989415674e-05 0 0.0049180704881932654 4.9991258612113945e-05 0 0.0048430859704782234 4.4462335164108892e-05 0 0.004895778183451072 1.8129809989415674e-05 0 0.0049180704881932654 4.9991258612113945e-05 0 0.0033529294240793603 0.00028784913357561619 0 0.0034160738357033732 0.0002643573078065268 0 0.0034631161005341305 0.00033325745125169069 0 0.0041145530816224648 0.00016899477759565096 0 0.0041590446581905912 0.00018583575462801917 0 0.0048430859704782234 4.4462335164108892e-05 0 0.0049180704881932654 4.9991258612113945e-05 0 0.004765660853549944 7.0895995913405663e-05 0 0.0034160738357033732 0.0002643573078065268 0 0.0033621052822761046 0.00019217907488240031 0 0.0034765455028348334 0.00022169900642670046 0 0.0033529294240793603 0.00028784913357561619 0 0.0034160738357033732 0.0002643573078065268 0 0.0033621052822761046 0.00019217907488240031 0 0.0033529294240793603 0.00028784913357561619 0 0.0033621052822761046 0.00019217907488240031 0 0.003316500924170275 0.00022863068642658065 0 0.0033621052822761046 0.00019217907488240031 0 0.0034765455028348334 0.00022169900642670046 0 0.0034668800722154115 0.00015262250936184927 0 0.0032816426985514211 0.00024208360772151082 0 0.0032815676343452053 0.00018859560271295079 0 0.0032650843983395342 0.000189217538200032 0 0.0032816426985514211 0.00024208360772151082 0 0.003316500924170275 0.00022863068642658065 0 0.0032815676343452053 0.00018859560271295079 0 0.0033621052822761046 0.00019217907488240031 0 0.003316500924170275 0.00022863068642658065 0 0.0032815676343452053 0.00018859560271295079 0 0.0033621052822761046 0.00019217907488240031 0 0.0032815676343452053 0.00018859560271295079 0 0.0032859503946659663 0.00013388195547272972 0 0.0032815676343452053 0.00018859560271295079 0 0.0032650843983395342 0.000189217538200032 0 0.0032663919873906697 0.00017025406924841888 0 0.0032520378194125813 0.00018563785327258255 0 0.0032650843983395342 0.000189217538200032 0 0.0032663919873906697 0.00017025406924841888 0 0.0032520378194125813 0.00018563785327258255 0 0.0032650843983395342 0.000189217538200032 0 0.0032564638117137993 0.00020499690250491118 0 0.0032816426985514211 0.00024208360772151082 0 0.0032650843983395342 0.000189217538200032 0 0.0032564638117137993 0.00020499690250491118 0 0.0032816426985514211 0.00024208360772151082 0 0.0032564638117137993 0.00020499690250491118 0 0.0032446128730296317 0.00021581973791058416 0 0.0032520378194125813 0.00018563785327258255 0 0.0032564638117137993 0.00020499690250491118 0 0.0032490969495751658 0.00019610806388315331 0 0.0031508530923404872 0.00032982567386255246 0 0.0038912925234363838 8.7405509313603425e-05 0 0.0032564638117137993 0.00020499690250491118 0 0.0032515246257424522 0.00019860111028725089 0 0.0032490969495751658 0.00019610806388315331 0 0.0032515246257424522 0.00019860111028725089 0 0.0032490969495751658 0.00019610806388315331 0 0.0032486904644920922 0.00019460310787548009 0 0.0032490969495751658 0.00019610806388315331 0 0.0032486904644920922 0.00019460310787548009 0 0.0032425067275517025 0.00018792166769906869 0 0.0032520378194125813 0.00018563785327258255 0 0.0032490969495751658 0.00019610806388315331 0 0.0032425067275517025 0.00018792166769906869 0 0.0032520378194125813 0.00018563785327258255 0 0.0032425067275517025 0.00018792166769906869 0 0.0032427732215738686 0.0001572318764072336 0 0.0034247238545458297 -0.00011337710504516001 0 0.0035204664196317051 -0.0001184141439689343 0 0.0034516206932180219 -2.6668191050001173e-05 0 0.0034247238545458297 -0.00011337710504516001 0 0.0035204664196317051 -0.0001184141439689343 0 0.0035311705332588721 -0.00025401083005130806 0 0.0035204664196317051 -0.0001184141439689343 0 0.0036099204621388775 -0.00015318112638653802 0 0.0035311705332588721 -0.00025401083005130806 0 0.0038952844554117232 1.4285842292130038e-05 0 0.0039696481428764764 -4.0229049798320365e-09 0 0.0037324985162133159 2.9519223210490465e-09 0 0.0036191268035351441 -5.7372284636986702e-05 0 0.0036099204621388775 -0.00015318112638653802 0 0.003731915825059749 -2.4242635733043094e-07 0 0.0037309864464620955 -8.2270495361507493e-05 0 0.0037571878200959915 6.1681003604729869e-07 0 0.0035204664196317051 -0.0001184141439689343 0 0.0036191268035351441 -5.7372284636986702e-05 0 0.0036099204621388775 -0.00015318112638653802 0 0.0035204664196317051 -0.0001184141439689343 0 0.0036191268035351441 -5.7372284636986702e-05 0 0.0035464301347655877 -1.9386880633292217e-05 0 0.003970258558110719 1.6003358800316572e-08 0 0.0037744084104439977 -8.5074933394813442e-06 0 0.0038952844554117232 1.4285842292130038e-05 0 0.0039696481428764764 -4.0229049798320365e-09 0 0.0038603709927538519 -3.9132181150467996e-05 0 0.0039702715554695575 -1.3817957822497617e-07 0 0.0041696286836882483 -3.5627554438741388e-05 0 0.0041282124381918058 1.7311558500700241e-05 0 0.0037309864464620955 -8.2270495361507493e-05 0 0.0037744084104439977 -8.5074933394813442e-06 0 0.0032515246257424522 0.00019860111028725089 0 0.0032486904644920922 0.00019460310787548009 0 0.0032502271849219346 0.00019416775518410291 0 0.0038912925234363838 8.7405509313603425e-05 0 0.0037744084104439977 -8.5074933394813442e-06 0 0.0032847707664089877 5.5475795263548848e-05 0 0.0037744084104439977 -8.5074933394813442e-06 0 0.0032486904644920922 0.00019460310787548009 0 0.0032425067275517025 0.00018792166769906869 0 0.0032502271849219346 0.00019416775518410291 0 0.0037744084104439977 -8.5074933394813442e-06 0 0.0040115268599283157 -8.3272446835337745e-05 0 0.0037744084104439977 -8.5074933394813442e-06 0 0.004495523794248826 -6.5726431733194646e-05 0 0.0041296368983837128 1.0482717661838028e-05 0 0.0041282124381918058 1.7311558500700241e-05 0 0.0041675888003585623 -3.7150484091674823e-06 0 0.0040693600640870761 8.5468450259312181e-06 0 0.0040042102965267036 -4.5591090559813999e-06 0 0.0040351433618008364 3.4873234665709773e-05 0 0.0041271661168947159 1.7318182618846222e-05 0 0.0041296368983837128 1.0482717661838028e-05 0 0.0041282124381918058 1.7311558500700241e-05 0 0.004495523794248826 -6.5726431733194646e-05 0 0.004384562652990003 -0.00010156982645889016 0 0.0041690970147829935 1.3638010638520853e-07 0 0.0041282124381918058 1.7311558500700241e-05 0 0.0041675888003585623 -3.7150484091674823e-06 0 0.0039702715554695575 -1.3817957822497617e-07 0 0.0041690970147829935 1.3638010638520853e-07 0 0.0041282124381918058 1.7311558500700241e-05 0 0.004740030600805089 -8.3209595802492638e-05 0 0.0045928243375460819 -0.00021834531395467221 0 0.0043691880130226918 -3.9840122937508237e-07 0 0.0041690970147829935 1.3638010638520853e-07 0 0.0041675888003585623 -3.7150484091674823e-06 0 0.0043679781853420271 -1.3799426691380844e-07 0 0.004384562652990003 -0.00010156982645889016 0 0.0043682049715536202 -3.6639168599640241e-08 0 0.004740030600805089 -8.3209595802492638e-05 0 0.0047580674138353596 -0.00032675664161635183 0 0.0045928243375460819 -0.00021834531395467221 0 0.0048931747932965692 1.5082799951103824e-05 0 0.0049145138517888813 2.4620408577650077e-05 0 0.0049151738414820257 1.9511314507183172e-05 0 0.004495523794248826 -6.5726431733194646e-05 0 0.004951156264121577 -5.1201742733228822e-05 0 0.004740030600805089 -8.3209595802492638e-05 0 0.0047580674138353596 -0.00032675664161635183 0 0.0048986804383896717 -0.00012093866191761744 0 0.0049145138517888813 2.4620408577650077e-05 0 0.0049238742536661002 2.2330748967940274e-05 0 0.0049151738414820257 1.9511314507183172e-05 0 0.0041463038678471566 0.00013990508840896833 0 0.0038912925234363838 8.7405509313603425e-05 0 0.0049220777924534288 2.2280024168572159e-05 0 0.0049008134420252605 9.0831507142370729e-06 0 0.0049151738414820257 1.9511314507183172e-05 0 0.0049220777924534288 2.2280024168572159e-05 0 0.0049238742536661002 2.2330748967940274e-05 0 0.0049151738414820257 1.9511314507183172e-05 0 0.0049008134420252605 9.0831507142370729e-06 0 0.0048931747932965692 1.5082799951103824e-05 0 0.0049151738414820257 1.9511314507183172e-05 0 0.0038912925234363838 8.7405509313603425e-05 0 0.004495523794248826 -6.5726431733194646e-05 0 0.0045480384509222942 -4.9076538308567381e-05 0 0.0045845954316743676 -7.3559221641520653e-05 0 0.004644326855953583 -1.1686925831362973e-05 0 0.0045645628645612146 1.2688970563640131e-05 0 0.0045480384509222942 -4.9076538308567381e-05 0 0.004644326855953583 -1.1686925831362973e-05 0 0.0045480384509222942 -4.9076538308567381e-05 0 0.0044830589097670038 3.1161850332412219e-05 0 0.0045013212846773832 -7.6480064186697745e-05 0 0.0045645628645612146 1.2688970563640131e-05 0 0.0045480384509222942 -4.9076538308567381e-05 0 0.0044929810329246153 3.3431258389045788e-05 0 0.0043713045325750842 0.00020202879511683857 0 0.0041735686153069251 0.00014602225417006471 0 0.0045971960792847294 -0.00011290804816518519 0 0.0043713045325750842 0.00020202879511683857 0 0.0045816179006797908 7.8978888285933092e-05 0 0.0044883445924966282 7.6871209081714252e-05 0 0.0044929810329246153 3.3431258389045788e-05 0 0.0045645628645612146 1.2688970563640131e-05 0 0.0045816179006797908 7.8978888285933092e-05 0 0.0044929810329246153 3.3431258389045788e-05 0 0.0047501560892526514 9.0396177770634334e-05 0 0.0047142449392571376 9.0083566066089508e-05 0 0.0045645628645612146 1.2688970563640131e-05 0 0.0045816179006797908 7.8978888285933092e-05 0 0.004644326855953583 -1.1686925831362973e-05 0 0.0045816179006797908 7.8978888285933092e-05 0 0.0047396961562623718 6.7079549740008113e-05 0 0.004644326855953583 -1.1686925831362973e-05 0 0.0047501560892526514 9.0396177770634334e-05 0 0.0047384852514241573 7.5175827358462825e-05 0 0.0048421681011798483 4.0802502735335973e-05 0 0.0049601090825863196 -2.3336156582076415e-06 0 0.0049773950900321041 5.3100552939442392e-05 0 0.004900993328880626 0.00011135939025511787 0 0.0048421681011798483 4.0802502735335973e-05 0 0.0049773950900321041 5.3100552939442392e-05 0 0.004900993328880626 0.00011135939025511787 0 0.0048421681011798483 4.0802502735335973e-05 0 0.0047396961562623718 6.7079549740008113e-05 0 0.0048421681011798483 4.0802502735335973e-05 0 0.0049601090825863196 -2.3336156582076415e-06 0 0.0047978573065039967 1.1437242189685122e-06 0 0.0049562767844520007 -1.9307677786408879e-07 0 0.0049060164021668302 2.2262974519554192e-06 0 0.0049999242401336901 1.1067865983212787e-08 0 0.0049601090825863196 -2.3336156582076415e-06 0 0.0050021439601661086 -2.4084646397646455e-06 0 0.0049999242401336901 1.1067865983212787e-08 0 0.0049877788894929238 -1.7083336969557099e-06 0 0.0050000132919384875 -2.7546952014628245e-08 0 0.0049999242401336901 1.1067865983212787e-08 0 0.0049601090825863196 -2.3336156582076415e-06 0 0.0049877788894929238 -1.7083336969557099e-06 0 0.0049601090825863196 -2.3336156582076415e-06 0 0.0049877788894929238 -1.7083336969557099e-06 0 0.0049773950900321041 5.3100552939442392e-05 0 0.004900993328880626 0.00011135939025511787 0 0.0049773950900321041 5.3100552939442392e-05 0 0.0050216042848496532 0.00010315066669437809 0 0.0049773950900321041 5.3100552939442392e-05 0 0.005014764679653865 2.1350270679956944e-05 0 0.0050216042848496532 0.00010315066669437809 0 0.0049877788894929238 -1.7083336969557099e-06 0 0.0049773950900321041 5.3100552939442392e-05 0 0.005014764679653865 2.1350270679956944e-05 0 0.0049889014340160007 7.8870832495468919e-06 0 0.0049874734230693366 2.4091785124716133e-05 0 0.0049813355970214981 2.4230786333555693e-05 0 0.0049889014340160007 7.8870832495468919e-06 0 0.0049988888914898506 1.011760480940499e-05 0 0.0049874734230693366 2.4091785124716133e-05 0 0.0050010064431136271 8.7230588357479829e-06 0 0.0047142449392571376 9.0083566066089508e-05 0 0.0046888491463247875 1.9908057120496328e-05 0 0.0044077087350855868 0.00018377269381603269 0 0.0049877788894929238 -1.7083336969557099e-06 0 0.005014764679653865 2.1350270679956944e-05 0 0.0050000132919384875 -2.7546952014628245e-08 0 0.0050010064431136271 8.7230588357479829e-06 0 0.0050000001088153162 1.5929217521803394e-08 0 0.0049889014340160007 7.8870832495468919e-06 0 0.0049989407441479216 2.7008706765295516e-06 0 0.0049988888914898506 1.011760480940499e-05 0 0.0049889014340160007 7.8870832495468919e-06 0 0.0049999740598767242 1.2565283694512357e-09 0 0.0049989407441479216 2.7008706765295516e-06 0 0.0049999740598767242 1.2565283694512357e-09 0 0.0050000156246845532 2.7682606923575314e-09 0 0.0049989407441479216 2.7008706765295516e-06 0 0.0050018921860183092 1.9648707147760883e-06 0 0.0050000156246845532 2.7682606923575314e-09 0 0.0049989407441479216 2.7008706765295516e-06 0 0.004942584178700745 -1.1387206336857526e-06 0 0.0049999435068527011 2.0647522056050139e-08 0 0.0050018921860183092 1.9648707147760883e-06 0 0.0049989407441479216 2.7008706765295516e-06 0 0.0049988888914898506 1.011760480940499e-05 0 0.004942584178700745 -1.1387206336857526e-06 0 0.0046888491463247875 1.9908057120496328e-05 0 0.0044064530983602699 0.00013411523116334416 0 0.0044087590742888467 0.00014430890072501075 0 0.004435814416262604 0.00015078659340043952 0 0.0047347421735869019 4.7704265289485098e-05 0 0.0047455515330564156 3.3171956549846518e-05 0 0.0047196785382210256 1.9892374861949846e-05 0 0.0046888491463247875 1.9908057120496328e-05 0 0.0045797560302117341 9.1744912846763505e-05 0 0.0044064530983602699 0.00013411523116334416 0 0.0044087590742888467 0.00014430890072501075 0 0.0043895754371906679 0.00015351348510541927 0 0.0044087590742888467 0.00014430890072501075 0 0.0044128273281643484 0.00015371773521931115 0 0.0043895754371906679 0.00015351348510541927 0 0.0044087590742888467 0.00014430890072501075 0 0.0044128273281643484 0.00015371773521931115 0 0.004435814416262604 0.00015078659340043952 0 0.0040086178686356919 0.00031717604996892127 0 0.0044077087350855868 0.00018377269381603269 0 0.0037991980466414578 0.00047970006035151822 0 0.0038602253526219409 0.00048348161650607608 0 0.0038368921115083739 0.00044692146594930125 0 0.0037991980466414578 0.00047970006035151822 0 0.0037872791636159135 0.00043230654046299552 0 0.0037717633798659491 0.00046112302459592157 0 0.0037991980466414578 0.00047970006035151822 0 0.0038368921115083739 0.00044692146594930125 0 0.0037872791636159135 0.00043230654046299552 0 0.0044077087350855868 0.00018377269381603269 0 0.0043713045325750842 0.00020202879511683857 0 0.0047142449392571376 9.0083566066089508e-05 0 0.0043713045325750842 0.00020202879511683857 0 0.0045252746437202682 0.000114271144032847 0 0.0044790723911216556 0.00011300105877195165 0 0.0044702250171932273 0.00018109551776758568 0 0.0044077087350855868 0.00018377269381603269 0 0.0047142449392571376 9.0083566066089508e-05 0 0.0038602253526219409 0.00048348161650607608 0 0.0038852576431376773 0.00045503395944843875 0 0.0038368921115083739 0.00044692146594930125 0 0.0038368921115083739 0.00044692146594930125 0 0.0038591397304945283 0.00040892913382239011 0 0.0038207164470943481 0.00040950471080835455 0 0.0038852576431376773 0.00045503395944843875 0 0.0038591397304945283 0.00040892913382239011 0 0.0039020709853184918 0.00036364929330871869 0 0.0038852576431376773 0.00045503395944843875 0 0.0038368921115083739 0.00044692146594930125 0 0.0038591397304945283 0.00040892913382239011 0 0.0038591397304945283 0.00040892913382239011 0 0.0038207164470943481 0.00040950471080835455 0 0.0038375839648831598 0.0003676848175343524 0 0.0038207164470943481 0.00040950471080835455 0 0.0037872791636159135 0.00043230654046299552 0 0.0037536751861221582 0.00038326578413774159 0 0.0038368921115083739 0.00044692146594930125 0 0.0038207164470943481 0.00040950471080835455 0 0.0037872791636159135 0.00043230654046299552 0 0.0037872791636159135 0.00043230654046299552 0 0.0037525796589555284 0.00041523690925100341 0 0.0037536751861221582 0.00038326578413774159 0 0.0037525796589555284 0.00041523690925100341 0 0.0037194592069226353 0.00040684766037617199 0 0.0037536751861221582 0.00038326578413774159 0 0.0037652076785801582 0.0004379691270642579 0 0.0037525796589555284 0.00041523690925100341 0 0.0037455422478989342 0.00044274012296152004 0 0.0037525796589555284 0.00041523690925100341 0 0.0037194592069226353 0.00040684766037617199 0 0.0037455422478989342 0.00044274012296152004 0 0.0037872791636159135 0.00043230654046299552 0 0.0037652076785801582 0.0004379691270642579 0 0.0037525796589555284 0.00041523690925100341 0 0.0044934788266782922 -6.8536124562594122e-05 0 0.0044940330887682459 -0.0002071009828792192 0 0.0045780881010825791 -6.8875381749000541e-05 0 0.0037194592069226353 0.00040684766037617199 0 0.003736567641247543 0.00044732440378855742 0 0.0037455422478989342 0.00044274012296152004 0 0.0041011682388462142 0.00016333931486342451 0 0.0041668451664026353 0.00015202974856111013 0 0.0044934788266782922 -6.8536124562594122e-05 0 0.0044940330887682459 -0.0002071009828792192 0 0.0044420704536804051 -0.00017884602064061595 0 0.0046033998633512483 -2.387193349457743e-05 0 0.0041668451664026353 0.00015202974856111013 0 0.0046033998633512483 -2.387193349457743e-05 0 0.0048564053348749978 -3.4778096806415407e-05 0 0.0048564053348749978 -3.4778096806415407e-05 0 0.004630297527294186 6.3057647319504547e-05 0 0.0044284110743897888 6.0079905154617815e-05 0 0.0044306669164077368 5.8844093887343444e-05 0 0.0044314633486351954 6.2548250532116833e-05 0 0.0049958761437043728 7.2720620325387902e-07 0 0.0049958396344851165 5.3414734781037232e-07 0 0.0049973005945742038 3.1447393540399985e-07 0 0.0049974279116191565 7.4550869613807621e-07 0 0.0049958761437043728 7.2720620325387902e-07 0 0.0049973005945742038 3.1447393540399985e-07 0 0.0047002922086394287 4.2542438021482401e-05 0 0.0047777009577383567 7.9559419822671067e-07 0 0.0046185383596963683 -2.5939068571364753e-06 0 0.0046033998633512483 -2.387193349457743e-05 0 0.004630297527294186 6.3057647319504547e-05 0 0.0037991980466414578 0.00047970006035151822 0 0.0037464201508476918 0.00047318752370500359 0 0.0037717633798659491 0.00046112302459592157 0 0.0045457592557944064 1.8489537279579875e-05 0 0.0045330021496930483 1.7919086477317764e-05 0 0.004549949653165024 2.7980343241048072e-05 0 0.0044306669164077368 5.8844093887343444e-05 0 0.0044327637513893086 6.2738976753997895e-05 0 0.0044314633486351954 6.2548250532116833e-05 0 0.0041668451664026353 0.00015202974856111013 0 0.0043917521651208186 0.00010149222179925675 0 0.0037464201508476918 0.00047318752370500359 0 0.0037536981090720788 0.00045575088046178561 0 0.0037717633798659491 0.00046112302459592157 0 0.004630297527294186 6.3057647319504547e-05 0 0.0045797560302117341 9.1744912846763505e-05 0 0.0040086178686356919 0.00031717604996892127 0 0.0043917521651208186 0.00010149222179925675 0 0.0044128273281643484 0.00015371773521931115 0 0.0044370453666735749 0.000153678611876418 0 0.004435814416262604 0.00015078659340043952 0 0.0043917521651208186 0.00010149222179925675 0 0.0045797560302117341 9.1744912846763505e-05 0 0.0043917521651208186 0.00010149222179925675 0 0.004630297527294186 6.3057647319504547e-05 0 0.0037352082030865348 0.00044878138421723684 0 0.0037536981090720788 0.00045575088046178561 0 0.0037455422478989342 0.00044274012296152004 0 0.0037352082030865348 0.00044878138421723684 0 0.0037464201508476918 0.00047318752370500359 0 0.0037536981090720788 0.00045575088046178561 0 0.0037652076785801582 0.0004379691270642579 0 0.0037536981090720788 0.00045575088046178561 0 0.0037455422478989342 0.00044274012296152004 0 0.0041668451664026353 0.00015202974856111013 0 0.0039395642900207179 0.00028518201834477327 0 0.0037872791636159135 0.00043230654046299552 0 0.0037652076785801582 0.0004379691270642579 0 0.0037717633798659491 0.00046112302459592157 0 0.0037652076785801582 0.0004379691270642579 0 0.0037536981090720788 0.00045575088046178561 0 0.0037717633798659491 0.00046112302459592157 0 0.004942584178700745 -1.1387206336857526e-06 0 0.0045797560302117341 9.1744912846763505e-05 0 0.0049989133931857225 -3.1626389537310993e-09 0 0.0049958396344851165 5.3414734781037232e-07 0 0.0049983683908411637 2.1413394358235086e-08 0 0.0049989133931857225 -3.1626389537310993e-09 0 0.0049999949137146749 -3.5014900642292177e-10 0 0.0049983683908411637 2.1413394358235086e-08 0 0.0049998407821726853 -8.3829184492324088e-09 0 0.0049999997847631388 1.1053210954682022e-12 0 0.0049999998833753405 -1.5483342895024181e-11 0 0.004942584178700745 -1.1387206336857526e-06 0 0.0049999676373847094 -2.4831856786452672e-08 0 0.0049999983801878875 -5.2625759947503737e-11 0 0.0049983683908411637 2.1413394358235086e-08 0 0.0049987581224386563 4.1032032054500882e-08 0 0.0049999949137146749 -3.5014900642292177e-10 0 0.0049999983801878875 -5.2625759947503737e-11 0 0.0049983683908411637 2.1413394358235086e-08 0 0.0049983683908411637 2.1413394358235086e-08 0 0.0049973005945742038 3.1447393540399985e-07 0 0.0049987581224386563 4.1032032054500882e-08 0 0.0049974279116191565 7.4550869613807621e-07 0 0.0049973005945742038 3.1447393540399985e-07 0 0.0049987581224386563 4.1032032054500882e-08 0 0.0049958396344851165 5.3414734781037232e-07 0 0.0049983683908411637 2.1413394358235086e-08 0 0.0049973005945742038 3.1447393540399985e-07 0 0.0048564053348749978 -3.4778096806415407e-05 0 0.0049319258885652207 -3.3305604792612862e-05 0 0.0049974279116191565 7.4550869613807621e-07 0 0.0049987581224386563 4.1032032054500882e-08 0 0.0049992862400301315 1.7802137767083452e-07 0 0.0049999983801878875 -5.2625759947503737e-11 0 0.0049987581224386563 4.1032032054500882e-08 0 0.0049999991544456487 -2.1931508684515082e-10 0 0.0049998114311402527 -3.0089088296930762e-08 0 0.0049999991544456487 -2.1931508684515082e-10 0 0.0049992862400301315 1.7802137767083452e-07 0 0.0049987581224386563 4.1032032054500882e-08 0 0.0049999991544456487 -2.1931508684515082e-10 0 0.0049992862400301315 1.7802137767083452e-07 0 0.0048138259895111153 -4.3599018294303627e-05 0 0.0048480967209124448 -6.3048622997405573e-05 0 0.0048561975905120685 -4.1884310245329882e-05 0 0.0048564053348749978 -3.4778096806415407e-05 0 0.0048311542513646243 -4.5069302682547265e-05 0 0.0046033998633512483 -2.387193349457743e-05 0 0.0047585282859147317 -7.3832157079591461e-05 0 0.0047949112643916004 -4.5470780861109832e-05 0 0.0048561975905120685 -4.1884310245329882e-05 0 0.0048323043355551374 -9.3635873280650329e-06 0 0.0047793161306054878 -3.7314037637363091e-05 0 0.0047949112643916004 -4.5470780861109832e-05 0 0.0048323043355551374 -9.3635873280650329e-06 0 0.0044940330887682459 -0.0002071009828792192 0 0.0045780881010825791 -6.8875381749000541e-05 0 0.0046817429163267862 -0.00010736400606658931 0 0.0045780881010825791 -6.8875381749000541e-05 0 0.0046817429163267862 -0.00010736400606658931 0 0.0046763729372694997 -4.4004948653055705e-06 0 0.0048706792500304904 1.1473714479188305e-05 0 0.0047585282859147317 -7.3832157079591461e-05 0 0.0048793878954725102 1.5576205912573127e-05 0 0.0048561975905120685 -4.1884310245329882e-05 0 0.0048323043355551374 -9.3635873280650329e-06 0 0.0048523331627348971 -1.1411548067448394e-05 0 0.0046817429163267862 -0.00010736400606658931 0 0.0047666146452882479 5.1401508589525999e-07 0 0.0047666146452882479 5.1401508589525999e-07 0 0.0046763729372694997 -4.4004948653055705e-06 0 0.004765660853549944 7.0895995913405663e-05 0 0.0046817429163267862 -0.00010736400606658931 0 0.0047666146452882479 5.1401508589525999e-07 0 0.0046763729372694997 -4.4004948653055705e-06 0 0.0046763729372694997 -4.4004948653055705e-06 0 0.004765660853549944 7.0895995913405663e-05 0 0.004542864050074283 4.3531832205435247e-05 0 0.0041590446581905912 0.00018583575462801917 0 0.0038715869207622674 0.00032784539322030306 0 0.0045780881010825791 -6.8875381749000541e-05 0 0.0046763729372694997 -4.4004948653055705e-06 0 0.004542864050074283 4.3531832205435247e-05 0 0.003506154471742246 0.00029629458610733704 0 0.0034631161005341305 0.00033325745125169069 0 0.003598352849514277 0.00036773772019746474 0 0.0035712917846329379 0.00031164794679604247 0 0.003506154471742246 0.00029629458610733704 0 0.003598352849514277 0.00036773772019746474 0 0.0036182125175704084 0.00028436260733871418 0 0.0038715869207622674 0.00032784539322030306 0 0.0035712917846329379 0.00031164794679604247 0 0.003506154471742246 0.00029629458610733704 0 0.0035502692452924231 0.00024909748951029812 0 0.0034160738357033732 0.0002643573078065268 0 0.003506154471742246 0.00029629458610733704 0 0.0034631161005341305 0.00033325745125169069 0 0.003506154471742246 0.00029629458610733704 0 0.0034765455028348334 0.00022169900642670046 0 0.0035502692452924231 0.00024909748951029812 0 0.0034160738357033732 0.0002643573078065268 0 0.003506154471742246 0.00029629458610733704 0 0.0034765455028348334 0.00022169900642670046 0 0.0034765455028348334 0.00022169900642670046 0 0.0035870906332586411 0.00015502026326232358 0 0.0034668800722154115 0.00015262250936184927 0 0.0035773273158808982 0.00019083908581452174 0 0.0034783020800304891 0.00015641307958284115 0 0.0035502692452924231 0.00024909748951029812 0 0.0036239405566474642 0.00025017349626303866 0 0.0035870906332586411 0.00015502026326232358 0 0.0034765455028348334 0.00022169900642670046 0 0.0035502692452924231 0.00024909748951029812 0 0.0035870906332586411 0.00015502026326232358 0 0.0035712917846329379 0.00031164794679604247 0 0.0035502692452924231 0.00024909748951029812 0 0.0036239405566474642 0.00025017349626303866 0 0.0035658633757179514 0.00022454900108833412 0 0.003699739603250572 0.00029883149039466075 0 0.003681470031943493 0.00016713158347124826 0 0.0036239405566474642 0.00025017349626303866 0 0.0035870906332586411 0.00015502026326232358 0 0.0037133654336920173 0.00018051634646000682 0 0.0035773273158808982 0.00019083908581452174 0 0.0037136899796971386 0.00024040396311780782 0 0.0036239405566474642 0.00025017349626303866 0 0.0037133654336920173 0.00018051634646000682 0 0.0036965528011451763 0.00027978549830600421 0 0.0037133654336920173 0.00018051634646000682 0 0.0036965528011451763 0.00027978549830600421 0 0.0037725041738114417 0.00027503569714840923 0 0.0036965528011451763 0.00027978549830600421 0 0.0037536751861221582 0.00038326578413774159 0 0.0037725041738114417 0.00027503569714840923 0 0.0036965528011451763 0.00027978549830600421 0 0.0036501396598422786 0.00031959834315819813 0 0.0037536751861221582 0.00038326578413774159 0 0.0036239405566474642 0.00025017349626303866 0 0.0036965528011451763 0.00027978549830600421 0 0.0036501396598422786 0.00031959834315819813 0 0.0035712917846329379 0.00031164794679604247 0 0.0036239405566474642 0.00025017349626303866 0 0.0036501396598422786 0.00031959834315819813 0 0.0035712917846329379 0.00031164794679604247 0 0.0036501396598422786 0.00031959834315819813 0 0.0036033865958037918 0.00037393783456734548 0 0.0038715869207622674 0.00032784539322030306 0 0.0036584484934922938 0.00038866793443892 0 0.0036501396598422786 0.00031959834315819813 0 0.0036033865958037918 0.00037393783456734548 0 0.0037536751861221582 0.00038326578413774159 0 0.0037194592069226353 0.00040684766037617199 0 0.0037074725309583271 0.00037753689730617775 0 0.0037536751861221582 0.00038326578413774159 0 0.0044934788266782922 -6.8536124562594122e-05 0 0.0045780881010825791 -6.8875381749000541e-05 0 0.004542864050074283 4.3531832205435247e-05 0 0.0041011682388462142 0.00016333931486342451 0 0.0038715869207622674 0.00032784539322030306 0 0.0037536751861221582 0.00038326578413774159 0 0.0038375839648831598 0.0003676848175343524 0 0.0038212152082548649 0.00032055587321591828 0 0.0038207164470943481 0.00040950471080835455 0 0.0037536751861221582 0.00038326578413774159 0 0.0038375839648831598 0.0003676848175343524 0 0.0038591397304945283 0.00040892913382239011 0 0.0038375839648831598 0.0003676848175343524 0 0.0039020709853184918 0.00036364929330871869 0 0.0038375839648831598 0.0003676848175343524 0 0.0038686089964815765 0.0003154978505980418 0 0.0039020709853184918 0.00036364929330871869 0 0.0038375839648831598 0.0003676848175343524 0 0.0038686089964815765 0.0003154978505980418 0 0.0038212152082548649 0.00032055587321591828 0 0.0038686089964815765 0.0003154978505980418 0 0.0038432888154088544 0.00027501723284531574 0 0.0039238355576816861 0.00025151180153743316 0 0.0038686089964815765 0.0003154978505980418 0 0.0038432888154088544 0.00027501723284531574 0 0.0038212152082548649 0.00032055587321591828 0 0.0037536751861221582 0.00038326578413774159 0 0.0037725041738114417 0.00027503569714840923 0 0.0038212152082548649 0.00032055587321591828 0 0.0038432888154088544 0.00027501723284531574 0 0.0037725041738114417 0.00027503569714840923 0 0.0038212152082548649 0.00032055587321591828 0 0.0037133654336920173 0.00018051634646000682 0 0.0037725041738114417 0.00027503569714840923 0 0.0038257028328187353 0.00021694414413304358 0 0.0038432888154088544 0.00027501723284531574 0 0.0037725041738114417 0.00027503569714840923 0 0.0038257028328187353 0.00021694414413304358 0 0.0037136899796971386 0.00024040396311780782 0 0.0038254866686705893 0.00033281574973719044 0 0.003699739603250572 0.00029883149039466075 0 0.0038772285289739505 0.00040062094652455342 0 0.0038516197744210955 0.00025441943197421657 0 0.003699739603250572 0.00029883149039466075 0 0.0038516197744210955 0.00025441943197421657 0 0.0037994795975046184 0.00016877980471263038 0 0.0038516197744210955 0.00025441943197421657 0 0.0039808057598251703 0.00022711271921911579 0 0.003925121674764785 0.000154552607633674 0 0.0038772285289739505 0.00040062094652455342 0 0.0038516197744210955 0.00025441943197421657 0 0.0039808057598251703 0.00022711271921911579 0 0.0038772285289739505 0.00040062094652455342 0 0.0039808057598251703 0.00022711271921911579 0 0.004063007959164729 0.00036477938075142792 0 0.0038254866686705893 0.00033281574973719044 0 0.0042489304928182954 0.00010903746464348 0 0.0038772285289739505 0.00040062094652455342 0 0.004063007959164729 0.00036477938075142792 0 0.0041774101896412102 0.00053484957471881659 0 0.0038432888154088544 0.00027501723284531574 0 0.0038257028328187353 0.00021694414413304358 0 0.0039238355576816861 0.00025151180153743316 0 0.0044493828936683051 -0.00010975864710771494 0 0.0044260986692097994 -0.00011658717841235097 0 0.0044909985070682749 -0.00013058753313691538 0 0.0042489304928182954 0.00010903746464348 0 0.0043313284389632735 8.8410294925246377e-05 0 0.004063007959164729 0.00036477938075142792 0 0.0041774101896412102 0.00053484957471881659 0 0.0042442675149287701 0.00027795316625555723 0 0.0039808057598251703 0.00022711271921911579 0 0.004063007959164729 0.00036477938075142792 0 0.0042442675149287701 0.00027795316625555723 0 0.0039808057598251703 0.00022711271921911579 0 0.0042442675149287701 0.00027795316625555723 0 0.0041966663041632926 7.5730548755855733e-05 0 0.0043745126213265281 -9.2042572853537946e-05 0 0.0044909985070682749 -0.00013058753313691538 0 0.0043452077111271054 -9.0006021254368523e-05 0 0.00448389162173129 -0.00011441524838867623 0 0.0044513360979380823 -4.7661887227015207e-05 0 0.0044909985070682749 -0.00013058753313691538 0 0.0045637200560243348 -2.0767578823670915e-05 0 0.0045088846327934213 -0.00011821232389690886 0 0.0044260986692097994 -0.00011658717841235097 0 0.0043745126213265281 -9.2042572853537946e-05 0 0.0044909985070682749 -0.00013058753313691538 0 0.0044493828936683051 -0.00010975864710771494 0 0.0044909985070682749 -0.00013058753313691538 0 0.0045200943861582899 -0.00011249907872718063 0 0.0042489304928182954 0.00010903746464348 0 0.0045725321577148445 -0.00011564684767752442 0 0.0044909985070682749 -0.00013058753313691538 0 0.0045200943861582899 -0.00011249907872718063 0 0.0045248848782423849 -0.000139759432177522 0 0.0045112853499795361 -0.00011881058009260906 0 0.0045200943861582899 -0.00011249907872718063 0 0.0045230717015021819 -0.00010403772564602094 0 0.0045465868920486581 -9.8545638519634599e-05 0 0.0045230717015021819 -0.00010403772564602094 0 0.0045389238972026102 -8.4241826286147884e-05 0 0.0045200943861582899 -0.00011249907872718063 0 0.0045465868920486581 -9.8545638519634599e-05 0 0.0045230717015021819 -0.00010403772564602094 0 0.0038686089964815765 0.0003154978505980418 0 0.0039238355576816861 0.00025151180153743316 0 0.0039020709853184918 0.00036364929330871869 0 0.0042489304928182954 0.00010903746464348 0 0.0041735686153069251 0.00014602225417006471 0 0.0045112853499795361 -0.00011881058009260906 0 0.0045230717015021819 -0.00010403772564602094 0 0.0045013212846773832 -7.6480064186697745e-05 0 0.0045230717015021819 -0.00010403772564602094 0 0.0045013212846773832 -7.6480064186697745e-05 0 0.0045389238972026102 -8.4241826286147884e-05 0 0.0045480384509222942 -4.9076538308567381e-05 0 0.0045013212846773832 -7.6480064186697745e-05 0 0.0045389238972026102 -8.4241826286147884e-05 0 0.0045480384509222942 -4.9076538308567381e-05 0 0.0045389238972026102 -8.4241826286147884e-05 0 0.0045845954316743676 -7.3559221641520653e-05 0 0.0045465868920486581 -9.8545638519634599e-05 0 0.0045389238972026102 -8.4241826286147884e-05 0 0.0045845954316743676 -7.3559221641520653e-05 0 0.0040054130244247125 1.7828997951891818e-05 0 0.0039906209990189781 -7.1950937077942234e-05 0 0.0040065970562649317 -0.00012900620160520698 0 0.004009493473939486 2.0520101896409543e-05 0 0.0040373646470009345 -5.372175335872347e-05 0 0.0040468525812989275 1.8049514836007962e-05 0 0.0040054130244247125 1.7828997951891818e-05 0 0.0040794613264082255 1.785682657657803e-05 0 0.0040468525812989275 1.8049514836007962e-05 0 0.0040054130244247125 1.7828997951891818e-05 0 0.0039919993948688585 4.0864407408024099e-05 0 0.0042407297587389687 -1.2843457257393149e-05 0 0.0042547996316366068 -6.466611983693155e-05 0 0.0041883744580120718 -3.0474663947509551e-05 0 0.0039325183877453153 -3.2683952240531163e-05 0 0.0040054130244247125 1.7828997951891818e-05 0 0.0039906209990189781 -7.1950937077942234e-05 0 0.0039325183877453153 -3.2683952240531163e-05 0 0.0040054130244247125 1.7828997951891818e-05 0 0.0039558895634415909 2.4852802716349146e-05 0 0.0040054130244247125 1.7828997951891818e-05 0 0.0039558895634415909 2.4852802716349146e-05 0 0.0039919993948688585 4.0864407408024099e-05 0 0.0039558895634415909 2.4852802716349146e-05 0 0.0039410566084381159 5.9435105461079034e-05 0 0.0039919993948688585 4.0864407408024099e-05 0 0.0042407297587389687 -1.2843457257393149e-05 0 0.0043052673086464641 -8.787016072750029e-05 0 0.0042547996316366068 -6.466611983693155e-05 0 0.0043052673086464641 -8.787016072750029e-05 0 0.0042547996316366068 -6.466611983693155e-05 0 0.0042905001933914062 -9.6993700474455266e-05 0 0.0041455082466929534 -4.1397653817957318e-06 0 0.0041460415951148502 -2.4205759130993821e-05 0 0.0042547996316366068 -6.466611983693155e-05 0 0.0042905001933914062 -9.6993700474455266e-05 0 0.0042728679710668759 -9.6680582962820719e-05 0 0.0042905001933914062 -9.6993700474455266e-05 0 0.0043203349676195855 -8.7715641107327907e-05 0 0.0042728679710668759 -9.6680582962820719e-05 0 0.0043052673086464641 -8.787016072750029e-05 0 0.0042905001933914062 -9.6993700474455266e-05 0 0.004297822210074154 -0.00010191654790737137 0 0.0042905001933914062 -9.6993700474455266e-05 0 0.0043203349676195855 -8.7715641107327907e-05 0 0.004297822210074154 -0.00010191654790737137 0 0.0043203349676195855 -8.7715641107327907e-05 0 0.0043054988476621718 -9.2302801353559775e-05 0 0.004297822210074154 -0.00010191654790737137 0 0.0043203349676195855 -8.7715641107327907e-05 0 0.0043452077111271054 -9.0006021254368523e-05 0 0.0042728679710668759 -9.6680582962820719e-05 0 0.0044513360979380823 -4.7661887227015207e-05 0 0.0043780175982415289 7.190771945079183e-05 0 0.0043745126213265281 -9.2042572853537946e-05 0 0.0043203349676195855 -8.7715641107327907e-05 0 0.0043275916141481087 -6.0535851938654052e-05 0 0.0043745126213265281 -9.2042572853537946e-05 0 0.0043203349676195855 -8.7715641107327907e-05 0 0.0043452077111271054 -9.0006021254368523e-05 0 0.0042442675149287701 0.00027795316625555723 0 0.0041966663041632926 7.5730548755855733e-05 0 0.0043275916141481087 -6.0535851938654052e-05 0 0.0044260986692097994 -0.00011658717841235097 0 0.0043745126213265281 -9.2042572853537946e-05 0 0.0043275916141481087 -6.0535851938654052e-05 0 0.0043313284389632735 8.8410294925246377e-05 0 0.0043354003657522051 -6.08282202220474e-05 0 0.0039808057598251703 0.00022711271921911579 0 0.0041966663041632926 7.5730548755855733e-05 0 0.0042428916031731819 -0.00012134042275055772 0 0.0043275916141481087 -6.0535851938654052e-05 0 0.0042428916031731819 -0.00012134042275055772 0 0.0043054988476621718 -9.2302801353559775e-05 0 0.0043203349676195855 -8.7715641107327907e-05 0 0.0043275916141481087 -6.0535851938654052e-05 0 0.0043054988476621718 -9.2302801353559775e-05 0 0.0041966663041632926 7.5730548755855733e-05 0 0.0043275916141481087 -6.0535851938654052e-05 0 0.0042428916031731819 -0.00012134042275055772 0 0.0043052673086464641 -8.787016072750029e-05 0 0.0042428916031731819 -0.00012134042275055772 0 0.004297822210074154 -0.00010191654790737137 0 0.0039410566084381159 5.9435105461079034e-05 0 0.0039919993948688585 4.0864407408024099e-05 0 0.003964931524917845 0.00012227814424473443 0 0.0041460415951148502 -2.4205759130993821e-05 0 0.0040975428094081005 1.8080937613968213e-05 0 0.0042428916031731819 -0.00012134042275055772 0 0.0043054988476621718 -9.2302801353559775e-05 0 0.004297822210074154 -0.00010191654790737137 0 0.0039410566084381159 5.9435105461079034e-05 0 0.003964931524917845 0.00012227814424473443 0 0.0038921433199811668 9.1010926387863147e-05 0 0.003964931524917845 0.00012227814424473443 0 0.0038921433199811668 9.1010926387863147e-05 0 0.003925121674764785 0.000154552607633674 0 0.0039808057598251703 0.00022711271921911579 0 0.003964931524917845 0.00012227814424473443 0 0.003925121674764785 0.000154552607633674 0 0.0038921433199811668 9.1010926387863147e-05 0 0.003925121674764785 0.000154552607633674 0 0.0037994795975046184 0.00016877980471263038 0 0.0039891474220417559 0.00021606427213732688 0 0.0040975428094081005 1.8080937613968213e-05 0 0.0038516197744210955 0.00025441943197421657 0 0.003925121674764785 0.000154552607633674 0 0.0037994795975046184 0.00016877980471263038 0 0.0038921433199811668 9.1010926387863147e-05 0 0.0037447495536780781 -2.2779564875633289e-05 0 0.0037470742546248563 9.0988404265178086e-05 0 0.0038921433199811668 9.1010926387863147e-05 0 0.0037994795975046184 0.00016877980471263038 0 0.0037470742546248563 9.0988404265178086e-05 0 0.003881620734175899 8.8543547549667888e-05 0 0.0037621282908595539 5.3187377679667304e-06 0 0.0038921433199811668 9.1010926387863147e-05 0 0.0037757314467975894 3.2292977548359604e-05 0 0.0038968819454346447 2.3837039235659208e-05 0 0.0039410566084381159 5.9435105461079034e-05 0 0.0038921433199811668 9.1010926387863147e-05 0 0.0038968819454346447 2.3837039235659208e-05 0 0.0039558895634415909 2.4852802716349146e-05 0 0.0039410566084381159 5.9435105461079034e-05 0 0.0038968819454346447 2.3837039235659208e-05 0 0.0039325183877453153 -3.2683952240531163e-05 0 0.0039558895634415909 2.4852802716349146e-05 0 0.0038968819454346447 2.3837039235659208e-05 0 0.0039325183877453153 -3.2683952240531163e-05 0 0.0038600703654004956 -4.7463182928578795e-05 0 0.0038886194951369183 -0.00013783612575311667 0 0.0039325183877453153 -3.2683952240531163e-05 0 0.0038968819454346447 2.3837039235659208e-05 0 0.0038600703654004956 -4.7463182928578795e-05 0 0.0037757314467975894 3.2292977548359604e-05 0 0.0038968819454346447 2.3837039235659208e-05 0 0.0038600703654004956 -4.7463182928578795e-05 0 0.0037757314467975894 3.2292977548359604e-05 0 0.0038600703654004956 -4.7463182928578795e-05 0 0.0037636348882541296 -9.5623846986418477e-05 0 0.0037447495536780781 -2.2779564875633289e-05 0 0.003620862833561886 -0.00010653543494807027 0 0.0035388564164263751 -1.111756532764884e-05 0 0.0037447495536780781 -2.2779564875633289e-05 0 0.0036006147721593779 7.4584122408024881e-05 0 0.0035388564164263751 -1.111756532764884e-05 0 0.0037621282908595539 5.3187377679667304e-06 0 0.0036266216842254602 -8.9561524986927349e-05 0 0.0037757314467975894 3.2292977548359604e-05 0 0.00363427522385064 -6.8722043578025612e-05 0 0.0037636348882541296 -9.5623846986418477e-05 0 0.003620862833561886 -0.00010653543494807027 0 0.0035388564164263751 -1.111756532764884e-05 0 0.0035045549022110997 -8.9854716999757131e-05 0 0.0037447495536780781 -2.2779564875633289e-05 0 0.0037470742546248563 9.0988404265178086e-05 0 0.0036006147721593779 7.4584122408024881e-05 0 0.0037470742546248563 9.0988404265178086e-05 0 0.003681470031943493 0.00016713158347124826 0 0.0036006147721593779 7.4584122408024881e-05 0 0.0037994795975046184 0.00016877980471263038 0 0.0037470742546248563 9.0988404265178086e-05 0 0.003681470031943493 0.00016713158347124826 0 0.003699739603250572 0.00029883149039466075 0 0.0037994795975046184 0.00016877980471263038 0 0.003681470031943493 0.00016713158347124826 0 0.0035658633757179514 0.00022454900108833412 0 0.003681470031943493 0.00016713158347124826 0 0.0036006147721593779 7.4584122408024881e-05 0 0.0036006147721593779 7.4584122408024881e-05 0 0.0034828915126415018 8.1720814146207167e-05 0 0.0035388564164263751 -1.111756532764884e-05 0 0.0035658633757179514 0.00022454900108833412 0 0.0036006147721593779 7.4584122408024881e-05 0 0.0034828915126415018 8.1720814146207167e-05 0 0.0035658633757179514 0.00022454900108833412 0 0.0034828915126415018 8.1720814146207167e-05 0 0.0034668800722154115 0.00015262250936184927 0 0.0034828915126415018 8.1720814146207167e-05 0 0.0034668800722154115 0.00015262250936184927 0 0.0033861174367809705 0.00010844679002856752 0 0.0034828915126415018 8.1720814146207167e-05 0 0.0033861174367809705 0.00010844679002856752 0 0.003371852708381709 4.048218745539685e-05 0 0.0034828915126415018 8.1720814146207167e-05 0 0.0034407097117875826 -4.2471516164526743e-06 0 0.003371852708381709 4.048218745539685e-05 0 0.0034828915126415018 8.1720814146207167e-05 0 0.0034407097117875826 -4.2471516164526743e-06 0 0.0035388564164263751 -1.111756532764884e-05 0 0.0034407097117875826 -4.2471516164526743e-06 0 0.0035388564164263751 -1.111756532764884e-05 0 0.0035045549022110997 -8.9854716999757131e-05 0 0.0034407097117875826 -4.2471516164526743e-06 0 0.0035045549022110997 -8.9854716999757131e-05 0 0.0034039156269414414 -0.00010031551409261083 0 0.0034407097117875826 -4.2471516164526743e-06 0 0.0034039156269414414 -0.00010031551409261083 0 0.0033366340857228713 -2.990807296855078e-05 0 0.0034039156269414414 -0.00010031551409261083 0 0.0035009294670039935 -0.00019296566009842931 0 0.0033919549500648926 -0.00021092410594596847 0 0.0035045549022110997 -8.9854716999757131e-05 0 0.0034039156269414414 -0.00010031551409261083 0 0.0035009294670039935 -0.00019296566009842931 0 0.003620862833561886 -0.00010653543494807027 0 0.0035045549022110997 -8.9854716999757131e-05 0 0.0035009294670039935 -0.00019296566009842931 0 0.0035009294670039935 -0.00019296566009842931 0 0.0033919549500648926 -0.00021092410594596847 0 0.0034689499814195878 -0.00028734482664271178 0 0.0035009294670039935 -0.00019296566009842931 0 0.0034689499814195878 -0.00028734482664271178 0 0.0035638643187254557 -0.00027917313391936363 0 0.0033919549500648926 -0.00021092410594596847 0 0.0033625337193527063 -0.00036155617289314193 0 0.0034689499814195878 -0.00028734482664271178 0 0.0033625337193527063 -0.00036155617289314193 0 0.0035161510516166453 -0.00038942247689247202 0 0.0034020042689753586 -0.00047033138815658553 0 0.0033625337193527063 -0.00036155617289314193 0 0.0035161510516166453 -0.00038942247689247202 0 0.0034689499814195878 -0.00028734482664271178 0 0.0035161510516166453 -0.00038942247689247202 0 0.0034689499814195878 -0.00028734482664271178 0 0.0035638643187254557 -0.00027917313391936363 0 0.0035161510516166453 -0.00038942247689247202 0 0.0035638643187254557 -0.00027917313391936363 0 0.0036242332605016707 -0.00034159167079098079 0 0.0035161510516166453 -0.00038942247689247202 0 0.0036242332605016707 -0.00034159167079098079 0 0.0036339054121015675 -0.00044155678947635296 0 0.0036242332605016707 -0.00034159167079098079 0 0.0037240055147755159 -0.00033036785030317946 0 0.0036339054121015675 -0.00044155678947635296 0 0.0036242332605016707 -0.00034159167079098079 0 0.0036825716873842874 -0.00020487756549105834 0 0.0037240055147755159 -0.00033036785030317946 0 0.0035638643187254557 -0.00027917313391936363 0 0.0036242332605016707 -0.00034159167079098079 0 0.0036825716873842874 -0.00020487756549105834 0 0.0035739500035137282 -0.00027416399365470302 0 0.0037105893554037965 -0.00021007166611957255 0 0.0035638643187254557 -0.00027917313391936363 0 0.0037419872370489733 -0.00021518910669335222 0 0.0036124585932339644 -0.00017674578986508717 0 0.0035009294670039935 -0.00019296566009842931 0 0.0035638643187254557 -0.00027917313391936363 0 0.0036124585932339644 -0.00017674578986508717 0 0.0036266216842254602 -8.9561524986927349e-05 0 0.003509571160527429 -0.0001877567726756835 0 0.00363427522385064 -6.8722043578025612e-05 0 0.0035009294670039935 -0.00019296566009842931 0 0.0036124585932339644 -0.00017674578986508717 0 0.0037419872370489733 -0.00021518910669335222 0 0.0036124585932339644 -0.00017674578986508717 0 0.0037636348882541296 -9.5623846986418477e-05 0 0.00363427522385064 -6.8722043578025612e-05 0 0.0036124585932339644 -0.00017674578986508717 0 0.0037636348882541296 -9.5623846986418477e-05 0 0.0037419872370489733 -0.00021518910669335222 0 0.0037636348882541296 -9.5623846986418477e-05 0 0.0038886194951369183 -0.00013783612575311667 0 0.0038600703654004956 -4.7463182928578795e-05 0 0.0037636348882541296 -9.5623846986418477e-05 0 0.0038886194951369183 -0.00013783612575311667 0 0.0038251981158509822 -0.00013166797162906995 0 0.0037942052652014317 -0.00025790472339243107 0 0.0039130388872945553 -0.00023173015932470499 0 0.0037105893554037965 -0.00021007166611957255 0 0.0038580353778383814 -0.00013495177232875205 0 0.0036825716873842874 -0.00020487756549105834 0 0.0038251981158509822 -0.00013166797162906995 0 0.0037942052652014317 -0.00025790472339243107 0 0.0036825716873842874 -0.00020487756549105834 0 0.0037240055147755159 -0.00033036785030317946 0 0.0037942052652014317 -0.00025790472339243107 0 0.0037240055147755159 -0.00033036785030317946 0 0.0038265111149370832 -0.00038208636797833613 0 0.0037246290875455339 -0.00043307396136806151 0 0.0037240055147755159 -0.00033036785030317946 0 0.0036339054121015675 -0.00044155678947635296 0 0.0037246290875455339 -0.00043307396136806151 0 0.0037240055147755159 -0.00033036785030317946 0 0.0038265111149370832 -0.00038208636797833613 0 0.0037942052652014317 -0.00025790472339243107 0 0.0038265111149370832 -0.00038208636797833613 0 0.0037942052652014317 -0.00025790472339243107 0 0.0039130388872945553 -0.00023173015932470499 0 0.0038265111149370832 -0.00038208636797833613 0 0.0039523601160040634 -0.00035462233674412219 0 0.0039041949808986134 -0.00047323830288844768 0 0.0038265111149370832 -0.00038208636797833613 0 0.0039523601160040634 -0.00035462233674412219 0 0.0039130388872945553 -0.00023173015932470499 0 0.0039523601160040634 -0.00035462233674412219 0 0.0040215394713655197 -0.00027029100479875013 0 0.0040607005610662364 -0.00037815659057800272 0 0.004040204627681716 -0.00018050303108227289 0 0.0040626948702729426 -0.00036896099702271031 0 0.0039523601160040634 -0.00035462233674412219 0 0.0040215394713655197 -0.00027029100479875013 0 0.0039130388872945553 -0.00023173015932470499 0 0.0040536154540481038 -7.512249155480347e-05 0 0.0040794613264082255 1.785682657657803e-05 0 0.0041299101454022255 1.7881195527810594e-05 0 0.004040204627681716 -0.00018050303108227289 0 0.0040373646470009345 -5.372175335872347e-05 0 0.0040215394713655197 -0.00027029100479875013 0 0.0039130388872945553 -0.00023173015932470499 0 0.0040065970562649317 -0.00012900620160520698 0 0.0039130388872945553 -0.00023173015932470499 0 0.0039243724181498218 -0.00014269730863396152 0 0.0040065970562649317 -0.00012900620160520698 0 0.0038251981158509822 -0.00013166797162906995 0 0.0039130388872945553 -0.00023173015932470499 0 0.0039243724181498218 -0.00014269730863396152 0 0.0038251981158509822 -0.00013166797162906995 0 0.0039243724181498218 -0.00014269730863396152 0 0.0039906209990189781 -7.1950937077942234e-05 0 0.0038580353778383814 -0.00013495177232875205 0 0.0039816623831675137 -7.6483970012551164e-05 0 0.0039325183877453153 -3.2683952240531163e-05 0 0.0038886194951369183 -0.00013783612575311667 0 0.0039906209990189781 -7.1950937077942234e-05 0 0.0039243724181498218 -0.00014269730863396152 0 0.0039906209990189781 -7.1950937077942234e-05 0 0.0040065970562649317 -0.00012900620160520698 0 0.0041455082466929534 -4.1397653817957318e-06 0 0.0041360553523980721 8.5968421605561915e-06 0 0.0040468525812989275 1.8049514836007962e-05 0 0.0040794613264082255 1.785682657657803e-05 0 0.0041299101454022255 1.7881195527810594e-05 0 0.0042407297587389687 -1.2843457257393149e-05 0 0.0041299101454022255 1.7881195527810594e-05 0 0.004174564258438096 2.4201982180012839e-06 0 0.0033621145941676307 0.00016809631748689665 0 0.0034397685552916856 0.00012440315714508276 0 0.0033575983033307609 8.9601498808076588e-05 0 0.0032612676149010862 0.00013857320843427067 0 0.0032459718807271343 4.6010530742384139e-05 0 0.0033621145941676307 0.00016809631748689665 0 0.0034900571211468564 0.00020675778243453623 0 0.0034397685552916856 0.00012440315714508276 0 0.003143707117798154 9.7137250794456222e-05 0 0.0032584683347946829 0.00010562366434319493 0 0.003246819174173585 8.4294439061075179e-05 0 0.0033621145941676307 0.00016809631748689665 0 0.0033575983033307609 8.9601498808076588e-05 0 0.0032676053309283627 0.00010229652452150728 0 0.0032612676149010862 0.00013857320843427067 0 0.0032543359538717998 0.00011015523242215924 0 0.0033621145941676307 0.00016809631748689665 0 0.0032676053309283627 0.00010229652452150728 0 0.0032584683347946829 0.00010562366434319493 0 0.003157476517460271 1.9253486427222327e-05 0 0.003246819174173585 8.4294439061075179e-05 0 0.0031864140986294911 -7.1964806253449573e-05 0 0.003143707117798154 9.7137250794456222e-05 0 0.003157476517460271 1.9253486427222327e-05 0 0.003246819174173585 8.4294439061075179e-05 0 0.0032189925161285227 3.1153530695717207e-05 0 0.0031888379467615463 -6.5793765840439634e-05 0 0.003157476517460271 1.9253486427222327e-05 0 0.0030998656434128194 3.7785842238023449e-05 0 0.0030736810070196704 -2.5606433757515845e-05 0 0.003143707117798154 9.7137250794456222e-05 0 0.0030998656434128194 3.7785842238023449e-05 0 0.0030363389067378744 6.5399909924580184e-05 0 0.003143707117798154 9.7137250794456222e-05 0 0.003157476517460271 1.9253486427222327e-05 0 0.0030998656434128194 3.7785842238023449e-05 0 0.0030998656434128194 3.7785842238023449e-05 0 0.0030363389067378744 6.5399909924580184e-05 0 0.0030736810070196704 -2.5606433757515845e-05 0 0.0032459718807271343 4.6010530742384139e-05 0 0.0030607340068262729 1.9030731498593966e-06 0 0.0030668682306552561 -2.8817781123122539e-05 0 0.0030796535095453724 2.5285428782710482e-05 0 0.0030752382188422443 2.2250279722431906e-05 0 0.0030668682306552561 -2.8817781123122539e-05 0 0.0032026371481633596 -1.2926272089152016e-08 0 0.0030796535095453724 2.5285428782710482e-05 0 0.0032459718807271343 4.6010530742384139e-05 0 0.0032032003820155817 -3.5518313011067688e-08 0 0.0032036016854357172 -1.0827470748083579e-07 0 0.0034201617397497117 2.0407870916833388e-05 0 0.0034586654277742519 8.3304642858308109e-08 0 0.0033981609196319712 -2.7937455633465345e-05 0 0.0032036016854357172 -1.0827470748083579e-07 0 0.0034201617397497117 2.0407870916833388e-05 0 0.0032459718807271343 4.6010530742384139e-05 0 0.0034824348440239358 6.8423791051387418e-05 0 0.0034900571211468564 0.00020675778243453623 0 0.0035275055454208875 0.00011684100476166943 0 0.0034397685552916856 0.00012440315714508276 0 0.0035275055454208875 0.00011684100476166943 0 0.0034397685552916856 0.00012440315714508276 0 0.003464701761090675 4.469078646060984e-05 0 0.0035275055454208875 0.00011684100476166943 0 0.003464701761090675 4.469078646060984e-05 0 0.0035632516093256766 2.2726359385720021e-05 0 0.0034586654277742519 8.3304642858308109e-08 0 0.0035632516093256766 2.2726359385720021e-05 0 0.0037144386606667266 9.4778419291079869e-08 0 0.0034201617397497117 2.0407870916833388e-05 0 0.0034586654277742519 8.3304642858308109e-08 0 0.0035632516093256766 2.2726359385720021e-05 0 0.0034824348440239358 6.8423791051387418e-05 0 0.0035344960573039041 3.5538275447512453e-05 0 0.0036191268035351441 -5.7372284636986702e-05 0 0.0037144386606667266 9.4778419291079869e-08 0 0.0035464301347655877 -1.9386880633292217e-05 0 0.0035632516093256766 2.2726359385720021e-05 0 0.0037144386606667266 9.4778419291079869e-08 0 0.0035464301347655877 -1.9386880633292217e-05 0 0.0036191268035351441 -5.7372284636986702e-05 0 0.0037144386606667266 9.4778419291079869e-08 0 0.003731915825059749 -2.4242635733043094e-07 0 0.003464701761090675 4.469078646060984e-05 0 0.0035632516093256766 2.2726359385720021e-05 0 0.0035464301347655877 -1.9386880633292217e-05 0 0.003464701761090675 4.469078646060984e-05 0 0.0035464301347655877 -1.9386880633292217e-05 0 0.0034516206932180219 -2.6668191050001173e-05 0 0.0035204664196317051 -0.0001184141439689343 0 0.0035464301347655877 -1.9386880633292217e-05 0 0.0034516206932180219 -2.6668191050001173e-05 0 0.0034247238545458297 -0.00011337710504516001 0 0.0034516206932180219 -2.6668191050001173e-05 0 0.0033426177442121593 -2.0891813353870254e-06 0 0.003464701761090675 4.469078646060984e-05 0 0.0034516206932180219 -2.6668191050001173e-05 0 0.0033426177442121593 -2.0891813353870254e-06 0 0.0032847707664089877 5.5475795263548848e-05 0 0.0033017663687298689 7.0024493312697325e-05 0 0.003464701761090675 4.469078646060984e-05 0 0.0033575983033307609 8.9601498808076588e-05 0 0.0033426177442121593 -2.0891813353870254e-06 0 0.0034397685552916856 0.00012440315714508276 0 0.003464701761090675 4.469078646060984e-05 0 0.0033575983033307609 8.9601498808076588e-05 0 0.0032676053309283627 0.00010229652452150728 0 0.0032427732215738686 0.0001572318764072336 0 0.0032860206576703103 0.00013123903410011835 0 0.0032677723693061481 0.00010297500833298622 0 0.0033017663687298689 7.0024493312697325e-05 0 0.0033575983033307609 8.9601498808076588e-05 0 0.0032676053309283627 0.00010229652452150728 0 0.0033426177442121593 -2.0891813353870254e-06 0 0.0032520378194125813 0.00018563785327258255 0 0.0032427732215738686 0.0001572318764072336 0 0.0032663919873906697 0.00017025406924841888 0 0.0032427732215738686 0.0001572318764072336 0 0.0032663919873906697 0.00017025406924841888 0 0.0032860206576703103 0.00013123903410011835 0 0.0032815676343452053 0.00018859560271295079 0 0.0032663919873906697 0.00017025406924841888 0 0.0032860206576703103 0.00013123903410011835 0 0.0032815676343452053 0.00018859560271295079 0 0.0032859503946659663 0.00013388195547272972 0 0.003217812122267359 8.4097662812294868e-05 0 0.0032784932509536107 0.00018180159338023776 0 0.0032519116964618302 0.00010857083506274055 0 0.0032859503946659663 0.00013388195547272972 0 0.0032759541563061158 7.3523418182501831e-05 0 0.0033267024978744699 0.00011763302840638083 0 0.0032859503946659663 0.00013388195547272972 0 0.0032759541563061158 7.3523418182501831e-05 0 0.003217812122267359 8.4097662812294868e-05 0 0.0032759541563061158 7.3523418182501831e-05 0 0.003217812122267359 8.4097662812294868e-05 0 0.0032363807656950348 2.2767642738391506e-05 0 0.0032676053309283627 0.00010229652452150728 0 0.0032860206576703103 0.00013123903410011835 0 0.0032584683347946829 0.00010562366434319493 0 0.0033621052822761046 0.00019217907488240031 0 0.0034668800722154115 0.00015262250936184927 0 0.0033861174367809705 0.00010844679002856752 0 0.0033621052822761046 0.00019217907488240031 0 0.0033861174367809705 0.00010844679002856752 0 0.0033267024978744699 0.00011763302840638083 0 0.0033621052822761046 0.00019217907488240031 0 0.0032859503946659663 0.00013388195547272972 0 0.0033267024978744699 0.00011763302840638083 0 0.0032759541563061158 7.3523418182501831e-05 0 0.0033233273078382376 6.4507540510970668e-05 0 0.0032795994306066742 6.4808172103297637e-06 0 0.0033861174367809705 0.00010844679002856752 0 0.0033267024978744699 0.00011763302840638083 0 0.0033233273078382376 6.4507540510970668e-05 0 0.0032759541563061158 7.3523418182501831e-05 0 0.0033267024978744699 0.00011763302840638083 0 0.0033233273078382376 6.4507540510970668e-05 0 0.0033861174367809705 0.00010844679002856752 0 0.0033233273078382376 6.4507540510970668e-05 0 0.003371852708381709 4.048218745539685e-05 0 0.0034407097117875826 -4.2471516164526743e-06 0 0.003371852708381709 4.048218745539685e-05 0 0.0033366340857228713 -2.990807296855078e-05 0 0.0033233273078382376 6.4507540510970668e-05 0 0.003371852708381709 4.048218745539685e-05 0 0.0032795994306066742 6.4808172103297637e-06 0 0.003371852708381709 4.048218745539685e-05 0 0.0032795994306066742 6.4808172103297637e-06 0 0.0033366340857228713 -2.990807296855078e-05 0 0.0032728674616674508 -4.9309482782626639e-05 0 0.0033366340857228713 -2.990807296855078e-05 0 0.0032515501110918039 -9.7149732913874652e-05 0 0.0032795994306066742 6.4808172103297637e-06 0 0.0032728674616674508 -4.9309482782626639e-05 0 0.0033366340857228713 -2.990807296855078e-05 0 0.0032860206576703103 0.00013123903410011835 0 0.0032584683347946829 0.00010562366434319493 0 0.003246819174173585 8.4294439061075179e-05 0 0.0032519116964618302 0.00010857083506274055 0 0.0032189925161285227 3.1153530695717207e-05 0 0.003217812122267359 8.4097662812294868e-05 0 0.0032363807656950348 2.2767642738391506e-05 0 0.0031905059358099115 -2.0805373376275791e-05 0 0.0032363807656950348 2.2767642738391506e-05 0 0.0032241632460128316 -1.7510827622606363e-05 0 0.0031905059358099115 -2.0805373376275791e-05 0 0.0032795994306066742 6.4808172103297637e-06 0 0.0032363807656950348 2.2767642738391506e-05 0 0.0032241632460128316 -1.7510827622606363e-05 0 0.0032759541563061158 7.3523418182501831e-05 0 0.0032795994306066742 6.4808172103297637e-06 0 0.0032363807656950348 2.2767642738391506e-05 0 0.0032795994306066742 6.4808172103297637e-06 0 0.0032371265255868122 -4.9492007022606048e-05 0 0.0032241632460128316 -1.7510827622606363e-05 0 0.0032795994306066742 6.4808172103297637e-06 0 0.0032728674616674508 -4.9309482782626639e-05 0 0.0032371265255868122 -4.9492007022606048e-05 0 0.0032728674616674508 -4.9309482782626639e-05 0 0.0032371265255868122 -4.9492007022606048e-05 0 0.0032448020069054833 -7.9089922422103531e-05 0 0.0032102771790605594 -5.1037540598971193e-05 0 0.0031905059358099115 -2.0805373376275791e-05 0 0.0031864140986294911 -7.1964806253449573e-05 0 0.0032371265255868122 -4.9492007022606048e-05 0 0.0032102771790605594 -5.1037540598971193e-05 0 0.0032241632460128316 -1.7510827622606363e-05 0 0.0032102771790605594 -5.1037540598971193e-05 0 0.0032241632460128316 -1.7510827622606363e-05 0 0.0031905059358099115 -2.0805373376275791e-05 0 0.0032102771790605594 -5.1037540598971193e-05 0 0.0032220908768704351 -8.5433376293624278e-05 0 0.0031864140986294911 -7.1964806253449573e-05 0 0.0032371265255868122 -4.9492007022606048e-05 0 0.0032102771790605594 -5.1037540598971193e-05 0 0.0032220908768704351 -8.5433376293624278e-05 0 0.0032371265255868122 -4.9492007022606048e-05 0 0.0032220908768704351 -8.5433376293624278e-05 0 0.0032448020069054833 -7.9089922422103531e-05 0 0.0032220908768704351 -8.5433376293624278e-05 0 0.0032453916910013831 -0.00011293242803578333 0 0.0032152405228019348 -0.00012551605766052338 0 0.0032220908768704351 -8.5433376293624278e-05 0 0.0032448020069054833 -7.9089922422103531e-05 0 0.0032453916910013831 -0.00011293242803578333 0 0.0032220908768704351 -8.5433376293624278e-05 0 0.0032056144922181832 -0.00010197107473881597 0 0.0032152405228019348 -0.00012551605766052338 0 0.0032056144922181832 -0.00010197107473881597 0 0.003187363422641018 -0.0001227954140447398 0 0.0031864140986294911 -7.1964806253449573e-05 0 0.0032220908768704351 -8.5433376293624278e-05 0 0.0032056144922181832 -0.00010197107473881597 0 0.0031864140986294911 -7.1964806253449573e-05 0 0.0032056144922181832 -0.00010197107473881597 0 0.003187363422641018 -0.0001227954140447398 0 0.0032152405228019348 -0.00012551605766052338 0 0.0034039156269414414 -0.00010031551409261083 0 0.0033366340857228713 -2.990807296855078e-05 0 0.0032515501110918039 -9.7149732913874652e-05 0 0.0034039156269414414 -0.00010031551409261083 0 0.0033919549500648926 -0.00021092410594596847 0 0.0032515501110918039 -9.7149732913874652e-05 0 0.0032448020069054833 -7.9089922422103531e-05 0 0.0032453916910013831 -0.00011293242803578333 0 0.0032515501110918039 -9.7149732913874652e-05 0 0.0032728674616674508 -4.9309482782626639e-05 0 0.0032448020069054833 -7.9089922422103531e-05 0 0.0032515501110918039 -9.7149732913874652e-05 0 0.0030161923656611702 -0.00027353073302380281 0 0.0032515501110918039 -9.7149732913874652e-05 0 0.0032623252654692689 -0.00026352337759884563 0 0.0031202907609346898 -0.00020348251927475931 0 0.0032398485041336611 -0.00010010033059753663 0 0.0033919549500648926 -0.00021092410594596847 0 0.0032515501110918039 -9.7149732913874652e-05 0 0.0032623252654692689 -0.00026352337759884563 0 0.0033625337193527063 -0.00036155617289314193 0 0.0032623252654692689 -0.00026352337759884563 0 0.0031543158088659842 -0.0003666895816074489 0 0.0033919549500648926 -0.00021092410594596847 0 0.0033625337193527063 -0.00036155617289314193 0 0.0032623252654692689 -0.00026352337759884563 0 0.0030161923656611702 -0.00027353073302380281 0 0.0032623252654692689 -0.00026352337759884563 0 0.0031543158088659842 -0.0003666895816074489 0 0.0028996464294520625 -0.00039651090715012708 0 0.002881786616567082 -0.00045198061555819409 0 0.0031543158088659842 -0.0003666895816074489 0 0.0029167737029611412 -0.00039583379630134751 0 0.0031994442387710069 -0.00050819614713023176 0 0.0033625337193527063 -0.00036155617289314193 0 0.0031994442387710069 -0.00050819614713023176 0 0.0034020042689753586 -0.00047033138815658553 0 0.0033625337193527063 -0.00036155617289314193 0 0.0031543158088659842 -0.0003666895816074489 0 0.0031994442387710069 -0.00050819614713023176 0 0.0031958087992844985 -0.00014731053168709477 0 0.0032152405228019348 -0.00012551605766052338 0 0.0032158378431899849 -0.00016477081829380485 0 0.0031958087992844985 -0.00014731053168709477 0 0.003187363422641018 -0.0001227954140447398 0 0.0031682642977675654 -0.00015075774011589788 0 0.0031958087992844985 -0.00014731053168709477 0 0.003187363422641018 -0.0001227954140447398 0 0.0032152405228019348 -0.00012551605766052338 0 0.0030161923656611702 -0.00027353073302380281 0 0.0031543158088659842 -0.0003666895816074489 0 0.0029167737029611412 -0.00039583379630134751 0 0.0031202907609346898 -0.00020348251927475931 0 0.0031000621735680169 -0.00028476771743888278 0 0.0032453916910013831 -0.00011293242803578333 0 0.0032152405228019348 -0.00012551605766052338 0 0.0032158378431899849 -0.00016477081829380485 0 0.0030161923656611702 -0.00027353073302380281 0 0.0029167737029611412 -0.00039583379630134751 0 0.0028402652450839642 -0.0004311626795811648 0 0.0029167737029611412 -0.00039583379630134751 0 0.0028402652450839642 -0.0004311626795811648 0 0.0027880111362000868 -0.00036673221295885301 0 0.0029167737029611412 -0.00039583379630134751 0 0.0027880111362000868 -0.00036673221295885301 0 0.0025815302713362567 -0.00042175482717973469 0 0.0032158378431899849 -0.00016477081829380485 0 0.0031793958063059428 -0.00018307875619677508 0 0.0031719461766459758 -0.0002198689681711863 0 0.0031000621735680169 -0.00028476771743888278 0 0.0025597808831666954 -0.0001944714041968539 0 0.0031958087992844985 -0.00014731053168709477 0 0.0032158378431899849 -0.00016477081829380485 0 0.0031933097059798771 -0.00016590167007621512 0 0.0032158378431899849 -0.00016477081829380485 0 0.0031933097059798771 -0.00016590167007621512 0 0.0031793958063059428 -0.00018307875619677508 0 0.0031958087992844985 -0.00014731053168709477 0 0.0031933097059798771 -0.00016590167007621512 0 0.0031744181189258536 -0.00016917253425623979 0 0.0031933097059798771 -0.00016590167007621512 0 0.0031793958063059428 -0.00018307875619677508 0 0.0031744181189258536 -0.00016917253425623979 0 0.0031793958063059428 -0.00018307875619677508 0 0.0031596710804329049 -0.00018563595988354943 0 0.0031635703456756093 -0.00019499306131967123 0 0.0031480014175703972 -0.00019587655735649277 0 0.0031574982226820459 -0.00017253905503768094 0 0.0031415337016332634 -0.00015708091730986634 0 0.0031793958063059428 -0.00018307875619677508 0 0.0031596710804329049 -0.00018563595988354943 0 0.0031744181189258536 -0.00016917253425623979 0 0.0031596710804329049 -0.00018563595988354943 0 0.0031574982226820459 -0.00017253905503768094 0 0.0031744181189258536 -0.00016917253425623979 0 0.0031596710804329049 -0.00018563595988354943 0 0.0031635703456756093 -0.00019499306131967123 0 0.0031445365437916721 -0.0001938019001425581 0 0.0031596710804329049 -0.00018563595988354943 0 0.0031480014175703972 -0.00019587655735649277 0 0.0031574982226820459 -0.00017253905503768094 0 0.0031596710804329049 -0.00018563595988354943 0 0.0031480014175703972 -0.00019587655735649277 0 0.0031445365437916721 -0.0001938019001425581 0 0.0031574982226820459 -0.00017253905503768094 0 0.0031682642977675654 -0.00015075774011589788 0 0.0031415337016332634 -0.00015708091730986634 0 0.0031958087992844985 -0.00014731053168709477 0 0.0031744181189258536 -0.00016917253425623979 0 0.0031682642977675654 -0.00015075774011589788 0 0.0031574982226820459 -0.00017253905503768094 0 0.0031744181189258536 -0.00016917253425623979 0 0.0031682642977675654 -0.00015075774011589788 0 0.0027528618057214736 -1.0421569355486613e-05 0 0.0027593798953893358 -9.9212245032888251e-06 0 0.0027608584046294052 -1.0027950155488623e-05 0 0.0031480014175703972 -0.00019587655735649277 0 0.0031323547610024949 -0.0001512726110133416 0 0.0031415337016332634 -0.00015708091730986634 0 0.0029831503475863845 -0.00013504574834650781 0 0.0030190258737248189 -7.4340179187034442e-05 0 0.0027593798953893358 -9.9212245032888251e-06 0 0.0027608584046294052 -1.0027950155488623e-05 0 0.0027702716420701509 -1.7083950886598963e-06 0 0.0030190258737248189 -7.4340179187034442e-05 0 0.0031213097494841024 -8.5260968398718264e-05 0 0.003133378417866138 -9.3943677219637348e-05 0 0.0031135117786194049 -3.8867712940808575e-05 0 0.0030736287574566852 -6.174513738864263e-05 0 0.0031327193886142384 -0.00015272380597588278 0 0.0031518263838284399 -0.00013530306430309979 0 0.0031078901547920874 -0.00010259845100722219 0 0.0030190258737248189 -7.4340179187034442e-05 0 0.0029068657346129284 -2.0899918961411512e-05 0 0.0031327193886142384 -0.00015272380597588278 0 0.0031415337016332634 -0.00015708091730986634 0 0.0031518263838284399 -0.00013530306430309979 0 0.0030190258737248189 -7.4340179187034442e-05 0 0.003080713958138939 -0.00011346715077461694 0 0.0031682642977675654 -0.00015075774011589788 0 0.0031415337016332634 -0.00015708091730986634 0 0.0031518263838284399 -0.00013530306430309979 0 0.003187363422641018 -0.0001227954140447398 0 0.0031682642977675654 -0.00015075774011589788 0 0.0031518263838284399 -0.00013530306430309979 0 0.003187363422641018 -0.0001227954140447398 0 0.0031518263838284399 -0.00013530306430309979 0 0.0031864140986294911 -7.1964806253449573e-05 0 0.0031518263838284399 -0.00013530306430309979 0 0.0031078901547920874 -0.00010259845100722219 0 0.0031864140986294911 -7.1964806253449573e-05 0 0.003157476517460271 1.9253486427222327e-05 0 0.0031864140986294911 -7.1964806253449573e-05 0 0.0030736810070196704 -2.5606433757515845e-05 0 0.0031078901547920874 -0.00010259845100722219 0 0.0031864140986294911 -7.1964806253449573e-05 0 0.0030736810070196704 -2.5606433757515845e-05 0 0.0031213097494841024 -8.5260968398718264e-05 0 0.0030607340068262729 1.9030731498593966e-06 0 0.0030796535095453724 2.5285428782710482e-05 0 0.0030524809239581246 8.6666053533404691e-07 0 0.0029468428611263151 1.4804393889622193e-08 0 0.0032026371481633596 -1.2926272089152016e-08 0 0.0030796535095453724 2.5285428782710482e-05 0 0.0029468428611263151 1.4804393889622193e-08 0 0.0030796535095453724 2.5285428782710482e-05 0 0.0030752382188422443 2.2250279722431906e-05 0 0.0030524809239581246 8.6666053533404691e-07 0 0.0031135117786194049 -3.8867712940808575e-05 0 0.0030752382188422443 2.2250279722431906e-05 0 0.0030524809239581246 8.6666053533404691e-07 0 0.0031135117786194049 -3.8867712940808575e-05 0 0.0030736287574566852 -6.174513738864263e-05 0 0.0030524809239581246 8.6666053533404691e-07 0 0.0030736287574566852 -6.174513738864263e-05 0 0.0030524809239581246 8.6666053533404691e-07 0 0.0029468428611263151 1.4804393889622193e-08 0 0.0027702716420701509 -1.7083950886598963e-06 0 0.0029456280035387501 -6.215526948081133e-08 0 0.0027489109197846033 5.7193029803822277e-08 0 0.0029068657346129284 -2.0899918961411512e-05 0 0.0029462694969811052 -1.380078336853928e-08 0 0.0027702716420701509 -1.7083950886598963e-06 0 0.0027489109197846033 5.7193029803822277e-08 0 0.0027590534905669846 -1.0755508641143404e-05 0 0.0027593798953893358 -9.9212245032888251e-06 0 0.0027702716420701509 -1.7083950886598963e-06 0 0.0027590534905669846 -1.0755508641143404e-05 0 0.0027481890670659776 1.2755308145405247e-08 0 0.002556462200291423 -2.0456322818327173e-06 0 0.0027480475164895889 -1.3994682169766071e-07 0 0.0023807277171567121 -3.71460304870856e-05 0 0.0024559430238867614 -1.6634179756513295e-08 0 0.0023807277171567121 -3.71460304870856e-05 0 0.0024559430238867614 -1.6634179756513295e-08 0 0.0022388718570399303 7.0346438409002369e-06 0 0.002556462200291423 -2.0456322818327173e-06 0 0.0024865452411544681 -1.0771453386265513e-05 0 0.0023807277171567121 -3.71460304870856e-05 0 0.0021145633813017674 -3.5080458669389566e-06 0 0.0022388718570399303 7.0346438409002369e-06 0 0.0027593798953893358 -9.9212245032888251e-06 0 0.0027590534905669846 -1.0755508641143404e-05 0 0.0027543141404230411 -6.350988859812702e-06 0 0.0021145633813017674 -3.5080458669389566e-06 0 0.0022388718570399303 7.0346438409002369e-06 0 0.0020570263045283491 2.5370258119609162e-05 0 0.0024559430238867614 -1.6634179756513295e-08 0 0.0022388718570399303 7.0346438409002369e-06 0 0.002163763024288147 6.6289833554346757e-08 0 0.0022388718570399303 7.0346438409002369e-06 0 0.002163763024288147 6.6289833554346757e-08 0 0.0020570263045283491 2.5370258119609162e-05 0 0.0029831503475863845 -0.00013504574834650781 0 0.002247468273979673 -7.6881967143803368e-05 0 0.0031480014175703972 -0.00019587655735649277 0 0.0031445365437916721 -0.0001938019001425581 0 0.0031292993370706287 -0.000170363745680052 0 0.002247468273979673 -7.6881967143803368e-05 0 0.0025597808831666954 -0.0001944714041968539 0 0.0031445365437916721 -0.0001938019001425581 0 0.0031292993370706287 -0.000170363745680052 0 0.0031210545756962934 -0.000182894493572389 0 0.0031657245684795256 -0.00032312246075696396 0 0.0025597808831666954 -0.0001944714041968539 0 0.0031635703456756093 -0.00019499306131967123 0 0.0031445365437916721 -0.0001938019001425581 0 0.0031719461766459758 -0.0002198689681711863 0 0.0031793958063059428 -0.00018307875619677508 0 0.0031635703456756093 -0.00019499306131967123 0 0.0031719461766459758 -0.0002198689681711863 0 0.0027528618057214736 -1.0421569355486613e-05 0 0.0027593798953893358 -9.9212245032888251e-06 0 0.0027543141404230411 -6.350988859812702e-06 0 0.0027528618057214736 -1.0421569355486613e-05 0 0.0027543141404230411 -6.350988859812702e-06 0 0.0027444572544029519 -6.8633183502983164e-06 0 0.0024865452411544681 -1.0771453386265513e-05 0 0.002024808585326711 -1.8641584740564322e-05 0 0.0021145633813017674 -3.5080458669389566e-06 0 0.0020138118248680423 2.1588304124702686e-05 0 0.0020570263045283491 2.5370258119609162e-05 0 0.0027543141404230411 -6.350988859812702e-06 0 0.0027444572544029519 -6.8633183502983164e-06 0 0.002743149014665019 -4.3318715708225186e-07 0 0.0014289429161287706 -1.3944303682655139e-05 0 0.0014256178471216728 -1.7877508071835372e-05 0 0.0014219135198589867 -1.1808392427092782e-05 0 0.002247468273979673 -7.6881967143803368e-05 0 0.002024808585326711 -1.8641584740564322e-05 0 0.0014289429161287706 -1.3944303682655139e-05 0 0.0014256178471216728 -1.7877508071835372e-05 0 0.001427488051592498 -2.3168067039278211e-05 0 0.002247468273979673 -7.6881967143803368e-05 0 0.0014736904346812016 0.00010800088263597164 0 0.001412871024661788 -9.3100565881739768e-06 0 0.0014256178471216728 -1.7877508071835372e-05 0 0.0014219135198589867 -1.1808392427092782e-05 0 0.0014256178471216728 -1.7877508071835372e-05 0 0.0014315960516613287 -3.210240834570748e-05 0 0.001427488051592498 -2.3168067039278211e-05 0 0.001412871024661788 -9.3100565881739768e-06 0 0.0014256178471216728 -1.7877508071835372e-05 0 0.0014315960516613287 -3.210240834570748e-05 0 0.001412871024661788 -9.3100565881739768e-06 0 0.0014315960516613287 -3.210240834570748e-05 0 0.001418067358526886 -1.7807241701836294e-05 0 0.0020138118248680423 2.1588304124702686e-05 0 0.0019567325607785921 1.6119132437301163e-05 0 0.0020570263045283491 2.5370258119609162e-05 0 0.002024808585326711 -1.8641584740564322e-05 0 0.0016986547997184223 -2.5744317936156409e-05 0 0.0014315960516613287 -3.210240834570748e-05 0 0.0014329900809240408 -3.8360571072293212e-05 0 0.0014490688927082124 -4.0202100098320995e-05 0 0.0018105291275454692 8.6333048305707892e-05 0 0.002024808585326711 -1.8641584740564322e-05 0 0.0014329900809240408 -3.8360571072293212e-05 0 0.0014949712192756127 -6.1400738781691532e-05 0 0.0014490688927082124 -4.0202100098320995e-05 0 0.0014949712192756127 -6.1400738781691532e-05 0 0.0014490688927082124 -4.0202100098320995e-05 0 0.0014517130104343536 -1.4765652436482551e-05 0 0.0014490688927082124 -4.0202100098320995e-05 0 0.0014146140896269194 -9.7257183050737661e-06 0 0.0014517130104343536 -1.4765652436482551e-05 0 0.0014315960516613287 -3.210240834570748e-05 0 0.0014490688927082124 -4.0202100098320995e-05 0 0.001418067358526886 -1.7807241701836294e-05 0 0.0014490688927082124 -4.0202100098320995e-05 0 0.001418067358526886 -1.7807241701836294e-05 0 0.0014146140896269194 -9.7257183050737661e-06 0 0.001418067358526886 -1.7807241701836294e-05 0 0.0014146140896269194 -9.7257183050737661e-06 0 0.0013882523961885147 1.2041114517658181e-05 0 0.001412871024661788 -9.3100565881739768e-06 0 0.001418067358526886 -1.7807241701836294e-05 0 0.0013882523961885147 1.2041114517658181e-05 0 0.002163763024288147 6.6289833554346757e-08 0 0.0020570263045283491 2.5370258119609162e-05 0 0.0019288405634769175 9.9717308859728494e-06 0 0.0019567325607785921 1.6119132437301163e-05 0 0.0019288405634769175 9.9717308859728494e-06 0 0.001670482148861668 -8.0175731461652188e-06 0 0.0019567325607785921 1.6119132437301163e-05 0 0.0020570263045283491 2.5370258119609162e-05 0 0.0019288405634769175 9.9717308859728494e-06 0 0.002163763024288147 6.6289833554346757e-08 0 0.0019288405634769175 9.9717308859728494e-06 0 0.0018715318876975199 -3.7189370345809878e-08 0 0.0019288405634769175 9.9717308859728494e-06 0 0.0018715318876975199 -3.7189370345809878e-08 0 0.001670482148861668 -8.0175731461652188e-06 0 0.001670482148861668 -8.0175731461652188e-06 0 0.0013924217002987006 4.2928685702282186e-05 0 0.0013957996605960035 3.9614000753869851e-05 0 0.0015793371961722192 5.4279332285238311e-08 0 0.001670482148861668 -8.0175731461652188e-06 0 0.0013957996605960035 3.9614000753869851e-05 0 0.0018715318876975199 -3.7189370345809878e-08 0 0.0015793371961722192 5.4279332285238311e-08 0 0.001670482148861668 -8.0175731461652188e-06 0 0.0016986547997184223 -2.5744317936156409e-05 0 0.001705268472154359 1.3540974053270673e-05 0 0.0014949712192756127 -6.1400738781691532e-05 0 0.001670482148861668 -8.0175731461652188e-06 0 0.0014517130104343536 -1.4765652436482551e-05 0 0.0014517130104343536 -1.4765652436482551e-05 0 0.0013748699446443431 2.3752861433181032e-05 0 0.0013924217002987006 4.2928685702282186e-05 0 0.001670482148861668 -8.0175731461652188e-06 0 0.0014517130104343536 -1.4765652436482551e-05 0 0.0013924217002987006 4.2928685702282186e-05 0 0.0014146140896269194 -9.7257183050737661e-06 0 0.0013748699446443431 2.3752861433181032e-05 0 0.0013882523961885147 1.2041114517658181e-05 0 0.0014146140896269194 -9.7257183050737661e-06 0 0.0014517130104343536 -1.4765652436482551e-05 0 0.0013748699446443431 2.3752861433181032e-05 0 0.0013748699446443431 2.3752861433181032e-05 0 0.0013924217002987006 4.2928685702282186e-05 0 0.0013016958568705826 4.8653441096620157e-05 0 0.0013924217002987006 4.2928685702282186e-05 0 0.0012624299303320347 5.1833600273837625e-05 0 0.0013957996605960035 3.9614000753869851e-05 0 0.0013924217002987006 4.2928685702282186e-05 0 0.0013016958568705826 4.8653441096620157e-05 0 0.0012624299303320347 5.1833600273837625e-05 0 0.0012624299303320347 5.1833600273837625e-05 0 0.0012517234697048741 3.4742089940733925e-05 0 0.0012046352922337801 3.5437327764754831e-05 0 0.0013016958568705826 4.8653441096620157e-05 0 0.0012624299303320347 5.1833600273837625e-05 0 0.0012517234697048741 3.4742089940733925e-05 0 0.0012624299303320347 5.1833600273837625e-05 0 0.0013957996605960035 3.9614000753869851e-05 0 0.0011450797096328286 3.9746068706570566e-05 0 0.0012871311477459693 7.3535392175623807e-08 0 0.0013957996605960035 3.9614000753869851e-05 0 0.0011450797096328286 3.9746068706570566e-05 0 0.0015793371961722192 5.4279332285238311e-08 0 0.0012871311477459693 7.3535392175623807e-08 0 0.0013957996605960035 3.9614000753869851e-05 0 0.0013570884241484265 2.1948434609006956e-05 0 0.0012912124840534435 3.8599294678877248e-05 0 0.0013418673919296349 5.9157641784119321e-05 0 0.0013570884241484265 2.1948434609006956e-05 0 0.0015311107757099345 -1.2762693190901218e-05 0 0.0014307553758489621 -0.0001094351352288805 0 0.001357493538370198 1.7786961300790762e-05 0 0.0013832032000373677 -5.4622938037379468e-05 0 0.0013570884241484265 2.1948434609006956e-05 0 0.0013053626264153176 8.8235981425873063e-06 0 0.001340839174675136 -5.7616661542421863e-06 0 0.0013570884241484265 2.1948434609006956e-05 0 0.0013053626264153176 8.8235981425873063e-06 0 0.0012912124840534435 3.8599294678877248e-05 0 0.0012517234697048741 3.4742089940733925e-05 0 0.0012912124840534435 3.8599294678877248e-05 0 0.0012237181287045973 6.3613659600697226e-06 0 0.0013053626264153176 8.8235981425873063e-06 0 0.0012912124840534435 3.8599294678877248e-05 0 0.0012237181287045973 6.3613659600697226e-06 0 0.0012517234697048741 3.4742089940733925e-05 0 0.0012046352922337801 3.5437327764754831e-05 0 0.0012237181287045973 6.3613659600697226e-06 0 0.0013016958568705826 4.8653441096620157e-05 0 0.0012517234697048741 3.4742089940733925e-05 0 0.0012912124840534435 3.8599294678877248e-05 0 0.0013016958568705826 4.8653441096620157e-05 0 0.0012912124840534435 3.8599294678877248e-05 0 0.001323433993206927 4.7689659867497215e-05 0 0.0013418673919296349 5.9157641784119321e-05 0 0.001323433993206927 4.7689659867497215e-05 0 0.0013548957603357747 4.4391732971624451e-05 0 0.0012912124840534435 3.8599294678877248e-05 0 0.0013418673919296349 5.9157641784119321e-05 0 0.001323433993206927 4.7689659867497215e-05 0 0.0013748699446443431 2.3752861433181032e-05 0 0.0013016958568705826 4.8653441096620157e-05 0 0.001323433993206927 4.7689659867497215e-05 0 0.0013748699446443431 2.3752861433181032e-05 0 0.001323433993206927 4.7689659867497215e-05 0 0.0013548957603357747 4.4391732971624451e-05 0 0.0013748699446443431 2.3752861433181032e-05 0 0.0013548957603357747 4.4391732971624451e-05 0 0.0013882523961885147 1.2041114517658181e-05 0 0.0013548957603357747 4.4391732971624451e-05 0 0.0013756764346256887 7.8682724753178929e-05 0 0.0013753821032478173 4.7458612533057139e-05 0 0.0013418673919296349 5.9157641784119321e-05 0 0.0013548957603357747 4.4391732971624451e-05 0 0.0013756764346256887 7.8682724753178929e-05 0 0.0013418673919296349 5.9157641784119321e-05 0 0.0013756764346256887 7.8682724753178929e-05 0 0.0014159934672478968 9.4732406591102814e-05 0 0.0013570884241484265 2.1948434609006956e-05 0 0.0013418673919296349 5.9157641784119321e-05 0 0.0014159934672478968 9.4732406591102814e-05 0 0.0013570884241484265 2.1948434609006956e-05 0 0.0014159934672478968 9.4732406591102814e-05 0 0.0015187967852841524 8.8448031358092966e-05 0 0.0013756764346256887 7.8682724753178929e-05 0 0.0014159934672478968 9.4732406591102814e-05 0 0.001420530813269275 0.00012057382074829405 0 0.0018608054103512897 0.00012254881736810922 0 0.0019948183973971219 5.4226557898490771e-06 0 0.0013756764346256887 7.8682724753178929e-05 0 0.001420530813269275 0.00012057382074829405 0 0.0013778859912443959 5.3730376802141384e-05 0 0.0013756764346256887 7.8682724753178929e-05 0 0.0013778859912443959 5.3730376802141384e-05 0 0.0013753821032478173 4.7458612533057139e-05 0 0.0025800754752404748 -2.2779300289468038e-05 0 0.0022736225083350137 -6.1653927726633919e-05 0 0.0025687475882904126 -0.00023291620092015153 0 0.0022927194989621836 0.00013536297803200259 0 0.0025800754752404748 -2.2779300289468038e-05 0 0.0022736225083350137 -6.1653927726633919e-05 0 0.001412871024661788 -9.3100565881739768e-06 0 0.0013882523961885147 1.2041114517658181e-05 0 0.0013941202937599287 1.5836488582287064e-05 0 0.0013882523961885147 1.2041114517658181e-05 0 0.0013753821032478173 4.7458612533057139e-05 0 0.0013941202937599287 1.5836488582287064e-05 0 0.0013548957603357747 4.4391732971624451e-05 0 0.0013882523961885147 1.2041114517658181e-05 0 0.0013753821032478173 4.7458612533057139e-05 0 0.0013778859912443959 5.3730376802141384e-05 0 0.0013941202937599287 1.5836488582287064e-05 0 0.0013940005573497276 -1.0260603843944319e-05 0 0.0013778859912443959 5.3730376802141384e-05 0 0.0013753821032478173 4.7458612533057139e-05 0 0.0013941202937599287 1.5836488582287064e-05 0 0.0019948183973971219 5.4226557898490771e-06 0 0.0020325505327562421 -7.7370317839575933e-05 0 0.001412871024661788 -9.3100565881739768e-06 0 0.0013941202937599287 1.5836488582287064e-05 0 0.0014219135198589867 -1.1808392427092782e-05 0 0.0013941202937599287 1.5836488582287064e-05 0 0.0014219135198589867 -1.1808392427092782e-05 0 0.0013940005573497276 -1.0260603843944319e-05 0 0.0020325505327562421 -7.7370317839575933e-05 0 0.0025597808831666954 -0.0001944714041968539 0 0.0014393550414817503 -3.1352076333609173e-05 0 0.0014219135198589867 -1.1808392427092782e-05 0 0.0013940005573497276 -1.0260603843944319e-05 0 0.0014393550414817503 -3.1352076333609173e-05 0 0.0013940005573497276 -1.0260603843944319e-05 0 0.0014330969726839937 -4.6345978695010624e-05 0 0.0028029511437828816 -0.00019235363196934305 0 0.0027880111362000868 -0.00036673221295885301 0 0.0025687475882904126 -0.00023291620092015153 0 0.0028029511437828816 -0.00019235363196934305 0 0.0027880111362000868 -0.00036673221295885301 0 0.0029340944081562904 -0.00032011626031265089 0 0.0028402652450839642 -0.0004311626795811648 0 0.0027880111362000868 -0.00036673221295885301 0 0.0029340944081562904 -0.00032011626031265089 0 0.0022736225083350137 -6.1653927726633919e-05 0 0.0025687475882904126 -0.00023291620092015153 0 0.0022294501022560092 -0.00026979777902200533 0 0.0025800754752404748 -2.2779300289468038e-05 0 0.0028029511437828816 -0.00019235363196934305 0 0.0025687475882904126 -0.00023291620092015153 0 0.0027880111362000868 -0.00036673221295885301 0 0.0025687475882904126 -0.00023291620092015153 0 0.0025815302713362567 -0.00042175482717973469 0 0.0031994442387710069 -0.00050819614713023176 0 0.0034020042689753586 -0.00047033138815658553 0 0.003359631069695074 -0.00056794011369776839 0 0.0025687475882904126 -0.00023291620092015153 0 0.0025815302713362567 -0.00042175482717973469 0 0.0022294501022560092 -0.00026979777902200533 0 0.002881786616567082 -0.00045198061555819409 0 0.0027963126988133011 -0.00041598544773530728 0 0.003359631069695074 -0.00056794011369776839 0 0.0035295164265544124 -0.00053192104285669538 0 0.0034810210890761266 -0.00064335174363894948 0 0.0027963126988133011 -0.00041598544773530728 0 0.0026749152609726098 -0.00034952255418696244 0 0.0034020042689753586 -0.00047033138815658553 0 0.003359631069695074 -0.00056794011369776839 0 0.0035295164265544124 -0.00053192104285669538 0 0.0035161510516166453 -0.00038942247689247202 0 0.0034020042689753586 -0.00047033138815658553 0 0.0035295164265544124 -0.00053192104285669538 0 0.0035161510516166453 -0.00038942247689247202 0 0.0036339054121015675 -0.00044155678947635296 0 0.0035295164265544124 -0.00053192104285669538 0 0.0036339054121015675 -0.00044155678947635296 0 0.003644179635736741 -0.00052901205564551525 0 0.0035295164265544124 -0.00053192104285669538 0 0.0036339054121015675 -0.00044155678947635296 0 0.003644179635736741 -0.00052901205564551525 0 0.0037246290875455339 -0.00043307396136806151 0 0.003644179635736741 -0.00052901205564551525 0 0.0035295164265544124 -0.00053192104285669538 0 0.0036276937975285384 -0.00063106924421653355 0 0.003644179635736741 -0.00052901205564551525 0 0.0036276937975285384 -0.00063106924421653355 0 0.0037511951193260995 -0.00053407196986358853 0 0.0035295164265544124 -0.00053192104285669538 0 0.0036276937975285384 -0.00063106924421653355 0 0.0034810210890761266 -0.00064335174363894948 0 0.0036276937975285384 -0.00063106924421653355 0 0.0036000941806449095 -0.00073665527111969171 0 0.0034810210890761266 -0.00064335174363894948 0 0.0028478522169443363 -0.00024140209821090088 0 0.0027814798079968421 -0.0002308790597873457 0 0.0036276937975285384 -0.00063106924421653355 0 0.0036000941806449095 -0.00073665527111969171 0 0.0037267757819247488 -0.00068151463808615979 0 0.001791914830760196 0.00015758171837250472 0 0.0018960456532364812 0.00024732519350738178 0 0.0018204980713828506 0.00016228529259997398 0 0.0018003212934875163 0.00015633386883522871 0 0.0018093880861458195 0.00015030329996091476 0 0.0018020426193035973 0.00015669121191029818 0 0.0018003212934875163 0.00015633386883522871 0 0.001791914830760196 0.00015758171837250472 0 0.0018093880861458195 0.00015030329996091476 0 0.0018003212934875163 0.00015633386883522871 0 0.0018042936863970377 0.00015847624195404814 0 0.001791914830760196 0.00015758171837250472 0 0.0018042936863970377 0.00015847624195404814 0 0.001791914830760196 0.00015758171837250472 0 0.0018204980713828506 0.00016228529259997398 0 0.001791914830760196 0.00015758171837250472 0 0.0018334694403934356 0.00013566057111096696 0 0.0019148771363703188 -4.8259571449004002e-05 0 0.0028478522169443363 -0.00024140209821090088 0 0.0026749152609726098 -0.00034952255418696244 0 0.0018093880861458195 0.00015030329996091476 0 0.0018334694403934356 0.00013566057111096696 0 0.0018020426193035973 0.00015669121191029818 0 0.001791914830760196 0.00015758171837250472 0 0.0018093880861458195 0.00015030329996091476 0 0.0018334694403934356 0.00013566057111096696 0 0.0018334694403934356 0.00013566057111096696 0 0.0019166070488494176 0.00012397835747834612 0 0.0018203296922587157 0.00016119449897916813 0 0.0019166070488494176 0.00012397835747834612 0 0.0020834411069903672 7.7938651489784468e-05 0 0.0019927750464578007 0.0002187430153221804 0 0.0018334694403934356 0.00013566057111096696 0 0.0019166070488494176 0.00012397835747834612 0 0.0019148771363703188 -4.8259571449004002e-05 0 0.0019166070488494176 0.00012397835747834612 0 0.0020834411069903672 7.7938651489784468e-05 0 0.0019148771363703188 -4.8259571449004002e-05 0 0.0022927194989621836 0.00013536297803200259 0 0.0022736225083350137 -6.1653927726633919e-05 0 0.0020834411069903672 7.7938651489784468e-05 0 0.0018608054103512897 0.00012254881736810922 0 0.0017760000704668806 0.00017350206075719462 0 0.0022927194989621836 0.00013536297803200259 0 0.0020834411069903672 7.7938651489784468e-05 0 0.0019927750464578007 0.0002187430153221804 0 0.0022736225083350137 -6.1653927726633919e-05 0 0.0020834411069903672 7.7938651489784468e-05 0 0.0019148771363703188 -4.8259571449004002e-05 0 0.0022736225083350137 -6.1653927726633919e-05 0 0.0022294501022560092 -0.00026979777902200533 0 0.0019148771363703188 -4.8259571449004002e-05 0 0.0040003005850432717 -0.00055592147427852142 0 0.0039041949808986134 -0.00047323830288844768 0 0.0040607005610662364 -0.00037815659057800272 0 0.0039523601160040634 -0.00035462233674412219 0 0.0039041949808986134 -0.00047323830288844768 0 0.0040607005610662364 -0.00037815659057800272 0 0.0030235089724087098 -0.00012284703501802061 0 0.0029280531882078147 -0.00016602957583659146 0 0.0040003005850432717 -0.00055592147427852142 0 0.0039041949808986134 -0.00047323830288844768 0 0.0038595847057906942 -0.00061934966533893016 0 0.0039041949808986134 -0.00047323830288844768 0 0.0037511951193260995 -0.00053407196986358853 0 0.0038595847057906942 -0.00061934966533893016 0 0.0038265111149370832 -0.00038208636797833613 0 0.0039041949808986134 -0.00047323830288844768 0 0.0037511951193260995 -0.00053407196986358853 0 0.003644179635736741 -0.00052901205564551525 0 0.0037246290875455339 -0.00043307396136806151 0 0.0037511951193260995 -0.00053407196986358853 0 0.0038265111149370832 -0.00038208636797833613 0 0.0037246290875455339 -0.00043307396136806151 0 0.0037511951193260995 -0.00053407196986358853 0 0.0036276937975285384 -0.00063106924421653355 0 0.0037511951193260995 -0.00053407196986358853 0 0.0037267757819247488 -0.00068151463808615979 0 0.0018960456532364812 0.00024732519350738178 0 0.0019324769553314824 0.00016535214079310538 0 0.0018622731854044639 0.00015607775366333599 0 0.0018960456532364812 0.00024732519350738178 0 0.0018622731854044639 0.00015607775366333599 0 0.0018204980713828506 0.00016228529259997398 0 0.0018960456532364812 0.00024732519350738178 0 0.0019748087902014973 0.00022617765970665209 0 0.0019324769553314824 0.00016535214079310538 0 0.0037511951193260995 -0.00053407196986358853 0 0.0037267757819247488 -0.00068151463808615979 0 0.0038595847057906942 -0.00061934966533893016 0 0.0027814798079968421 -0.0002308790597873457 0 0.0029280531882078147 -0.00016602957583659146 0 0.0018960456532364812 0.00024732519350738178 0 0.0019870795295234152 0.00028393417762220287 0 0.0019748087902014973 0.00022617765970665209 0 0.0020398353520698262 0.00030046917156244414 0 0.0019870795295234152 0.00028393417762220287 0 0.0020230731701131408 0.00024878106268216924 0 0.0019748087902014973 0.00022617765970665209 0 0.0020230731701131408 0.00024878106268216924 0 0.0020236728584690743 0.00020781717868430098 0 0.0019870795295234152 0.00028393417762220287 0 0.0019748087902014973 0.00022617765970665209 0 0.0020230731701131408 0.00024878106268216924 0 0.0020230731701131408 0.00024878106268216924 0 0.0020371167086456459 0.00022868569890050546 0 0.0020474351054635847 0.00026463811494065908 0 0.0020230731701131408 0.00024878106268216924 0 0.0020236728584690743 0.00020781717868430098 0 0.0020371167086456459 0.00022868569890050546 0 0.0020398353520698262 0.00030046917156244414 0 0.0020230731701131408 0.00024878106268216924 0 0.0020474351054635847 0.00026463811494065908 0 0.0020310393578540772 0.00021873755487919456 0 0.0020363895189050552 0.00022041642287237698 0 0.0020236728584690743 0.00020781717868430098 0 0.0020310393578540772 0.00021873755487919456 0 0.0020363895189050552 0.00022041642287237698 0 0.0020333809674911306 0.00022924055532938921 0 0.0020310393578540772 0.00021873755487919456 0 0.0020236728584690743 0.00020781717868430098 0 0.0020371167086456459 0.00022868569890050546 0 0.0020236728584690743 0.00020781717868430098 0 0.0019768207143803234 0.00016896692980119092 0 0.0019940428645961422 0.00010578179555614879 0 0.0019748087902014973 0.00022617765970665209 0 0.0020236728584690743 0.00020781717868430098 0 0.0019768207143803234 0.00016896692980119092 0 0.0020156255872729777 0.00018840861409973945 0 0.0020655693613199 0.00019190054036280499 0 0.0020363895189050552 0.00022041642287237698 0 0.0020236728584690743 0.00020781717868430098 0 0.0020465257253007487 0.00021888852731217448 0 0.0019768207143803234 0.00016896692980119092 0 0.0019940428645961422 0.00010578179555614879 0 0.0019484937670804293 0.00012869815475088789 0 0.0020363895189050552 0.00022041642287237698 0 0.0020465257253007487 0.00021888852731217448 0 0.0020458569739258345 0.00023090141575685908 0 0.001944894372481368 8.0060810529767384e-05 0 0.0018986963578245253 0.00012047742300367163 0 0.001874926949356769 6.8092948333581745e-05 0 0.0019940428645961422 0.00010578179555614879 0 0.001944894372481368 8.0060810529767384e-05 0 0.0019528329957422097 2.7466765670879849e-05 0 0.001944894372481368 8.0060810529767384e-05 0 0.0019484937670804293 0.00012869815475088789 0 0.0018986963578245253 0.00012047742300367163 0 0.0019940428645961422 0.00010578179555614879 0 0.001944894372481368 8.0060810529767384e-05 0 0.0019484937670804293 0.00012869815475088789 0 0.0019748087902014973 0.00022617765970665209 0 0.0019768207143803234 0.00016896692980119092 0 0.0019324769553314824 0.00016535214079310538 0 0.0019768207143803234 0.00016896692980119092 0 0.0019484937670804293 0.00012869815475088789 0 0.0019324769553314824 0.00016535214079310538 0 0.0019484937670804293 0.00012869815475088789 0 0.0019324769553314824 0.00016535214079310538 0 0.0018986963578245253 0.00012047742300367163 0 0.0019324769553314824 0.00016535214079310538 0 0.0018622731854044639 0.00015607775366333599 0 0.0018986963578245253 0.00012047742300367163 0 0.0018622731854044639 0.00015607775366333599 0 0.0018986963578245253 0.00012047742300367163 0 0.0018345893877943415 0.00012098882397229613 0 0.001874926949356769 6.8092948333581745e-05 0 0.0018345893877943415 0.00012098882397229613 0 0.0018175597243895213 5.2289524381449043e-05 0 0.0018986963578245253 0.00012047742300367163 0 0.001874926949356769 6.8092948333581745e-05 0 0.0018345893877943415 0.00012098882397229613 0 0.001874926949356769 6.8092948333581745e-05 0 0.0018535848439422899 6.7989198938231571e-06 0 0.0018175597243895213 5.2289524381449043e-05 0 0.001874926949356769 6.8092948333581745e-05 0 0.0018535848439422899 6.7989198938231571e-06 0 0.0019037052371952406 2.5541347009305159e-05 0 0.0018535848439422899 6.7989198938231571e-06 0 0.0018726754355319431 -4.025712357238778e-05 0 0.0019037052371952406 2.5541347009305159e-05 0 0.0018535848439422899 6.7989198938231571e-06 0 0.0018726754355319431 -4.025712357238778e-05 0 0.0017999504820528334 -2.574247300806419e-05 0 0.0018726754355319431 -4.025712357238778e-05 0 0.0019615547460929712 1.953995056959632e-05 0 0.0019020512429130684 -0.00011829119835552699 0 0.0014304532546495189 0.0001646100982606599 0 0.0011456480746261449 0.00027935233703648793 0 0.0014304532546495189 0.0001646100982606599 0 0.00098610947056877881 4.0380342050544562e-05 0 0.00023317605011528291 0.00025658843771708234 0 0.00021929102135499222 0.00023666985754945105 0 0.00020213313427348562 0.00023481930975699083 0 0.001944894372481368 8.0060810529767384e-05 0 0.001874926949356769 6.8092948333581745e-05 0 0.0019037052371952406 2.5541347009305159e-05 0 0.0018726754355319431 -4.025712357238778e-05 0 0.0019615547460929712 1.953995056959632e-05 0 0.0019037052371952406 2.5541347009305159e-05 0 0.001944894372481368 8.0060810529767384e-05 0 0.0019615547460929712 1.953995056959632e-05 0 0.0019037052371952406 2.5541347009305159e-05 0 0.0018687511760515953 -7.1115032422815717e-06 0 0.0014304532546495189 0.0001646100982606599 0 0.0020655693613199 0.00019190054036280499 0 0.0014304532546495189 0.0001646100982606599 0 0.0020465257253007487 0.00021888852731217448 0 0.0020622847106182996 0.00023718409420446377 0 0.0020458569739258345 0.00023090141575685908 0 0.0020622847106182996 0.00023718409420446377 0 0.0020458569739258345 0.00023090141575685908 0 0.0020483519537781154 0.00024904654135394279 0 0.0020483519537781154 0.00024904654135394279 0 0.0020461872582579919 0.00027008210705641245 0 0.0020636566382932595 0.00027588631393421628 0 0.0020622847106182996 0.00023718409420446377 0 0.0020483519537781154 0.00024904654135394279 0 0.0020636566382932595 0.00027588631393421628 0 0.0020483519537781154 0.00024904654135394279 0 0.0020321182952227801 0.00025207373518268899 0 0.0020461872582579919 0.00027008210705641245 0 0.0020483519537781154 0.00024904654135394279 0 0.0020321182952227801 0.00025207373518268899 0 0.0020333809674911306 0.00022924055532938921 0 0.0020458569739258345 0.00023090141575685908 0 0.0020483519537781154 0.00024904654135394279 0 0.0020333809674911306 0.00022924055532938921 0 0.0020363895189050552 0.00022041642287237698 0 0.0020458569739258345 0.00023090141575685908 0 0.0020333809674911306 0.00022924055532938921 0 0.0015187967852841524 8.8448031358092966e-05 0 0.0017392376206351674 0.00013783566908393333 0 0.0015311107757099345 -1.2762693190901218e-05 0 0.0015187967852841524 8.8448031358092966e-05 0 0.0015367437512283832 0.00016102547590116708 0 0.0017392376206351674 0.00013783566908393333 0 0.0014159934672478968 9.4732406591102814e-05 0 0.0015187967852841524 8.8448031358092966e-05 0 0.0015367437512283832 0.00016102547590116708 0 0.0014159934672478968 9.4732406591102814e-05 0 0.001420530813269275 0.00012057382074829405 0 0.0015367437512283832 0.00016102547590116708 0 0.0019927750464578007 0.0002187430153221804 0 0.0018203296922587157 0.00016119449897916813 0 0.0017392376206351674 0.00013783566908393333 0 0.0017760000704668806 0.00017350206075719462 0 0.0017588372845214059 0.00013852817365356813 0 0.0019166070488494176 0.00012397835747834612 0 0.0019927750464578007 0.0002187430153221804 0 0.0018203296922587157 0.00016119449897916813 0 0.0018203296922587157 0.00016119449897916813 0 0.0017964553852694997 0.00014849042810824223 0 0.0017392376206351674 0.00013783566908393333 0 0.0018334694403934356 0.00013566057111096696 0 0.0018203296922587157 0.00016119449897916813 0 0.0018020426193035973 0.00015669121191029818 0 0.0018203296922587157 0.00016119449897916813 0 0.0018020426193035973 0.00015669121191029818 0 0.0017964553852694997 0.00014849042810824223 0 0.0018622731854044639 0.00015607775366333599 0 0.0018204980713828506 0.00016228529259997398 0 0.0018218157987414624 0.00014876511177874059 0 0.0018042936863970377 0.00015847624195404814 0 0.0018204980713828506 0.00016228529259997398 0 0.0018020426193035973 0.00015669121191029818 0 0.0018204980713828506 0.00016228529259997398 0 0.0018020426193035973 0.00015669121191029818 0 0.0018218157987414624 0.00014876511177874059 0 0.0018003212934875163 0.00015633386883522871 0 0.0018042936863970377 0.00015847624195404814 0 0.0018020426193035973 0.00015669121191029818 0 0.0018020426193035973 0.00015669121191029818 0 0.0017964553852694997 0.00014849042810824223 0 0.0018218157987414624 0.00014876511177874059 0 0.0018622731854044639 0.00015607775366333599 0 0.0018218157987414624 0.00014876511177874059 0 0.0018345893877943415 0.00012098882397229613 0 0.0017964553852694997 0.00014849042810824223 0 0.0018218157987414624 0.00014876511177874059 0 0.0018345893877943415 0.00012098882397229613 0 0.0018345893877943415 0.00012098882397229613 0 0.0017900214936117543 0.00010113956208174696 0 0.0018175597243895213 5.2289524381449043e-05 0 0.0017964553852694997 0.00014849042810824223 0 0.0018345893877943415 0.00012098882397229613 0 0.0017900214936117543 0.00010113956208174696 0 0.0017900214936117543 0.00010113956208174696 0 0.0017392376206351674 0.00013783566908393333 0 0.0017524362144896429 2.6124189625555197e-05 0 0.0017964553852694997 0.00014849042810824223 0 0.0017900214936117543 0.00010113956208174696 0 0.0017392376206351674 0.00013783566908393333 0 0.0017392376206351674 0.00013783566908393333 0 0.0017524362144896429 2.6124189625555197e-05 0 0.0016592374165532622 -1.761520195523074e-05 0 0.0017900214936117543 0.00010113956208174696 0 0.0017524362144896429 2.6124189625555197e-05 0 0.0018175597243895213 5.2289524381449043e-05 0 0.0017524362144896429 2.6124189625555197e-05 0 0.0018175597243895213 5.2289524381449043e-05 0 0.0017999504820528334 -2.574247300806419e-05 0 0.0018535848439422899 6.7989198938231571e-06 0 0.0018175597243895213 5.2289524381449043e-05 0 0.0017999504820528334 -2.574247300806419e-05 0 0.0018726754355319431 -4.025712357238778e-05 0 0.0017999504820528334 -2.574247300806419e-05 0 0.0017964712740070796 -0.00011432976364729467 0 0.0017999504820528334 -2.574247300806419e-05 0 0.0016979181843491148 -9.4400539276764972e-05 0 0.0017964712740070796 -0.00011432976364729467 0 0.0017524362144896429 2.6124189625555197e-05 0 0.0016979181843491148 -9.4400539276764972e-05 0 0.0016592374165532622 -1.761520195523074e-05 0 0.0017524362144896429 2.6124189625555197e-05 0 0.0017999504820528334 -2.574247300806419e-05 0 0.0016979181843491148 -9.4400539276764972e-05 0 0.0016592374165532622 -1.761520195523074e-05 0 0.0015311107757099345 -1.2762693190901218e-05 0 0.001575239079174749 -0.00012776789469695645 0 0.0016979181843491148 -9.4400539276764972e-05 0 0.0016592374165532622 -1.761520195523074e-05 0 0.001575239079174749 -0.00012776789469695645 0 0.0017392376206351674 0.00013783566908393333 0 0.0016592374165532622 -1.761520195523074e-05 0 0.0015311107757099345 -1.2762693190901218e-05 0 0.0013570884241484265 2.1948434609006956e-05 0 0.0015187967852841524 8.8448031358092966e-05 0 0.0015311107757099345 -1.2762693190901218e-05 0 0.0015311107757099345 -1.2762693190901218e-05 0 0.001575239079174749 -0.00012776789469695645 0 0.0014307553758489621 -0.0001094351352288805 0 0.0014962009480640386 -0.00022066595177487068 0 0.001575239079174749 -0.00012776789469695645 0 0.0014307553758489621 -0.0001094351352288805 0 0.0014962009480640386 -0.00022066595177487068 0 0.0015941837314468173 -0.00021162718485742005 0 0.0015888455477022004 -0.000267693858073883 0 0.0014962009480640386 -0.00022066595177487068 0 0.0015941837314468173 -0.00021162718485742005 0 0.001575239079174749 -0.00012776789469695645 0 0.0016468581030632155 -0.00023998187176175269 0 0.0015941837314468173 -0.00021162718485742005 0 0.0015888455477022004 -0.000267693858073883 0 0.0016468581030632155 -0.00023998187176175269 0 0.0015941837314468173 -0.00021162718485742005 0 0.0016487495141722008 -0.00016712574405111262 0 0.0015941837314468173 -0.00021162718485742005 0 0.0016487495141722008 -0.00016712574405111262 0 0.001575239079174749 -0.00012776789469695645 0 0.0016979181843491148 -9.4400539276764972e-05 0 0.0016487495141722008 -0.00016712574405111262 0 0.001575239079174749 -0.00012776789469695645 0 0.0016979181843491148 -9.4400539276764972e-05 0 0.0017964712740070796 -0.00011432976364729467 0 0.0017134703457248929 -0.00019265852969203515 0 0.0016979181843491148 -9.4400539276764972e-05 0 0.0016487495141722008 -0.00016712574405111262 0 0.0017134703457248929 -0.00019265852969203515 0 0.0017964712740070796 -0.00011432976364729467 0 0.0017925636941849531 -0.00019236764500778984 0 0.0017134703457248929 -0.00019265852969203515 0 0.0017925636941849531 -0.00019236764500778984 0 0.0016997423730232221 -0.00029417619799151494 0 0.0018256018720221141 -0.00026191242647818729 0 0.0017925636941849531 -0.00019236764500778984 0 0.0017134703457248929 -0.00019265852969203515 0 0.0016997423730232221 -0.00029417619799151494 0 0.0016468581030632155 -0.00023998187176175269 0 0.0017134703457248929 -0.00019265852969203515 0 0.0016997423730232221 -0.00029417619799151494 0 0.0016468581030632155 -0.00023998187176175269 0 0.0016487495141722008 -0.00016712574405111262 0 0.0017134703457248929 -0.00019265852969203515 0 0.0016468581030632155 -0.00023998187176175269 0 0.0016997423730232221 -0.00029417619799151494 0 0.0016365100360880732 -0.00030370514254120072 0 0.0016997423730232221 -0.00029417619799151494 0 0.0017356505329360107 -0.00032998446850081791 0 0.0016738928014882091 -0.00036816454447868147 0 0.0016538962027986431 -0.00026245470149556614 0 0.0009703843495853184 -0.00030904298759594517 0 0.0016997423730232221 -0.00029417619799151494 0 0.0016771966414233694 -0.00037023167133495047 0 0.0016365100360880732 -0.00030370514254120072 0 0.0016997423730232221 -0.00029417619799151494 0 0.0017356505329360107 -0.00032998446850081791 0 0.0018256018720221141 -0.00026191242647818729 0 0.00040424921393580703 6.4582155970977493e-05 0 0.0010977483175364641 -3.1969672575141541e-05 0 0.0017356505329360107 -0.00032998446850081791 0 0.0017451390745503769 -0.00039459872035231769 0 0.0018256018720221141 -0.00026191242647818729 0 0.0017356505329360107 -0.00032998446850081791 0 0.0017451390745503769 -0.00039459872035231769 0 0.0016738928014882091 -0.00036816454447868147 0 0.00040424921393580703 6.4582155970977493e-05 0 0.0009703843495853184 -0.00030904298759594517 0 -0.00013973677407692114 -3.9472460233693316e-06 0 -0.0001878795240474452 1.27830118819825e-05 0 -0.00017602927055249129 -1.7524507772876419e-05 0 -0.0001878795240474452 1.27830118819825e-05 0 -0.00020810518172928905 -3.7929520234489814e-05 0 -0.00017602927055249129 -1.7524507772876419e-05 0 0.0009703843495853184 -0.00030904298759594517 0 0.00020852964638285227 -4.5128703781756457e-05 0 0.0005362305352211885 -0.00025284510156617541 0 0.00066313122625540673 -0.0001757553514016371 0 0.00057876389004979563 -5.9443698964897876e-05 0 0.00066313122625540673 -0.0001757553514016371 0 0.00077328376221552468 -0.00017572732661714049 0 0.00057876389004979563 -5.9443698964897876e-05 0 0.0005362305352211885 -0.00025284510156617541 0 0.00066313122625540673 -0.0001757553514016371 0 0.00076422177572596712 -0.00021525478070940263 0 0.0005362305352211885 -0.00025284510156617541 0 0.00076422177572596712 -0.00021525478070940263 0 0.0008692472917729583 -0.00037120849047705127 0 0.0009703843495853184 -0.00030904298759594517 0 0.0012826913664467986 -0.00026025047011805517 0 0.00076422177572596712 -0.00021525478070940263 0 0.00077415448128737116 -0.00017546927582537283 0 0.0008692472917729583 -0.00037120849047705127 0 0.00058151829958198525 -6.6129848801442168e-05 0 0.0012826913664467986 -0.00026025047011805517 0 0.00066313122625540673 -0.0001757553514016371 0 0.00076422177572596712 -0.00021525478070940263 0 0.00077328376221552468 -0.00017572732661714049 0 0.00059466222016822418 -9.8124452446030359e-05 0 0.00058151829958198525 -6.6129848801442168e-05 0 0.0012635525766453723 -3.6088051629037665e-05 0 0.0013170429949133332 -4.3699440920131443e-05 0 0.0012901318099681652 -7.0920512000044445e-05 0 0.0013403123851170905 -5.2098943129062344e-05 0 0.0013421828122228458 -8.1047636731959854e-05 0 0.0013248370734079257 -7.3320125638117676e-05 0 0.0014343599329903855 -0.00013140726937263799 0 0.0012826913664467986 -0.00026025047011805517 0 0.0013170429949133332 -4.3699440920131443e-05 0 0.0012901318099681652 -7.0920512000044445e-05 0 0.0013248370734079257 -7.3320125638117676e-05 0 0.0014962009480640386 -0.00022066595177487068 0 0.0015500475647160033 -0.0003255656024547715 0 0.0015888455477022004 -0.000267693858073883 0 0.0012826913664467986 -0.00026025047011805517 0 0.0013059443111200439 -9.5652568685518054e-05 0 0.0015500475647160033 -0.0003255656024547715 0 0.0015888455477022004 -0.000267693858073883 0 0.0016365100360880732 -0.00030370514254120072 0 0.0016771966414233694 -0.00037023167133495047 0 0.0015500475647160033 -0.0003255656024547715 0 0.0016365100360880732 -0.00030370514254120072 0 0.0016468581030632155 -0.00023998187176175269 0 0.0015888455477022004 -0.000267693858073883 0 0.0016365100360880732 -0.00030370514254120072 0 0.0020330564587013383 0.00028559045057359532 0 0.0020493519202197255 0.00029588059006777811 0 0.0020281497300645027 0.00034073460932556042 0 0.00078514600660569464 0.00023973498139111924 0 0.0013706971381352419 0.00049783873626284389 0 0.0020493519202197255 0.00029588059006777811 0 0.0020547920903463911 0.00032035468814530237 0 0.0020281497300645027 0.00034073460932556042 0 0.0020321182952227801 0.00025207373518268899 0 0.0020330564587013383 0.00028559045057359532 0 0.0020461872582579919 0.00027008210705641245 0 0.0020330564587013383 0.00028559045057359532 0 0.0020461872582579919 0.00027008210705641245 0 0.0020493519202197255 0.00029588059006777811 0 0.0020493519202197255 0.00029588059006777811 0 0.0020636566382932595 0.00027588631393421628 0 0.0020547920903463911 0.00032035468814530237 0 0.0020461872582579919 0.00027008210705641245 0 0.0020493519202197255 0.00029588059006777811 0 0.0020636566382932595 0.00027588631393421628 0 0.00021929102135499222 0.00023666985754945105 0 0.00020980435332600017 0.00022025802279732068 0 0.00020252238377685479 0.00022728074532052327 0 0.0011456480746261449 0.00027935233703648793 0 0.00078514600660569464 0.00023973498139111924 0 0.00020075372925291833 0.00022991842043744163 0 0.00019803652123904947 0.00022136277485066921 0 0.00018921309316740839 0.00022261230810239135 0 0.00078514600660569464 0.00023973498139111924 0 0.00016529054084732581 0.00025471379577772144 0 0.00020252238377685479 0.00022728074532052327 0 0.00018429072664592072 0.0002121761902893804 0 0.00018242259937471927 0.00021329335673888724 0 0.00019803652123904947 0.00022136277485066921 0 0.00020252238377685479 0.00022728074532052327 0 0.00018242259937471927 0.00021329335673888724 0 0.00020980435332600017 0.00022025802279732068 0 0.00019803652123904947 0.00022136277485066921 0 0.00020252238377685479 0.00022728074532052327 0 0.00021929102135499222 0.00023666985754945105 0 0.00020252238377685479 0.00022728074532052327 0 0.00020213313427348562 0.00023481930975699083 0 0.0018726754355319431 -4.025712357238778e-05 0 0.0017964712740070796 -0.00011432976364729467 0 0.0019020512429130684 -0.00011829119835552699 0 0.0017964712740070796 -0.00011432976364729467 0 0.0017925636941849531 -0.00019236764500778984 0 0.0019020512429130684 -0.00011829119835552699 0 0.0017925636941849531 -0.00019236764500778984 0 0.0019020512429130684 -0.00011829119835552699 0 0.0018256018720221141 -0.00026191242647818729 0 0.00098610947056877881 4.0380342050544562e-05 0 0.0010977483175364641 -3.1969672575141541e-05 0 0.00020252238377685479 0.00022728074532052327 0 0.00020213313427348562 0.00023481930975699083 0 0.00018429072664592072 0.0002121761902893804 0 0.00018429072664592072 0.0002121761902893804 0 0.00018201507860694891 0.00021349963442793377 0 0.00018242259937471927 0.00021329335673888724 0 0.00019344226616432937 0.00021603156715492881 0 0.00018201507860694891 0.00021349963442793377 0 0.00017422990510988391 0.00022721774826131572 0 0.00019344226616432937 0.00021603156715492881 0 0.00018429072664592072 0.0002121761902893804 0 0.00018201507860694891 0.00021349963442793377 0 0.00019270078315581772 0.00023979875084873353 0 -6.1042269946929653e-05 7.5043438178650691e-05 0 0.00018201507860694891 0.00021349963442793377 0 0.00015690333595259534 0.00020586275045301049 0 0.00017422990510988391 0.00022721774826131572 0 0.00015690333595259534 0.00020586275045301049 0 0.00014019094248570355 0.0001001166724370178 0 1.3775049517093977e-05 5.9332051534117699e-05 0 0.00015690333595259534 0.00020586275045301049 0 0.00018242259937471927 0.00021329335673888724 0 0.00018921309316740839 0.00022261230810239135 0 0.00018201507860694891 0.00021349963442793377 0 0.00015690333595259534 0.00020586275045301049 0 0.00018242259937471927 0.00021329335673888724 0 0.00019803652123904947 0.00022136277485066921 0 0.00018242259937471927 0.00021329335673888724 0 0.00018921309316740839 0.00022261230810239135 0 0.00020075372925291833 0.00022991842043744163 0 0.00018921309316740839 0.00022261230810239135 0 0.00022097286761289846 0.0002199581700919707 0 0.00078514600660569464 0.00023973498139111924 0 0.0002353116874458466 0.00034721614530158019 0 0.00015690333595259534 0.00020586275045301049 0 0.00018921309316740839 0.00022261230810239135 0 0.00022097286761289846 0.0002199581700919707 0 0.00015690333595259534 0.00020586275045301049 0 0.00014019094248570355 0.0001001166724370178 0 0.00026827629529747003 0.00015389238143636484 0 0.00015690333595259534 0.00020586275045301049 0 0.00022097286761289846 0.0002199581700919707 0 0.00026827629529747003 0.00015389238143636484 0 0.0002353116874458466 0.00034721614530158019 0 0.00026298130360574793 0.00015881390315952281 0 0.00022010036966048512 0.00038649828375791776 0 0.00026827629529747003 0.00015389238143636484 0 0.00038750646044770918 0.00029565803773631523 0 0.00026827629529747003 0.00015389238143636484 0 0.00038042660571361192 -5.9727733274077023e-05 0 0.00057860704703909264 0.00025280176325463103 0 0.00026827629529747003 0.00015389238143636484 0 0.00038750646044770918 0.00029565803773631523 0 0.00057860704703909264 0.00025280176325463103 0 0.00038750646044770918 0.00029565803773631523 0 0.00057860704703909264 0.00025280176325463103 0 0.00057324602541602434 0.00060451497044715125 0 0.00017402274410029174 0.00062671147815634965 0 0.00022010036966048512 0.00038649828375791776 0 0.00057324602541602434 0.00060451497044715125 0 0.00022010036966048512 0.00038649828375791776 0 0.00038750646044770918 0.00029565803773631523 0 0.00057324602541602434 0.00060451497044715125 0 0.00038042660571361192 -5.9727733274077023e-05 0 0.00012577260701936057 -0.00020400771137798104 0 0.00036268020281496891 -0.00040728650956616609 0 0.00038042660571361192 -5.9727733274077023e-05 0 0.00036268020281496891 -0.00040728650956616609 0 0.0005568853289006538 -0.00023998697507802836 0 0.00014019094248570355 0.0001001166724370178 0 0.00026827629529747003 0.00015389238143636484 0 0.00013888804945536725 -2.2996387377089446e-05 0 0.00026827629529747003 0.00015389238143636484 0 0.00038042660571361192 -5.9727733274077023e-05 0 0.00013888804945536725 -2.2996387377089446e-05 0 0.00013888804945536725 -2.2996387377089446e-05 0 0.00012577260701936057 -0.00020400771137798104 0 -0.00010306277399780733 -0.00016564602491451604 0 0.00038042660571361192 -5.9727733274077023e-05 0 0.00013888804945536725 -2.2996387377089446e-05 0 0.00012577260701936057 -0.00020400771137798104 0 -0.00010306277399780733 -0.00016564602491451604 0 -0.00032989834993329297 -0.00019534098676986223 0 -0.00013848695336965671 -0.00036384109796385242 0 0.00012577260701936057 -0.00020400771137798104 0 -0.00010306277399780733 -0.00016564602491451604 0 -0.00013848695336965671 -0.00036384109796385242 0 0.00011862864029682598 -1.5905978531112975e-05 0 -6.1042269946929653e-05 7.5043438178650691e-05 0 0.00014019094248570355 0.0001001166724370178 0 0.00013888804945536725 -2.2996387377089446e-05 0 1.3775049517093977e-05 5.9332051534117699e-05 0 0.00013888804945536725 -2.2996387377089446e-05 0 -0.00010306277399780733 -0.00016564602491451604 0 -0.00018422306382598306 7.2743750238304157e-05 0 -9.4039452528537238e-05 -4.5950090638247415e-05 0 -0.00016591767511443798 -0.00016966003491122126 0 -0.00021178418521486226 -7.5356403488749344e-05 0 0.00040424921393580703 6.4582155970977493e-05 0 -6.1042269946929653e-05 7.5043438178650691e-05 0 -6.1042269946929653e-05 7.5043438178650691e-05 0 -0.00026165734546324719 -0.00019468085465337102 0 -0.00022001559598897082 -1.5655803519066467e-05 0 -9.4039452528537238e-05 -4.5950090638247415e-05 0 -0.00021178418521486226 -7.5356403488749344e-05 0 -0.00010306277399780733 -0.00016564602491451604 0 -0.00018422306382598306 7.2743750238304157e-05 0 -0.00032989834993329297 -0.00019534098676986223 0 -0.00032989834993329297 -0.00019534098676986223 0 -0.00029775715316239217 -0.00040155660404220397 0 -0.00013848695336965671 -0.00036384109796385242 0 -0.00029775715316239217 -0.00040155660404220397 0 -0.00032362800750716575 -0.00047802454345109024 0 -0.00019675956720590664 -0.00046089596359543924 0 -0.00029775715316239217 -0.00040155660404220397 0 -0.00038325856093397931 -0.00044240094443127333 0 -0.00032362800750716575 -0.00047802454345109024 0 -0.00029775715316239217 -0.00040155660404220397 0 -0.00013848695336965671 -0.00036384109796385242 0 -0.00019675956720590664 -0.00046089596359543924 0 0.00012577260701936057 -0.00020400771137798104 0 -0.00013848695336965671 -0.00036384109796385242 0 0.00036268020281496891 -0.00040728650956616609 0 -0.00010999183310559028 -0.00036578976724921776 0 0.00019289669274205937 -0.00033128188981470521 0 -0.00013848695336965671 -0.00036384109796385242 0 8.1008197532515285e-06 -0.00042972240402437424 0 1.8636768340941505e-05 -0.00026774631488107648 0 -0.00013848695336965671 -0.00036384109796385242 0 8.1008197532515285e-06 -0.00042972240402437424 0 -0.00019675956720590664 -0.00046089596359543924 0 8.1008197532515285e-06 -0.00042972240402437424 0 1.8636768340941505e-05 -0.00026774631488107648 0 0.00026530688123308735 -0.00037364161301470011 0 -0.00011433786474248229 3.5639728071638131e-07 0 -0.00011366081399008072 3.2535247637086956e-05 0 -9.8450010441237048e-05 2.1525051813138667e-05 0 -0.00011433786474248229 3.5639728071638131e-07 0 -9.8450010441237048e-05 2.1525051813138667e-05 0 -0.00012725954017384162 -7.0652439996012295e-05 0 -0.00011433786474248229 3.5639728071638131e-07 0 -0.00015984967158412557 9.1428501932704299e-06 0 -0.00017033443695791466 7.718612548777153e-05 0 -0.00024104986690430088 0.00011388298961104192 0 0.0005393851890797669 2.2195600714777655e-05 0 -0.00011433786474248229 3.5639728071638131e-07 0 -0.00015984967158412557 9.1428501932704299e-06 0 -0.00015637889753633552 -2.8953526580295761e-05 0 -0.00015984967158412557 9.1428501932704299e-06 0 -0.00019993588298225105 -1.0867145928029884e-05 0 -0.00015637889753633552 -2.8953526580295761e-05 0 0.00040270505811927681 1.2346484642041241e-05 0 0.0005393851890797669 2.2195600714777655e-05 0 0.0010138010583745601 3.0807945273930872e-05 0 0.0010318890598963563 9.1823296552695274e-06 0 0.0010125197070518037 1.2079079173871109e-05 0 0.0010138010583745601 3.0807945273930872e-05 0 0.0010318890598963563 9.1823296552695274e-06 0 0.0010369858529817246 2.1317736066808073e-05 0 -0.00015984967158412557 9.1428501932704299e-06 0 -0.00019993588298225105 -1.0867145928029884e-05 0 -0.00017033443695791466 7.718612548777153e-05 0 0.0012635525766453723 -3.6088051629037665e-05 0 0.0013170429949133332 -4.3699440920131443e-05 0 0.0012699890857334449 8.6872821081339215e-06 0 0.0010382981643798331 -3.4339441088423245e-06 0 0.0010318890598963563 9.1823296552695274e-06 0 0.0010125197070518037 1.2079079173871109e-05 0 0.0012589586968413935 -6.0439286488931179e-05 0 0.0005393851890797669 2.2195600714777655e-05 0 0.00058151829958198525 -6.6129848801442168e-05 0 4.5510136943260364e-05 1.3672364015995509e-06 0 0.00058151829958198525 -6.6129848801442168e-05 0 0.0005393851890797669 2.2195600714777655e-05 0 -0.00010343305620762335 4.8865831686641133e-05 0 -0.00011366081399008072 3.2535247637086956e-05 0 -9.8450010441237048e-05 2.1525051813138667e-05 0 0.00077328376221552468 -0.00017572732661714049 0 0.00057876389004979563 -5.9443698964897876e-05 0 0.00061924728911061074 0.00013242171551070209 0 -0.00020810518172928905 -3.7929520234489814e-05 0 -0.00017602927055249129 -1.7524507772876419e-05 0 -0.00016962930893026255 -5.0130767636125817e-05 0 -0.00020810518172928905 -3.7929520234489814e-05 0 -0.00020105437440984966 -6.3299633146264778e-05 0 -0.00016962930893026255 -5.0130767636125817e-05 0 0.00020852964638285227 -4.5128703781756457e-05 0 4.5510136943260364e-05 1.3672364015995509e-06 0 -0.00020810518172928905 -3.7929520234489814e-05 0 -0.00020105437440984966 -6.3299633146264778e-05 0 -0.00022417609498829707 -8.2241795362407989e-05 0 -0.00013973677407692114 -3.9472460233693316e-06 0 -0.00017602927055249129 -1.7524507772876419e-05 0 -0.00016962930893026255 -5.0130767636125817e-05 0 0.00040424921393580703 6.4582155970977493e-05 0 -0.00019682931443411862 -0.00011001385994059653 0 -0.00022001559598897082 -1.5655803519066467e-05 0 -0.00022315156216791798 -7.2834525654590047e-05 0 -0.00021178418521486226 -7.5356403488749344e-05 0 -0.00021997337747479289 -8.3796014073215407e-05 0 -0.0002692578426611015 -0.0001500848763051769 0 -0.00016591767511443798 -0.00016966003491122126 0 -0.00021178418521486226 -7.5356403488749344e-05 0 -0.00033892946202677922 -0.00020739253234975196 0 -0.00022315156216791798 -7.2834525654590047e-05 0 -0.00021178418521486226 -7.5356403488749344e-05 0 -0.00020322126311574394 -9.3657433183348527e-05 0 -0.00022315156216791798 -7.2834525654590047e-05 0 -0.00020322126311574394 -9.3657433183348527e-05 0 -0.0002074224103963212 -8.7668746728631879e-05 0 -0.00020105437440984966 -6.3299633146264778e-05 0 -0.00022417609498829707 -8.2241795362407989e-05 0 -0.0002074224103963212 -8.7668746728631879e-05 0 -0.00019682931443411862 -0.00011001385994059653 0 -0.00019733172459494803 -6.9309124766240047e-05 0 -0.00020105437440984966 -6.3299633146264778e-05 0 -0.00016962930893026255 -5.0130767636125817e-05 0 -0.0002074224103963212 -8.7668746728631879e-05 0 -0.00020322126311574394 -9.3657433183348527e-05 0 -0.0002074224103963212 -8.7668746728631879e-05 0 -0.00021924719620727663 -9.8065919061989657e-05 0 4.5510136943260364e-05 1.3672364015995509e-06 0 -0.00010709908869801897 -3.6557550175204944e-05 0 -0.00022417609498829707 -8.2241795362407989e-05 0 -0.0002074224103963212 -8.7668746728631879e-05 0 -0.00021924719620727663 -9.8065919061989657e-05 0 -0.00020322126311574394 -9.3657433183348527e-05 0 -0.00022517253003131069 -0.00012073979839588927 0 -0.00022467619353771056 -0.00014609502800800995 0 -0.00021924719620727663 -9.8065919061989657e-05 0 -0.00022517253003131069 -0.00012073979839588927 0 -0.00024597577367517796 -0.00013391569089276736 0 -0.00033892946202677922 -0.00020739253234975196 0 -0.00029537426751118155 -0.00033338138180436427 0 -0.00044927334068787091 -0.00035930855920338365 0 -0.00020322126311574394 -9.3657433183348527e-05 0 -0.00021924719620727663 -9.8065919061989657e-05 0 -0.00022517253003131069 -0.00012073979839588927 0 -0.0002692578426611015 -0.0001500848763051769 0 -0.00034545049158579542 -0.00026493786375355287 0 -0.00032989834993329297 -0.00019534098676986223 0 -0.00029775715316239217 -0.00040155660404220397 0 -0.00041331810750678383 -0.00035774904499625507 0 -0.00016591767511443798 -0.00016966003491122126 0 -0.00033892946202677922 -0.00020739253234975196 0 -0.00029537426751118155 -0.00033338138180436427 0 -0.00026165734546324719 -0.00019468085465337102 0 -0.00035054723758951711 -0.00033907599173055536 0 -0.00041331810750678383 -0.00035774904499625507 0 -0.00038325856093397931 -0.00044240094443127333 0 -0.00043512661679133468 -0.00045654198747563808 0 -0.00029775715316239217 -0.00040155660404220397 0 -0.00041331810750678383 -0.00035774904499625507 0 -0.00038325856093397931 -0.00044240094443127333 0 -0.00035054723758951711 -0.00033907599173055536 0 -0.00042781398383344541 -0.00044745021926273905 0 -0.00029537426751118155 -0.00033338138180436427 0 -0.00044927334068787091 -0.00035930855920338365 0 -0.00043512661679133468 -0.00045654198747563808 0 -0.00044927334068787091 -0.00035930855920338365 0 -0.00046222509115310592 -0.0004191134751954277 0 -0.00043512661679133468 -0.00045654198747563808 0 -0.00046222509115310592 -0.0004191134751954277 0 -0.0004643931071286302 -0.00045507444082613734 0 -0.00043512661679133468 -0.00045654198747563808 0 -0.00019510471905673915 -9.7764955354877301e-05 0 -0.00031039276897603171 -0.00028684531873596539 0 -0.00044927334068787091 -0.00035930855920338365 0 -0.00046222509115310592 -0.0004191134751954277 0 -0.0004882292623935874 -0.00046816635107026894 0 -0.00034545049158579542 -0.00026493786375355287 0 -0.00031039276897603171 -0.00028684531873596539 0 -0.00046222509115310592 -0.0004191134751954277 0 -0.0004643931071286302 -0.00045507444082613734 0 -0.00047275007004678258 -0.00045381498614768107 0 -0.00022467619353771056 -0.00014609502800800995 0 -0.00024597577367517796 -0.00013391569089276736 0 -0.00026587455559919164 -0.00021129513410217404 0 -0.00017992146475668638 -0.0001325054372430767 0 -0.00012725954017384162 -7.0652439996012295e-05 0 -0.00016131681502494258 -0.00021550771016727119 0 -0.00046222509115310592 -0.0004191134751954277 0 -0.00047275007004678258 -0.00045381498614768107 0 -0.0004882292623935874 -0.00046816635107026894 0 -0.00019361241090450239 -0.00017191880208112563 0 -0.00017992146475668638 -0.0001325054372430767 0 -0.00016131681502494258 -0.00021550771016727119 0 -0.000228191111823139 -7.5616601984686684e-05 0 -0.00021924719620727663 -9.8065919061989657e-05 0 -0.00024597577367517796 -0.00013391569089276736 0 -0.00011433786474248229 3.5639728071638131e-07 0 -0.00012725954017384162 -7.0652439996012295e-05 0 -0.00015637889753633552 -2.8953526580295761e-05 0 -0.00022517253003131069 -0.00012073979839588927 0 -0.00022467619353771056 -0.00014609502800800995 0 -0.00024597577367517796 -0.00013391569089276736 0 4.5510136943260364e-05 1.3672364015995509e-06 0 -0.00019510471905673915 -9.7764955354877301e-05 0 -0.00012725954017384162 -7.0652439996012295e-05 0 -0.00018128004914475714 -6.7144420235369255e-05 0 -0.00015637889753633552 -2.8953526580295761e-05 0 -0.00017992146475668638 -0.0001325054372430767 0 -0.00012725954017384162 -7.0652439996012295e-05 0 -0.00018128004914475714 -6.7144420235369255e-05 0 -0.00019993588298225105 -1.0867145928029884e-05 0 -0.00018128004914475714 -6.7144420235369255e-05 0 -0.00015637889753633552 -2.8953526580295761e-05 0 0.00040270505811927681 1.2346484642041241e-05 0 0.0004248611749750979 -5.5459804860235214e-05 0 0.0004248611749750979 -5.5459804860235214e-05 0 0.0011138040221382226 3.0421886996128038e-06 0 -0.00019993588298225105 -1.0867145928029884e-05 0 -0.00018128004914475714 -6.7144420235369255e-05 0 -0.0002402868858767992 -0.00010081714004459991 0 0.0010138010583745601 3.0807945273930872e-05 0 0.0010132864105656836 4.9784332197960969e-05 0 0.0010369858529817246 2.1317736066808073e-05 0 0.0004248611749750979 -5.5459804860235214e-05 0 -0.00029603146916617909 -0.00011423856359831351 0 -0.00019361241090450239 -0.00017191880208112563 0 -0.0002402868858767992 -0.00010081714004459991 0 -0.00022951419726254403 -0.00021175730786831957 0 -0.00031718998476783363 -2.9265286060317879e-06 0 -0.00022951419726254403 -0.00021175730786831957 0 -0.00034329708909719382 -0.00028148180257256893 0 0.0004248611749750979 -5.5459804860235214e-05 0 0.00013218610281612341 -0.00019286228376623287 0 -0.00019361241090450239 -0.00017191880208112563 0 -0.00017992146475668638 -0.0001325054372430767 0 -0.0002402868858767992 -0.00010081714004459991 0 -0.00017992146475668638 -0.0001325054372430767 0 -0.00018128004914475714 -6.7144420235369255e-05 0 -0.0002402868858767992 -0.00010081714004459991 0 0.0010337749861892239 -3.9387961055762689e-05 0 0.0009790513966487066 -6.6233787689972778e-05 0 0.00098209874276060285 -1.5089337036906402e-05 0 0.0010337749861892239 -3.9387961055762689e-05 0 0.0009790513966487066 -6.6233787689972778e-05 0 0.0010126081888801577 -0.00012166164978295367 0 0.0009790513966487066 -6.6233787689972778e-05 0 0.00097469004697511418 -0.00012616977451718496 0 0.0010126081888801577 -0.00012166164978295367 0 0.0009790513966487066 -6.6233787689972778e-05 0 0.00097469004697511418 -0.00012616977451718496 0 0.00091384541022612774 -0.0001159285976592252 0 0.000927970898246202 2.6252971886433101e-06 0 0.0008306783670031121 -0.00010773289521745491 0 0.00091384541022612774 -0.0001159285976592252 0 0.0009790513966487066 -6.6233787689972778e-05 0 0.000927970898246202 2.6252971886433101e-06 0 0.00091384541022612774 -0.0001159285976592252 0 0.000927970898246202 2.6252971886433101e-06 0 0.00098209874276060285 -1.5089337036906402e-05 0 0.00098083835768071658 -8.2324622863202608e-06 0 0.0009790513966487066 -6.6233787689972778e-05 0 0.000927970898246202 2.6252971886433101e-06 0 0.00098209874276060285 -1.5089337036906402e-05 0 0.0010337749861892239 -3.9387961055762689e-05 0 0.00098209874276060285 -1.5089337036906402e-05 0 0.00099358444867090863 -1.5156076198893756e-08 0 0.00098209874276060285 -1.5089337036906402e-05 0 0.00099358444867090863 -1.5156076198893756e-08 0 0.00098083835768071658 -8.2324622863202608e-06 0 0.00099358444867090863 -1.5156076198893756e-08 0 0.00098083835768071658 -8.2324622863202608e-06 0 0.0010228668012504923 -1.7768396721152779e-05 0 0.0010228668012504923 -1.7768396721152779e-05 0 0.0010528679858138182 -3.1484003473355973e-06 0 0.0010570132123874035 -7.5591877674899694e-06 0 0.00099358444867090863 -1.5156076198893756e-08 0 0.0010228668012504923 -1.7768396721152779e-05 0 0.0010528679858138182 -3.1484003473355973e-06 0 0.0011138040221382226 3.0421886996128038e-06 0 0.0010166358015973999 7.7947775399241615e-06 0 0.0010318890598963563 9.1823296552695274e-06 0 0.0010369858529817246 2.1317736066808073e-05 0 0.0010528679858138182 -3.1484003473355973e-06 0 0.00098083835768071658 -8.2324622863202608e-06 0 0.0010228668012504923 -1.7768396721152779e-05 0 0.0010220061764177684 -4.142919545373623e-05 0 0.0010228668012504923 -1.7768396721152779e-05 0 0.0010415650364785293 -3.112308499296287e-05 0 0.0010570132123874035 -7.5591877674899694e-06 0 0.0010228668012504923 -1.7768396721152779e-05 0 0.0010415650364785293 -3.112308499296287e-05 0 0.0010220061764177684 -4.142919545373623e-05 0 0.0010415650364785293 -3.112308499296287e-05 0 0.0010220061764177684 -4.142919545373623e-05 0 0.00095916211267137836 -0.00010484359379430345 0 0.0005832163413532496 0.00013368952085218415 0 0.00054839585320054052 -3.5609553999636622e-05 0 0.00043444322383454184 5.1438997711121685e-05 0 0.000927970898246202 2.6252971886433101e-06 0 0.00098083835768071658 -8.2324622863202608e-06 0 0.0010220061764177684 -4.142919545373623e-05 0 0.00092319573864564392 4.3954472009522933e-06 0 0.00080331514117700994 3.7718740137487038e-05 0 0.000927970898246202 2.6252971886433101e-06 0 0.0005832163413532496 0.00013368952085218415 0 0.00069470401191750917 -0.00010313924781383682 0 0.000927970898246202 2.6252971886433101e-06 0 0.00069470401191750917 -0.00010313924781383682 0 0.0008306783670031121 -0.00010773289521745491 0 0.0005832163413532496 0.00013368952085218415 0 0.00069470401191750917 -0.00010313924781383682 0 0.00054839585320054052 -3.5609553999636622e-05 0 0.00069470401191750917 -0.00010313924781383682 0 0.00054839585320054052 -3.5609553999636622e-05 0 0.00058143217257276641 -0.00015365666997592186 0 0.00054839585320054052 -3.5609553999636622e-05 0 0.00043444322383454184 5.1438997711121685e-05 0 0.00046570488495490829 -0.00010500067705080983 0 0.00030684572237120504 -3.5647607144655426e-05 0 0.00043444322383454184 5.1438997711121685e-05 0 0.00046570488495490829 -0.00010500067705080983 0 0.00030684572237120504 -3.5647607144655426e-05 0 0.00033553242074653292 4.6010014316094583e-05 0 0.0001642968499988924 6.3696824059653776e-06 0 0.00030684572237120504 -3.5647607144655426e-05 0 0.00033553242074653292 4.6010014316094583e-05 0 0.00043444322383454184 5.1438997711121685e-05 0 0.00033553242074653292 4.6010014316094583e-05 0 0.00043444322383454184 5.1438997711121685e-05 0 0.00039685215082418561 9.0169915029952738e-05 0 0.00033553242074653292 4.6010014316094583e-05 0 0.00038533073079173087 4.735697501661224e-05 0 0.00039685215082418561 9.0169915029952738e-05 0 0.0005832163413532496 0.00013368952085218415 0 0.00043444322383454184 5.1438997711121685e-05 0 0.00039685215082418561 9.0169915029952738e-05 0 0.00011832632945568004 4.8797255269585165e-08 0 0.0001642968499988924 6.3696824059653776e-06 0 0.00038533073079173087 4.735697501661224e-05 0 0.00033553242074653292 4.6010014316094583e-05 0 0.0001642968499988924 6.3696824059653776e-06 0 0.00038533073079173087 4.735697501661224e-05 0 0.00011832632945568004 4.8797255269585165e-08 0 0.00038533073079173087 4.735697501661224e-05 0 0.00041058351083151176 2.0024686066182511e-08 0 0.00038533073079173087 4.735697501661224e-05 0 0.00041058351083151176 2.0024686066182511e-08 0 0.00064185945804148294 -2.3969414981827439e-05 0 0.00038533073079173087 4.735697501661224e-05 0 0.00064185945804148294 -2.3969414981827439e-05 0 0.00039685215082418561 9.0169915029952738e-05 0 0.00041058351083151176 2.0024686066182511e-08 0 0.00064185945804148294 -2.3969414981827439e-05 0 0.00070274235372800307 -1.0104093329294609e-08 0 0.00080331514117700994 3.7718740137487038e-05 0 0.00068064326346190722 -1.9506037986102309e-06 0 0.00063995458963078927 -1.9689191037792496e-05 0 0.00068064326346190722 -1.9506037986102309e-06 0 0.00064185945804148294 -2.3969414981827439e-05 0 0.00095916211267137836 -0.00010484359379430345 0 0.00099779103866131508 1.3950643372420813e-05 0 0.0010415650364785293 -3.112308499296287e-05 0 0.00095916211267137836 -0.00010484359379430345 0 0.00099779103866131508 1.3950643372420813e-05 0 0.00099779103866131508 1.3950643372420813e-05 0 0.0010810898514189487 2.5782549724430688e-05 0 0.0010740532008263251 6.518408282497611e-06 0 0.00099779103866131508 1.3950643372420813e-05 0 0.0009080188547130999 2.9800902083536239e-05 0 0.0010698532440443719 4.1689983005650715e-05 0 0.00099779103866131508 1.3950643372420813e-05 0 0.0010810898514189487 2.5782549724430688e-05 0 0.0010698532440443719 4.1689983005650715e-05 0 0.00064185945804148294 -2.3969414981827439e-05 0 0.00070274235372800307 -1.0104093329294609e-08 0 0.0009080188547130999 2.9800902083536239e-05 0 0.00064185945804148294 -2.3969414981827439e-05 0 0.00099779103866131508 1.3950643372420813e-05 0 0.0009080188547130999 2.9800902083536239e-05 0 0.00070274235372800307 -1.0104093329294609e-08 0 0.0009080188547130999 2.9800902083536239e-05 0 0.00099497246128597253 7.1699573005561393e-08 0 0.0009080188547130999 2.9800902083536239e-05 0 0.00099497246128597253 7.1699573005561393e-08 0 0.0011450797096328286 3.9746068706570566e-05 0 0.0009080188547130999 2.9800902083536239e-05 0 0.0011450797096328286 3.9746068706570566e-05 0 0.0010698532440443719 4.1689983005650715e-05 0 0.0012871311477459693 7.3535392175623807e-08 0 0.00099497246128597253 7.1699573005561393e-08 0 0.0011450797096328286 3.9746068706570566e-05 0 0.0010698532440443719 4.1689983005650715e-05 0 0.0011616001518796066 3.9640644193799459e-05 0 0.0011434622352523461 2.8040447668156257e-05 0 0.0010810898514189487 2.5782549724430688e-05 0 0.0010698532440443719 4.1689983005650715e-05 0 0.0011434622352523461 2.8040447668156257e-05 0 0.0011450797096328286 3.9746068706570566e-05 0 0.0010698532440443719 4.1689983005650715e-05 0 0.0011616001518796066 3.9640644193799459e-05 0 0.0012624299303320347 5.1833600273837625e-05 0 0.0011450797096328286 3.9746068706570566e-05 0 0.0011616001518796066 3.9640644193799459e-05 0 0.0012624299303320347 5.1833600273837625e-05 0 0.0012046352922337801 3.5437327764754831e-05 0 0.0011616001518796066 3.9640644193799459e-05 0 0.0012046352922337801 3.5437327764754831e-05 0 0.0011616001518796066 3.9640644193799459e-05 0 0.0011434622352523461 2.8040447668156257e-05 0 0.0012046352922337801 3.5437327764754831e-05 0 0.0011434622352523461 2.8040447668156257e-05 0 0.0012237181287045973 6.3613659600697226e-06 0 0.0010810898514189487 2.5782549724430688e-05 0 0.0011434622352523461 2.8040447668156257e-05 0 0.0011206023714581603 1.8890266494033235e-05 0 0.0011434622352523461 2.8040447668156257e-05 0 0.0011206023714581603 1.8890266494033235e-05 0 0.0012237181287045973 6.3613659600697226e-06 0 0.0011206023714581603 1.8890266494033235e-05 0 0.0012237181287045973 6.3613659600697226e-06 0 0.001111336720135181 7.3411821218742811e-06 0 0.0012130180014233388 6.5250909681034277e-06 0 0.0012051738418616916 -2.09935008929934e-05 0 0.0013053626264153176 8.8235981425873063e-06 0 0.0012237181287045973 6.3613659600697226e-06 0 0.0012947840955179657 -5.4266326974888265e-05 0 0.0013053626264153176 8.8235981425873063e-06 0 0.001340839174675136 -5.7616661542421863e-06 0 0.0012947840955179657 -5.4266326974888265e-05 0 0.001340839174675136 -5.7616661542421863e-06 0 0.0013241922320361098 -5.5992562353321287e-05 0 0.0012947840955179657 -5.4266326974888265e-05 0 0.0013403123851170905 -5.2098943129062344e-05 0 0.001340839174675136 -5.7616661542421863e-06 0 0.0013241922320361098 -5.5992562353321287e-05 0 0.0014343599329903855 -0.00013140726937263799 0 0.0013832032000373677 -5.4622938037379468e-05 0 0.0013403123851170905 -5.2098943129062344e-05 0 0.0013241922320361098 -5.5992562353321287e-05 0 0.0013248370734079257 -7.3320125638117676e-05 0 0.0013241922320361098 -5.5992562353321287e-05 0 0.0012947840955179657 -5.4266326974888265e-05 0 0.0013254281927853587 -7.2895611422091653e-05 0 0.0012051738418616916 -2.09935008929934e-05 0 0.0011807699702139887 -2.2946866156909763e-05 0 0.0010819278089446722 7.0792415336494698e-06 0 0.0010658818141945001 -7.396787466081818e-07 0 0.0010528679858138182 -3.1484003473355973e-06 0 0.001111336720135181 7.3411821218742811e-06 0 0.0010819278089446722 7.0792415336494698e-06 0 0.0010658818141945001 -7.396787466081818e-07 0 0.0013170429949133332 -4.3699440920131443e-05 0 0.0013254281927853587 -7.2895611422091653e-05 0 0.0013248370734079257 -7.3320125638117676e-05 0 0.0013241922320361098 -5.5992562353321287e-05 0 0.0013254281927853587 -7.2895611422091653e-05 0 0.0013248370734079257 -7.3320125638117676e-05 0 0.0010382981643798331 -3.4339441088423245e-06 0 0.0010318890598963563 9.1823296552695274e-06 0 0.0010528679858138182 -3.1484003473355973e-06 0 0.0012589586968413935 -6.0439286488931179e-05 0 0.0011807699702139887 -2.2946866156909763e-05 0 0.0010382981643798331 -3.4339441088423245e-06 0 0.0010658818141945001 -7.396787466081818e-07 0 0.0010528679858138182 -3.1484003473355973e-06 0 0.0010819278089446722 7.0792415336494698e-06 0 0.0010528679858138182 -3.1484003473355973e-06 0 0.0010570132123874035 -7.5591877674899694e-06 0 0.0010415650364785293 -3.112308499296287e-05 0 0.0010570132123874035 -7.5591877674899694e-06 0 0.0010740532008263251 6.518408282497611e-06 0 0.0010819278089446722 7.0792415336494698e-06 0 0.0010570132123874035 -7.5591877674899694e-06 0 0.0010740532008263251 6.518408282497611e-06 0 0.0010415650364785293 -3.112308499296287e-05 0 0.00099779103866131508 1.3950643372420813e-05 0 0.0010740532008263251 6.518408282497611e-06 0 0.0010810898514189487 2.5782549724430688e-05 0 0.0011206023714581603 1.8890266494033235e-05 0 0.0010740532008263251 6.518408282497611e-06 0 0.0011206023714581603 1.8890266494033235e-05 0 0.001111336720135181 7.3411821218742811e-06 0 0.0010819278089446722 7.0792415336494698e-06 0 0.0011206023714581603 1.8890266494033235e-05 0 0.0010819278089446722 7.0792415336494698e-06 0 0.0010740532008263251 6.518408282497611e-06 0 0.0020413774893231085 -0.00014645061021690758 0 0.0019069860591302838 -0.00021187224058698834 0 0.0019048296322506945 -0.00020409621726115261 0 0.0019217854762336405 -0.00026156362559567252 0 0.0018885887102436391 -0.00021222834249551628 0 0.0021813712432684471 -0.00010223185568075637 0 0.0018885887102436391 -0.00021222834249551628 0 0.0020158871044829449 -1.894572143329073e-05 0 0.0019048296322506945 -0.00020409621726115261 0 0.0020250137949226663 -0.00018823845696890837 0 0.0019963061594566599 -0.00027150354010735308 0 0.0019048296322506945 -0.00020409621726115261 0 0.0019217854762336405 -0.00026156362559567252 0 0.0019963061594566599 -0.00027150354010735308 0 0.0019217854762336405 -0.00026156362559567252 0 0.0019724506767018254 -0.00031309822418901489 0 0.0019391473454291749 -0.00031635278183202034 0 0.0019217854762336405 -0.00026156362559567252 0 0.0019963061594566599 -0.00027150354010735308 0 0.0019724506767018254 -0.00031309822418901489 0 0.0019217854762336405 -0.00026156362559567252 0 0.0018995141690747337 -0.00028580231733349551 0 0.0019391473454291749 -0.00031635278183202034 0 0.0018995141690747337 -0.00028580231733349551 0 0.0018885887102436391 -0.00021222834249551628 0 0.0018448134497732753 -0.00031339772916174496 0 0.0019217854762336405 -0.00026156362559567252 0 0.0018995141690747337 -0.00028580231733349551 0 0.0018885887102436391 -0.00021222834249551628 0 0.0018885887102436391 -0.00021222834249551628 0 0.0017436092548124157 -0.00021386711142334271 0 0.0018448134497732753 -0.00031339772916174496 0 0.0018885887102436391 -0.00021222834249551628 0 0.0017436092548124157 -0.00021386711142334271 0 0.0018218313093785303 -2.5126928972478396e-05 0 0.0017436092548124157 -0.00021386711142334271 0 0.0018218313093785303 -2.5126928972478396e-05 0 0.0016226777561377686 -8.942876547521407e-05 0 0.0018885887102436391 -0.00021222834249551628 0 0.0020158871044829449 -1.894572143329073e-05 0 0.0018218313093785303 -2.5126928972478396e-05 0 0.0020158871044829449 -1.894572143329073e-05 0 0.0018218313093785303 -2.5126928972478396e-05 0 0.0019756177672565541 0.00014384720664858337 0 0.0018218313093785303 -2.5126928972478396e-05 0 0.0017717363280470642 0.00014112371396843754 0 0.0016663890183369777 8.072252813599333e-05 0 0.0018218313093785303 -2.5126928972478396e-05 0 0.0017717363280470642 0.00014112371396843754 0 0.0019756177672565541 0.00014384720664858337 0 0.0017717363280470642 0.00014112371396843754 0 0.0019756177672565541 0.00014384720664858337 0 0.0018185561397790636 0.00029457747413741186 0 0.0019756177672565541 0.00014384720664858337 0 0.0022152677649989504 7.8448770949542899e-05 0 0.00224925991042558 0.00015965313572710471 0 0.0020158871044829449 -1.894572143329073e-05 0 0.0019756177672565541 0.00014384720664858337 0 0.0022152677649989504 7.8448770949542899e-05 0 0.0021813712432684471 -0.00010223185568075637 0 0.0020158871044829449 -1.894572143329073e-05 0 0.0022152677649989504 7.8448770949542899e-05 0 0.0021813712432684471 -0.00010223185568075637 0 0.0022152677649989504 7.8448770949542899e-05 0 0.0023733413429322834 1.5866673823104457e-05 0 0.0020413774893231085 -0.00014645061021690758 0 0.0021866832654246393 -3.5840603612338636e-05 0 0.0019048296322506945 -0.00020409621726115261 0 0.0020250137949226663 -0.00018823845696890837 0 0.0019974886309548643 -8.9554191663541934e-05 0 0.0022152677649989504 7.8448770949542899e-05 0 0.00224925991042558 0.00015965313572710471 0 0.0023719523147457296 0.00011976587553708251 0 0.0022152677649989504 7.8448770949542899e-05 0 0.0023733413429322834 1.5866673823104457e-05 0 0.0023719523147457296 0.00011976587553708251 0 0.0023334437829195757 7.9346658102886404e-05 0 0.0021866832654246393 -3.5840603612338636e-05 0 0.0024707872607600285 0.00011391759846140622 0 0.0023733413429322834 1.5866673823104457e-05 0 0.0023719523147457296 0.00011976587553708251 0 0.0021954562400341815 5.7011022441361283e-05 0 0.0021639778603130969 -0.00012352149230942009 0 0.0023254313578357274 -7.9405767552370555e-05 0 0.0021954562400341815 5.7011022441361283e-05 0 0.0021639778603130969 -0.00012352149230942009 0 0.0019974886309548643 -8.9554191663541934e-05 0 0.0021639778603130969 -0.00012352149230942009 0 0.0020250137949226663 -0.00018823845696890837 0 0.002130014118300075 -0.00023543172191417915 0 0.0021639778603130969 -0.00012352149230942009 0 0.0023420424342045706 -0.00018950448099607699 0 0.002130014118300075 -0.00023543172191417915 0 0.0021639778603130969 -0.00012352149230942009 0 0.0020250137949226663 -0.00018823845696890837 0 0.0019974886309548643 -8.9554191663541934e-05 0 0.0025256730380498128 -1.8445481382848392e-05 0 0.0025435575990883311 3.8373213493227085e-05 0 0.0024430028496788157 1.9778026742102154e-05 0 0.0025435575990883311 3.8373213493227085e-05 0 0.0024430028496788157 1.9778026742102154e-05 0 0.0025237096861941335 9.3108885873761517e-05 0 0.0025256730380498128 -1.8445481382848392e-05 0 0.0024430028496788157 1.9778026742102154e-05 0 0.0024460937434393482 -8.942732122267019e-05 0 0.0021954562400341815 5.7011022441361283e-05 0 0.0024430028496788157 1.9778026742102154e-05 0 0.0023254313578357274 -7.9405767552370555e-05 0 0.0024430028496788157 1.9778026742102154e-05 0 0.0023254313578357274 -7.9405767552370555e-05 0 0.0024460937434393482 -8.942732122267019e-05 0 0.0021639778603130969 -0.00012352149230942009 0 0.0023254313578357274 -7.9405767552370555e-05 0 0.0023420424342045706 -0.00018950448099607699 0 0.0023254313578357274 -7.9405767552370555e-05 0 0.0023420424342045706 -0.00018950448099607699 0 0.0024460937434393482 -8.942732122267019e-05 0 0.0023420424342045706 -0.00018950448099607699 0 0.0024460937434393482 -8.942732122267019e-05 0 0.0024849219290557613 -0.00019679017347321113 0 0.0024460937434393482 -8.942732122267019e-05 0 0.0024849219290557613 -0.00019679017347321113 0 0.0025522522023162871 -8.7032835412930785e-05 0 0.0025256730380498128 -1.8445481382848392e-05 0 0.0024460937434393482 -8.942732122267019e-05 0 0.0025522522023162871 -8.7032835412930785e-05 0 0.0018410698046426052 -0.00059781310871565626 0 0.0018381294658656867 -0.00053021058531498488 0 0.0019231325745378432 -0.0005447265009638425 0 0.0018410698046426052 -0.00059781310871565626 0 0.0018381294658656867 -0.00053021058531498488 0 0.0017917086165529375 -0.00058071028515593003 0 0.0021433268698456934 -0.00041257389938916087 0 0.0021161220477639055 -0.00041816058002704489 0 0.0023420424342045706 -0.00018950448099607699 0 0.0023023021881410882 -0.000313830612122355 0 0.002130014118300075 -0.00023543172191417915 0 0.0023420424342045706 -0.00018950448099607699 0 0.0024849219290557613 -0.00019679017347321113 0 0.0023023021881410882 -0.000313830612122355 0 0.0021161220477639055 -0.00041816058002704489 0 0.0020706794814866749 -0.00041762459446444713 0 0.0019231325745378432 -0.0005447265009638425 0 0.0019544224238255662 -0.0004646815794161007 0 0.0020579287762027025 -0.00041001484294298326 0 0.0019544224238255662 -0.0004646815794161007 0 0.0019853278604847324 -0.00042662967327344658 0 0.0018902275553753399 -0.00046311155400791625 0 0.0019544224238255662 -0.0004646815794161007 0 0.0019853278604847324 -0.00042662967327344658 0 0.0020579287762027025 -0.00041001484294298326 0 0.0019231325745378432 -0.0005447265009638425 0 0.0019544224238255662 -0.0004646815794161007 0 0.0018902275553753399 -0.00046311155400791625 0 0.0018381294658656867 -0.00053021058531498488 0 0.0019231325745378432 -0.0005447265009638425 0 0.0018902275553753399 -0.00046311155400791625 0 0.0018381294658656867 -0.00053021058531498488 0 0.0018902275553753399 -0.00046311155400791625 0 0.0018205461310083885 -0.00046691296568045307 0 0.0018381294658656867 -0.00053021058531498488 0 0.0018205461310083885 -0.00046691296568045307 0 0.0017803017237700131 -0.00051854168833785294 0 0.0020250137949226663 -0.00018823845696890837 0 0.0019963061594566599 -0.00027150354010735308 0 0.002130014118300075 -0.00023543172191417915 0 0.0019963061594566599 -0.00027150354010735308 0 0.002130014118300075 -0.00023543172191417915 0 0.0020793926906164575 -0.00032103499690623301 0 0.0023023021881410882 -0.000313830612122355 0 0.002130014118300075 -0.00023543172191417915 0 0.0020793926906164575 -0.00032103499690623301 0 0.0023023021881410882 -0.000313830612122355 0 0.0020793926906164575 -0.00032103499690623301 0 0.0020579287762027025 -0.00041001484294298326 0 0.0020793926906164575 -0.00032103499690623301 0 0.0020579287762027025 -0.00041001484294298326 0 0.0020213699928496439 -0.00034633629929823142 0 0.0019853278604847324 -0.00042662967327344658 0 0.0020579287762027025 -0.00041001484294298326 0 0.0020053994077832986 -0.00038189312162767268 0 0.0020579287762027025 -0.00041001484294298326 0 0.0020213699928496439 -0.00034633629929823142 0 0.0020165470851253851 -0.00037138444068889173 0 0.0020213699928496439 -0.00034633629929823142 0 0.0019724506767018254 -0.00031309822418901489 0 0.0019987461203699471 -0.00034800463933195387 0 0.0019963061594566599 -0.00027150354010735308 0 0.0020793926906164575 -0.00032103499690623301 0 0.0020213699928496439 -0.00034633629929823142 0 0.0020213699928496439 -0.00034633629929823142 0 0.0019987461203699471 -0.00034800463933195387 0 0.0020165470851253851 -0.00037138444068889173 0 0.0019963061594566599 -0.00027150354010735308 0 0.0020213699928496439 -0.00034633629929823142 0 0.0019724506767018254 -0.00031309822418901489 0 0.0019724506767018254 -0.00031309822418901489 0 0.0019729687760833476 -0.00034367633655394271 0 0.0019987461203699471 -0.00034800463933195387 0 0.0019729687760833476 -0.00034367633655394271 0 0.001996620405449053 -0.0003552276642931087 0 0.0019987461203699471 -0.00034800463933195387 0 0.0019729687760833476 -0.00034367633655394271 0 0.001996620405449053 -0.0003552276642931087 0 0.0019685996039497515 -0.0003596954572626624 0 0.001996620405449053 -0.0003552276642931087 0 0.0019987461203699471 -0.00034800463933195387 0 0.0020165470851253851 -0.00037138444068889173 0 0.0020165470851253851 -0.00037138444068889173 0 0.0020053994077832986 -0.00038189312162767268 0 0.0019913658434359146 -0.00035630970555918011 0 0.0020579287762027025 -0.00041001484294298326 0 0.0020165470851253851 -0.00037138444068889173 0 0.0020053994077832986 -0.00038189312162767268 0 0.0019853278604847324 -0.00042662967327344658 0 0.0020053994077832986 -0.00038189312162767268 0 0.0019448318563276294 -0.00037790269283498659 0 0.0020053994077832986 -0.00038189312162767268 0 0.0019913658434359146 -0.00035630970555918011 0 0.0019448318563276294 -0.00037790269283498659 0 0.001996620405449053 -0.0003552276642931087 0 0.0020165470851253851 -0.00037138444068889173 0 0.0019913658434359146 -0.00035630970555918011 0 0.0019627600455595097 -0.00032927409310305538 0 0.0018752012779446453 -0.00027013027708122877 0 0.0019896556086231535 -0.00033983631299695381 0 0.0019913658434359146 -0.00035630970555918011 0 0.0019627600455595097 -0.00032927409310305538 0 0.001988849503943423 -0.00034926833599232166 0 0.001996620405449053 -0.0003552276642931087 0 0.0019913658434359146 -0.00035630970555918011 0 0.001988849503943423 -0.00034926833599232166 0 0.0019913658434359146 -0.00035630970555918011 0 0.0019627600455595097 -0.00032927409310305538 0 0.0019175702966553274 -0.00034594077198142739 0 0.0019627600455595097 -0.00032927409310305538 0 0.001988849503943423 -0.00034926833599232166 0 0.0019896556086231535 -0.00033983631299695381 0 0.0019602001597344982 -0.00038058683493049299 0 0.001988849503943423 -0.00034926833599232166 0 0.0019896556086231535 -0.00033983631299695381 0 0.0019602001597344982 -0.00038058683493049299 0 0.0019685996039497515 -0.0003596954572626624 0 0.001988849503943423 -0.00034926833599232166 0 0.001996620405449053 -0.0003552276642931087 0 0.0019685996039497515 -0.0003596954572626624 0 0.001988849503943423 -0.00034926833599232166 0 0.0018205461310083885 -0.00046691296568045307 0 0.0018488154405769909 -0.00041167440526129474 0 0.0017859620279172146 -0.00043576823025909083 0 0.0018902275553753399 -0.00046311155400791625 0 0.0018205461310083885 -0.00046691296568045307 0 0.0018488154405769909 -0.00041167440526129474 0 0.0019853278604847324 -0.00042662967327344658 0 0.0018902275553753399 -0.00046311155400791625 0 0.0018488154405769909 -0.00041167440526129474 0 0.0019853278604847324 -0.00042662967327344658 0 0.0017310777834995492 -0.00040538548668189018 0 0.0019448318563276294 -0.00037790269283498659 0 0.0017310777834995492 -0.00040538548668189018 0 0.0019448318563276294 -0.00037790269283498659 0 0.0019175702966553274 -0.00034594077198142739 0 0.0019634656703745959 -0.00043462760063588249 0 0.0017932450628764182 -0.00040391524284715718 0 0.0019913658434359146 -0.00035630970555918011 0 0.0019448318563276294 -0.00037790269283498659 0 0.0019175702966553274 -0.00034594077198142739 0 0.0017310777834995492 -0.00040538548668189018 0 0.0019175702966553274 -0.00034594077198142739 0 0.0018752012779446453 -0.00027013027708122877 0 0.0016303334458773176 -0.00031844933188481119 0 0.0016457161021579388 -0.00035448411655355648 0 0.0019627600455595097 -0.00032927409310305538 0 0.0019175702966553274 -0.00034594077198142739 0 0.0018752012779446453 -0.00027013027708122877 0 0.0014013218743020796 -0.00033544024087357993 0 0.0014930460876056391 -0.00037356079541417853 0 0.0016131997638871365 -0.00035144318182962487 0 0.0016303334458773176 -0.00031844933188481119 0 0.0016081092271357476 -0.00034316775893426327 0 0.0017310777834995492 -0.00040538548668189018 0 0.0018752012779446453 -0.00027013027708122877 0 0.0016131997638871365 -0.00035144318182962487 0 0.0014930460876056391 -0.00037356079541417853 0 0.0015380047762105647 -0.00035996645421654911 0 0.0016131997638871365 -0.00035144318182962487 0 0.0014013218743020796 -0.00033544024087357993 0 0.0014930460876056391 -0.00037356079541417853 0 0.0013894155652201872 -0.00043761893304681502 0 0.0015017349355643144 -0.00040894300145104425 0 0.0014930460876056391 -0.00037356079541417853 0 0.0013894155652201872 -0.00043761893304681502 0 0.0015017349355643144 -0.00040894300145104425 0 0.0013894155652201872 -0.00043761893304681502 0 0.0014619613307268033 -0.00046729717784378227 0 0.0015017349355643144 -0.00040894300145104425 0 0.0014930460876056391 -0.00037356079541417853 0 0.0015380047762105647 -0.00035996645421654911 0 0.0014013218743020796 -0.00033544024087357993 0 0.0013894155652201872 -0.00043761893304681502 0 0.001282091155919424 -0.00038926785492698516 0 0.0011254067919180041 -0.00052938984930490094 0 0.0013883913123524732 -0.00057785205088295834 0 0.0013894155652201872 -0.00043761893304681502 0 0.0012954409433690328 -0.00048598203568906074 0 0.0013597257503055668 -0.0005655036439774538 0 0.0014619613307268033 -0.00046729717784378227 0 0.001533579116393556 -0.00051170508124315315 0 0.0013597257503055668 -0.0005655036439774538 0 0.0013894155652201872 -0.00043761893304681502 0 0.0014619613307268033 -0.00046729717784378227 0 0.0013597257503055668 -0.0005655036439774538 0 0.0019602001597344982 -0.00038058683493049299 0 0.0019549814702494823 -0.00041479588943797561 0 0.0019896556086231535 -0.00033983631299695381 0 0.0014950609661758224 -0.00047583934723888606 0 0.0016457161021579388 -0.00035448411655355648 0 0.001188230613824123 -0.00043284329573369884 0 0.001282091155919424 -0.00038926785492698516 0 0.0012954409433690328 -0.00048598203568906074 0 0.0013894155652201872 -0.00043761893304681502 0 0.001282091155919424 -0.00038926785492698516 0 0.0012954409433690328 -0.00048598203568906074 0 0.0010966171050296567 -0.00057965669545249768 0 0.0010513390690572715 -0.00063643967696486235 0 0.001103278912061096 -0.00063434341025328273 0 0.0014950609661758224 -0.00047583934723888606 0 0.0011254067919180041 -0.00052938984930490094 0 0.001040357469498874 -0.00063461887271577713 0 0.0010513390690572715 -0.00063643967696486235 0 0.0010394738466682541 -0.00066419168746034327 0 0.001040357469498874 -0.00063461887271577713 0 0.0010966171050296567 -0.00057965669545249768 0 0.0010513390690572715 -0.00063643967696486235 0 0.001040357469498874 -0.00063461887271577713 0 0.0010394738466682541 -0.00066419168746034327 0 0.0010528059158506084 -0.00070748983102511813 0 0.0014950609661758224 -0.00047583934723888606 0 0.0014322458452364513 -0.00064737316691556017 0 0.0019754360877123137 -0.00047681148648873786 0 0.0018159362330630768 -0.00057524087084745077 0 0.0018454875389771492 -0.00048271505169932596 0 0.0010394738466682541 -0.00066419168746034327 0 0.0010528059158506084 -0.00070748983102511813 0 0.0010449626372706507 -0.0006772893101861041 0 0.0018159362330630768 -0.00057524087084745077 0 0.0018454875389771492 -0.00048271505169932596 0 0.0017292471292417247 -0.00046860887762104552 0 0.0018454875389771492 -0.00048271505169932596 0 0.0018084868740639139 -0.00040883380894111949 0 0.0017292471292417247 -0.00046860887762104552 0 0.0018454875389771492 -0.00048271505169932596 0 0.0018084868740639139 -0.00040883380894111949 0 0.0018893571400873149 -0.00044400786192213924 0 0.001803295742917948 -0.00040168628287572447 0 0.0019461722072785725 -0.00046374888736068953 0 0.0019754360877123137 -0.00047681148648873786 0 0.0018454875389771492 -0.00048271505169932596 0 0.0018893571400873149 -0.00044400786192213924 0 0.0014950609661758224 -0.00047583934723888606 0 0.0019461722072785725 -0.00046374888736068953 0 0.0019602001597344982 -0.00038058683493049299 0 0.0019549814702494823 -0.00041479588943797561 0 0.0019025003412000577 -0.00042097914865303263 0 0.0019602001597344982 -0.00038058683493049299 0 0.0019025003412000577 -0.00042097914865303263 0 0.0019087156815065266 -0.00035357668991005788 0 0.0019729687760833476 -0.00034367633655394271 0 0.0019685996039497515 -0.0003596954572626624 0 0.0019087156815065266 -0.00035357668991005788 0 0.0019602001597344982 -0.00038058683493049299 0 0.0019685996039497515 -0.0003596954572626624 0 0.0019087156815065266 -0.00035357668991005788 0 0.0019087156815065266 -0.00035357668991005788 0 0.0018318400805861948 -0.00036167049128818312 0 0.0018448134497732753 -0.00031339772916174496 0 0.0018084868740639139 -0.00040883380894111949 0 0.0019025003412000577 -0.00042097914865303263 0 0.0019087156815065266 -0.00035357668991005788 0 0.0018084868740639139 -0.00040883380894111949 0 0.0019087156815065266 -0.00035357668991005788 0 0.0018318400805861948 -0.00036167049128818312 0 0.0018995141690747337 -0.00028580231733349551 0 0.0019087156815065266 -0.00035357668991005788 0 0.0018448134497732753 -0.00031339772916174496 0 0.0019729687760833476 -0.00034367633655394271 0 0.0019087156815065266 -0.00035357668991005788 0 0.0019391473454291749 -0.00031635278183202034 0 0.0018995141690747337 -0.00028580231733349551 0 0.0019087156815065266 -0.00035357668991005788 0 0.0019391473454291749 -0.00031635278183202034 0 0.0019724506767018254 -0.00031309822418901489 0 0.0019729687760833476 -0.00034367633655394271 0 0.0019391473454291749 -0.00031635278183202034 0 0.0017436092548124157 -0.00021386711142334271 0 0.0016977815521853124 -0.00033951797400592681 0 0.0016246357770422846 -0.00026838102563990078 0 0.0017436092548124157 -0.00021386711142334271 0 0.0018448134497732753 -0.00031339772916174496 0 0.0016977815521853124 -0.00033951797400592681 0 0.0018448134497732753 -0.00031339772916174496 0 0.0016977815521853124 -0.00033951797400592681 0 0.001761244126959617 -0.00037068500233239452 0 0.0018084868740639139 -0.00040883380894111949 0 0.001761244126959617 -0.00037068500233239452 0 0.001663786497850845 -0.00044985015988267818 0 0.0018318400805861948 -0.00036167049128818312 0 0.0018448134497732753 -0.00031339772916174496 0 0.001761244126959617 -0.00037068500233239452 0 0.0018084868740639139 -0.00040883380894111949 0 0.0018318400805861948 -0.00036167049128818312 0 0.001761244126959617 -0.00037068500233239452 0 0.0016977815521853124 -0.00033951797400592681 0 0.0016310472312055665 -0.00041973208775956673 0 0.001663786497850845 -0.00044985015988267818 0 0.0016977815521853124 -0.00033951797400592681 0 0.001761244126959617 -0.00037068500233239452 0 0.001663786497850845 -0.00044985015988267818 0 0.0016310472312055665 -0.00041973208775956673 0 0.001663786497850845 -0.00044985015988267818 0 0.0015920242054749349 -0.00049055791529170189 0 0.001663786497850845 -0.00044985015988267818 0 0.0016047753122635094 -0.00050626490331779901 0 0.0015920242054749349 -0.00049055791529170189 0 0.001663786497850845 -0.00044985015988267818 0 0.0015657977976651976 -0.0005210192709220327 0 0.0016047753122635094 -0.00050626490331779901 0 0.0018084868740639139 -0.00040883380894111949 0 0.001663786497850845 -0.00044985015988267818 0 0.0017292471292417247 -0.00046860887762104552 0 0.001663786497850845 -0.00044985015988267818 0 0.0017292471292417247 -0.00046860887762104552 0 0.0015657977976651976 -0.0005210192709220327 0 0.0018159362330630768 -0.00057524087084745077 0 0.0015657977976651976 -0.0005210192709220327 0 0.0012341044605617723 -0.00069510790241876952 0 0.0014322458452364513 -0.00064737316691556017 0 0.0012548561544753825 -0.00068951322777907327 0 0.0018159362330630768 -0.00057524087084745077 0 0.0017292471292417247 -0.00046860887762104552 0 0.0015657977976651976 -0.0005210192709220327 0 0.0015448295714562727 -0.00052157392666384852 0 0.0013453437039027119 -0.00056668395361712364 0 0.0015657977976651976 -0.0005210192709220327 0 0.0016047753122635094 -0.00050626490331779901 0 0.0015987790742870171 -0.00052023934421504918 0 0.0015657977976651976 -0.0005210192709220327 0 0.0010723659646773938 -0.00060858651062596625 0 0.0012341044605617723 -0.00069510790241876952 0 0.0015987790742870171 -0.00052023934421504918 0 0.0015920242054749349 -0.00049055791529170189 0 0.001525295740679644 -0.0005185532161016723 0 0.0016047753122635094 -0.00050626490331779901 0 0.0015987790742870171 -0.00052023934421504918 0 0.0015920242054749349 -0.00049055791529170189 0 0.0015920242054749349 -0.00049055791529170189 0 0.0014707949505290408 -0.00049059319442162832 0 0.0015554308783635922 -0.00038367479450475574 0 0.0015920242054749349 -0.00049055791529170189 0 0.0014707949505290408 -0.00049059319442162832 0 0.0014507902176008212 -0.00064544190116282434 0 0.0015822405175600106 -0.00049280336464276118 0 0.0015002191792971001 -0.00059877583226415349 0 0.0014707949505290408 -0.00049059319442162832 0 0.0014507902176008212 -0.00064544190116282434 0 0.0013621525811261523 -0.00055096830928239645 0 0.0014507902176008212 -0.00064544190116282434 0 0.0012835886596334 -0.00067811094125790701 0 0.0013621525811261523 -0.00055096830928239645 0 0.0012835886596334 -0.00067811094125790701 0 0.0012210006824958579 -0.00056645763592454049 0 0.0010507490113071606 -0.00079316206457427435 0 0.0012835886596334 -0.00067811094125790701 0 0.0012210006824958579 -0.00056645763592454049 0 0.0013621525811261523 -0.00055096830928239645 0 0.0012544721306202984 -0.0004770057906083517 0 0.0013758411679039655 -0.00025995685751624219 0 0.0011945111746376009 -0.00025273877736479218 0 0.0012333547882481042 -0.0005283227108822861 0 0.0013730178903816109 -0.00033351121071124379 0 0.0014707949505290408 -0.00049059319442162832 0 0.0013621525811261523 -0.00055096830928239645 0 0.0013708376825577698 -0.00040190138508198418 0 0.0012210006824958579 -0.00056645763592454049 0 0.0013621525811261523 -0.00055096830928239645 0 0.0013708376825577698 -0.00040190138508198418 0 0.0013758411679039655 -0.00025995685751624219 0 0.0011945111746376009 -0.00025273877736479218 0 0.0013156062147091825 -0.00013775578397391702 0 0.0011945111746376009 -0.00025273877736479218 0 0.0013156062147091825 -0.00013775578397391702 0 0.0011403853907868589 -0.00011268702664833968 0 0.0013156062147091825 -0.00013775578397391702 0 0.0011403853907868589 -0.00011268702664833968 0 0.0012475570679735674 -4.8334079774585235e-05 0 0.0013730178903816109 -0.00033351121071124379 0 0.0014895498545999294 -0.00020700825548776686 0 0.0013758411679039655 -0.00025995685751624219 0 0.0013156062147091825 -0.00013775578397391702 0 0.0014858525016466224 -0.00014927065432841853 0 0.0016977815521853124 -0.00033951797400592681 0 0.0016246357770422846 -0.00026838102563990078 0 0.0015554308783635922 -0.00038367479450475574 0 0.0014835016058118123 -0.00026909724248203845 0 0.0016246357770422846 -0.00026838102563990078 0 0.0015554308783635922 -0.00038367479450475574 0 0.0016977815521853124 -0.00033951797400592681 0 0.0016310472312055665 -0.00041973208775956673 0 0.0015554308783635922 -0.00038367479450475574 0 0.0016310472312055665 -0.00041973208775956673 0 0.0015920242054749349 -0.00049055791529170189 0 0.0015554308783635922 -0.00038367479450475574 0 0.0014707949505290408 -0.00049059319442162832 0 0.0013708376825577698 -0.00040190138508198418 0 0.0015554308783635922 -0.00038367479450475574 0 0.0013708376825577698 -0.00040190138508198418 0 0.0014835016058118123 -0.00026909724248203845 0 0.0015554308783635922 -0.00038367479450475574 0 1.8636768340941505e-05 -0.00026774631488107648 0 0.00026530688123308735 -0.00037364161301470011 0 0.00036410072852953744 -0.00017132917150700265 0 0.00019289669274205937 -0.00033128188981470521 0 0.00057982538766947222 -0.00025630563232559691 0 0.00036268020281496891 -0.00040728650956616609 0 0.00079247109086002122 -0.00033010883743639103 0 0.0005568853289006538 -0.00023998697507802836 0 8.1008197532515285e-06 -0.00042972240402437424 0 0.00026530688123308735 -0.00037364161301470011 0 0.00025382698737238049 -0.00050383508216034168 0 0.00026530688123308735 -0.00037364161301470011 0 0.00043793766524695887 -0.00048814484274571212 0 0.00025382698737238049 -0.00050383508216034168 0 0.00026530688123308735 -0.00037364161301470011 0 0.00043793766524695887 -0.00048814484274571212 0 0.00060523190987351585 -0.00034232346786633943 0 0.00043793766524695887 -0.00048814484274571212 0 0.00060523190987351585 -0.00034232346786633943 0 0.00056631910400424383 -0.00049230674173348277 0 0.00026530688123308735 -0.00037364161301470011 0 0.00060523190987351585 -0.00034232346786633943 0 0.00036410072852953744 -0.00017132917150700265 0 0.00060523190987351585 -0.00034232346786633943 0 0.00036410072852953744 -0.00017132917150700265 0 0.00098401595746212497 -0.000210865047200637 0 0.00060523190987351585 -0.00034232346786633943 0 0.0010294418908238351 -0.00041901596102768724 0 0.00098401595746212497 -0.000210865047200637 0 0.00060523190987351585 -0.00034232346786633943 0 0.00086067989267784618 -0.00068137892595348159 0 0.0010294418908238351 -0.00041901596102768724 0 0.0005869391947007968 -0.00033732683211828654 0 0.00077934226958293197 -0.00060085981475854441 0 0.00086067989267784618 -0.00068137892595348159 0 0.0010546729321614463 -0.00059210877401989054 0 0.0010294418908238351 -0.00041901596102768724 0 0.0012544721306202984 -0.0004770057906083517 0 0.0010546729321614463 -0.00059210877401989054 0 0.0010294418908238351 -0.00041901596102768724 0 0.0012333547882481042 -0.0005283227108822861 0 0.0010605297352229307 -0.00077891588898158825 0 0.0012544721306202984 -0.0004770057906083517 0 0.0010546729321614463 -0.00059210877401989054 0 0.0010507490113071606 -0.00079316206457427435 0 0.0011945111746376009 -0.00025273877736479218 0 0.0010294418908238351 -0.00041901596102768724 0 0.00098401595746212497 -0.000210865047200637 0 0.0012544721306202984 -0.0004770057906083517 0 0.0011945111746376009 -0.00025273877736479218 0 0.0010294418908238351 -0.00041901596102768724 0 0.0011945111746376009 -0.00025273877736479218 0 0.0011403853907868589 -0.00011268702664833968 0 0.00098401595746212497 -0.000210865047200637 0 0.0011403853907868589 -0.00011268702664833968 0 0.00098401595746212497 -0.000210865047200637 0 0.0010330780453697487 -6.9448684938208015e-05 0 0.0011403853907868589 -0.00011268702664833968 0 0.0010330780453697487 -6.9448684938208015e-05 0 0.0011309988513765713 -2.7198588837451685e-05 0 0.00098401595746212497 -0.000210865047200637 0 0.00085488837651430481 -0.00016223517021085869 0 0.0010330780453697487 -6.9448684938208015e-05 0 0.00079247109086002122 -0.00033010883743639103 0 0.00098401595746212497 -0.000210865047200637 0 0.00085488837651430481 -0.00016223517021085869 0 0.00057982538766947222 -0.00025630563232559691 0 0.00094796546692046447 -0.00021021216702530381 0 0.00085488837651430481 -0.00016223517021085869 0 0.0010330780453697487 -6.9448684938208015e-05 0 0.00069212807625377009 -1.6957545986188976e-05 0 0.00038042660571361192 -5.9727733274077023e-05 0 0.00069212807625377009 -1.6957545986188976e-05 0 0.0005568853289006538 -0.00023998697507802836 0 0.00038042660571361192 -5.9727733274077023e-05 0 0.00069212807625377009 -1.6957545986188976e-05 0 0.00057860704703909264 0.00025280176325463103 0 0.00085488837651430481 -0.00016223517021085869 0 0.00069212807625377009 -1.6957545986188976e-05 0 0.0005568853289006538 -0.00023998697507802836 0 0.00079247109086002122 -0.00033010883743639103 0 0.00085488837651430481 -0.00016223517021085869 0 0.0005568853289006538 -0.00023998697507802836 0 0.0015010204512458456 0.00048151384322674384 0 0.0013706971381352419 0.00049783873626284389 0 0.00057860704703909264 0.00025280176325463103 0 0.00090158950084307605 0.00023392423533225262 0 0.00057324602541602434 0.00060451497044715125 0 0.00069212807625377009 -1.6957545986188976e-05 0 0.00057860704703909264 0.00025280176325463103 0 0.00090158950084307605 0.00023392423533225262 0 0.0010330780453697487 -6.9448684938208015e-05 0 0.00069212807625377009 -1.6957545986188976e-05 0 0.00090158950084307605 0.00023392423533225262 0 0.00090158950084307605 0.00023392423533225262 0 0.0010635874540056078 0.00058972115382696796 0 0.00057324602541602434 0.00060451497044715125 0 0.0015010204512458456 0.00048151384322674384 0 0.0017240121426456681 0.0004570487200347839 0 0.00090158950084307605 0.00023392423533225262 0 0.0010635874540056078 0.00058972115382696796 0 0.0015910103307771172 0.00018141878789928632 0 0.0010635874540056078 0.00058972115382696796 0 0.0015910103307771172 0.00018141878789928632 0 0.0017376751494254292 0.00045002453098768583 0 0.0010767630980245836 -6.51744326051272e-05 0 0.0013480116996906501 8.3823777191759232e-05 0 0.0010330780453697487 -6.9448684938208015e-05 0 0.00090158950084307605 0.00023392423533225262 0 0.0015910103307771172 0.00018141878789928632 0 0.0011403853907868589 -0.00011268702664833968 0 0.0011309988513765713 -2.7198588837451685e-05 0 0.0012475570679735674 -4.8334079774585235e-05 0 0.0015910103307771172 0.00018141878789928632 0 0.0017376751494254292 0.00045002453098768583 0 0.0018282437593673381 0.00043143662461144643 0 0.0013480116996906501 8.3823777191759232e-05 0 0.0015412211553016062 0.00022706115022529442 0 0.0011309988513765713 -2.7198588837451685e-05 0 0.0012475570679735674 -4.8334079774585235e-05 0 0.0012659027503663153 3.9832180454577314e-05 0 0.0017376751494254292 0.00045002453098768583 0 0.0018492774201089551 0.00033828794422850457 0 0.0018282437593673381 0.00043143662461144643 0 0.0017376751494254292 0.00045002453098768583 0 0.0018492774201089551 0.00033828794422850457 0 0.0018964222532530551 0.00033965584198747959 0 0.0018492774201089551 0.00033828794422850457 0 0.0019433788362887428 0.00027257578352560664 0 0.0018964222532530551 0.00033965584198747959 0 0.0019433788362887428 0.00027257578352560664 0 0.0020020121865221997 0.00028099863908485271 0 0.0019960729920115825 0.00022194458080790201 0 0.0019433788362887428 0.00027257578352560664 0 0.0018964222532530551 0.00033965584198747959 0 0.0020020121865221997 0.00028099863908485271 0 0.001971307306117592 0.00038904096761195112 0 0.0017376751494254292 0.00045002453098768583 0 0.0018964222532530551 0.00033965584198747959 0 0.001971307306117592 0.00038904096761195112 0 0.0020020121865221997 0.00028099863908485271 0 0.0020281497300645027 0.00034073460932556042 0 0.001971307306117592 0.00038904096761195112 0 0.0018964222532530551 0.00033965584198747959 0 0.0020020121865221997 0.00028099863908485271 0 0.0020330564587013383 0.00028559045057359532 0 0.0020020121865221997 0.00028099863908485271 0 0.0020281497300645027 0.00034073460932556042 0 0.0020321182952227801 0.00025207373518268899 0 0.0020330564587013383 0.00028559045057359532 0 0.0020020121865221997 0.00028099863908485271 0 0.0016226777561377686 -8.942876547521407e-05 0 0.0014124516593836708 -3.1475475172687316e-05 0 0.0015428330509770316 5.4069283754438627e-05 0 0.0014835016058118123 -0.00026909724248203845 0 0.0016246357770422846 -0.00026838102563990078 0 0.0016226777561377686 -8.942876547521407e-05 0 0.0017436092548124157 -0.00021386711142334271 0 0.0016246357770422846 -0.00026838102563990078 0 0.0016226777561377686 -8.942876547521407e-05 0 0.0014895498545999294 -0.00020700825548776686 0 0.0016125577367990369 -8.9680152846882227e-05 0 0.0014858525016466224 -0.00014927065432841853 0 0.0016226777561377686 -8.942876547521407e-05 0 0.0014124516593836708 -3.1475475172687316e-05 0 0.0013156062147091825 -0.00013775578397391702 0 0.0014858525016466224 -0.00014927065432841853 0 0.0014124516593836708 -3.1475475172687316e-05 0 0.0013156062147091825 -0.00013775578397391702 0 0.0012475570679735674 -4.8334079774585235e-05 0 0.0014124516593836708 -3.1475475172687316e-05 0 0.0012475570679735674 -4.8334079774585235e-05 0 0.0012659027503663153 3.9832180454577314e-05 0 0.0014124516593836708 -3.1475475172687316e-05 0 0.0012659027503663153 3.9832180454577314e-05 0 0.0014124516593836708 -3.1475475172687316e-05 0 0.0014057943676011283 0.00011396913189521675 0 0.0014124516593836708 -3.1475475172687316e-05 0 0.0014057943676011283 0.00011396913189521675 0 0.0015428330509770316 5.4069283754438627e-05 0 0.0018492774201089551 0.00033828794422850457 0 0.0018282437593673381 0.00043143662461144643 0 0.0017465923949644914 0.00035957862096555349 0 0.0015412211553016062 0.00022706115022529442 0 0.0015769342937647899 0.00023551672863594527 0 0.0018492774201089551 0.00033828794422850457 0 0.0017465923949644914 0.00035957862096555349 0 0.0017606042231853498 0.00023159084888563463 0 0.0015769342937647899 0.00023551672863594527 0 0.0016013816799805428 0.00022955802019422871 0 0.0017465923949644914 0.00035957862096555349 0 0.0016088585756965066 0.00022759882764467976 0 0.0017606042231853498 0.00023159084888563463 0 0.0014057943676011283 0.00011396913189521675 0 0.0016088585756965066 0.00022759882764467976 0 0.0015428330509770316 5.4069283754438627e-05 0 0.0016088585756965066 0.00022759882764467976 0 0.0015428330509770316 5.4069283754438627e-05 0 0.0016663890183369777 8.072252813599333e-05 0 0.0016226777561377686 -8.942876547521407e-05 0 0.0015428330509770316 5.4069283754438627e-05 0 0.0016663890183369777 8.072252813599333e-05 0 0.0018218313093785303 -2.5126928972478396e-05 0 0.0016226777561377686 -8.942876547521407e-05 0 0.0016663890183369777 8.072252813599333e-05 0 0.0017717363280470642 0.00014112371396843754 0 0.0016663890183369777 8.072252813599333e-05 0 0.001635683274656073 0.0002189521570314499 0 0.0016088585756965066 0.00022759882764467976 0 0.0016663890183369777 8.072252813599333e-05 0 0.001635683274656073 0.0002189521570314499 0 0.001635683274656073 0.0002189521570314499 0 0.0016866123693299289 0.00044766016016269475 0 0.0018185561397790636 0.00029457747413741186 0 0.001635683274656073 0.0002189521570314499 0 0.001588872377570051 0.00012275093045787102 0 0.0016495060244940323 0.000182244342915103 0 0.0017717363280470642 0.00014112371396843754 0 0.001635683274656073 0.0002189521570314499 0 0.0018185561397790636 0.00029457747413741186 0 0.0015650382025165538 0.00019905328422843816 0 0.0019841233155628844 0.00030441009749205801 0 0.001588872377570051 0.00012275093045787102 0 0.0016495060244940323 0.000182244342915103 0 0.001714607856562498 0.0001005048031256431 0 0.0025300503790616903 0.00011129918953226973 0 0.0023237836838418259 8.7857444035051955e-05 0 0.0024219615809705059 0.00021124566915931863 0 0.0019841233155628844 0.00030441009749205801 0 0.0020374711235744162 7.5575825241764878e-05 0 0.0016088585756965066 0.00022759882764467976 0 0.0016495060244940323 0.000182244342915103 0 0.0017606042231853498 0.00023159084888563463 0 0.0016088585756965066 0.00022759882764467976 0 0.001635683274656073 0.0002189521570314499 0 0.0016495060244940323 0.000182244342915103 0 0.0018492774201089551 0.00033828794422850457 0 0.0017606042231853498 0.00023159084888563463 0 0.0019946541184029964 0.00013514914971852443 0 0.0016495060244940323 0.000182244342915103 0 0.0017606042231853498 0.00023159084888563463 0 0.001714607856562498 0.0001005048031256431 0 0.0017606042231853498 0.00023159084888563463 0 0.001714607856562498 0.0001005048031256431 0 0.0019946541184029964 0.00013514914971852443 0 0.0023237836838418259 8.7857444035051955e-05 0 0.0022359565801394828 0.00023619383351277846 0 0.0019946541184029964 0.00013514914971852443 0 0.0020374711235744162 7.5575825241764878e-05 0 0.0019932547654075302 0.00013348521956832327 0 0.0023237836838418259 8.7857444035051955e-05 0 0.0022359565801394828 0.00023619383351277846 0 0.0024219615809705059 0.00021124566915931863 0 0.0022359565801394828 0.00023619383351277846 0 0.0020724236222697144 0.00020978159519974699 0 0.0021471249903530438 0.00028719113140841259 0 0.0022359565801394828 0.00023619383351277846 0 0.0019946541184029964 0.00013514914971852443 0 0.0020724236222697144 0.00020978159519974699 0 0.0022359565801394828 0.00023619383351277846 0 0.0021471249903530438 0.00028719113140841259 0 0.0022938833835728758 0.00033711372620565149 0 0.0022359565801394828 0.00023619383351277846 0 0.0024139043355783296 0.00034082932237407732 0 0.0022938833835728758 0.00033711372620565149 0 0.0022359565801394828 0.00023619383351277846 0 0.0024139043355783296 0.00034082932237407732 0 0.0024219615809705059 0.00021124566915931863 0 0.0024139043355783296 0.00034082932237407732 0 0.0025630967567241295 0.00028432027328362686 0 0.0024219615809705059 0.00021124566915931863 0 0.0019841233155628844 0.00030441009749205801 0 0.0023557786104734285 0.00039211755735293479 0 0.0025300503790616903 0.00011129918953226973 0 0.0025630967567241295 0.00028432027328362686 0 0.0024219615809705059 0.00021124566915931863 0 0.0020333809674911306 0.00022924055532938921 0 0.0020178834447560244 0.00023106612986838049 0 0.0020273753419229427 0.00021808957750794371 0 0.0020321182952227801 0.00025207373518268899 0 0.0020020121865221997 0.00028099863908485271 0 0.0020178834447560244 0.00023106612986838049 0 0.0020321182952227801 0.00025207373518268899 0 0.0020333809674911306 0.00022924055532938921 0 0.0020178834447560244 0.00023106612986838049 0 0.0020020121865221997 0.00028099863908485271 0 0.0020178834447560244 0.00023106612986838049 0 0.0019960729920115825 0.00022194458080790201 0 0.0020178834447560244 0.00023106612986838049 0 0.0020215787940620457 0.00020244920512633606 0 0.0019960729920115825 0.00022194458080790201 0 0.0020178834447560244 0.00023106612986838049 0 0.0020215787940620457 0.00020244920512633606 0 0.0020273753419229427 0.00021808957750794371 0 0.0018492774201089551 0.00033828794422850457 0 0.0019433788362887428 0.00027257578352560664 0 0.0019946541184029964 0.00013514914971852443 0 0.0020215787940620457 0.00020244920512633606 0 0.0019960729920115825 0.00022194458080790201 0 0.0019946541184029964 0.00013514914971852443 0 0.0019433788362887428 0.00027257578352560664 0 0.0019960729920115825 0.00022194458080790201 0 0.0019946541184029964 0.00013514914971852443 0 0.0020215787940620457 0.00020244920512633606 0 0.0019946541184029964 0.00013514914971852443 0 0.0020724236222697144 0.00020978159519974699 0 0.0020724236222697144 0.00020978159519974699 0 0.0021471249903530438 0.00028719113140841259 0 0.0020620888873595184 0.0002336666589419092 0 0.0020620888873595184 0.0002336666589419092 0 0.0020409263107725858 0.00023115422161018866 0 0.0020741603103439296 0.00026972571671573712 0 0.0021471249903530438 0.00028719113140841259 0 0.0020620888873595184 0.0002336666589419092 0 0.0020741603103439296 0.00026972571671573712 0 0.0020215787940620457 0.00020244920512633606 0 0.0020724236222697144 0.00020978159519974699 0 0.0020620888873595184 0.0002336666589419092 0 0.0020215787940620457 0.00020244920512633606 0 0.0020620888873595184 0.0002336666589419092 0 0.0020409263107725858 0.00023115422161018866 0 0.0020215787940620457 0.00020244920512633606 0 0.0020409263107725858 0.00023115422161018866 0 0.0020273753419229427 0.00021808957750794371 0 0.0020409263107725858 0.00023115422161018866 0 0.0020512247928293056 0.00025169617701469206 0 0.0020741603103439296 0.00026972571671573712 0 0.0020409263107725858 0.00023115422161018866 0 0.0020371167086456459 0.00022868569890050546 0 0.0020273753419229427 0.00021808957750794371 0 0.0020409263107725858 0.00023115422161018866 0 0.0020371167086456459 0.00022868569890050546 0 0.0020512247928293056 0.00025169617701469206 0 0.0020310393578540772 0.00021873755487919456 0 0.0020333809674911306 0.00022924055532938921 0 0.0020273753419229427 0.00021808957750794371 0 0.0020310393578540772 0.00021873755487919456 0 0.0020371167086456459 0.00022868569890050546 0 0.0020273753419229427 0.00021808957750794371 0 0.0020398353520698262 0.00030046917156244414 0 0.0020474351054635847 0.00026463811494065908 0 0.0020641357875489535 0.00029236068681265549 0 0.0020474351054635847 0.00026463811494065908 0 0.002068249961999146 0.00027756204485113151 0 0.0020641357875489535 0.00029236068681265549 0 0.0020371167086456459 0.00022868569890050546 0 0.0020474351054635847 0.00026463811494065908 0 0.0020512247928293056 0.00025169617701469206 0 0.0020474351054635847 0.00026463811494065908 0 0.0020512247928293056 0.00025169617701469206 0 0.002068249961999146 0.00027756204485113151 0 0.0020512247928293056 0.00025169617701469206 0 0.002068249961999146 0.00027756204485113151 0 0.0020741603103439296 0.00026972571671573712 0 0.002068249961999146 0.00027756204485113151 0 0.0020881913493276285 0.00028999456222642711 0 0.0020850979049648944 0.00030227260804833951 0 0.002068249961999146 0.00027756204485113151 0 0.0020850979049648944 0.00030227260804833951 0 0.0020641357875489535 0.00029236068681265549 0 0.002068249961999146 0.00027756204485113151 0 0.0020881913493276285 0.00028999456222642711 0 0.0020741603103439296 0.00026972571671573712 0 0.0020881913493276285 0.00028999456222642711 0 0.0021094316734270504 0.00029080553273587792 0 0.0021030935583578191 0.00030579921201178664 0 0.0020881913493276285 0.00028999456222642711 0 0.0020741603103439296 0.00026972571671573712 0 0.0021094316734270504 0.00029080553273587792 0 0.0021537127843663452 0.00029323074318176023 0 0.0021809270657904846 0.00032168470327378256 0 0.0021471249903530438 0.00028719113140841259 0 0.0020741603103439296 0.00026972571671573712 0 0.0021094316734270504 0.00029080553273587792 0 0.0021471249903530438 0.00028719113140841259 0 0.0022277360131659771 0.00040615205376497973 0 0.0023228274171111607 0.00043170241693421915 0 0.0022277360131659771 0.00040615205376497973 0 0.0022444186157749065 0.00050825058078534681 0 0.0023228274171111607 0.00043170241693421915 0 0.0021809270657904846 0.00032168470327378256 0 0.0020649839105195311 0.00048454718179153749 0 0.0022444186157749065 0.00050825058078534681 0 0.0023228274171111607 0.00043170241693421915 0 0.0024133420463910669 0.00053086778218506842 0 0.002314118589117866 0.00060469048151010724 0 0.0022444186157749065 0.00050825058078534681 0 0.0024133420463910669 0.00053086778218506842 0 0.002314118589117866 0.00060469048151010724 0 0.0022167975170428833 0.0006462267311545853 0 0.0023861935268308311 0.00073198751957296389 0 0.003268927691105406 0.00029285142244814722 0 0.0020649839105195311 0.00048454718179153749 0 0.002314118589117866 0.00060469048151010724 0 0.0022167975170428833 0.0006462267311545853 0 0.0022444186157749065 0.00050825058078534681 0 0.0020881913493276285 0.00028999456222642711 0 0.0021030935583578191 0.00030579921201178664 0 0.0020850979049648944 0.00030227260804833951 0 0.0021073840213626203 0.00032904507148320676 0 0.0021030935583578191 0.00030579921201178664 0 0.0020850979049648944 0.00030227260804833951 0 0.0020850979049648944 0.00030227260804833951 0 0.0020750524465659699 0.00031580943091832371 0 0.0020641357875489535 0.00029236068681265549 0 0.003268927691105406 0.00029285142244814722 0 0.0031266097389882576 -0.00012153203290093243 0 0.0021073840213626203 0.00032904507148320676 0 0.0020850979049648944 0.00030227260804833951 0 0.0020750524465659699 0.00031580943091832371 0 0.0044567349641017641 -0.00036610899033858959 0 0.0041967679620413065 -0.00048236552211192537 0 0.0042692857847474262 -0.00028247915647543138 0 0.0041967679620413065 -0.00048236552211192537 0 0.0040607005610662364 -0.00037815659057800272 0 0.0042692857847474262 -0.00028247915647543138 0 0.0040003005850432717 -0.00055592147427852142 0 0.0041967679620413065 -0.00048236552211192537 0 0.0040607005610662364 -0.00037815659057800272 0 0.0020398353520698262 0.00030046917156244414 0 0.0020750524465659699 0.00031580943091832371 0 0.0020641357875489535 0.00029236068681265549 0 0.0030235089724087098 -0.00012284703501802061 0 0.0031266097389882576 -0.00012153203290093243 0 0.0024600974271837043 0.00043664782022467027 0 0.0024900693712656056 0.00049012719235989172 0 0.0025362276000570525 0.00048995669684434432 0 0.0025192941075107998 0.0004295199966428614 0 0.0025362276000570525 0.00048995669684434432 0 0.0025622685725708964 0.0004362013089753743 0 0.0024600974271837043 0.00043664782022467027 0 0.0025192941075107998 0.0004295199966428614 0 0.0025362276000570525 0.00048995669684434432 0 0.0025693107112058238 0.00042843871258101829 0 0.0024248337142555149 0.00043152194336413792 0 0.0024139043355783296 0.00034082932237407732 0 0.0025630967567241295 0.00028432027328362686 0 0.0025192941075107998 0.0004295199966428614 0 0.0025630967567241295 0.00028432027328362686 0 0.0025192941075107998 0.0004295199966428614 0 0.0025941374688936958 0.00042592046233387918 0 0.0024139043355783296 0.00034082932237407732 0 0.0024600974271837043 0.00043664782022467027 0 0.0025192941075107998 0.0004295199966428614 0 0.0024139043355783296 0.00034082932237407732 0 0.0023756777676751939 0.00040873419070775602 0 0.0022938833835728758 0.00033711372620565149 0 0.0024139043355783296 0.00034082932237407732 0 0.0024600974271837043 0.00043664782022467027 0 0.0023756777676751939 0.00040873419070775602 0 0.0023756777676751939 0.00040873419070775602 0 0.0022938833835728758 0.00033711372620565149 0 0.0023228274171111607 0.00043170241693421915 0 0.0021471249903530438 0.00028719113140841259 0 0.0022938833835728758 0.00033711372620565149 0 0.0023228274171111607 0.00043170241693421915 0 0.0023756777676751939 0.00040873419070775602 0 0.0023228274171111607 0.00043170241693421915 0 0.0024262724425420188 0.00047732565686248965 0 0.0024600974271837043 0.00043664782022467027 0 0.0023756777676751939 0.00040873419070775602 0 0.0024262724425420188 0.00047732565686248965 0 0.0024600974271837043 0.00043664782022467027 0 0.0024262724425420188 0.00047732565686248965 0 0.0024900693712656056 0.00049012719235989172 0 0.0024262724425420188 0.00047732565686248965 0 0.0024133420463910669 0.00053086778218506842 0 0.0025080707148274445 0.00053148735286099571 0 0.0024262724425420188 0.00047732565686248965 0 0.0025080707148274445 0.00053148735286099571 0 0.0024900693712656056 0.00049012719235989172 0 0.0023228274171111607 0.00043170241693421915 0 0.0024262724425420188 0.00047732565686248965 0 0.0024133420463910669 0.00053086778218506842 0 0.002314118589117866 0.00060469048151010724 0 0.0024133420463910669 0.00053086778218506842 0 0.0023861935268308311 0.00073198751957296389 0 0.0024133420463910669 0.00053086778218506842 0 0.0026177347983707207 0.00055405171773905586 0 0.0025618675429582558 0.00054842162343966664 0 0.0024133420463910669 0.00053086778218506842 0 0.0025239435950681057 0.00054441350856250699 0 0.0025618675429582558 0.00054842162343966664 0 0.0022994787971342412 0.0005198708174718816 0 0.0029557743506342391 0.00068011942356442949 0 0.0025080707148274445 0.00053148735286099571 0 0.0025239435950681057 0.00054441350856250699 0 0.0025784839558280976 0.00054466612802954114 0 0.0024133420463910669 0.00053086778218506842 0 0.0025080707148274445 0.00053148735286099571 0 0.0025239435950681057 0.00054441350856250699 0 0.0025080707148274445 0.00053148735286099571 0 0.0025501826968265971 0.00053132859624854508 0 0.0025784839558280976 0.00054466612802954114 0 0.0025501826968265971 0.00053132859624854508 0 0.0025272150905002247 0.00051573801084237828 0 0.0025483566345497191 0.0005150407688259026 0 0.0025080707148274445 0.00053148735286099571 0 0.0025501826968265971 0.00053132859624854508 0 0.0025272150905002247 0.00051573801084237828 0 0.0025080707148274445 0.00053148735286099571 0 0.0025272150905002247 0.00051573801084237828 0 0.0024900693712656056 0.00049012719235989172 0 0.0025272150905002247 0.00051573801084237828 0 0.0024900693712656056 0.00049012719235989172 0 0.0025362276000570525 0.00048995669684434432 0 0.0025272150905002247 0.00051573801084237828 0 0.0025362276000570525 0.00048995669684434432 0 0.0025483566345497191 0.0005150407688259026 0 0.0025362276000570525 0.00048995669684434432 0 0.0025483566345497191 0.0005150407688259026 0 0.0025614675248244851 0.00050335431179232353 0 0.0025483566345497191 0.0005150407688259026 0 0.0025614675248244851 0.00050335431179232353 0 0.0025489502765513677 0.00049555978692796823 0 0.0025651487778065533 0.00048446506314667333 0 0.0025454308785790259 0.00049256304213650675 0 0.0025382628771626076 0.00046198276876882523 0 0.0025652293130214538 0.00047014370332193911 0 0.0025489502765513677 0.00049555978692796823 0 0.0025382628771626076 0.00046198276876882523 0 0.0025652293130214538 0.00047014370332193911 0 0.002547030870860981 0.00044602748698435908 0 0.0026249894871825429 0.00024387362478036687 0 0.0025908941175898179 0.0003786071689170746 0 0.0025652293130214538 0.00047014370332193911 0 0.0025845554257092969 0.00045964612870983529 0 0.0025827238190599504 0.00048031587435268312 0 0.0025652293130214538 0.00047014370332193911 0 0.002572764120362339 0.00044662307268553559 0 0.002547030870860981 0.00044602748698435908 0 0.0025652293130214538 0.00047014370332193911 0 0.0025845554257092969 0.00045964612870983529 0 0.002572764120362339 0.00044662307268553559 0 0.0026249894871825429 0.00024387362478036687 0 0.0024437345503570706 0.00032958239102358464 0 0.002618687723824177 9.0021828621281952e-05 0 0.0026317653470991436 -3.4579620030545768e-05 0 0.0026693437439201041 3.1937189737395218e-05 0 0.0025845554257092969 0.00045964612870983529 0 0.002572764120362339 0.00044662307268553559 0 0.0025857478614188601 0.00043275834922913708 0 0.002572764120362339 0.00044662307268553559 0 0.0025593252602126347 0.0004345481811077882 0 0.002547030870860981 0.00044602748698435908 0 0.002572764120362339 0.00044662307268553559 0 0.0025593252602126347 0.0004345481811077882 0 0.0025857478614188601 0.00043275834922913708 0 0.0021341621813318066 0.00051960770374114549 0 0.0021525933215685088 0.00050485710488566953 0 0.0021222468056570172 0.00048964811772115181 0 0.0023087647604631352 0.0005026643963305465 0 0.0024437345503570706 0.00032958239102358464 0 0.0021341621813318066 0.00051960770374114549 0 0.0021525933215685088 0.00050485710488566953 0 0.0021758951156079379 0.00051743978741142541 0 0.0021525933215685088 0.00050485710488566953 0 0.0021764224848472825 0.00050310436625760247 0 0.0021758951156079379 0.00051743978741142541 0 0.0023058662022784103 0.00035499639981829864 0 0.0025170577808050669 0.00023799681234445302 0 0.0021764224848472825 0.00050310436625760247 0 0.0021665705309927103 0.00049113172418780251 0 0.0021885621987692339 0.00051299141092878131 0 0.0022822455119810201 0.00052961775425601585 0 0.0024437345503570706 0.00032958239102358464 0 0.0025382628771626076 0.00046198276876882523 0 0.002547030870860981 0.00044602748698435908 0 0.0025314626024530353 0.00043518513207587421 0 0.0025362276000570525 0.00048995669684434432 0 0.0025614675248244851 0.00050335431179232353 0 0.0025622685725708964 0.0004362013089753743 0 0.0025651487778065533 0.00048446506314667333 0 0.0024248337142555149 0.00043152194336413792 0 0.0025593252602126347 0.0004345481811077882 0 0.002547030870860981 0.00044602748698435908 0 0.0025314626024530353 0.00043518513207587421 0 0.0021341621813318066 0.00051960770374114549 0 0.0021061155604763294 0.00050028492055828827 0 0.0021222468056570172 0.00048964811772115181 0 0.0023087647604631352 0.0005026643963305465 0 0.0024248337142555149 0.00043152194336413792 0 0.0020880569891936441 0.00048514724879398434 0 0.0021061155604763294 0.00050028492055828827 0 0.0020979091324987899 0.00051963552460047694 0 0.0021341621813318066 0.00051960770374114549 0 0.0021061155604763294 0.00050028492055828827 0 0.0020979091324987899 0.00051963552460047694 0 0.0023557786104734285 0.00039211755735293479 0 0.0024248337142555149 0.00043152194336413792 0 0.0020880569891936441 0.00048514724879398434 0 0.0021061155604763294 0.00050028492055828827 0 0.0021222468056570172 0.00048964811772115181 0 0.0020880569891936441 0.00048514724879398434 0 0.0021222468056570172 0.00048964811772115181 0 0.0021060378711538316 0.00045430794840880916 0 0.002078893968653699 0.00045058297597391333 0 0.0020880569891936441 0.00048514724879398434 0 0.0021060378711538316 0.00045430794840880916 0 0.0021286009208478472 0.00047376610127322166 0 0.0021222661937392549 0.00044849783455740486 0 0.0021060378711538316 0.00045430794840880916 0 0.0021222468056570172 0.00048964811772115181 0 0.0021286009208478472 0.00047376610127322166 0 0.0021060378711538316 0.00045430794840880916 0 0.0021525933215685088 0.00050485710488566953 0 0.0021222468056570172 0.00048964811772115181 0 0.0021457331997450754 0.00048781427032483911 0 0.0021222468056570172 0.00048964811772115181 0 0.0021457331997450754 0.00048781427032483911 0 0.0021286009208478472 0.00047376610127322166 0 0.0021525933215685088 0.00050485710488566953 0 0.0021764224848472825 0.00050310436625760247 0 0.0021665705309927103 0.00049113172418780251 0 0.0021457331997450754 0.00048781427032483911 0 0.0021665705309927103 0.00049113172418780251 0 0.0021569820289896778 0.00047632429029169251 0 0.0021525933215685088 0.00050485710488566953 0 0.0021457331997450754 0.00048781427032483911 0 0.0021665705309927103 0.00049113172418780251 0 0.0024733204463334474 0.00019782167663015993 0 0.0024372899865408174 0.0002024442791309624 0 0.0024931550242529858 0.00018882228900224534 0 0.0024733204463334474 0.00019782167663015993 0 0.0024372899865408174 0.0002024442791309624 0 0.0023538834129801225 0.00022344006559592939 0 0.0023058662022784103 0.00035499639981829864 0 0.002250337864540292 0.00034041533109076749 0 0.0024372899865408174 0.0002024442791309624 0 0.0024468493061555957 0.00019397105969050699 0 0.0024931550242529858 0.00018882228900224534 0 0.0024372899865408174 0.0002024442791309624 0 0.0024067240992435186 0.00020593208069822106 0 0.0024468493061555957 0.00019397105969050699 0 0.0024067240992435186 0.00020593208069822106 0 0.0023538834129801225 0.00022344006559592939 0 0.0023832600718684065 0.00020135280644644849 0 0.0024372899865408174 0.0002024442791309624 0 0.0024067240992435186 0.00020593208069822106 0 0.0023538834129801225 0.00022344006559592939 0 0.0024067240992435186 0.00020593208069822106 0 0.0023832600718684065 0.00020135280644644849 0 0.0024468493061555957 0.00019397105969050699 0 0.0021457331997450754 0.00048781427032483911 0 0.0021286009208478472 0.00047376610127322166 0 0.0021569820289896778 0.00047632429029169251 0 0.0021286009208478472 0.00047376610127322166 0 0.0021569820289896778 0.00047632429029169251 0 0.0021222661937392549 0.00044849783455740486 0 0.0023538834129801225 0.00022344006559592939 0 0.0023089700896199218 0.0001984335149173989 0 0.0021827988958420894 0.00020948375914996942 0 0.002250337864540292 0.00034041533109076749 0 0.002126688852595681 0.00026938762816446641 0 0.0021569820289896778 0.00047632429029169251 0 0.0021222661937392549 0.00044849783455740486 0 0.0020856880361396117 0.00035047159928160664 0 0.0023832600718684065 0.00020135280644644849 0 0.0024275963976386132 0.00018158701573268662 0 0.0024468493061555957 0.00019397105969050699 0 0.0023538834129801225 0.00022344006559592939 0 0.0023832600718684065 0.00020135280644644849 0 0.0023089700896199218 0.0001984335149173989 0 0.0023832600718684065 0.00020135280644644849 0 0.0023089700896199218 0.0001984335149173989 0 0.0023645590919263008 0.00017160217970456435 0 0.0023832600718684065 0.00020135280644644849 0 0.0023645590919263008 0.00017160217970456435 0 0.0024275963976386132 0.00018158701573268662 0 0.0023645590919263008 0.00017160217970456435 0 0.00224925991042558 0.00015965313572710471 0 0.0023719523147457296 0.00011976587553708251 0 0.0023089700896199218 0.0001984335149173989 0 0.0023645590919263008 0.00017160217970456435 0 0.00224925991042558 0.00015965313572710471 0 0.0019756177672565541 0.00014384720664858337 0 0.0021827988958420894 0.00020948375914996942 0 0.00224925991042558 0.00015965313572710471 0 0.0023089700896199218 0.0001984335149173989 0 0.0021827988958420894 0.00020948375914996942 0 0.00224925991042558 0.00015965313572710471 0 0.0019756177672565541 0.00014384720664858337 0 0.0019486949042337766 0.00031585437542651801 0 0.0018185561397790636 0.00029457747413741186 0 0.0019925988818129746 0.00014165476822157295 0 0.002126688852595681 0.00026938762816446641 0 0.0019756177672565541 0.00014384720664858337 0 0.0020856880361396117 0.00035047159928160664 0 0.0019486949042337766 0.00031585437542651801 0 0.0019841233155628844 0.00030441009749205801 0 0.0019911874581989295 0.00046698586336050944 0 0.0019486949042337766 0.00031585437542651801 0 0.0018185561397790636 0.00029457747413741186 0 0.0019153704506852829 0.00046459423725818774 0 0.0016866123693299289 0.00044766016016269475 0 0.0018185561397790636 0.00029457747413741186 0 0.0019153704506852829 0.00046459423725818774 0 0.0021222661937392549 0.00044849783455740486 0 0.0020856880361396117 0.00035047159928160664 0 0.0019153704506852829 0.00046459423725818774 0 0.0021194288899996508 0.00045180284842138275 0 0.0019911874581989295 0.00046698586336050944 0 0.0020856880361396117 0.00035047159928160664 0 0.0019486949042337766 0.00031585437542651801 0 0.0019153704506852829 0.00046459423725818774 0 0.0025170184147549962 0.00016580967527411055 0 0.0024748565686264347 0.00014982803233912778 0 0.0025646713147541443 0.00017687075675639963 0 0.0025550756627767419 0.00014431863217563126 0 0.0024748565686264347 0.00014982803233912778 0 0.0025646713147541443 0.00017687075675639963 0 0.0025550756627767419 0.00014431863217563126 0 0.0025237096861941335 9.3108885873761517e-05 0 0.0024748565686264347 0.00014982803233912778 0 0.0024430028496788157 1.9778026742102154e-05 0 0.0025237096861941335 9.3108885873761517e-05 0 0.0024748565686264347 0.00014982803233912778 0 0.0021954562400341815 5.7011022441361283e-05 0 0.0024430028496788157 1.9778026742102154e-05 0 0.0024748565686264347 0.00014982803233912778 0 0.0023334437829195757 7.9346658102886404e-05 0 0.0024567244946056416 0.00014627407200374013 0 0.0024707872607600285 0.00011391759846140622 0 0.0024748565686264347 0.00014982803233912778 0 0.0024568243113971913 0.00015362003613632292 0 0.0023645590919263008 0.00017160217970456435 0 0.0024568243113971913 0.00015362003613632292 0 0.0023719523147457296 0.00011976587553708251 0 0.0024707872607600285 0.00011391759846140622 0 0.0024568243113971913 0.00015362003613632292 0 0.0023719523147457296 0.00011976587553708251 0 0.0023645590919263008 0.00017160217970456435 0 0.0024568243113971913 0.00015362003613632292 0 0.0024275963976386132 0.00018158701573268662 0 0.0024568243113971913 0.00015362003613632292 0 0.0024825793348989384 0.00017556079125599107 0 0.0024275963976386132 0.00018158701573268662 0 0.0024825793348989384 0.00017556079125599107 0 0.0024275963976386132 0.00018158701573268662 0 0.0024468493061555957 0.00019397105969050699 0 0.0025170184147549962 0.00016580967527411055 0 0.0024748565686264347 0.00014982803233912778 0 0.0024568243113971913 0.00015362003613632292 0 0.0025170184147549962 0.00016580967527411055 0 0.0024568243113971913 0.00015362003613632292 0 0.0024825793348989384 0.00017556079125599107 0 0.0025170184147549962 0.00016580967527411055 0 0.002535515576138965 0.00017522248764785485 0 0.0025878546339130628 0.00016810554463976554 0 0.0025170184147549962 0.00016580967527411055 0 0.0024825793348989384 0.00017556079125599107 0 0.002535515576138965 0.00017522248764785485 0 0.0024825793348989384 0.00017556079125599107 0 0.0024468493061555957 0.00019397105969050699 0 0.0024901970432931568 0.0001842814634849478 0 0.0024825793348989384 0.00017556079125599107 0 0.002535515576138965 0.00017522248764785485 0 0.0024901970432931568 0.0001842814634849478 0 0.002535515576138965 0.00017522248764785485 0 0.0024901970432931568 0.0001842814634849478 0 0.0024931550242529858 0.00018882228900224534 0 0.0024468493061555957 0.00019397105969050699 0 0.0024901970432931568 0.0001842814634849478 0 0.0024931550242529858 0.00018882228900224534 0 0.0024733204463334474 0.00019782167663015993 0 0.0024931550242529858 0.00018882228900224534 0 0.0025443366398858525 0.00017748809436130176 0 0.0024733204463334474 0.00019782167663015993 0 0.0025443366398858525 0.00017748809436130176 0 0.0025762531595736157 0.00017370093350577311 0 0.002535515576138965 0.00017522248764785485 0 0.0024931550242529858 0.00018882228900224534 0 0.0025443366398858525 0.00017748809436130176 0 0.0025443366398858525 0.00017748809436130176 0 0.0026000907760434658 0.00016333300394451742 0 0.0025762531595736157 0.00017370093350577311 0 0.0026000907760434658 0.00016333300394451742 0 0.0025878546339130628 0.00016810554463976554 0 0.0026547084282054698 0.00013783655638407506 0 0.002535515576138965 0.00017522248764785485 0 0.0026000907760434658 0.00016333300394451742 0 0.0025878546339130628 0.00016810554463976554 0 0.002535515576138965 0.00017522248764785485 0 0.0025443366398858525 0.00017748809436130176 0 0.0026000907760434658 0.00016333300394451742 0 0.0025878546339130628 0.00016810554463976554 0 0.0026261219037482684 0.00015448181643438184 0 0.0026547084282054698 0.00013783655638407506 0 0.0025170184147549962 0.00016580967527411055 0 0.0025878546339130628 0.00016810554463976554 0 0.0025646713147541443 0.00017687075675639963 0 0.0025878546339130628 0.00016810554463976554 0 0.0025646713147541443 0.00017687075675639963 0 0.0026261219037482684 0.00015448181643438184 0 0.0025646713147541443 0.00017687075675639963 0 0.0026261219037482684 0.00015448181643438184 0 0.0025787219283314486 0.00017693830820527141 0 0.0026261219037482684 0.00015448181643438184 0 0.0027095332977180044 8.3012774988697522e-05 0 0.0026004556099659816 8.0496526659652775e-05 0 0.0026261219037482684 0.00015448181643438184 0 0.0026547084282054698 0.00013783655638407506 0 0.0027095332977180044 8.3012774988697522e-05 0 0.0026547084282054698 0.00013783655638407506 0 0.0027164293740351672 9.2247581456245876e-05 0 0.0027095332977180044 8.3012774988697522e-05 0 0.0027164293740351672 9.2247581456245876e-05 0 0.0027095332977180044 8.3012774988697522e-05 0 0.002810930840413858 4.9110836254517899e-05 0 0.0027095332977180044 8.3012774988697522e-05 0 0.002810930840413858 4.9110836254517899e-05 0 0.0027780872464625672 5.8064237618629503e-05 0 0.0026666542437835854 7.4297802717252664e-05 0 0.0028363988648165148 1.3425351922523942e-05 0 0.0024733204463334474 0.00019782167663015993 0 0.0025593395713347776 0.00020097160694922727 0 0.0025762531595736157 0.00017370093350577311 0 0.0021764224848472825 0.00050310436625760247 0 0.0021787673207967718 0.00051331402128689787 0 0.0021885621987692339 0.00051299141092878131 0 0.0024437345503570706 0.00032958239102358464 0 0.0025170577808050669 0.00023799681234445302 0 0.0025593395713347776 0.00020097160694922727 0 0.0025762531595736157 0.00017370093350577311 0 0.0026572959756683058 0.0001485826866468001 0 0.0025170577808050669 0.00023799681234445302 0 0.0026758919690271338 0.00016778261073152048 0 0.0026547084282054698 0.00013783655638407506 0 0.0027164293740351672 9.2247581456245876e-05 0 0.0026572959756683058 0.0001485826866468001 0 0.0026000907760434658 0.00016333300394451742 0 0.0026547084282054698 0.00013783655638407506 0 0.0026572959756683058 0.0001485826866468001 0 0.0026000907760434658 0.00016333300394451742 0 0.0025762531595736157 0.00017370093350577311 0 0.0026572959756683058 0.0001485826866468001 0 0.0027164293740351672 9.2247581456245876e-05 0 0.0026572959756683058 0.0001485826866468001 0 0.0027372686080859993 7.5130485851601742e-05 0 0.0025170577808050669 0.00023799681234445302 0 0.0027692596578124127 1.0378575574117369e-05 0 0.0026635124100111711 -3.604869117956442e-05 0 0.0026693437439201041 3.1937189737395218e-05 0 0.0027372686080859993 7.5130485851601742e-05 0 0.0026927591723639572 0.00014740079808411396 0 0.0026572959756683058 0.0001485826866468001 0 0.0027372686080859993 7.5130485851601742e-05 0 0.0026317653470991436 -3.4579620030545768e-05 0 0.0026635124100111711 -3.604869117956442e-05 0 0.0026693437439201041 3.1937189737395218e-05 0 0.002618687723824177 9.0021828621281952e-05 0 0.0026693437439201041 3.1937189737395218e-05 0 0.0027372686080859993 7.5130485851601742e-05 0 0.0027372686080859993 7.5130485851601742e-05 0 0.0028353025654118975 0.00010446759448190983 0 0.0027549149589199936 0.00022234423520204105 0 0.002618687723824177 9.0021828621281952e-05 0 0.0027372686080859993 7.5130485851601742e-05 0 0.0027549149589199936 0.00022234423520204105 0 0.002618687723824177 9.0021828621281952e-05 0 0.0027549149589199936 0.00022234423520204105 0 0.0026028580532446799 0.00025778302351028349 0 0.0030085512374582266 -0.00015716875122694405 0 0.0028363988648165148 1.3425351922523942e-05 0 0.002810930840413858 4.9110836254517899e-05 0 0.0029745903175389513 -6.6968045744021738e-07 0 0.0027780872464625672 5.8064237618629503e-05 0 0.0027372686080859993 7.5130485851601742e-05 0 0.002810930840413858 4.9110836254517899e-05 0 0.0028353025654118975 0.00010446759448190983 0 0.0027164293740351672 9.2247581456245876e-05 0 0.0027372686080859993 7.5130485851601742e-05 0 0.002810930840413858 4.9110836254517899e-05 0 0.002810930840413858 4.9110836254517899e-05 0 0.0028353025654118975 0.00010446759448190983 0 0.0029745903175389513 -6.6968045744021738e-07 0 0.0028353025654118975 0.00010446759448190983 0 0.0029745903175389513 -6.6968045744021738e-07 0 0.0029222902695864024 0.00025617549259161196 0 0.0029745903175389513 -6.6968045744021738e-07 0 0.0029222902695864024 0.00025617549259161196 0 0.0031499071540943041 0.0001994657126458431 0 0.0029222902695864024 0.00025617549259161196 0 0.0031488726251469186 0.00039802539627699547 0 0.0031499071540943041 0.0001994657126458431 0 0.0028353025654118975 0.00010446759448190983 0 0.0029222902695864024 0.00025617549259161196 0 0.0027549149589199936 0.00022234423520204105 0 0.0029222902695864024 0.00025617549259161196 0 0.0029836361839602624 0.0004032108973581203 0 0.0028576555630718506 0.00041576887429461485 0 0.0029836361839602624 0.0004032108973581203 0 0.0030233568432394995 0.00053932099592022089 0 0.0028576555630718506 0.00041576887429461485 0 0.0029222902695864024 0.00025617549259161196 0 0.0029836361839602624 0.0004032108973581203 0 0.0031488726251469186 0.00039802539627699547 0 0.0029836361839602624 0.0004032108973581203 0 0.0031488726251469186 0.00039802539627699547 0 0.0030233568432394995 0.00053932099592022089 0 0.0031923721335286696 0.00060741710231388291 0 0.0030233568432394995 0.00053932099592022089 0 0.0030673434723792062 0.00064381098664075182 0 0.0031488726251469186 0.00039802539627699547 0 0.0031923721335286696 0.00060741710231388291 0 0.0030233568432394995 0.00053932099592022089 0 0.0030233568432394995 0.00053932099592022089 0 0.0030673434723792062 0.00064381098664075182 0 0.0029139653084417107 0.00057593196414339794 0 0.0030233568432394995 0.00053932099592022089 0 0.0029139653084417107 0.00057593196414339794 0 0.0028576555630718506 0.00041576887429461485 0 0.0030673434723792062 0.00064381098664075182 0 0.0030442740417839791 0.00067864081755163272 0 0.0029139653084417107 0.00057593196414339794 0 0.0030430821811817501 0.00069526862142618511 0 0.0031235743612669656 0.00071595087560503306 0 0.0030673434723792062 0.00064381098664075182 0 0.0030442740417839791 0.00067864081755163272 0 0.0031599097437762353 0.00072600276274888706 0 0.0031923721335286696 0.00060741710231388291 0 0.0030673434723792062 0.00064381098664075182 0 0.0031599097437762353 0.00072600276274888706 0 0.003614424476745546 0.00085875913015713524 0 0.0033138879362711073 0.00080097760565673996 0 0.0027361169664336478 0.0005624893770340702 0 0.0026105237043455229 0.00058379366580517964 0 0.0028383530590399479 0.00070891809499977194 0 0.0030442740417839791 0.00067864081755163272 0 0.0029139653084417107 0.00057593196414339794 0 0.0028383530590399479 0.00070891809499977194 0 0.0027361169664336478 0.0005624893770340702 0 0.0029139653084417107 0.00057593196414339794 0 0.0028383530590399479 0.00070891809499977194 0 0.0027361169664336478 0.0005624893770340702 0 0.0029139653084417107 0.00057593196414339794 0 0.0027907461350487428 0.00047609152055191342 0 0.0029139653084417107 0.00057593196414339794 0 0.0027907461350487428 0.00047609152055191342 0 0.0028576555630718506 0.00041576887429461485 0 0.0027361169664336478 0.0005624893770340702 0 0.0027907461350487428 0.00047609152055191342 0 0.0026748897242035888 0.0004894263067167264 0 0.0027361169664336478 0.0005624893770340702 0 0.0026748897242035888 0.0004894263067167264 0 0.0026364114463884552 0.00053391554080183673 0 0.0027907461350487428 0.00047609152055191342 0 0.0026748897242035888 0.0004894263067167264 0 0.0027116265688131988 0.00040449104082641765 0 0.0027116265688131988 0.00040449104082641765 0 0.0028576555630718506 0.00041576887429461485 0 0.0027549149589199936 0.00022234423520204105 0 0.0027907461350487428 0.00047609152055191342 0 0.0027116265688131988 0.00040449104082641765 0 0.0028576555630718506 0.00041576887429461485 0 0.0029222902695864024 0.00025617549259161196 0 0.0028576555630718506 0.00041576887429461485 0 0.0027549149589199936 0.00022234423520204105 0 0.0027116265688131988 0.00040449104082641765 0 0.0027549149589199936 0.00022234423520204105 0 0.0026028580532446799 0.00025778302351028349 0 0.0025652293130214538 0.00047014370332193911 0 0.0025827238190599504 0.00048031587435268312 0 0.0025677364136075759 0.00048656620154903605 0 0.0025827238190599504 0.00048031587435268312 0 0.0025677364136075759 0.00048656620154903605 0 0.0025812900865274501 0.00048705123297357192 0 0.0025677364136075759 0.00048656620154903605 0 0.0025812900865274501 0.00048705123297357192 0 0.0025702703725173533 0.0004937717088555481 0 0.0025812900865274501 0.00048705123297357192 0 0.0025856911761098595 0.0004922480750168606 0 0.0025702703725173533 0.0004937717088555481 0 0.0027116265688131988 0.00040449104082641765 0 0.0026028580532446799 0.00025778302351028349 0 0.0025997570997440119 0.00048638256990463834 0 0.0025908941175898179 0.0003786071689170746 0 0.0025982054284994535 0.00047696413225085206 0 0.0025827238190599504 0.00048031587435268312 0 0.0025812900865274501 0.00048705123297357192 0 0.0025997570997440119 0.00048638256990463834 0 0.0025489502765513677 0.00049555978692796823 0 0.0025468100824078666 0.00049205916603159037 0 0.0025515524309723723 0.00051095779155942514 0 0.0025652293130214538 0.00047014370332193911 0 0.0025677364136075759 0.00048656620154903605 0 0.0025489502765513677 0.00049555978692796823 0 0.0025677364136075759 0.00048656620154903605 0 0.0025489502765513677 0.00049555978692796823 0 0.0025555348687864056 0.00049098366104092074 0 0.0025555348687864056 0.00049098366104092074 0 0.0025468100824078666 0.00049205916603159037 0 0.0025503068324824298 0.00049586694899763685 0 0.0025677364136075759 0.00048656620154903605 0 0.0025555348687864056 0.00049098366104092074 0 0.0025702703725173533 0.0004937717088555481 0 0.0025489502765513677 0.00049555978692796823 0 0.0025555348687864056 0.00049098366104092074 0 0.0025468100824078666 0.00049205916603159037 0 0.002600178777690902 0.00045519852091288702 0 0.0026165401406254623 0.00042742704593367627 0 0.0026375194312551458 0.00041922850172002718 0 0.0025747104556156121 0.00047550420732210422 0 0.0025974123774840318 0.0004425504559298781 0 0.0025468100824078666 0.00049205916603159037 0 0.0025503068324824298 0.00049586694899763685 0 0.002551291235188699 0.00046469322898301979 0 0.002600178777690902 0.00045519852091288702 0 0.0025947813254408479 0.00045605558358521474 0 0.0025931572662732318 0.00050171058361799946 0 0.0025555348687864056 0.00049098366104092074 0 0.0025503068324824298 0.00049586694899763685 0 0.0025702703725173533 0.0004937717088555481 0 0.002600178777690902 0.00045519852091288702 0 0.0025947813254408479 0.00045605558358521474 0 0.0026165401406254623 0.00042742704593367627 0 0.0025947813254408479 0.00045605558358521474 0 0.002610118931275929 0.00041488226486714047 0 0.0025711068183193967 0.00044366839188833204 0 0.0034899336064747439 0.00051888513380125617 0 0.003850848573461465 0.00061615042507971144 0 0.002610118931275929 0.00041488226486714047 0 0.0025711068183193967 0.00044366839188833204 0 0.0025988389266929325 0.00038996524509937058 0 0.0025313139927717583 0.0003642642590769494 0 0.0034899336064747439 0.00051888513380125617 0 0.0025947813254408479 0.00045605558358521474 0 0.002610118931275929 0.00041488226486714047 0 0.0026165401406254623 0.00042742704593367627 0 0.0026340034171427828 0.00039388228621970513 0 0.0026165401406254623 0.00042742704593367627 0 0.0026375194312551458 0.00041922850172002718 0 0.002610118931275929 0.00041488226486714047 0 0.0026340034171427828 0.00039388228621970513 0 0.0026165401406254623 0.00042742704593367627 0 0.0026748897242035888 0.0004894263067167264 0 0.0027116265688131988 0.00040449104082641765 0 0.0025997570997440119 0.00048638256990463834 0 0.0026117749708436887 0.00051032531862418753 0 0.0025931572662732318 0.00050171058361799946 0 0.0025974930863283258 0.00051942601519240226 0 0.0026117749708436887 0.00051032531862418753 0 0.0026364114463884552 0.00053391554080183673 0 0.0025974930863283258 0.00051942601519240226 0 0.0026748897242035888 0.0004894263067167264 0 0.0026117749708436887 0.00051032531862418753 0 0.0026364114463884552 0.00053391554080183673 0 0.0026748897242035888 0.0004894263067167264 0 0.0026117749708436887 0.00051032531862418753 0 0.0025997570997440119 0.00048638256990463834 0 0.0025812900865274501 0.00048705123297357192 0 0.0025997570997440119 0.00048638256990463834 0 0.0025856911761098595 0.0004922480750168606 0 0.0025997570997440119 0.00048638256990463834 0 0.0025931572662732318 0.00050171058361799946 0 0.0025856911761098595 0.0004922480750168606 0 0.0026117749708436887 0.00051032531862418753 0 0.0025997570997440119 0.00048638256990463834 0 0.0025931572662732318 0.00050171058361799946 0 0.0025947813254408479 0.00045605558358521474 0 0.0025931572662732318 0.00050171058361799946 0 0.0025974930863283258 0.00051942601519240226 0 0.0025931572662732318 0.00050171058361799946 0 0.0025856911761098595 0.0004922480750168606 0 0.0025702703725173533 0.0004937717088555481 0 0.0025503068324824298 0.00049586694899763685 0 0.0025931572662732318 0.00050171058361799946 0 0.0025702703725173533 0.0004937717088555481 0 0.0025747104556156121 0.00047550420732210422 0 0.0025900347525545683 0.00049763004008370902 0 0.0049191919865671794 0.0011980341329647943 0 0.0045058307755080499 0.0010939233486175818 0 0.0048269061305689365 0.0008800808424588505 0 0.0025947813254408479 0.00045605558358521474 0 0.0025938340880283708 0.00048994111596890519 0 0.0025974930863283258 0.00051942601519240226 0 0.0034899336064747439 0.00051888513380125617 0 0.003614424476745546 0.00085875913015713524 0 0.0025938340880283708 0.00048994111596890519 0 0.0026105237043455229 0.00058379366580517964 0 0.0025974930863283258 0.00051942601519240226 0 0.0049191919865671794 0.0011980341329647943 0 0.0048269061305689365 0.0008800808424588505 0 0.0051205967034846896 0.00075244313618433518 0 0.0027361169664336478 0.0005624893770340702 0 0.0026364114463884552 0.00053391554080183673 0 0.0026105237043455229 0.00058379366580517964 0 0.0026364114463884552 0.00053391554080183673 0 0.0026105237043455229 0.00058379366580517964 0 0.0025974930863283258 0.00051942601519240226 0 0.0045058307755080499 0.0010939233486175818 0 0.004265030573150949 0.00071277152143360057 0 0.0046251357428264356 0.00069416316121398327 0 0.004265030573150949 0.00071277152143360057 0 0.0046251357428264356 0.00069416316121398327 0 0.0044333301019886936 0.00042145866113217422 0 0.0045058307755080499 0.0010939233486175818 0 0.0046251357428264356 0.00069416316121398327 0 0.0048269061305689365 0.0008800808424588505 0 0.0046251357428264356 0.00069416316121398327 0 0.0048269061305689365 0.0008800808424588505 0 0.004885363080173703 0.00063564693916654674 0 0.0048269061305689365 0.0008800808424588505 0 0.004885363080173703 0.00063564693916654674 0 0.0051205967034846896 0.00075244313618433518 0 0.0046251357428264356 0.00069416316121398327 0 0.004885363080173703 0.00063564693916654674 0 0.0048162500890779813 0.00041111322658762524 0 0.004885363080173703 0.00063564693916654674 0 0.0048162500890779813 0.00041111322658762524 0 0.0050228512335803817 0.00045576547681894372 0 0.0048162500890779813 0.00041111322658762524 0 0.0048011457120450381 0.00013865786525123908 0 0.004970748713915259 0.00016729938291551756 0 0.0048162500890779813 0.00041111322658762524 0 0.0050228512335803817 0.00045576547681894372 0 0.004970748713915259 0.00016729938291551756 0 0.0044333301019886936 0.00042145866113217422 0 0.0048011457120450381 0.00013865786525123908 0 0.004066644558621965 7.5732121464733859e-05 0 0.0048162500890779813 0.00041111322658762524 0 0.0044333301019886936 0.00042145866113217422 0 0.0048011457120450381 0.00013865786525123908 0 0.0046251357428264356 0.00069416316121398327 0 0.0048162500890779813 0.00041111322658762524 0 0.0044333301019886936 0.00042145866113217422 0 0.0026340034171427828 0.00039388228621970513 0 0.0026265950363656529 0.00038300188044986764 0 0.002630542712976074 0.00037239571317055058 0 0.002610118931275929 0.00041488226486714047 0 0.0026340034171427828 0.00039388228621970513 0 0.0026265950363656529 0.00038300188044986764 0 0.0026265950363656529 0.00038300188044986764 0 0.0026231851709359981 0.00037061637280457035 0 0.0026434671447914276 0.00035918863745737863 0 0.0027154008110991542 0.00045370236423615355 0 0.0030373961907937614 0.00022223728977538237 0 0.0026265950363656529 0.00038300188044986764 0 0.0025988389266929325 0.00038996524509937058 0 0.0026231851709359981 0.00037061637280457035 0 0.002610118931275929 0.00041488226486714047 0 0.0026265950363656529 0.00038300188044986764 0 0.0025988389266929325 0.00038996524509937058 0 0.004885363080173703 0.00063564693916654674 0 0.0051205967034846896 0.00075244313618433518 0 0.0050228512335803817 0.00045576547681894372 0 0.0025988389266929325 0.00038996524509937058 0 0.0026260840182036962 0.00034928220813073814 0 0.0026231851709359981 0.00037061637280457035 0 0.0051205967034846896 0.00075244313618433518 0 0.0050228512335803817 0.00045576547681894372 0 0.0052983692508329037 0.00032914102575355757 0 0.003850848573461465 0.00061615042507971144 0 0.0041588865710227236 0.00036900410040859618 0 0.0050228512335803817 0.00045576547681894372 0 0.0052983692508329037 0.00032914102575355757 0 0.004970748713915259 0.00016729938291551756 0 0.0041588865710227236 0.00036900410040859618 0 0.0052080067549793354 0.0003277013718254011 0 0.0030373961907937614 0.00022223728977538237 0 0.0033943487703273116 0.00015293683043879886 0 0.003802066181980777 0.00033238773797026591 0 0.0039029801402354629 0.00038665618593351395 0 0.003903198831915269 0.00012212143977987294 0 0.0028354731032956587 0.00024488406792670301 0 0.0028550771195658734 0.00013917273995841926 0 0.0029132717530439673 0.0002137690634306127 0 0.0041588865710227236 0.00036900410040859618 0 0.0030373961907937614 0.00022223728977538237 0 0.0026260840182036962 0.00034928220813073814 0 0.0026231851709359981 0.00037061637280457035 0 0.0026434671447914276 0.00035918863745737863 0 0.0039029801402354629 0.00038665618593351395 0 0.003903198831915269 0.00012212143977987294 0 0.0040014337106268538 0.00013929154305525034 0 0.0041588865710227236 0.00036900410040859618 0 0.004497908745573864 8.0062153540227414e-05 0 0.0050697470870742717 9.9590146319134367e-05 0 0.0050099848577172526 0.00011891540018559283 0 0.0050038255411379729 2.4046640557192263e-05 0 0.0050268125365255743 0.00019424019903231318 0 0.0050697470870742717 9.9590146319134367e-05 0 0.0050099848577172526 0.00011891540018559283 0 0.0050268125365255743 0.00019424019903231318 0 0.0050099848577172526 0.00011891540018559283 0 0.004970748713915259 0.00016729938291551756 0 0.0050099848577172526 0.00011891540018559283 0 0.0049525538937037284 8.1623980915363097e-05 0 0.004970748713915259 0.00016729938291551756 0 0.0050099848577172526 0.00011891540018559283 0 0.0049525538937037284 8.1623980915363097e-05 0 0.0050038255411379729 2.4046640557192263e-05 0 0.0050697470870742717 9.9590146319134367e-05 0 0.0050038255411379729 2.4046640557192263e-05 0 0.0051097730857395393 3.7511267991711357e-06 0 0.004497908745573864 8.0062153540227414e-05 0 0.0047855006709196903 3.5835924458316591e-05 0 0.0049372984511662074 3.0066826723048882e-05 0 0.0049686566727066327 1.3557580209375153e-05 0 0.0049501278148593713 5.7108772634318733e-06 0 0.003903198831915269 0.00012212143977987294 0 0.0040014337106268538 0.00013929154305525034 0 0.0040052919434566125 -8.9588470173289716e-05 0 0.0050203570784205405 1.83676098717605e-05 0 0.0047855006709196903 3.5835924458316591e-05 0 0.0048491610672955071 7.8440297082758785e-05 0 0.0048011457120450381 0.00013865786525123908 0 0.0048865179047958346 4.9997229550101491e-05 0 0.0047887674365433841 0.00013039002459604255 0 0.0044688814954243188 7.810565119422586e-05 0 0.0048491610672955071 7.8440297082758785e-05 0 0.0048011457120450381 0.00013865786525123908 0 0.0048630087264523187 6.5675291826232881e-05 0 0.0049525538937037284 8.1623980915363097e-05 0 0.0048011457120450381 0.00013865786525123908 0 0.0048865179047958346 4.9997229550101491e-05 0 0.0049525538937037284 8.1623980915363097e-05 0 0.0048011457120450381 0.00013865786525123908 0 0.004970748713915259 0.00016729938291551756 0 0.0050203570784205405 1.83676098717605e-05 0 0.0048727518907166331 5.1554282020969344e-05 0 0.0049372984511662074 3.0066826723048882e-05 0 0.0048865179047958346 4.9997229550101491e-05 0 0.0049096337125953786 2.090195869571254e-05 0 0.0049525538937037284 8.1623980915363097e-05 0 0.0050038255411379729 2.4046640557192263e-05 0 0.0048865179047958346 4.9997229550101491e-05 0 0.0048491610672955071 7.8440297082758785e-05 0 0.0048865179047958346 4.9997229550101491e-05 0 0.0048762351470324509 4.9540481378688738e-05 0 0.0048865179047958346 4.9997229550101491e-05 0 0.0048762351470324509 4.9540481378688738e-05 0 0.0049096337125953786 2.090195869571254e-05 0 0.0048491610672955071 7.8440297082758785e-05 0 0.0048762351470324509 4.9540481378688738e-05 0 0.0048630087264523187 6.5675291826232881e-05 0 0.0048762351470324509 4.9540481378688738e-05 0 0.0048630087264523187 6.5675291826232881e-05 0 0.004877744239411781 5.1895725736254767e-05 0 0.0044688814954243188 7.810565119422586e-05 0 0.0041825745295977854 8.0964068244392782e-05 0 0.0048630087264523187 6.5675291826232881e-05 0 0.004877744239411781 5.1895725736254767e-05 0 0.0048713549837044257 5.9344645358895406e-05 0 0.004877744239411781 5.1895725736254767e-05 0 0.0048713549837044257 5.9344645358895406e-05 0 0.0048821876780560337 4.4481676046786108e-05 0 0.0048578314594508402 6.5003066347016681e-05 0 0.0048713549837044257 5.9344645358895406e-05 0 0.0048821876780560337 4.4481676046786108e-05 0 0.0048578314594508402 6.5003066347016681e-05 0 0.0048684824378065501 4.6891519807529365e-05 0 0.0048821876780560337 4.4481676046786108e-05 0 0.0030203674952721262 0.00016076595682016945 0 0.0030924965249325615 0.00039419554209732245 0 0.0028601734137708979 0.00032979278778042003 0 0.0030203674952721262 0.00016076595682016945 0 0.0034405392813281733 9.1914598279810067e-05 0 0.0030924965249325615 0.00039419554209732245 0 0.0038528110513559024 9.3762263118759027e-05 0 0.0041825745295977854 8.0964068244392782e-05 0 0.0034405392813281733 9.1914598279810067e-05 0 0.0032844552080319232 0.00045608263027342239 0 0.0035704293250686764 0.00048933539825901716 0 0.0032844552080319232 0.00045608263027342239 0 0.0031257470911910412 0.00068282497427877458 0 0.0035704293250686764 0.00048933539825901716 0 0.0032844552080319232 0.00045608263027342239 0 0.0030924965249325615 0.00039419554209732245 0 0.0031257470911910412 0.00068282497427877458 0 0.0034405392813281733 9.1914598279810067e-05 0 0.0032844552080319232 0.00045608263027342239 0 0.0030924965249325615 0.00039419554209732245 0 0.0030924965249325615 0.00039419554209732245 0 0.0030222210266161679 0.0006411475687346991 0 0.0029222367533819319 0.00051405380341313517 0 0.0030442740417839791 0.00067864081755163272 0 0.0030320521245966537 0.00072607137547813915 0 0.0031257470911910412 0.00068282497427877458 0 0.0030924965249325615 0.00039419554209732245 0 0.0030222210266161679 0.0006411475687346991 0 0.0031257470911910412 0.00068282497427877458 0 0.0030320521245966537 0.00072607137547813915 0 0.0030222210266161679 0.0006411475687346991 0 0.0031257470911910412 0.00068282497427877458 0 0.0030320521245966537 0.00072607137547813915 0 0.0030222210266161679 0.0006411475687346991 0 0.0028938295038889155 0.00065942696841171471 0 0.0030442740417839791 0.00067864081755163272 0 0.0031257470911910412 0.00068282497427877458 0 0.0028383530590399479 0.00070891809499977194 0 0.003134639198989896 0.00070011629065141274 0 0.0033138879362711073 0.00080097760565673996 0 0.003816012022582773 0.00092410306098797195 0 0.0040019821861914549 0.0004959057043934645 0 0.0035704293250686764 0.00048933539825901716 0 0.0031257470911910412 0.00068282497427877458 0 0.003816012022582773 0.00092410306098797195 0 0.0035704293250686764 0.00048933539825901716 0 0.0045058307755080499 0.0010939233486175818 0 0.004265030573150949 0.00071277152143360057 0 0.003816012022582773 0.00092410306098797195 0 0.004265030573150949 0.00071277152143360057 0 0.003816012022582773 0.00092410306098797195 0 0.0040019821861914549 0.0004959057043934645 0 0.004066644558621965 7.5732121464733859e-05 0 0.0040019821861914549 0.0004959057043934645 0 0.0035704293250686764 0.00048933539825901716 0 0.004265030573150949 0.00071277152143360057 0 0.0044333301019886936 0.00042145866113217422 0 0.0040019821861914549 0.0004959057043934645 0 0.0044333301019886936 0.00042145866113217422 0 0.004066644558621965 7.5732121464733859e-05 0 0.0040019821861914549 0.0004959057043934645 0 0.004066644558621965 7.5732121464733859e-05 0 0.0034405392813281733 9.1914598279810067e-05 0 0.0035704293250686764 0.00048933539825901716 0 0.0041780812262464211 0.00017649174182238266 0 0.0042635932753560778 0.00018536029382741547 0 0.0041878723470536528 0.00036122960904361455 0 0.0042669403066164478 0.00040092244597606289 0 0.0043371850128041799 0.00041265052689375218 0 0.0041464061949490231 2.3662793175996032e-05 0 0.004174564258438096 2.4201982180012839e-06 0 0.0041883744580120718 -3.0474663947509551e-05 0 0.0041464061949490231 2.3662793175996032e-05 0 0.0041299101454022255 1.7881195527810594e-05 0 0.004174564258438096 2.4201982180012839e-06 0 0.0042669403066164478 0.00040092244597606289 0 0.0042795500710374433 0.00036783855662240328 0 0.0042634465834971479 0.00040437628552928795 0 0.0042669403066164478 0.00040092244597606289 0 0.0042795500710374433 0.00036783855662240328 0 0.0042620501766114094 0.00037067053986331456 0 0.0042795500710374433 0.00036783855662240328 0 0.0042620501766114094 0.00037067053986331456 0 0.0043055973604007461 0.00033019126744890007 0 0.0042795500710374433 0.00036783855662240328 0 0.0043055973604007461 0.00033019126744890007 0 0.0042583275673970236 0.00035010120863001318 0 0.0041878723470536528 0.00036122960904361455 0 0.0042620501766114094 0.00037067053986331456 0 0.0043055973604007461 0.00033019126744890007 0 0.0041878723470536528 0.00036122960904361455 0 0.0042669403066164478 0.00040092244597606289 0 0.0042620501766114094 0.00037067053986331456 0 0.0041878723470536528 0.00036122960904361455 0 0.0043055973604007461 0.00033019126744890007 0 0.004205000525560389 -5.9039120735240397e-05 0 0.0042702070850794173 0.00035934282604607937 0 0.0044638781615772508 0.0001151427687801059 0 0.0043055973604007461 0.00033019126744890007 0 0.0042598284435488454 0.00046362635216101847 0 0.0042424864633367121 0.00038078995187163824 0 0.0041464061949490231 2.3662793175996032e-05 0 0.0041354010715340204 -1.7967800032504985e-05 0 0.004205000525560389 -5.9039120735240397e-05 0 0.0040536154540481038 -7.512249155480347e-05 0 0.0041299101454022255 1.7881195527810594e-05 0 0.0041354010715340204 -1.7967800032504985e-05 0 0.0041780812262464211 0.00017649174182238266 0 0.0042036069903251868 -4.5152055267112329e-05 0 0.0041464061949490231 2.3662793175996032e-05 0 0.0041299101454022255 1.7881195527810594e-05 0 0.0041354010715340204 -1.7967800032504985e-05 0 0.0040536154540481038 -7.512249155480347e-05 0 0.0041354010715340204 -1.7967800032504985e-05 0 0.004205000525560389 -5.9039120735240397e-05 0 0.0040536154540481038 -7.512249155480347e-05 0 0.0041429785692955138 -0.00019377943849339176 0 0.004205000525560389 -5.9039120735240397e-05 0 0.0040536154540481038 -7.512249155480347e-05 0 0.0040607005610662364 -0.00037815659057800272 0 0.0041429785692955138 -0.00019377943849339176 0 0.0040607005610662364 -0.00037815659057800272 0 0.0041429785692955138 -0.00019377943849339176 0 0.0042692857847474262 -0.00028247915647543138 0 0.0044567349641017641 -0.00036610899033858959 0 0.0042692857847474262 -0.00028247915647543138 0 0.004404870965029028 -8.8820410259203867e-05 0 0.0041429785692955138 -0.00019377943849339176 0 0.0042692857847474262 -0.00028247915647543138 0 0.004205000525560389 -5.9039120735240397e-05 0 0.0043055973604007461 0.00033019126744890007 0 0.004205000525560389 -5.9039120735240397e-05 0 0.004404870965029028 -8.8820410259203867e-05 0 0.0042692857847474262 -0.00028247915647543138 0 0.004205000525560389 -5.9039120735240397e-05 0 0.004404870965029028 -8.8820410259203867e-05 0 0.0042598284435488454 0.00046362635216101847 0 0.004178061902042716 0.00047315446485476486 0 0.0041899919570786391 0.00040988373545665629 0 0.003268927691105406 0.00029285142244814722 0 0.0044638781615772508 0.0001151427687801059 0 0.0042135225091257372 0.00056997847030234151 0 0.0042598284435488454 0.00046362635216101847 0 0.004178061902042716 0.00047315446485476486 0 0.0042135225091257372 0.00056997847030234151 0 0.004178061902042716 0.00047315446485476486 0 0.0040984505691390154 0.00051606805715702744 0 0.003268927691105406 0.00029285142244814722 0 0.0029557743506342391 0.00068011942356442949 0 0.004178061902042716 0.00047315446485476486 0 0.0041301345720061158 0.00040611226437281274 0 0.0040984505691390154 0.00051606805715702744 0 0.004178061902042716 0.00047315446485476486 0 0.0041301345720061158 0.00040611226437281274 0 0.0041899919570786391 0.00040988373545665629 0 0.0041301345720061158 0.00040611226437281274 0 0.0042041854697738813 0.00036635222421413437 0 0.0041584360816834583 0.00031702959276144808 0 0.0035429873631441034 0.00037865055215183626 0 0.0035328684507490715 0.00029921711282557994 0 0.0041301345720061158 0.00040611226437281274 0 0.0041899919570786391 0.00040988373545665629 0 0.0042041854697738813 0.00036635222421413437 0 0.0041899919570786391 0.00040988373545665629 0 0.0042424864633367121 0.00038078995187163824 0 0.0042041854697738813 0.00036635222421413437 0 0.0042598284435488454 0.00046362635216101847 0 0.0041899919570786391 0.00040988373545665629 0 0.0042424864633367121 0.00038078995187163824 0 0.0042424864633367121 0.00038078995187163824 0 0.0042041854697738813 0.00036635222421413437 0 0.0042583275673970236 0.00035010120863001318 0 0.0043055973604007461 0.00033019126744890007 0 0.0042424864633367121 0.00038078995187163824 0 0.0042583275673970236 0.00035010120863001318 0 0.0042041854697738813 0.00036635222421413437 0 0.0042583275673970236 0.00035010120863001318 0 0.0042288000480500739 0.00033335352475016221 0 0.0042288000480500739 0.00033335352475016221 0 0.0041584360816834583 0.00031702959276144808 0 0.0042304910443610177 0.00027775269543504693 0 0.0042795500710374433 0.00036783855662240328 0 0.0042583275673970236 0.00035010120863001318 0 0.0042288000480500739 0.00033335352475016221 0 0.0042795500710374433 0.00036783855662240328 0 0.0042288000480500739 0.00033335352475016221 0 0.0042304910443610177 0.00027775269543504693 0 0.0042522645922171629 0.00035577410383904164 0 0.0042402686376370666 0.00037276476905297997 0 0.0042041854697738813 0.00036635222421413437 0 0.0042288000480500739 0.00033335352475016221 0 0.0041584360816834583 0.00031702959276144808 0 0.0029713168276524525 0.00029109996032821914 0 0.0028532040749344361 0.00033149584506788878 0 0.0029367982322594977 0.00028361958388086969 0 0.0028493554083507968 0.00043112351917897981 0 0.0029713168276524525 0.00029109996032821914 0 0.0028532040749344361 0.00033149584506788878 0 0.0028573448039942847 0.00033373268996017455 0 0.0028346527640130885 0.00032473072326627165 0 0.0028532040749344361 0.00033149584506788878 0 0.0029670491299446044 0.00028521382461186147 0 0.0029367982322594977 0.00028361958388086969 0 0.0028532040749344361 0.00033149584506788878 0 0.0026716939563445129 0.0003452361445189154 0 0.0026689896202369209 0.00042034303921758713 0 0.0026689896202369209 0.00042034303921758713 0 0.0027602310463693425 0.00043184460758227873 0 0.0026747343555335781 0.00048009926236499719 0 0.0028532040749344361 0.00033149584506788878 0 0.0026689896202369209 0.00042034303921758713 0 0.0027602310463693425 0.00043184460758227873 0 0.0028493554083507968 0.00043112351917897981 0 0.0028532040749344361 0.00033149584506788878 0 0.0027602310463693425 0.00043184460758227873 0 0.0028493554083507968 0.00043112351917897981 0 0.0027602310463693425 0.00043184460758227873 0 0.0027336473067871465 0.00048998203901967022 0 0.0028493554083507968 0.00043112351917897981 0 0.0027336473067871465 0.00048998203901967022 0 0.0027121357016003972 0.00057880165742181891 0 0.0035429873631441034 0.00037865055215183626 0 0.0029557743506342391 0.00068011942356442949 0 0.0027602310463693425 0.00043184460758227873 0 0.0027336473067871465 0.00048998203901967022 0 0.0026747343555335781 0.00048009926236499719 0 0.0027336473067871465 0.00048998203901967022 0 0.0026519918275923699 0.00055271445962890096 0 0.0026315409919199571 0.00052728207564186886 0 0.0027336473067871465 0.00048998203901967022 0 0.0026315409919199571 0.00052728207564186886 0 0.0026747343555335781 0.00048009926236499719 0 0.0027336473067871465 0.00048998203901967022 0 0.0027121357016003972 0.00057880165742181891 0 0.0026519918275923699 0.00055271445962890096 0 0.0026177347983707207 0.00055405171773905586 0 0.0026519918275923699 0.00055271445962890096 0 0.0025618675429582558 0.00054842162343966664 0 0.0029557743506342391 0.00068011942356442949 0 0.002697741959089416 0.0005633780395782103 0 0.0026519918275923699 0.00055271445962890096 0 0.0025618675429582558 0.00054842162343966664 0 0.0025784839558280976 0.00054466612802954114 0 0.0025501826968265971 0.00053132859624854508 0 0.0025784839558280976 0.00054466612802954114 0 0.0025928779563241986 0.00051540695425243731 0 0.0025239435950681057 0.00054441350856250699 0 0.0025618675429582558 0.00054842162343966664 0 0.0025784839558280976 0.00054466612802954114 0 0.0026519918275923699 0.00055271445962890096 0 0.0025784839558280976 0.00054466612802954114 0 0.0026315409919199571 0.00052728207564186886 0 0.0025784839558280976 0.00054466612802954114 0 0.0026315409919199571 0.00052728207564186886 0 0.0025928779563241986 0.00051540695425243731 0 0.0026689896202369209 0.00042034303921758713 0 0.0026747343555335781 0.00048009926236499719 0 0.0025928779563241986 0.00051540695425243731 0 0.0026315409919199571 0.00052728207564186886 0 0.0026747343555335781 0.00048009926236499719 0 0.0025928779563241986 0.00051540695425243731 0 0.0025501826968265971 0.00053132859624854508 0 0.0025928779563241986 0.00051540695425243731 0 0.0025515524309723723 0.00051095779155942514 0 0.0025501826968265971 0.00053132859624854508 0 0.0025483566345497191 0.0005150407688259026 0 0.0025515524309723723 0.00051095779155942514 0 0.0025483566345497191 0.0005150407688259026 0 0.0025489502765513677 0.00049555978692796823 0 0.0025515524309723723 0.00051095779155942514 0 0.0025928779563241986 0.00051540695425243731 0 0.0025515524309723723 0.00051095779155942514 0 0.002551291235188699 0.00046469322898301979 0 0.0025468100824078666 0.00049205916603159037 0 0.0025515524309723723 0.00051095779155942514 0 0.002551291235188699 0.00046469322898301979 0 0.0026671627443734733 0.00042330145686148436 0 0.0025974123774840318 0.0004425504559298781 0 0.0026689896202369209 0.00042034303921758713 0 0.0025928779563241986 0.00051540695425243731 0 0.002551291235188699 0.00046469322898301979 0 0.0026689896202369209 0.00042034303921758713 0 0.0026375194312551458 0.00041922850172002718 0 0.0026462953329361837 0.00038579285709916479 0 0.0026716939563445129 0.0003452361445189154 0 0.0026689896202369209 0.00042034303921758713 0 0.0026462953329361837 0.00038579285709916479 0 0.0026340034171427828 0.00039388228621970513 0 0.0026375194312551458 0.00041922850172002718 0 0.0026462953329361837 0.00038579285709916479 0 0.0030373961907937614 0.00022223728977538237 0 0.0027356071040648866 0.00032043169215599017 0 0.0026340034171427828 0.00039388228621970513 0 0.0026462953329361837 0.00038579285709916479 0 0.0026438534396637276 0.00037685253641208104 0 0.0026340034171427828 0.00039388228621970513 0 0.002630542712976074 0.00037239571317055058 0 0.0026438534396637276 0.00037685253641208104 0 0.0029670491299446044 0.00028521382461186147 0 0.0029319758832272451 0.0002811536926151881 0 0.0029911247888771233 0.00025749692346953561 0 0.0028346527640130885 0.00032473072326627165 0 0.0027356071040648866 0.00032043169215599017 0 0.0026716939563445129 0.0003452361445189154 0 0.0026462953329361837 0.00038579285709916479 0 0.0026438534396637276 0.00037685253641208104 0 0.0029319758832272451 0.0002811536926151881 0 0.0030025771716364839 0.00020991611162845229 0 0.0029911247888771233 0.00025749692346953561 0 0.0029319758832272451 0.0002811536926151881 0 0.0030025771716364839 0.00020991611162845229 0 0.0029132717530439673 0.0002137690634306127 0 0.0028354731032956587 0.00024488406792670301 0 0.0029319758832272451 0.0002811536926151881 0 0.0029132717530439673 0.0002137690634306127 0 0.0028550771195658734 0.00013917273995841926 0 0.0029132717530439673 0.0002137690634306127 0 0.0029428868069348775 0.00016273894800748344 0 0.0028550771195658734 0.00013917273995841926 0 0.0029428868069348775 0.00016273894800748344 0 0.002997973444249148 7.7516061100746757e-05 0 0.0033943487703273116 0.00015293683043879886 0 0.0041742455924638801 4.9207842840581358e-06 0 0.0028550771195658734 0.00013917273995841926 0 0.002997973444249148 7.7516061100746757e-05 0 0.0028860538074766025 -2.8338483821627129e-05 0 0.0040014337106268538 0.00013929154305525034 0 0.0040052919434566125 -8.9588470173289716e-05 0 0.0041003657947835158 -0.0001100758058972779 0 0.0047855006709196903 3.5835924458316591e-05 0 0.0041742455924638801 4.9207842840581358e-06 0 0.002997973444249148 7.7516061100746757e-05 0 0.0032126049473308995 7.3351645492829499e-05 0 0.0030806537939664104 -0.00013357950325416259 0 0.002997973444249148 7.7516061100746757e-05 0 0.0030806537939664104 -0.00013357950325416259 0 0.0028860538074766025 -2.8338483821627129e-05 0 0.0030025771716364839 0.00020991611162845229 0 0.0029132717530439673 0.0002137690634306127 0 0.0029428868069348775 0.00016273894800748344 0 0.0030025771716364839 0.00020991611162845229 0 0.0029428868069348775 0.00016273894800748344 0 0.002997973444249148 7.7516061100746757e-05 0 0.0030025771716364839 0.00020991611162845229 0 0.002997973444249148 7.7516061100746757e-05 0 0.0031003242065198596 0.00017637347509358485 0 0.0031003242065198596 0.00017637347509358485 0 0.0032126049473308995 7.3351645492829499e-05 0 0.003073729791634938 0.00020447191017708449 0 0.0030025771716364839 0.00020991611162845229 0 0.0031003242065198596 0.00017637347509358485 0 0.0030439031925851416 0.00022338140200585445 0 0.0031003242065198596 0.00017637347509358485 0 0.003073729791634938 0.00020447191017708449 0 0.0030439031925851416 0.00022338140200585445 0 0.002997973444249148 7.7516061100746757e-05 0 0.0031003242065198596 0.00017637347509358485 0 0.0032126049473308995 7.3351645492829499e-05 0 0.0036324488966803688 7.7141541751534921e-05 0 0.003931928299733118 -8.824119875783044e-06 0 0.0035641989541703228 -0.00028819475746966173 0 0.0032126049473308995 7.3351645492829499e-05 0 0.0036324488966803688 7.7141541751534921e-05 0 0.0035641989541703228 -0.00028819475746966173 0 0.0032126049473308995 7.3351645492829499e-05 0 0.0036324488966803688 7.7141541751534921e-05 0 0.0036673316003043069 0.00034499029799657814 0 0.0036324488966803688 7.7141541751534921e-05 0 0.0036673316003043069 0.00034499029799657814 0 0.0038899522972492329 0.0001960704511257394 0 0.0032198853585563062 8.311161974415214e-05 0 0.0033197225295200673 0.00025026706570503102 0 0.003073729791634938 0.00020447191017708449 0 0.0030287177853955752 0.00023528107244527845 0 0.0030332167171581797 0.00024122252080622584 0 0.0030287177853955752 0.00023528107244527845 0 0.0029954074737333185 0.00025760457636320785 0 0.0029970589384912955 0.0002560055599907073 0 0.0030287177853955752 0.00023528107244527845 0 0.0030439031925851416 0.00022338140200585445 0 0.0029970589384912955 0.0002560055599907073 0 0.003073729791634938 0.00020447191017708449 0 0.0030287177853955752 0.00023528107244527845 0 0.0030439031925851416 0.00022338140200585445 0 0.0030439031925851416 0.00022338140200585445 0 0.0029911247888771233 0.00025749692346953561 0 0.0029970589384912955 0.0002560055599907073 0 0.0030025771716364839 0.00020991611162845229 0 0.0030439031925851416 0.00022338140200585445 0 0.0029911247888771233 0.00025749692346953561 0 0.0029670491299446044 0.00028521382461186147 0 0.0029367982322594977 0.00028361958388086969 0 0.0029970589384912955 0.0002560055599907073 0 0.0029670491299446044 0.00028521382461186147 0 0.0029911247888771233 0.00025749692346953561 0 0.0029970589384912955 0.0002560055599907073 0 0.0029713168276524525 0.00029109996032821914 0 0.0029367982322594977 0.00028361958388086969 0 0.0029954074737333185 0.00025760457636320785 0 0.0029367982322594977 0.00028361958388086969 0 0.0029954074737333185 0.00025760457636320785 0 0.0029970589384912955 0.0002560055599907073 0 0.0041584360816834583 0.00031702959276144808 0 0.0042304910443610177 0.00027775269543504693 0 0.0041720954640880352 0.00021910235605050287 0 0.0029713168276524525 0.00029109996032821914 0 0.0029954074737333185 0.00025760457636320785 0 0.0030332167171581797 0.00024122252080622584 0 0.0035328684507490715 0.00029921711282557994 0 0.0038336382238418126 0.00029624807250878721 0 0.0041976692477364904 0.00043288992895035988 0 0.0041633863984713105 0.00037715108807268401 0 0.0042790677325913315 0.00039789848512302643 0 0.0042402686376370666 0.00037276476905297997 0 0.0038336382238418126 0.00029624807250878721 0 0.0041976692477364904 0.00043288992895035988 0 0.0041633863984713105 0.00037715108807268401 0 0.004059403322235808 0.00040094229702019522 0 0.0041633863984713105 0.00037715108807268401 0 0.0041825158590970786 0.00029973684065282328 0 0.0042582773657527185 0.00032610326003847649 0 0.0041633863984713105 0.00037715108807268401 0 0.004019196908322354 0.000372239236599412 0 0.0041825158590970786 0.00029973684065282328 0 0.0038336382238418126 0.00029624807250878721 0 0.003948465186345243 0.00039944036379419663 0 0.0041633863984713105 0.00037715108807268401 0 0.004059403322235808 0.00040094229702019522 0 0.004019196908322354 0.000372239236599412 0 0.0036673316003043069 0.00034499029799657814 0 0.0039917974279613678 0.00055166944459868292 0 0.004019196908322354 0.000372239236599412 0 0.0033197225295200673 0.00025026706570503102 0 0.0038336382238418126 0.00029624807250878721 0 0.0030287177853955752 0.00023528107244527845 0 0.0029954074737333185 0.00025760457636320785 0 0.0030332167171581797 0.00024122252080622584 0 0.0036673316003043069 0.00034499029799657814 0 0.004019196908322354 0.000372239236599412 0 0.0038899522972492329 0.0001960704511257394 0 0.004019196908322354 0.000372239236599412 0 0.0038899522972492329 0.0001960704511257394 0 0.0041352524573641351 0.00017261056536361209 0 0.0036324488966803688 7.7141541751534921e-05 0 0.0038899522972492329 0.0001960704511257394 0 0.003931928299733118 -8.824119875783044e-06 0 0.0038899522972492329 0.0001960704511257394 0 0.003931928299733118 -8.824119875783044e-06 0 0.0041352524573641351 0.00017261056536361209 0 0.0041352524573641351 0.00017261056536361209 0 0.004302222596082453 8.5911592139027154e-05 0 0.0042502803467443654 -4.6603173094941464e-05 0 0.003931928299733118 -8.824119875783044e-06 0 0.0041352524573641351 0.00017261056536361209 0 0.0042502803467443654 -4.6603173094941464e-05 0 0.0041352524573641351 0.00017261056536361209 0 0.0041825158590970786 0.00029973684065282328 0 0.0043086516846227935 0.00022552099071093256 0 0.004019196908322354 0.000372239236599412 0 0.0041352524573641351 0.00017261056536361209 0 0.0041825158590970786 0.00029973684065282328 0 0.0041825158590970786 0.00029973684065282328 0 0.0043086516846227935 0.00022552099071093256 0 0.0042582773657527185 0.00032610326003847649 0 0.0043086516846227935 0.00022552099071093256 0 0.004302222596082453 8.5911592139027154e-05 0 0.004446157427969233 9.2719463336619754e-05 0 0.0041352524573641351 0.00017261056536361209 0 0.0043086516846227935 0.00022552099071093256 0 0.004302222596082453 8.5911592139027154e-05 0 0.004302222596082453 8.5911592139027154e-05 0 0.0044330714032156547 -3.7940376470259907e-05 0 0.0042502803467443654 -4.6603173094941464e-05 0 0.004302222596082453 8.5911592139027154e-05 0 0.004446157427969233 9.2719463336619754e-05 0 0.0044330714032156547 -3.7940376470259907e-05 0 0.0045637200560243348 -2.0767578823670915e-05 0 0.004446157427969233 9.2719463336619754e-05 0 0.0044919222239547954 0.00024264100383852478 0 0.0045637200560243348 -2.0767578823670915e-05 0 0.004446157427969233 9.2719463336619754e-05 0 0.0044330714032156547 -3.7940376470259907e-05 0 0.0043086516846227935 0.00022552099071093256 0 0.004446157427969233 9.2719463336619754e-05 0 0.0044919222239547954 0.00024264100383852478 0 0.0043086516846227935 0.00022552099071093256 0 0.0044919222239547954 0.00024264100383852478 0 0.0043408289254553561 0.00032830963262593286 0 0.0044919222239547954 0.00024264100383852478 0 0.0043408289254553561 0.00032830963262593286 0 0.0043371850128041799 0.00041265052689375218 0 0.0042547996316366068 -6.466611983693155e-05 0 0.0042728679710668759 -9.6680582962820719e-05 0 0.0041883744580120718 -3.0474663947509551e-05 0 0.0043780175982415289 7.190771945079183e-05 0 0.0042635932753560778 0.00018536029382741547 0 0.0043408289254553561 0.00032830963262593286 0 0.0042790677325913315 0.00039789848512302643 0 0.0043371850128041799 0.00041265052689375218 0 0.0041633863984713105 0.00037715108807268401 0 0.0042582773657527185 0.00032610326003847649 0 0.0042790677325913315 0.00039789848512302643 0 0.0043086516846227935 0.00022552099071093256 0 0.0043408289254553561 0.00032830963262593286 0 0.0042582773657527185 0.00032610326003847649 0 0.0043408289254553561 0.00032830963262593286 0 0.0042582773657527185 0.00032610326003847649 0 0.0042790677325913315 0.00039789848512302643 0 0.0041976692477364904 0.00043288992895035988 0 0.0042790677325913315 0.00039789848512302643 0 0.0042634465834971479 0.00040437628552928795 0 0.0042795500710374433 0.00036783855662240328 0 0.0041976692477364904 0.00043288992895035988 0 0.0042634465834971479 0.00040437628552928795 0 0.0042669403066164478 0.00040092244597606289 0 0.0042790677325913315 0.00039789848512302643 0 0.0042634465834971479 0.00040437628552928795 0 0.0042669403066164478 0.00040092244597606289 0 0.0042790677325913315 0.00039789848512302643 0 0.0043371850128041799 0.00041265052689375218 0 0.0042407297587389687 -1.2843457257393149e-05 0 0.004174564258438096 2.4201982180012839e-06 0 0.0041883744580120718 -3.0474663947509551e-05 0 0.0045845954316743676 -7.3559221641520653e-05 0 0.0046876100382720809 -4.3407957037091198e-05 0 0.0045637886770498667 -0.00011459864048173803 0 0.0045845954316743676 -7.3559221641520653e-05 0 0.0046876100382720809 -4.3407957037091198e-05 0 0.004644326855953583 -1.1686925831362973e-05 0 0.0046876100382720809 -4.3407957037091198e-05 0 0.0045637886770498667 -0.00011459864048173803 0 0.0046692597904959814 -0.00010481098185016437 0 0.0045637886770498667 -0.00011459864048173803 0 0.0045025335937458324 -0.00020916539202384918 0 0.0046692597904959814 -0.00010481098185016437 0 0.0045200943861582899 -0.00011249907872718063 0 0.0045637886770498667 -0.00011459864048173803 0 0.0045248848782423849 -0.000139759432177522 0 0.0045465868920486581 -9.8545638519634599e-05 0 0.0045845954316743676 -7.3559221641520653e-05 0 0.0045637886770498667 -0.00011459864048173803 0 0.0045200943861582899 -0.00011249907872718063 0 0.0045465868920486581 -9.8545638519634599e-05 0 0.0045637886770498667 -0.00011459864048173803 0 0.0045248848782423849 -0.000139759432177522 0 0.0045088846327934213 -0.00011821232389690886 0 0.0045025335937458324 -0.00020916539202384918 0 0.0045637886770498667 -0.00011459864048173803 0 0.0045248848782423849 -0.000139759432177522 0 0.0045025335937458324 -0.00020916539202384918 0 0.0044909985070682749 -0.00013058753313691538 0 0.0045248848782423849 -0.000139759432177522 0 0.0045088846327934213 -0.00011821232389690886 0 0.0045637200560243348 -2.0767578823670915e-05 0 0.0045088846327934213 -0.00011821232389690886 0 0.0044330714032156547 -3.7940376470259907e-05 0 0.0045088846327934213 -0.00011821232389690886 0 0.0044330714032156547 -3.7940376470259907e-05 0 0.0045025335937458324 -0.00020916539202384918 0 0.0044330714032156547 -3.7940376470259907e-05 0 0.0045025335937458324 -0.00020916539202384918 0 0.0042502803467443654 -4.6603173094941464e-05 0 0.0045025335937458324 -0.00020916539202384918 0 0.0047435057701999709 -0.00021526243548385045 0 0.0046692597904959814 -0.00010481098185016437 0 0.0044829990801575157 -0.00022086744609582472 0 0.0043863598708728966 -0.0002476560504489617 0 0.003931928299733118 -8.824119875783044e-06 0 0.0042502803467443654 -4.6603173094941464e-05 0 0.0040552753412090069 -0.00029827976105064035 0 0.0045025335937458324 -0.00020916539202384918 0 0.0042502803467443654 -4.6603173094941464e-05 0 0.0040552753412090069 -0.00029827976105064035 0 0.003931928299733118 -8.824119875783044e-06 0 0.0040552753412090069 -0.00029827976105064035 0 0.0035641989541703228 -0.00028819475746966173 0 0.0043863598708728966 -0.0002476560504489617 0 0.0042144604510971351 -0.00022688071418833748 0 0.0047435057701999709 -0.00021526243548385045 0 0.0047988479612722356 -0.00012059045285592655 0 0.0046692597904959814 -0.00010481098185016437 0 0.0047435057701999709 -0.00021526243548385045 0 0.0047988479612722356 -0.00012059045285592655 0 0.0048543765143436663 -0.00017838107995094769 0 0.0047988479612722356 -0.00012059045285592655 0 0.0047739724593506292 -4.141812410959937e-05 0 0.0048681065407045043 -5.4297703581450078e-05 0 0.0047988479612722356 -0.00012059045285592655 0 0.0046692597904959814 -0.00010481098185016437 0 0.0047739724593506292 -4.141812410959937e-05 0 0.0046876100382720809 -4.3407957037091198e-05 0 0.0047739724593506292 -4.141812410959937e-05 0 0.0047853868450296157 -2.2195815366011929e-06 0 0.0046876100382720809 -4.3407957037091198e-05 0 0.0046692597904959814 -0.00010481098185016437 0 0.0047739724593506292 -4.141812410959937e-05 0 0.0047739724593506292 -4.141812410959937e-05 0 0.0048681065407045043 -5.4297703581450078e-05 0 0.0048397192223678942 2.3700011486476999e-06 0 0.0048681065407045043 -5.4297703581450078e-05 0 0.0049342089919463955 -1.9247776243350506e-05 0 0.004927930623851844 -1.0915923979824008e-05 0 0.0048725046346890788 -5.4964095173591309e-05 0 0.0048853380214884867 -8.6161413459163964e-06 0 0.0048681065407045043 -5.4297703581450078e-05 0 0.0049332763477248969 -5.6147802818360621e-05 0 0.0049342089919463955 -1.9247776243350506e-05 0 0.0049332763477248969 -5.6147802818360621e-05 0 0.0048715912685598425 -0.00010640164186156092 0 0.0049158719427531954 -0.00010482215191905785 0 0.0048681065407045043 -5.4297703581450078e-05 0 0.0049332763477248969 -5.6147802818360621e-05 0 0.0048715912685598425 -0.00010640164186156092 0 0.0047988479612722356 -0.00012059045285592655 0 0.0048681065407045043 -5.4297703581450078e-05 0 0.0048715912685598425 -0.00010640164186156092 0 0.0047988479612722356 -0.00012059045285592655 0 0.0048715912685598425 -0.00010640164186156092 0 0.0048543765143436663 -0.00017838107995094769 0 0.0032126049473308995 7.3351645492829499e-05 0 0.0035641989541703228 -0.00028819475746966173 0 0.0030806537939664104 -0.00013357950325416259 0 0.0048543765143436663 -0.00017838107995094769 0 0.0049158719427531954 -0.00010482215191905785 0 0.0049149083688304973 -0.00015137685323302129 0 0.0042144604510971351 -0.00022688071418833748 0 0.0039597871804559698 -0.00015042744876097628 0 0.0048715912685598425 -0.00010640164186156092 0 0.0048543765143436663 -0.00017838107995094769 0 0.0049158719427531954 -0.00010482215191905785 0 0.0049158719427531954 -0.00010482215191905785 0 0.0049378752763483752 -0.00010811382360179577 0 0.0049149083688304973 -0.00015137685323302129 0 0.0049158719427531954 -0.00010482215191905785 0 0.0049459668579191077 -8.0124129269703158e-05 0 0.00494776303261759 -6.303043881589276e-05 0 0.0049605967229111149 -6.0163599830000685e-05 0 0.0049459668579191077 -8.0124129269703158e-05 0 0.00494776303261759 -6.303043881589276e-05 0 0.0049605967229111149 -6.0163599830000685e-05 0 0.0049459668579191077 -8.0124129269703158e-05 0 0.004969175968812801 -6.9072832418380474e-05 0 0.004969175968812801 -6.9072832418380474e-05 0 0.0049378752763483752 -0.00010811382360179577 0 0.0049582498700393735 -0.00013240087855398241 0 0.0049459668579191077 -8.0124129269703158e-05 0 0.004969175968812801 -6.9072832418380474e-05 0 0.0049378752763483752 -0.00010811382360179577 0 0.0049158719427531954 -0.00010482215191905785 0 0.0049459668579191077 -8.0124129269703158e-05 0 0.0049378752763483752 -0.00010811382360179577 0 0.0039597871804559698 -0.00015042744876097628 0 0.0041742455924638801 4.9207842840581358e-06 0 0.0049582498700393735 -0.00013240087855398241 0 0.0049149083688304973 -0.00015137685323302129 0 0.0049911173260199816 -0.00016771486217739243 0 0.0049378752763483752 -0.00010811382360179577 0 0.0049582498700393735 -0.00013240087855398241 0 0.0049149083688304973 -0.00015137685323302129 0 0.004969175968812801 -6.9072832418380474e-05 0 0.0049491817169239069 1.6134572517784339e-05 0 0.0049615155961265931 -5.2445726737750399e-05 0 0.004969175968812801 -6.9072832418380474e-05 0 0.0049582498700393735 -0.00013240087855398241 0 0.0049911173260199816 -0.00016771486217739243 0 0.0051478403021464926 -0.00015545590785774662 0 0.0041742455924638801 4.9207842840581358e-06 0 0.004920769089980976 2.2224814527289332e-05 0 0.0049491817169239069 1.6134572517784339e-05 0 0.0049615155961265931 -5.2445726737750399e-05 0 0.0049686566727066327 1.3557580209375153e-05 0 0.0049615155961265931 -5.2445726737750399e-05 0 0.0049593700692277566 -1.5617018506721363e-05 0 0.0047855006709196903 3.5835924458316591e-05 0 0.0050016482087358108 -6.4363856908465416e-05 0 0.0049615155961265931 -5.2445726737750399e-05 0 0.0049593700692277566 -1.5617018506721363e-05 0 0.0049599417032860143 -2.9981673924205313e-05 0 0.0049605967229111149 -6.0163599830000685e-05 0 0.004969175968812801 -6.9072832418380474e-05 0 0.0049641870271630679 -5.692295167864255e-05 0 0.004969175968812801 -6.9072832418380474e-05 0 0.0049615155961265931 -5.2445726737750399e-05 0 0.0049641870271630679 -5.692295167864255e-05 0 0.0049615155961265931 -5.2445726737750399e-05 0 0.0049641870271630679 -5.692295167864255e-05 0 0.0049629138683090082 -4.452829024697014e-05 0 0.0049641870271630679 -5.692295167864255e-05 0 0.0049629138683090082 -4.452829024697014e-05 0 0.004963336577125845 -4.9522877507077592e-05 0 0.0049605967229111149 -6.0163599830000685e-05 0 0.0049641870271630679 -5.692295167864255e-05 0 0.004963336577125845 -4.9522877507077592e-05 0 0.0049615155961265931 -5.2445726737750399e-05 0 0.0049629138683090082 -4.452829024697014e-05 0 0.0049599417032860143 -2.9981673924205313e-05 0 0.0049635797096158688 -3.9646602080469194e-05 0 0.0049637063162853252 -3.86418165767956e-05 0 0.004963336577125845 -4.9522877507077592e-05 0 0.0049629138683090082 -4.452829024697014e-05 0 0.0049635797096158688 -3.9646602080469194e-05 0 0.0049614322658521771 -3.4250243606143164e-05 0 0.0049629138683090082 -4.452829024697014e-05 0 0.0049635797096158688 -3.9646602080469194e-05 0 0.004963336577125845 -4.9522877507077592e-05 0 0.0049637063162853252 -3.86418165767956e-05 0 0.004963342471928589 -3.2083866287817824e-05 0 0.0049653813036418725 -2.8115506886494412e-05 0 0.0049635797096158688 -3.9646602080469194e-05 0 0.0049637063162853252 -3.86418165767956e-05 0 0.004963342471928589 -3.2083866287817824e-05 0 0.0049637063162853252 -3.86418165767956e-05 0 0.004955114010520476 -4.339794124149513e-05 0 0.0049627896847703138 -3.1576716218709283e-05 0 0.0049637063162853252 -3.86418165767956e-05 0 0.0049597650083523749 -4.8631313135545992e-05 0 0.004955114010520476 -4.339794124149513e-05 0 0.0049637063162853252 -3.86418165767956e-05 0 0.0049597650083523749 -4.8631313135545992e-05 0 0.004963336577125845 -4.9522877507077592e-05 0 0.0049605967229111149 -6.0163599830000685e-05 0 0.0049597650083523749 -4.8631313135545992e-05 0 0.004963336577125845 -4.9522877507077592e-05 0 0.0049605967229111149 -6.0163599830000685e-05 0 0.0049597650083523749 -4.8631313135545992e-05 0 0.00494776303261759 -6.303043881589276e-05 0 0.0049332763477248969 -5.6147802818360621e-05 0 0.0049158719427531954 -0.00010482215191905785 0 0.00494776303261759 -6.303043881589276e-05 0 0.0049332763477248969 -5.6147802818360621e-05 0 0.00494776303261759 -6.303043881589276e-05 0 0.004955114010520476 -4.339794124149513e-05 0 0.0049597650083523749 -4.8631313135545992e-05 0 0.00494776303261759 -6.303043881589276e-05 0 0.004955114010520476 -4.339794124149513e-05 0 0.0049332763477248969 -5.6147802818360621e-05 0 0.00495732779308743 -2.668136540331181e-05 0 0.0049342089919463955 -1.9247776243350506e-05 0 0.0049332763477248969 -5.6147802818360621e-05 0 0.004955114010520476 -4.339794124149513e-05 0 0.00495732779308743 -2.668136540331181e-05 0 0.004955114010520476 -4.339794124149513e-05 0 0.00495732779308743 -2.668136540331181e-05 0 0.0049627896847703138 -3.1576716218709283e-05 0 0.00495732779308743 -2.668136540331181e-05 0 0.0049665782141500936 -2.2584643793888123e-05 0 0.0049627896847703138 -3.1576716218709283e-05 0 0.0049665782141500936 -2.2584643793888123e-05 0 0.0049627896847703138 -3.1576716218709283e-05 0 0.0049653813036418725 -2.8115506886494412e-05 0 0.0049637063162853252 -3.86418165767956e-05 0 0.0049627896847703138 -3.1576716218709283e-05 0 0.0049653813036418725 -2.8115506886494412e-05 0 0.00495732779308743 -2.668136540331181e-05 0 0.0049665782141500936 -2.2584643793888123e-05 0 0.0049689927164446443 -1.366335475896244e-05 0 0.0049665782141500936 -2.2584643793888123e-05 0 0.0049689927164446443 -1.366335475896244e-05 0 0.0049698151410707591 -1.6195805478705368e-05 0 0.00495732779308743 -2.668136540331181e-05 0 0.0049689927164446443 -1.366335475896244e-05 0 0.0049616028741626926 -8.9267313665521766e-06 0 0.00495732779308743 -2.668136540331181e-05 0 0.0049616028741626926 -8.9267313665521766e-06 0 0.0049342089919463955 -1.9247776243350506e-05 0 0.0049616028741626926 -8.9267313665521766e-06 0 0.0049760301016688142 -6.7612837305524544e-06 0 0.0049806846049114733 -2.2088612744574643e-06 0 0.0049689927164446443 -1.366335475896244e-05 0 0.0049616028741626926 -8.9267313665521766e-06 0 0.0049760301016688142 -6.7612837305524544e-06 0 0.0049732996628206938 -1.0585940135285137e-05 0 0.0049760301016688142 -6.7612837305524544e-06 0 0.0049769108011059136 -7.5221800796160301e-06 0 0.0049689927164446443 -1.366335475896244e-05 0 0.0049732996628206938 -1.0585940135285137e-05 0 0.0049698151410707591 -1.6195805478705368e-05 0 0.0049689927164446443 -1.366335475896244e-05 0 0.0049732996628206938 -1.0585940135285137e-05 0 0.0049760301016688142 -6.7612837305524544e-06 0 0.0049760301016688142 -6.7612837305524544e-06 0 0.0049854548792867322 -5.9523823753803348e-06 0 0.0049769108011059136 -7.5221800796160301e-06 0 0.0049854548792867322 -5.9523823753803348e-06 0 0.0049999746983338473 -2.0364097705263619e-09 0 0.0049959452369832489 -1.1093891530260817e-06 0 0.0049999746983338473 -2.0364097705263619e-09 0 0.0049806846049114733 -2.2088612744574643e-06 0 0.0049999682092932872 4.3095996688806289e-10 0 0.0049854548792867322 -5.9523823753803348e-06 0 0.0049999746983338473 -2.0364097705263619e-09 0 0.0049806846049114733 -2.2088612744574643e-06 0 0.0049760301016688142 -6.7612837305524544e-06 0 0.0049854548792867322 -5.9523823753803348e-06 0 0.0049806846049114733 -2.2088612744574643e-06 0 0.0049806846049114733 -2.2088612744574643e-06 0 0.0049818551847689097 -1.0969617627576454e-06 0 0.0049617409403300968 -3.3750888991458368e-06 0 0.0049806846049114733 -2.2088612744574643e-06 0 0.0049999682092932872 4.3095996688806289e-10 0 0.0049818551847689097 -1.0969617627576454e-06 0 0.0049818551847689097 -1.0969617627576454e-06 0 0.0049705093031988008 -1.4920271937570519e-06 0 0.0049999728511530587 -1.2025902625507177e-09 0 0.0049999682092932872 4.3095996688806289e-10 0 0.0049818551847689097 -1.0969617627576454e-06 0 0.0049999728511530587 -1.2025902625507177e-09 0 0.0049818551847689097 -1.0969617627576454e-06 0 0.0049617409403300968 -3.3750888991458368e-06 0 0.0049705093031988008 -1.4920271937570519e-06 0 0.0049617409403300968 -3.3750888991458368e-06 0 0.004927930623851844 -1.0915923979824008e-05 0 0.0049705093031988008 -1.4920271937570519e-06 0 0.0048853380214884867 -8.6161413459163964e-06 0 0.0049259893808946261 1.0547228328710689e-05 0 0.0049616028741626926 -8.9267313665521766e-06 0 0.0049806846049114733 -2.2088612744574643e-06 0 0.0049617409403300968 -3.3750888991458368e-06 0 0.0049616028741626926 -8.9267313665521766e-06 0 0.0049617409403300968 -3.3750888991458368e-06 0 0.0049342089919463955 -1.9247776243350506e-05 0 0.0049617409403300968 -3.3750888991458368e-06 0 0.0049342089919463955 -1.9247776243350506e-05 0 0.004927930623851844 -1.0915923979824008e-05 0 0.0047739724593506292 -4.141812410959937e-05 0 0.0048397192223678942 2.3700011486476999e-06 0 0.0047853868450296157 -2.2195815366011929e-06 0 0.0047853868450296157 -2.2195815366011929e-06 0 0.0048768860098963411 1.5270140149234141e-05 0 0.0048108134846188101 1.6998157729420361e-05 0 0.0047853868450296157 -2.2195815366011929e-06 0 0.0048108134846188101 1.6998157729420361e-05 0 0.0047400689427575136 8.7815272331716492e-06 0 0.0048397192223678942 2.3700011486476999e-06 0 0.0047853868450296157 -2.2195815366011929e-06 0 0.0048768860098963411 1.5270140149234141e-05 0 0.0048768860098963411 1.5270140149234141e-05 0 0.0050000502129739031 -3.0602344023421826e-08 0 0.0049025766204779065 8.2827031943437046e-06 0 0.0049259893808946261 1.0547228328710689e-05 0 0.0049999670499640313 1.5592710913674991e-08 0 0.0049996849709138388 1.3843796565714491e-07 0 0.0050000502129739031 -3.0602344023421826e-08 0 0.0049025766204779065 8.2827031943437046e-06 0 0.0049025766204779065 8.2827031943437046e-06 0 0.0048216041783742201 2.1604273145433438e-05 0 0.0048103670244135826 4.9578550518013634e-05 0 0.0049999553768098814 1.3308275534345248e-08 0 0.0049063988851847486 1.710540344633367e-05 0 0.0049999857762662806 3.3184867710295533e-09 0 0.0050000260366955549 -5.8766409150805315e-09 0 0.00499975284738397 2.168026078524279e-07 0 0.0049996849709138388 1.3843796565714491e-07 0 0.0049025766204779065 8.2827031943437046e-06 0 0.0048103670244135826 4.9578550518013634e-05 0 0.0048768860098963411 1.5270140149234141e-05 0 0.0049025766204779065 8.2827031943437046e-06 0 0.0048108134846188101 1.6998157729420361e-05 0 0.0049025766204779065 8.2827031943437046e-06 0 0.0048108134846188101 1.6998157729420361e-05 0 0.0048216041783742201 2.1604273145433438e-05 0 0.0048108134846188101 1.6998157729420361e-05 0 0.0047766081254204378 3.0320292165790867e-05 0 0.0047396961562623718 6.7079549740008113e-05 0 0.0048108134846188101 1.6998157729420361e-05 0 0.0047766081254204378 3.0320292165790867e-05 0 0.0048216041783742201 2.1604273145433438e-05 0 0.0047766081254204378 3.0320292165790867e-05 0 0.0048216041783742201 2.1604273145433438e-05 0 0.0048103670244135826 4.9578550518013634e-05 0 0.0047766081254204378 3.0320292165790867e-05 0 0.0048103670244135826 4.9578550518013634e-05 0 0.0047978573065039967 1.1437242189685122e-06 0 0.0050000260366955549 -5.8766409150805315e-09 0 0.00499975284738397 2.168026078524279e-07 0 0.0050021439601661086 -2.4084646397646455e-06 0 0.0049999242401336901 1.1067865983212787e-08 0 0.0050000260366955549 -5.8766409150805315e-09 0 0.0050021439601661086 -2.4084646397646455e-06 0 0.0049063988851847486 1.710540344633367e-05 0 0.0049060164021668302 2.2262974519554192e-06 0 0.0048421681011798483 4.0802502735335973e-05 0 0.0047766081254204378 3.0320292165790867e-05 0 0.0047396961562623718 6.7079549740008113e-05 0 0.0048421681011798483 4.0802502735335973e-05 0 0.0047766081254204378 3.0320292165790867e-05 0 0.0047978573065039967 1.1437242189685122e-06 0 0.0047396961562623718 6.7079549740008113e-05 0 0.0047400689427575136 8.7815272331716492e-06 0 0.004644326855953583 -1.1686925831362973e-05 0 0.0048108134846188101 1.6998157729420361e-05 0 0.0047396961562623718 6.7079549740008113e-05 0 0.0047400689427575136 8.7815272331716492e-06 0 0.0046876100382720809 -4.3407957037091198e-05 0 0.0047400689427575136 8.7815272331716492e-06 0 0.004644326855953583 -1.1686925831362973e-05 0 0.0046876100382720809 -4.3407957037091198e-05 0 0.0047853868450296157 -2.2195815366011929e-06 0 0.0047400689427575136 8.7815272331716492e-06 0 0.0049337378942264599 -4.8544205884554051e-07 0 0.0049148795226019084 1.011165206594057e-05 0 0.0049016170764136467 2.4243589831479331e-05 0 0.0049337378942264599 -4.8544205884554051e-07 0 0.0049016170764136467 2.4243589831479331e-05 0 0.0049265608890770246 3.5265310111692101e-06 0 0.0049337378942264599 -4.8544205884554051e-07 0 0.0049265608890770246 3.5265310111692101e-06 0 0.0049508923513188838 -8.3975508266764507e-06 0 0.0049337378942264599 -4.8544205884554051e-07 0 0.0049148795226019084 1.011165206594057e-05 0 0.0049402572900174978 -3.7198228464451226e-06 0 0.0049148795226019084 1.011165206594057e-05 0 0.0049402572900174978 -3.7198228464451226e-06 0 0.0049317948918665101 -3.5659627097911944e-06 0 0.004899993645087042 8.4821245159884228e-06 0 0.0049148795226019084 1.011165206594057e-05 0 0.0049317948918665101 -3.5659627097911944e-06 0 0.004899993645087042 8.4821245159884228e-06 0 0.0049317948918665101 -3.5659627097911944e-06 0 0.004917893080950534 -7.2994891193620797e-06 0 0.004899993645087042 8.4821245159884228e-06 0 0.0049148795226019084 1.011165206594057e-05 0 0.004891140847386761 2.4629257541931538e-05 0 0.0048985822486054707 2.4994887205527345e-05 0 0.004891140847386761 2.4629257541931538e-05 0 0.0048821876780560337 4.4481676046786108e-05 0 0.0049148795226019084 1.011165206594057e-05 0 0.0048985822486054707 2.4994887205527345e-05 0 0.004891140847386761 2.4629257541931538e-05 0 0.004891140847386761 2.4629257541931538e-05 0 0.0048684824378065501 4.6891519807529365e-05 0 0.0048821876780560337 4.4481676046786108e-05 0 0.004877744239411781 5.1895725736254767e-05 0 0.0048821876780560337 4.4481676046786108e-05 0 0.0049016170764136467 2.4243589831479331e-05 0 0.0048985822486054707 2.4994887205527345e-05 0 0.0048821876780560337 4.4481676046786108e-05 0 0.0049016170764136467 2.4243589831479331e-05 0 0.0049148795226019084 1.011165206594057e-05 0 0.0048985822486054707 2.4994887205527345e-05 0 0.0049016170764136467 2.4243589831479331e-05 0 0.0049016170764136467 2.4243589831479331e-05 0 0.004908615884942273 1.6959881779518927e-05 0 0.0049265608890770246 3.5265310111692101e-06 0 0.0048762351470324509 4.9540481378688738e-05 0 0.004877744239411781 5.1895725736254767e-05 0 0.0049016170764136467 2.4243589831479331e-05 0 0.0048762351470324509 4.9540481378688738e-05 0 0.0049016170764136467 2.4243589831479331e-05 0 0.004908615884942273 1.6959881779518927e-05 0 0.0048762351470324509 4.9540481378688738e-05 0 0.0049096337125953786 2.090195869571254e-05 0 0.004908615884942273 1.6959881779518927e-05 0 0.0049096337125953786 2.090195869571254e-05 0 0.0049325771363263691 -3.2932724598849009e-06 0 0.004908615884942273 1.6959881779518927e-05 0 0.0049096337125953786 2.090195869571254e-05 0 0.0049325771363263691 -3.2932724598849009e-06 0 0.0049381929185986972 1.7796216948582572e-06 0 0.0049325771363263691 -3.2932724598849009e-06 0 0.004908615884942273 1.6959881779518927e-05 0 0.0049265608890770246 3.5265310111692101e-06 0 0.0049686566727066327 1.3557580209375153e-05 0 0.0049593700692277566 -1.5617018506721363e-05 0 0.0049501278148593713 5.7108772634318733e-06 0 0.0049593700692277566 -1.5617018506721363e-05 0 0.0049501278148593713 5.7108772634318733e-06 0 0.0049527881035248116 -1.1148890652684424e-05 0 0.0049372984511662074 3.0066826723048882e-05 0 0.0049096337125953786 2.090195869571254e-05 0 0.0049381929185986972 1.7796216948582572e-06 0 0.0049372984511662074 3.0066826723048882e-05 0 0.0049501278148593713 5.7108772634318733e-06 0 0.0049381929185986972 1.7796216948582572e-06 0 0.0049501278148593713 5.7108772634318733e-06 0 0.0049527881035248116 -1.1148890652684424e-05 0 0.0049381929185986972 1.7796216948582572e-06 0 0.0049325771363263691 -3.2932724598849009e-06 0 0.0049381929185986972 1.7796216948582572e-06 0 0.0049468658962183625 -1.3609219926971152e-05 0 0.0049381929185986972 1.7796216948582572e-06 0 0.0049468658962183625 -1.3609219926971152e-05 0 0.0049553915564207818 -2.2956715986001968e-05 0 0.0049468658962183625 -1.3609219926971152e-05 0 0.0049553915564207818 -2.2956715986001968e-05 0 0.0049581137025693708 -2.4568752285582741e-05 0 0.0049527881035248116 -1.1148890652684424e-05 0 0.0049553915564207818 -2.2956715986001968e-05 0 0.0049599417032860143 -2.9981673924205313e-05 0 0.0049527881035248116 -1.1148890652684424e-05 0 0.0049381929185986972 1.7796216948582572e-06 0 0.0049553915564207818 -2.2956715986001968e-05 0 0.0049629138683090082 -4.452829024697014e-05 0 0.0049614322658521771 -3.4250243606143164e-05 0 0.0049599417032860143 -2.9981673924205313e-05 0 0.0049553915564207818 -2.2956715986001968e-05 0 0.0049614322658521771 -3.4250243606143164e-05 0 0.0049599417032860143 -2.9981673924205313e-05 0 0.0049593700692277566 -1.5617018506721363e-05 0 0.0049527881035248116 -1.1148890652684424e-05 0 0.0049599417032860143 -2.9981673924205313e-05 0 0.0049635797096158688 -3.9646602080469194e-05 0 0.0049614322658521771 -3.4250243606143164e-05 0 0.004963342471928589 -3.2083866287817824e-05 0 0.0049614322658521771 -3.4250243606143164e-05 0 0.004963342471928589 -3.2083866287817824e-05 0 0.0049581137025693708 -2.4568752285582741e-05 0 0.0049553915564207818 -2.2956715986001968e-05 0 0.0049614322658521771 -3.4250243606143164e-05 0 0.0049581137025693708 -2.4568752285582741e-05 0 0.004963342471928589 -3.2083866287817824e-05 0 0.0049581137025693708 -2.4568752285582741e-05 0 0.004962762553397667 -2.3733869800644434e-05 0 0.0049325771363263691 -3.2932724598849009e-06 0 0.0049468658962183625 -1.3609219926971152e-05 0 0.0049542712363493217 -1.7167327086872547e-05 0 0.0049468658962183625 -1.3609219926971152e-05 0 0.0049581137025693708 -2.4568752285582741e-05 0 0.0049542712363493217 -1.7167327086872547e-05 0 0.0049581137025693708 -2.4568752285582741e-05 0 0.0049542712363493217 -1.7167327086872547e-05 0 0.004962762553397667 -2.3733869800644434e-05 0 0.0049542712363493217 -1.7167327086872547e-05 0 0.004960746202025584 -1.4653231254624769e-05 0 0.0049657506697031624 -1.7718847380616544e-05 0 0.0049542712363493217 -1.7167327086872547e-05 0 0.004962762553397667 -2.3733869800644434e-05 0 0.0049657506697031624 -1.7718847380616544e-05 0 0.004962762553397667 -2.3733869800644434e-05 0 0.0049666395394633465 -2.179819511668522e-05 0 0.0049657506697031624 -1.7718847380616544e-05 0 0.0049665782141500936 -2.2584643793888123e-05 0 0.0049666395394633465 -2.179819511668522e-05 0 0.0049653813036418725 -2.8115506886494412e-05 0 0.004962762553397667 -2.3733869800644434e-05 0 0.0049666395394633465 -2.179819511668522e-05 0 0.0049653813036418725 -2.8115506886494412e-05 0 0.004963342471928589 -3.2083866287817824e-05 0 0.004962762553397667 -2.3733869800644434e-05 0 0.0049653813036418725 -2.8115506886494412e-05 0 0.0049325771363263691 -3.2932724598849009e-06 0 0.0049265608890770246 3.5265310111692101e-06 0 0.0049490910471183345 -1.0369779119007109e-05 0 0.0049325771363263691 -3.2932724598849009e-06 0 0.0049542712363493217 -1.7167327086872547e-05 0 0.0049490910471183345 -1.0369779119007109e-05 0 0.0049542712363493217 -1.7167327086872547e-05 0 0.0049490910471183345 -1.0369779119007109e-05 0 0.004960746202025584 -1.4653231254624769e-05 0 0.0049265608890770246 3.5265310111692101e-06 0 0.0049490910471183345 -1.0369779119007109e-05 0 0.0049508923513188838 -8.3975508266764507e-06 0 0.0049490910471183345 -1.0369779119007109e-05 0 0.0049648937641250069 -1.254836174551988e-05 0 0.0049508923513188838 -8.3975508266764507e-06 0 0.0049648937641250069 -1.254836174551988e-05 0 0.0049697571492292271 -9.5475808703539108e-06 0 0.0049508923513188838 -8.3975508266764507e-06 0 0.0049648937641250069 -1.254836174551988e-05 0 0.004960746202025584 -1.4653231254624769e-05 0 0.0049679666523392303 -1.3839990717410271e-05 0 0.0049490910471183345 -1.0369779119007109e-05 0 0.0049648937641250069 -1.254836174551988e-05 0 0.004960746202025584 -1.4653231254624769e-05 0 0.0049648937641250069 -1.254836174551988e-05 0 0.0049679666523392303 -1.3839990717410271e-05 0 0.0049726392539338081 -1.2004308994414496e-05 0 0.0049648937641250069 -1.254836174551988e-05 0 0.0049726392539338081 -1.2004308994414496e-05 0 0.0049786004999352604 -1.0037905699484556e-05 0 0.0049648937641250069 -1.254836174551988e-05 0 0.0049786004999352604 -1.0037905699484556e-05 0 0.0049697571492292271 -9.5475808703539108e-06 0 0.0049698151410707591 -1.6195805478705368e-05 0 0.0049657506697031624 -1.7718847380616544e-05 0 0.0049716149167482356 -1.2279494640396627e-05 0 0.0049665782141500936 -2.2584643793888123e-05 0 0.0049666395394633465 -2.179819511668522e-05 0 0.0049698151410707591 -1.6195805478705368e-05 0 0.0049666395394633465 -2.179819511668522e-05 0 0.0049698151410707591 -1.6195805478705368e-05 0 0.0049657506697031624 -1.7718847380616544e-05 0 0.0049657506697031624 -1.7718847380616544e-05 0 0.0049679666523392303 -1.3839990717410271e-05 0 0.0049716149167482356 -1.2279494640396627e-05 0 0.004960746202025584 -1.4653231254624769e-05 0 0.0049657506697031624 -1.7718847380616544e-05 0 0.0049679666523392303 -1.3839990717410271e-05 0 0.0049679666523392303 -1.3839990717410271e-05 0 0.0049726392539338081 -1.2004308994414496e-05 0 0.0049716149167482356 -1.2279494640396627e-05 0 0.0049726392539338081 -1.2004308994414496e-05 0 0.0049716149167482356 -1.2279494640396627e-05 0 0.0049736542243666877 -9.495025877076506e-06 0 0.0049732996628206938 -1.0585940135285137e-05 0 0.0049716149167482356 -1.2279494640396627e-05 0 0.0049769108011059136 -7.5221800796160301e-06 0 0.0049732996628206938 -1.0585940135285137e-05 0 0.0049698151410707591 -1.6195805478705368e-05 0 0.0049716149167482356 -1.2279494640396627e-05 0 0.0049769108011059136 -7.5221800796160301e-06 0 0.0049736542243666877 -9.495025877076506e-06 0 0.0049721369996803102 -7.219553043024101e-06 0 0.0049854548792867322 -5.9523823753803348e-06 0 0.0049769108011059136 -7.5221800796160301e-06 0 0.0049721369996803102 -7.219553043024101e-06 0 0.0049716149167482356 -1.2279494640396627e-05 0 0.0049769108011059136 -7.5221800796160301e-06 0 0.0049736542243666877 -9.495025877076506e-06 0 0.0049736542243666877 -9.495025877076506e-06 0 0.0049778933871822166 -9.5110557636625992e-06 0 0.0049721369996803102 -7.219553043024101e-06 0 0.0049726392539338081 -1.2004308994414496e-05 0 0.0049736542243666877 -9.495025877076506e-06 0 0.0049778933871822166 -9.5110557636625992e-06 0 0.0050000040126162333 -4.1411168186873311e-10 0 0.0050013017644207364 -1.2877248795756746e-06 0 0.0049999992788873401 1.9365263838223844e-12 0 0.0050000040126162333 -4.1411168186873311e-10 0 0.0050013017644207364 -1.2877248795756746e-06 0 0.0049959452369832489 -1.1093891530260817e-06 0 0.0049999746983338473 -2.0364097705263619e-09 0 0.0050000040126162333 -4.1411168186873311e-10 0 0.0049959452369832489 -1.1093891530260817e-06 0 0.0049854548792867322 -5.9523823753803348e-06 0 0.0050013017644207364 -1.2877248795756746e-06 0 0.0049959452369832489 -1.1093891530260817e-06 0 0.0049856307515274752 -5.6498824379291592e-06 0 0.0049869655523350409 -4.336210902092203e-06 0 0.0049861549070016062 -5.6553560899511921e-06 0 0.0049786004999352604 -1.0037905699484556e-05 0 0.0049697571492292271 -9.5475808703539108e-06 0 0.0049726392539338081 -1.2004308994414496e-05 0 0.0049778933871822166 -9.5110557636625992e-06 0 0.0049786004999352604 -1.0037905699484556e-05 0 0.0049778933871822166 -9.5110557636625992e-06 0 0.0049721369996803102 -7.219553043024101e-06 0 0.0049999338117103029 -3.5857074822877607e-09 0 0.0049778933871822166 -9.5110557636625992e-06 0 0.0049786004999352604 -1.0037905699484556e-05 0 0.0049999338117103029 -3.5857074822877607e-09 0 0.0049869655523350409 -4.336210902092203e-06 0 0.0049999961230462299 -1.0835525052732313e-09 0 0.0049861549070016062 -5.6553560899511921e-06 0 0.0049999338117103029 -3.5857074822877607e-09 0 0.0049999882302591862 -4.7261805992750648e-09 0 0.0049861549070016062 -5.6553560899511921e-06 0 0.0049786004999352604 -1.0037905699484556e-05 0 0.0049999338117103029 -3.5857074822877607e-09 0 0.0049802715413747598 -6.3830743455600001e-06 0 0.0049635132704092958 -8.1229919815555202e-06 0 0.0049999659707158171 -6.5780849037795214e-09 0 0.0049861549070016062 -5.6553560899511921e-06 0 0.0049999882302591862 -4.7261805992750648e-09 0 0.0049802715413747598 -6.3830743455600001e-06 0 0.0049999882302591862 -4.7261805992750648e-09 0 0.0049802715413747598 -6.3830743455600001e-06 0 0.0049999659707158171 -6.5780849037795214e-09 0 0.0049861549070016062 -5.6553560899511921e-06 0 0.0049802715413747598 -6.3830743455600001e-06 0 0.0049697571492292271 -9.5475808703539108e-06 0 0.0049802715413747598 -6.3830743455600001e-06 0 0.0049697571492292271 -9.5475808703539108e-06 0 0.0049562996893990942 -7.8901669480844079e-06 0 0.0049562996893990942 -7.8901669480844079e-06 0 0.0049402572900174978 -3.7198228464451226e-06 0 0.0049635132704092958 -8.1229919815555202e-06 0 0.0049802715413747598 -6.3830743455600001e-06 0 0.0049562996893990942 -7.8901669480844079e-06 0 0.0049635132704092958 -8.1229919815555202e-06 0 0.0049337378942264599 -4.8544205884554051e-07 0 0.0049562996893990942 -7.8901669480844079e-06 0 0.0049402572900174978 -3.7198228464451226e-06 0 0.0049337378942264599 -4.8544205884554051e-07 0 0.0049562996893990942 -7.8901669480844079e-06 0 0.0049508923513188838 -8.3975508266764507e-06 0 0.0049697571492292271 -9.5475808703539108e-06 0 0.0049562996893990942 -7.8901669480844079e-06 0 0.0049508923513188838 -8.3975508266764507e-06 0 0.0049317948918665101 -3.5659627097911944e-06 0 0.0049503600851524632 -8.3501481308277145e-06 0 0.004917893080950534 -7.2994891193620797e-06 0 0.0049402572900174978 -3.7198228464451226e-06 0 0.0049317948918665101 -3.5659627097911944e-06 0 0.0049635132704092958 -8.1229919815555202e-06 0 0.0049317948918665101 -3.5659627097911944e-06 0 0.0049635132704092958 -8.1229919815555202e-06 0 0.0049503600851524632 -8.3501481308277145e-06 0 0.0049635132704092958 -8.1229919815555202e-06 0 0.004976650249066468 -6.014111211157592e-06 0 0.0049999659707158171 -6.5780849037795214e-09 0 0.0049635132704092958 -8.1229919815555202e-06 0 0.0049503600851524632 -8.3501481308277145e-06 0 0.004976650249066468 -6.014111211157592e-06 0 0.0049503600851524632 -8.3501481308277145e-06 0 0.004976650249066468 -6.014111211157592e-06 0 0.004956933979081952 -9.805559964472706e-06 0 0.004976650249066468 -6.014111211157592e-06 0 0.0049999659707158171 -6.5780849037795214e-09 0 0.0049999623855738265 -7.6165501420272273e-09 0 0.0049999623855738265 -7.6165501420272273e-09 0 0.004999949567151849 -6.5328064093511122e-09 0 0.0049678993351868067 -8.7298307869315714e-06 0 0.0049678993351868067 -8.7298307869315714e-06 0 0.004956933979081952 -9.805559964472706e-06 0 0.0049206510802771884 -1.1602752320736241e-05 0 0.0049999623855738265 -7.6165501420272273e-09 0 0.0049678993351868067 -8.7298307869315714e-06 0 0.004956933979081952 -9.805559964472706e-06 0 0.004976650249066468 -6.014111211157592e-06 0 0.0049999623855738265 -7.6165501420272273e-09 0 0.004956933979081952 -9.805559964472706e-06 0 0.0049999612986598762 -3.503754954318961e-09 0 0.0049854387228692601 -4.1254492868377763e-06 0 0.0049747639993630568 -4.0359623814506823e-06 0 0.004999949567151849 -6.5328064093511122e-09 0 0.0049999612986598762 -3.503754954318961e-09 0 0.0049854387228692601 -4.1254492868377763e-06 0 0.004999949567151849 -6.5328064093511122e-09 0 0.0049678993351868067 -8.7298307869315714e-06 0 0.0049854387228692601 -4.1254492868377763e-06 0 0.0049773431904239487 -3.9972116766581734e-06 0 0.0049358100470576205 -6.6316801866583228e-06 0 0.0049678993351868067 -8.7298307869315714e-06 0 0.0049854387228692601 -4.1254492868377763e-06 0 0.0049201746846341491 -1.3975318588072757e-05 0 0.0049854387228692601 -4.1254492868377763e-06 0 0.0049747639993630568 -4.0359623814506823e-06 0 0.0049505814703606306 -2.0934593106022234e-06 0 0.0049747639993630568 -4.0359623814506823e-06 0 0.0049505814703606306 -2.0934593106022234e-06 0 0.0049552860702588124 -3.6225518107769026e-06 0 0.0049505814703606306 -2.0934593106022234e-06 0 0.0049290044612515845 -1.196699708372044e-08 0 0.0049552860702588124 -3.6225518107769026e-06 0 0.0049678993351868067 -8.7298307869315714e-06 0 0.0049201746846341491 -1.3975318588072757e-05 0 0.0049206510802771884 -1.1602752320736241e-05 0 0.0049201746846341491 -1.3975318588072757e-05 0 0.0049206510802771884 -1.1602752320736241e-05 0 0.0048542358746977224 -8.4221232494163491e-06 0 0.0049206510802771884 -1.1602752320736241e-05 0 0.0048814211116199142 -3.9312084504740086e-06 0 0.0048542358746977224 -8.4221232494163491e-06 0 0.0049358100470576205 -6.6316801866583228e-06 0 0.0048767293854529974 -3.6274015832988071e-07 0 0.0049505814703606306 -2.0934593106022234e-06 0 0.0049005366574785677 6.7747904133405866e-06 0 0.0049290044612515845 -1.196699708372044e-08 0 0.0049503600851524632 -8.3501481308277145e-06 0 0.004956933979081952 -9.805559964472706e-06 0 0.004917893080950534 -7.2994891193620797e-06 0 0.004956933979081952 -9.805559964472706e-06 0 0.0049206510802771884 -1.1602752320736241e-05 0 0.004917893080950534 -7.2994891193620797e-06 0 0.0049206510802771884 -1.1602752320736241e-05 0 0.004917893080950534 -7.2994891193620797e-06 0 0.0048814211116199142 -3.9312084504740086e-06 0 0.004899993645087042 8.4821245159884228e-06 0 0.004917893080950534 -7.2994891193620797e-06 0 0.0048767253287796478 7.236501254240087e-06 0 0.004899993645087042 8.4821245159884228e-06 0 0.004891140847386761 2.4629257541931538e-05 0 0.0048638956937377981 2.612245774262823e-05 0 0.004899993645087042 8.4821245159884228e-06 0 0.0048767253287796478 7.236501254240087e-06 0 0.0048638956937377981 2.612245774262823e-05 0 0.0048767253287796478 7.236501254240087e-06 0 0.0048814211116199142 -3.9312084504740086e-06 0 0.0048339187108234326 1.2261074781890234e-05 0 0.0048767253287796478 7.236501254240087e-06 0 0.0048339187108234326 1.2261074781890234e-05 0 0.0048638956937377981 2.612245774262823e-05 0 0.004917893080950534 -7.2994891193620797e-06 0 0.0048767253287796478 7.236501254240087e-06 0 0.0048814211116199142 -3.9312084504740086e-06 0 0.0048814211116199142 -3.9312084504740086e-06 0 0.0048542358746977224 -8.4221232494163491e-06 0 0.0048339187108234326 1.2261074781890234e-05 0 0.0049005366574785677 6.7747904133405866e-06 0 0.004842621647573566 1.3634119337945881e-05 0 0.0048686971683664032 9.1704437020257081e-06 0 0.0048542358746977224 -8.4221232494163491e-06 0 0.00478156975584764 1.6686010909165843e-05 0 0.0048339187108234326 1.2261074781890234e-05 0 0.0048767293854529974 -3.6274015832988071e-07 0 0.0048121932242395386 1.6157923816555583e-05 0 0.00478156975584764 1.6686010909165843e-05 0 0.0048339187108234326 1.2261074781890234e-05 0 0.0047866508447038112 4.5188757157776162e-05 0 0.0048121932242395386 1.6157923816555583e-05 0 0.0047430830599531158 4.9183472029758928e-05 0 0.00478156975584764 1.6686010909165843e-05 0 0.0047866508447038112 4.5188757157776162e-05 0 0.0047085111027118202 7.3602086945845669e-05 0 0.0047866508447038112 4.5188757157776162e-05 0 0.0047085111027118202 7.3602086945845669e-05 0 0.0046883710307573396 0.00010257301753150238 0 0.0047866508447038112 4.5188757157776162e-05 0 0.0048440960192964004 5.3230746511509472e-05 0 0.0048638956937377981 2.612245774262823e-05 0 0.0047866508447038112 4.5188757157776162e-05 0 0.0048440960192964004 5.3230746511509472e-05 0 0.0047847070232528415 7.9018402741541161e-05 0 0.0048684824378065501 4.6891519807529365e-05 0 0.0048440960192964004 5.3230746511509472e-05 0 0.0048638956937377981 2.612245774262823e-05 0 0.0048684824378065501 4.6891519807529365e-05 0 0.0048440960192964004 5.3230746511509472e-05 0 0.0048510476354239971 5.9575789105491275e-05 0 0.004891140847386761 2.4629257541931538e-05 0 0.0048684824378065501 4.6891519807529365e-05 0 0.0048638956937377981 2.612245774262823e-05 0 0.0048339187108234326 1.2261074781890234e-05 0 0.0047866508447038112 4.5188757157776162e-05 0 0.0048638956937377981 2.612245774262823e-05 0 0.004810196338359018 1.3552064671338153e-05 0 0.0047813862101268563 1.4623457781587198e-05 0 0.0048282192823288547 1.5287737321876881e-05 0 0.004702774572397506 -1.401151485743017e-05 0 0.0046974751849730399 -1.5448564770369406e-05 0 0.0047330826588933388 -6.1816135533682414e-06 0 0.004702774572397506 -1.401151485743017e-05 0 0.0047597025647533649 1.8769348051035366e-05 0 0.0047330826588933388 -6.1816135533682414e-06 0 0.0046974751849730399 -1.5448564770369406e-05 0 0.004679451857939854 -7.020729260048276e-06 0 0.0047199489243321515 1.2233925770215514e-05 0 0.004702774572397506 -1.401151485743017e-05 0 0.0046974751849730399 -1.5448564770369406e-05 0 0.0047199489243321515 1.2233925770215514e-05 0 0.0046974751849730399 -1.5448564770369406e-05 0 0.004679451857939854 -7.020729260048276e-06 0 0.0046852161676444173 -1.6832833483571068e-05 0 0.0047500464345803716 7.8378983385631482e-07 0 0.0047298908353710766 1.486921160049178e-05 0 0.004810196338359018 1.3552064671338153e-05 0 0.0047813862101268563 1.4623457781587198e-05 0 0.0047199489243321515 1.2233925770215514e-05 0 0.0047813862101268563 1.4623457781587198e-05 0 0.0047282285723688946 3.6799804691271846e-05 0 0.0047199489243321515 1.2233925770215514e-05 0 0.0047792428506259312 2.7709303061852528e-05 0 0.0047813862101268563 1.4623457781587198e-05 0 0.0047282285723688946 3.6799804691271846e-05 0 0.004842621647573566 1.3634119337945881e-05 0 0.0047813862101268563 1.4623457781587198e-05 0 0.0048358880284734814 1.2330153489974805e-05 0 0.004842621647573566 1.3634119337945881e-05 0 0.0047792428506259312 2.7709303061852528e-05 0 0.0047813862101268563 1.4623457781587198e-05 0 0.0047813862101268563 1.4623457781587198e-05 0 0.0048358880284734814 1.2330153489974805e-05 0 0.0048282192823288547 1.5287737321876881e-05 0 0.0048358880284734814 1.2330153489974805e-05 0 0.0048673400309780868 9.2706445208019949e-06 0 0.0048282192823288547 1.5287737321876881e-05 0 0.004842621647573566 1.3634119337945881e-05 0 0.0048358880284734814 1.2330153489974805e-05 0 0.0048686971683664032 9.1704437020257081e-06 0 0.0048686971683664032 9.1704437020257081e-06 0 0.0048673400309780868 9.2706445208019949e-06 0 0.0048981232116983645 4.3806318797945061e-06 0 0.0048358880284734814 1.2330153489974805e-05 0 0.0048686971683664032 9.1704437020257081e-06 0 0.0048673400309780868 9.2706445208019949e-06 0 0.0049005366574785677 6.7747904133405866e-06 0 0.0048686971683664032 9.1704437020257081e-06 0 0.0048981232116983645 4.3806318797945061e-06 0 0.0048673400309780868 9.2706445208019949e-06 0 0.0048981232116983645 4.3806318797945061e-06 0 0.0048791310961236196 7.5781023625022764e-06 0 0.0048673400309780868 9.2706445208019949e-06 0 0.0048606402246967675 1.072568566097047e-05 0 0.0048791310961236196 7.5781023625022764e-06 0 0.0048673400309780868 9.2706445208019949e-06 0 0.0048606402246967675 1.072568566097047e-05 0 0.0048282192823288547 1.5287737321876881e-05 0 0.0048606402246967675 1.072568566097047e-05 0 0.004878141662451381 7.623653844722477e-06 0 0.0048791310961236196 7.5781023625022764e-06 0 0.0048610033722388179 1.0505602611479365e-05 0 0.0048737129557008705 7.8904262696149215e-06 0 0.004878141662451381 7.623653844722477e-06 0 0.0048610033722388179 1.0505602611479365e-05 0 0.0048606402246967675 1.072568566097047e-05 0 0.004878141662451381 7.623653844722477e-06 0 0.0048610033722388179 1.0505602611479365e-05 0 0.0048606402246967675 1.072568566097047e-05 0 0.0048428182657299047 1.3786325753063944e-05 0 0.0048606402246967675 1.072568566097047e-05 0 0.0048428182657299047 1.3786325753063944e-05 0 0.0048282192823288547 1.5287737321876881e-05 0 0.0048428182657299047 1.3786325753063944e-05 0 0.0048282192823288547 1.5287737321876881e-05 0 0.0048273908184136684 1.448056646564679e-05 0 0.004810196338359018 1.3552064671338153e-05 0 0.0048282192823288547 1.5287737321876881e-05 0 0.0048273908184136684 1.448056646564679e-05 0 0.0047500464345803716 7.8378983385631482e-07 0 0.0048335244684977671 5.0079745402334291e-05 0 0.004810196338359018 1.3552064671338153e-05 0 0.0048273908184136684 1.448056646564679e-05 0 0.0048452198240781907 1.5573599448838974e-05 0 0.004702774572397506 -1.401151485743017e-05 0 0.0047483750316732543 6.6064693775584558e-05 0 0.0047597025647533649 1.8769348051035366e-05 0 0.0048428182657299047 1.3786325753063944e-05 0 0.0048273908184136684 1.448056646564679e-05 0 0.0048387864780808703 1.4450742070339895e-05 0 0.0048273908184136684 1.448056646564679e-05 0 0.0048387864780808703 1.4450742070339895e-05 0 0.0048452198240781907 1.5573599448838974e-05 0 0.0048335244684977671 5.0079745402334291e-05 0 0.0048994291858795369 4.9512869577131448e-05 0 0.0048610033722388179 1.0505602611479365e-05 0 0.0048387864780808703 1.4450742070339895e-05 0 0.0048737129557008705 7.8904262696149215e-06 0 0.0048442970896679068 1.6075554416639898e-05 0 0.0048553115334113647 1.9798517884692442e-05 0 0.0048452198240781907 1.5573599448838974e-05 0 0.0048434920451400328 2.4922278247994577e-05 0 0.0048414520307840329 2.4142481823574406e-05 0 0.0048387864780808703 1.4450742070339895e-05 0 0.0048452198240781907 1.5573599448838974e-05 0 0.0048414520307840329 2.4142481823574406e-05 0 0.0048610033722388179 1.0505602611479365e-05 0 0.0048428182657299047 1.3786325753063944e-05 0 0.0048387864780808703 1.4450742070339895e-05 0 0.0048434920451400328 2.4922278247994577e-05 0 0.0048414520307840329 2.4142481823574406e-05 0 0.0048440797696412807 3.048628870861558e-05 0 0.0048737129557008705 7.8904262696149215e-06 0 0.0048956406018303344 4.5159228369036881e-06 0 0.0049059139970764176 1.2691946209958224e-06 0 0.0049568849194234488 6.3172567662036854e-05 0 0.0049430574934048489 3.4989658706467619e-05 0 0.0049687776619210993 1.9343887711018633e-05 0 0.0048553115334113647 1.9798517884692442e-05 0 0.0049259254130419056 8.46840992053417e-06 0 0.0048994291858795369 4.9512869577131448e-05 0 0.0049259254130419056 8.46840992053417e-06 0 0.0048737129557008705 7.8904262696149215e-06 0 0.004878141662451381 7.623653844722477e-06 0 0.0048956406018303344 4.5159228369036881e-06 0 0.004878141662451381 7.623653844722477e-06 0 0.0048999690750523225 3.968059767963558e-06 0 0.0048791310961236196 7.5781023625022764e-06 0 0.004878141662451381 7.623653844722477e-06 0 0.0048999690750523225 3.968059767963558e-06 0 0.0048956406018303344 4.5159228369036881e-06 0 0.0049059139970764176 1.2691946209958224e-06 0 0.0049381948643414993 -5.0010876405057891e-06 0 0.0049383830821200089 -2.9765474406450591e-06 0 0.0048956406018303344 4.5159228369036881e-06 0 0.004921013811663085 9.356819901374245e-08 0 0.0049059139970764176 1.2691946209958224e-06 0 0.0048999690750523225 3.968059767963558e-06 0 0.0048956406018303344 4.5159228369036881e-06 0 0.004921013811663085 9.356819901374245e-08 0 0.004921013811663085 9.356819901374245e-08 0 0.0049059139970764176 1.2691946209958224e-06 0 0.0049383830821200089 -2.9765474406450591e-06 0 0.0049259254130419056 8.46840992053417e-06 0 0.0049633419362887111 -1.0602073217334828e-05 0 0.0049687776619210993 1.9343887711018633e-05 0 0.0049642620884995511 9.4316767942076079e-06 0 0.0049409901812572541 2.1145714637080047e-05 0 0.0049430574934048489 3.4989658706467619e-05 0 0.0049687776619210993 1.9343887711018633e-05 0 0.0049409901812572541 2.1145714637080047e-05 0 0.0049005366574785677 6.7747904133405866e-06 0 0.0048981232116983645 4.3806318797945061e-06 0 0.0049290044612515845 -1.196699708372044e-08 0 0.0048999690750523225 3.968059767963558e-06 0 0.0048981232116983645 4.3806318797945061e-06 0 0.0048791310961236196 7.5781023625022764e-06 0 0.0048999690750523225 3.968059767963558e-06 0 0.0048981232116983645 4.3806318797945061e-06 0 0.0049257045001619018 -2.8395794235100199e-07 0 0.004921013811663085 9.356819901374245e-08 0 0.0049257045001619018 -2.8395794235100199e-07 0 0.0049578811232421187 -4.5073278658407774e-06 0 0.0048999690750523225 3.968059767963558e-06 0 0.004921013811663085 9.356819901374245e-08 0 0.0049257045001619018 -2.8395794235100199e-07 0 0.0048981232116983645 4.3806318797945061e-06 0 0.0049257045001619018 -2.8395794235100199e-07 0 0.0049290044612515845 -1.196699708372044e-08 0 0.0049257045001619018 -2.8395794235100199e-07 0 0.0049290044612515845 -1.196699708372044e-08 0 0.0049552860702588124 -3.6225518107769026e-06 0 0.0049552860702588124 -3.6225518107769026e-06 0 0.0049578811232421187 -4.5073278658407774e-06 0 0.0049777517996104576 -3.2207750911789358e-06 0 0.0049747639993630568 -4.0359623814506823e-06 0 0.0049552860702588124 -3.6225518107769026e-06 0 0.0049777517996104576 -3.2207750911789358e-06 0 0.0049257045001619018 -2.8395794235100199e-07 0 0.0049552860702588124 -3.6225518107769026e-06 0 0.0049578811232421187 -4.5073278658407774e-06 0 0.0049578811232421187 -4.5073278658407774e-06 0 0.004999941505296571 -8.1261298863643572e-09 0 0.0049777517996104576 -3.2207750911789358e-06 0 0.0049578811232421187 -4.5073278658407774e-06 0 0.004999941505296571 -8.1261298863643572e-09 0 0.0049664969441547309 -5.2028571204927801e-06 0 0.0049999612986598762 -3.503754954318961e-09 0 0.0049747639993630568 -4.0359623814506823e-06 0 0.0049777517996104576 -3.2207750911789358e-06 0 0.0049999612986598762 -3.503754954318961e-09 0 0.004999941505296571 -8.1261298863643572e-09 0 0.0049777517996104576 -3.2207750911789358e-06 0 0.0049871656351898642 -2.2804762109741668e-05 0 0.0049892656326797347 -1.2809070493024311e-05 0 0.0049867108274371172 -1.535410726831104e-05 0 0.0049259254130419056 8.46840992053417e-06 0 0.0049886227483203587 -7.7379726868370258e-06 0 0.0049687776619210993 1.9343887711018633e-05 0 0.004980246347822335 2.0987454815637962e-06 0 0.0049642620884995511 9.4316767942076079e-06 0 0.0049892656326797347 -1.2809070493024311e-05 0 0.0049867108274371172 -1.535410726831104e-05 0 0.0049838812273575849 -4.3489528869893859e-06 0 0.004980246347822335 2.0987454815637962e-06 0 0.0049736188819731152 3.6789589365279086e-06 0 0.0049868335809495875 5.4258825670377021e-07 0 0.004980246347822335 2.0987454815637962e-06 0 0.0049736188819731152 3.6789589365279086e-06 0 0.0049642620884995511 9.4316767942076079e-06 0 0.004921013811663085 9.356819901374245e-08 0 0.0049578811232421187 -4.5073278658407774e-06 0 0.0049383830821200089 -2.9765474406450591e-06 0 0.0049633419362887111 -1.0602073217334828e-05 0 0.0049749982267011548 -1.9226556338319292e-06 0 0.0049381948643414993 -5.0010876405057891e-06 0 0.0049383830821200089 -2.9765474406450591e-06 0 0.0049664969441547309 -5.2028571204927801e-06 0 0.0049381948643414993 -5.0010876405057891e-06 0 0.0049664969441547309 -5.2028571204927801e-06 0 0.0049838812273575849 -4.3489528869893859e-06 0 0.0049578811232421187 -4.5073278658407774e-06 0 0.0049383830821200089 -2.9765474406450591e-06 0 0.0049664969441547309 -5.2028571204927801e-06 0 0.004999941505296571 -8.1261298863643572e-09 0 0.0049664969441547309 -5.2028571204927801e-06 0 0.0049838812273575849 -4.3489528869893859e-06 0 0.004999941505296571 -8.1261298863643572e-09 0 0.0049838812273575849 -4.3489528869893859e-06 0 0.0049999689774625411 5.10608777435084e-09 0 0.0049892656326797347 -1.2809070493024311e-05 0 0.0049838812273575849 -4.3489528869893859e-06 0 0.0049999689774625411 5.10608777435084e-09 0 0.004980246347822335 2.0987454815637962e-06 0 0.0049999750759712651 -1.265759760686612e-09 0 0.0049868335809495875 5.4258825670377021e-07 0 0.0049886227483203587 -7.7379726868370258e-06 0 0.0049999917628770476 -8.3924291699367965e-10 0 0.0049999750759712651 -1.265759760686612e-09 0 0.0049868335809495875 5.4258825670377021e-07 0 0.0049999568172992628 -9.5175764920741012e-10 0 0.0049999568172992628 -9.5175764920741012e-10 0 0.0049770044508203456 2.2463536052735073e-06 0 0.0049655316736322746 4.294185831331966e-06 0 0.0049868335809495875 5.4258825670377021e-07 0 0.0049999568172992628 -9.5175764920741012e-10 0 0.0049770044508203456 2.2463536052735073e-06 0 0.0049736188819731152 3.6789589365279086e-06 0 0.0049868335809495875 5.4258825670377021e-07 0 0.0049770044508203456 2.2463536052735073e-06 0 0.0049736188819731152 3.6789589365279086e-06 0 0.0049770044508203456 2.2463536052735073e-06 0 0.0049563605712109274 8.5491304918511645e-06 0 0.0049770044508203456 2.2463536052735073e-06 0 0.0049563605712109274 8.5491304918511645e-06 0 0.0049655316736322746 4.294185831331966e-06 0 0.0049736188819731152 3.6789589365279086e-06 0 0.0049642620884995511 9.4316767942076079e-06 0 0.0049563605712109274 8.5491304918511645e-06 0 0.0049452361849798756 1.0730552942146757e-05 0 0.0049442645025198706 1.1931251574244851e-05 0 0.0049283544014286813 1.7350534625312857e-05 0 0.0049452361849798756 1.0730552942146757e-05 0 0.0049442645025198706 1.1931251574244851e-05 0 0.0049655316736322746 4.294185831331966e-06 0 0.0049563605712109274 8.5491304918511645e-06 0 0.0049442645025198706 1.1931251574244851e-05 0 0.0049655316736322746 4.294185831331966e-06 0 0.0049452361849798756 1.0730552942146757e-05 0 0.0049655316736322746 4.294185831331966e-06 0 0.0049586042974108712 5.7873377570034484e-06 0 0.0049999568172992628 -9.5175764920741012e-10 0 0.0049655316736322746 4.294185831331966e-06 0 0.0049999376998486255 5.5445767136786781e-09 0 0.0049655316736322746 4.294185831331966e-06 0 0.0049999376998486255 5.5445767136786781e-09 0 0.0049586042974108712 5.7873377570034484e-06 0 0.0049999376998486255 5.5445767136786781e-09 0 0.0049694007073260446 3.1119827744679967e-06 0 0.0049586042974108712 5.7873377570034484e-06 0 0.0049999376998486255 5.5445767136786781e-09 0 0.0049694007073260446 3.1119827744679967e-06 0 0.0049667265340594706 1.4358049220685226e-06 0 0.0049999376998486255 5.5445767136786781e-09 0 0.0049865906501654006 2.2629148242516877e-06 0 0.0049667265340594706 1.4358049220685226e-06 0 0.0049999376998486255 5.5445767136786781e-09 0 0.0049865906501654006 2.2629148242516877e-06 0 0.0049999865209468461 4.4310330799663034e-09 0 0.0049598830163368225 6.5951256386425531e-06 0 0.0049195131959696298 -1.2161676578508175e-05 0 0.0049667265340594706 1.4358049220685226e-06 0 0.0049295741898760436 1.5921381196617473e-05 0 0.0049203791375069866 1.9805082664941821e-05 0 0.0049781696064645576 -6.4926562462550691e-06 0 0.0049667265340594706 1.4358049220685226e-06 0 0.0049646386923010589 -4.4390303732913332e-05 0 0.0049865906501654006 2.2629148242516877e-06 0 0.0049781696064645576 -6.4926562462550691e-06 0 0.0049873788023938846 -2.7346361884787511e-06 0 0.0049865906501654006 2.2629148242516877e-06 0 0.0049781696064645576 -6.4926562462550691e-06 0 0.0049667265340594706 1.4358049220685226e-06 0 0.0049694007073260446 3.1119827744679967e-06 0 0.0049667265340594706 1.4358049220685226e-06 0 0.0049526811083526138 7.0160183800428069e-06 0 0.0049694007073260446 3.1119827744679967e-06 0 0.0049586042974108712 5.7873377570034484e-06 0 0.0049526811083526138 7.0160183800428069e-06 0 0.0049526811083526138 7.0160183800428069e-06 0 0.0049384453542707886 1.2724452015233344e-05 0 0.0049295741898760436 1.5921381196617473e-05 0 0.0049667265340594706 1.4358049220685226e-06 0 0.0049526811083526138 7.0160183800428069e-06 0 0.0049295741898760436 1.5921381196617473e-05 0 0.0049452361849798756 1.0730552942146757e-05 0 0.0049586042974108712 5.7873377570034484e-06 0 0.0049384453542707886 1.2724452015233344e-05 0 0.0049586042974108712 5.7873377570034484e-06 0 0.0049526811083526138 7.0160183800428069e-06 0 0.0049384453542707886 1.2724452015233344e-05 0 0.0049452361849798756 1.0730552942146757e-05 0 0.0049384453542707886 1.2724452015233344e-05 0 0.0049283544014286813 1.7350534625312857e-05 0 0.0049384453542707886 1.2724452015233344e-05 0 0.0049155299634016329 2.0603474293969648e-05 0 0.0049283544014286813 1.7350534625312857e-05 0 0.0049295741898760436 1.5921381196617473e-05 0 0.0049155299634016329 2.0603474293969648e-05 0 0.0048999532049638639 2.359248781019258e-05 0 0.0049384453542707886 1.2724452015233344e-05 0 0.0049295741898760436 1.5921381196617473e-05 0 0.0049155299634016329 2.0603474293969648e-05 0 0.0049155299634016329 2.0603474293969648e-05 0 0.0048999532049638639 2.359248781019258e-05 0 0.004891976969580907 2.4705306591712018e-05 0 0.0049044748148102122 2.6070069479692564e-05 0 0.0049155299634016329 2.0603474293969648e-05 0 0.004891976969580907 2.4705306591712018e-05 0 0.0049044748148102122 2.6070069479692564e-05 0 0.0049155299634016329 2.0603474293969648e-05 0 0.0049283544014286813 1.7350534625312857e-05 0 0.0049781696064645576 -6.4926562462550691e-06 0 0.0049646386923010589 -4.4390303732913332e-05 0 0.0049743075289389593 -4.7926599326852206e-05 0 0.0049667265340594706 1.4358049220685226e-06 0 0.0049203791375069866 1.9805082664941821e-05 0 0.0048849581116947958 3.5013611608031728e-05 0 0.0049782848275971231 -6.784087339461283e-06 0 0.0049757388392231922 -2.3871979314764294e-05 0 0.0049295741898760436 1.5921381196617473e-05 0 0.0049203791375069866 1.9805082664941821e-05 0 0.0048999532049638639 2.359248781019258e-05 0 0.0049203791375069866 1.9805082664941821e-05 0 0.0048999532049638639 2.359248781019258e-05 0 0.0048849581116947958 3.5013611608031728e-05 0 0.0048999532049638639 2.359248781019258e-05 0 0.0048849581116947958 3.5013611608031728e-05 0 0.0048771833657557453 1.7211217886458704e-05 0 0.0048849581116947958 3.5013611608031728e-05 0 0.0048553350110296127 -1.0352330891550904e-06 0 0.004822304133416778 -5.6883996113742154e-05 0 0.0049646386923010589 -4.4390303732913332e-05 0 0.0049674946160460564 -7.311486445702577e-05 0 0.0049570972407951917 -0.00010284883719774612 0 0.0049195131959696298 -1.2161676578508175e-05 0 0.0049354036299243415 -3.5624821986380359e-05 0 0.0048849581116947958 3.5013611608031728e-05 0 0.0048771833657557453 1.7211217886458704e-05 0 0.0048553350110296127 -1.0352330891550904e-06 0 0.0049646386923010589 -4.4390303732913332e-05 0 0.0049743075289389593 -4.7926599326852206e-05 0 0.0049674946160460564 -7.311486445702577e-05 0 0.0048771833657557453 1.7211217886458704e-05 0 0.0048553350110296127 -1.0352330891550904e-06 0 0.0048792395070265393 2.6755869670618174e-05 0 0.0049044748148102122 2.6070069479692564e-05 0 0.004891976969580907 2.4705306591712018e-05 0 0.0048807668907400901 3.4727886220732908e-05 0 0.0048771833657557453 1.7211217886458704e-05 0 0.004891976969580907 2.4705306591712018e-05 0 0.0048792395070265393 2.6755869670618174e-05 0 0.0048999532049638639 2.359248781019258e-05 0 0.0048771833657557453 1.7211217886458704e-05 0 0.004891976969580907 2.4705306591712018e-05 0 0.004891976969580907 2.4705306591712018e-05 0 0.0048792395070265393 2.6755869670618174e-05 0 0.0048807668907400901 3.4727886220732908e-05 0 0.0048807668907400901 3.4727886220732908e-05 0 0.004894347836472965 3.4500218726266732e-05 0 0.0048724775208197927 4.0724792183847856e-05 0 0.0049044748148102122 2.6070069479692564e-05 0 0.0048807668907400901 3.4727886220732908e-05 0 0.004894347836472965 3.4500218726266732e-05 0 0.004894347836472965 3.4500218726266732e-05 0 0.0048988410558999645 4.5480274926697779e-05 0 0.0049212272124476691 2.3278944470985418e-05 0 0.004894347836472965 3.4500218726266732e-05 0 0.0048988410558999645 4.5480274926697779e-05 0 0.0048724775208197927 4.0724792183847856e-05 0 0.0048988410558999645 4.5480274926697779e-05 0 0.0048482401597867405 4.1526514148600778e-05 0 0.0048724775208197927 4.0724792183847856e-05 0 0.0049568849194234488 6.3172567662036854e-05 0 0.0049430574934048489 3.4989658706467619e-05 0 0.0048988410558999645 4.5480274926697779e-05 0 0.0049430574934048489 3.4989658706467619e-05 0 0.0048988410558999645 4.5480274926697779e-05 0 0.0049409901812572541 2.1145714637080047e-05 0 0.0048988410558999645 4.5480274926697779e-05 0 0.0049409901812572541 2.1145714637080047e-05 0 0.0049212272124476691 2.3278944470985418e-05 0 0.0049642620884995511 9.4316767942076079e-06 0 0.0049563605712109274 8.5491304918511645e-06 0 0.0049409901812572541 2.1145714637080047e-05 0 0.0049563605712109274 8.5491304918511645e-06 0 0.0049442645025198706 1.1931251574244851e-05 0 0.0049212272124476691 2.3278944470985418e-05 0 0.0049563605712109274 8.5491304918511645e-06 0 0.0049409901812572541 2.1145714637080047e-05 0 0.0049212272124476691 2.3278944470985418e-05 0 0.0049442645025198706 1.1931251574244851e-05 0 0.0049283544014286813 1.7350534625312857e-05 0 0.0049212272124476691 2.3278944470985418e-05 0 0.0049044748148102122 2.6070069479692564e-05 0 0.004894347836472965 3.4500218726266732e-05 0 0.0049212272124476691 2.3278944470985418e-05 0 0.0049044748148102122 2.6070069479692564e-05 0 0.0049283544014286813 1.7350534625312857e-05 0 0.0049212272124476691 2.3278944470985418e-05 0 0.0049777173278495405 -4.2319956130285157e-06 0 0.0049565594341478714 -2.1513913748422147e-05 0 0.0049792602189123432 1.0539749056882917e-06 0 0.0049811290815134721 -2.0735029118570442e-06 0 0.0049616597521078666 1.0575579587195479e-06 0 0.0049792602189123432 1.0539749056882917e-06 0 0.0049906993236649346 -1.2172556410403811e-06 0 0.0049811290815134721 -2.0735029118570442e-06 0 0.0049777173278495405 -4.2319956130285157e-06 0 0.0049999890009449089 -1.368366295778889e-09 0 0.0049792602189123432 1.0539749056882917e-06 0 0.0049999730323460256 -2.1593574058309565e-09 0 0.0049906993236649346 -1.2172556410403811e-06 0 0.0049999730323460256 -2.1593574058309565e-09 0 0.0049906993236649346 -1.2172556410403811e-06 0 0.0049999853702218751 -4.2487471451827658e-09 0 0.0049906993236649346 -1.2172556410403811e-06 0 0.0049999853702218751 -4.2487471451827658e-09 0 0.0049906183821979578 -1.8117297331824752e-06 0 0.0049906183821979578 -1.8117297331824752e-06 0 0.0049811290815134721 -2.0735029118570442e-06 0 0.0049874953560045589 -1.9777792995561736e-06 0 0.0049906993236649346 -1.2172556410403811e-06 0 0.0049906183821979578 -1.8117297331824752e-06 0 0.0049811290815134721 -2.0735029118570442e-06 0 0.0049811290815134721 -2.0735029118570442e-06 0 0.0049801717149216967 -1.217367646114786e-06 0 0.0049616597521078666 1.0575579587195479e-06 0 0.0049801717149216967 -1.217367646114786e-06 0 0.0049874953560045589 -1.9777792995561736e-06 0 0.0049859969599095342 -7.8121312616979485e-07 0 0.0049811290815134721 -2.0735029118570442e-06 0 0.0049801717149216967 -1.217367646114786e-06 0 0.0049874953560045589 -1.9777792995561736e-06 0 0.0049874953560045589 -1.9777792995561736e-06 0 0.0049887005507034373 -1.8714269359386156e-06 0 0.0049859969599095342 -7.8121312616979485e-07 0 0.0049887005507034373 -1.8714269359386156e-06 0 0.0049892143730245458 -2.3698067472255947e-06 0 0.0049871331333149966 -2.000581078575407e-06 0 0.0049887005507034373 -1.8714269359386156e-06 0 0.0049928170841071207 -1.2999705842012104e-06 0 0.0049892143730245458 -2.3698067472255947e-06 0 0.0049906183821979578 -1.8117297331824752e-06 0 0.0049874953560045589 -1.9777792995561736e-06 0 0.0049928170841071207 -1.2999705842012104e-06 0 0.0049874953560045589 -1.9777792995561736e-06 0 0.0049887005507034373 -1.8714269359386156e-06 0 0.0049928170841071207 -1.2999705842012104e-06 0 0.0049999853702218751 -4.2487471451827658e-09 0 0.0049928170841071207 -1.2999705842012104e-06 0 0.0049999865209468461 4.4310330799663034e-09 0 0.0049999853702218751 -4.2487471451827658e-09 0 0.0049906183821979578 -1.8117297331824752e-06 0 0.0049928170841071207 -1.2999705842012104e-06 0 0.0049928170841071207 -1.2999705842012104e-06 0 0.0049916335220698965 -5.8599634638452444e-07 0 0.0049999865209468461 4.4310330799663034e-09 0 0.0049865906501654006 2.2629148242516877e-06 0 0.0049916335220698965 -5.8599634638452444e-07 0 0.0049999865209468461 4.4310330799663034e-09 0 0.0049865906501654006 2.2629148242516877e-06 0 0.0049916335220698965 -5.8599634638452444e-07 0 0.0049873788023938846 -2.7346361884787511e-06 0 0.0049928170841071207 -1.2999705842012104e-06 0 0.0049916335220698965 -5.8599634638452444e-07 0 0.0049892143730245458 -2.3698067472255947e-06 0 0.0049916335220698965 -5.8599634638452444e-07 0 0.0049873788023938846 -2.7346361884787511e-06 0 0.0049892143730245458 -2.3698067472255947e-06 0 0.0049873788023938846 -2.7346361884787511e-06 0 0.0049865465500307299 -3.606163264876702e-06 0 0.0049892143730245458 -2.3698067472255947e-06 0 0.0049865465500307299 -3.606163264876702e-06 0 0.0049892143730245458 -2.3698067472255947e-06 0 0.0049871331333149966 -2.000581078575407e-06 0 0.0049781696064645576 -6.4926562462550691e-06 0 0.0049865465500307299 -3.606163264876702e-06 0 0.0049856975360856688 -3.3037881980590854e-06 0 0.0049781696064645576 -6.4926562462550691e-06 0 0.0049873788023938846 -2.7346361884787511e-06 0 0.0049865465500307299 -3.606163264876702e-06 0 0.0049781696064645576 -6.4926562462550691e-06 0 0.0049856975360856688 -3.3037881980590854e-06 0 0.0049859609797713944 -2.0803475452982481e-06 0 0.0049856975360856688 -3.3037881980590854e-06 0 0.0049852962336402367 -1.3278303551917794e-06 0 0.0049871331333149966 -2.000581078575407e-06 0 0.0049865465500307299 -3.606163264876702e-06 0 0.0049856975360856688 -3.3037881980590854e-06 0 0.0049871331333149966 -2.000581078575407e-06 0 0.0049856975360856688 -3.3037881980590854e-06 0 0.0049852962336402367 -1.3278303551917794e-06 0 0.0049851025050851438 -1.8525107879585543e-06 0 0.0049856975360856688 -3.3037881980590854e-06 0 0.0049851025050851438 -1.8525107879585543e-06 0 0.0049859609797713944 -2.0803475452982481e-06 0 0.0049859609797713944 -2.0803475452982481e-06 0 0.0049837921209011735 -1.0515605803437196e-06 0 0.0049800398419396442 -1.7652523331430014e-06 0 0.0049851025050851438 -1.8525107879585543e-06 0 0.0049859609797713944 -2.0803475452982481e-06 0 0.0049837921209011735 -1.0515605803437196e-06 0 0.0049837921209011735 -1.0515605803437196e-06 0 0.0049824423191630806 -7.1191231133209218e-07 0 0.0049800398419396442 -1.7652523331430014e-06 0 0.0049757388392231922 -2.3871979314764294e-05 0 0.0050133807392796206 -4.5726174290453911e-05 0 0.0049743075289389593 -4.7926599326852206e-05 0 0.0049674946160460564 -7.311486445702577e-05 0 0.0049749180319193518 -9.7852852021585457e-05 0 0.0049852962336402367 -1.3278303551917794e-06 0 0.0049851025050851438 -1.8525107879585543e-06 0 0.0049837921209011735 -1.0515605803437196e-06 0 0.0049852962336402367 -1.3278303551917794e-06 0 0.0049837921209011735 -1.0515605803437196e-06 0 0.0049839126246766646 2.1870632358637326e-07 0 0.0049834249294664562 4.6102941325048017e-07 0 0.0049826264587143863 4.6177448448515047e-06 0 0.0049845641604116045 -3.1882197755612128e-06 0 0.0049837921209011735 -1.0515605803437196e-06 0 0.0049839126246766646 2.1870632358637326e-07 0 0.0049824423191630806 -7.1191231133209218e-07 0 0.0049839126246766646 2.1870632358637326e-07 0 0.0049824423191630806 -7.1191231133209218e-07 0 0.0049834249294664562 4.6102941325048017e-07 0 0.0049839126246766646 2.1870632358637326e-07 0 0.0049837561066898468 1.9757041634578971e-06 0 0.0049849713677758579 4.2470186737048102e-07 0 0.0049834249294664562 4.6102941325048017e-07 0 0.0049837561066898468 1.9757041634578971e-06 0 0.0049826264587143863 4.6177448448515047e-06 0 0.0049839126246766646 2.1870632358637326e-07 0 0.0049834249294664562 4.6102941325048017e-07 0 0.0049837561066898468 1.9757041634578971e-06 0 0.0049837561066898468 1.9757041634578971e-06 0 0.0049849713677758579 4.2470186737048102e-07 0 0.0049822392319048298 1.7597484595812999e-06 0 0.0049852962336402367 -1.3278303551917794e-06 0 0.0049849713677758579 4.2470186737048102e-07 0 0.0049871331333149966 -2.000581078575407e-06 0 0.0049852962336402367 -1.3278303551917794e-06 0 0.0049839126246766646 2.1870632358637326e-07 0 0.0049849713677758579 4.2470186737048102e-07 0 0.0049887005507034373 -1.8714269359386156e-06 0 0.0049871331333149966 -2.000581078575407e-06 0 0.0049859969599095342 -7.8121312616979485e-07 0 0.0049849713677758579 4.2470186737048102e-07 0 0.0049871331333149966 -2.000581078575407e-06 0 0.0049859969599095342 -7.8121312616979485e-07 0 0.0049849713677758579 4.2470186737048102e-07 0 0.0049859969599095342 -7.8121312616979485e-07 0 0.0049822392319048298 1.7597484595812999e-06 0 0.0049822392319048298 1.7597484595812999e-06 0 0.0049826264587143863 4.6177448448515047e-06 0 0.0049616597521078666 1.0575579587195479e-06 0 0.004922507458646524 -3.1118094090071918e-05 0 0.0049570081628118167 1.4841720116300296e-06 0 0.0049801717149216967 -1.217367646114786e-06 0 0.0049859969599095342 -7.8121312616979485e-07 0 0.0049822392319048298 1.7597484595812999e-06 0 0.0049801717149216967 -1.217367646114786e-06 0 0.0049822392319048298 1.7597484595812999e-06 0 0.0049616597521078666 1.0575579587195479e-06 0 0.0049837561066898468 1.9757041634578971e-06 0 0.0049822392319048298 1.7597484595812999e-06 0 0.0049826264587143863 4.6177448448515047e-06 0 0.0048745326589947806 -4.2446809785121425e-05 0 0.0049246619037795767 -3.6427901367845599e-05 0 0.0048685945373517494 -8.7602844060389635e-05 0 0.0049246619037795767 -3.6427901367845599e-05 0 0.0049368838417104882 -6.3570111564376325e-05 0 0.0048685945373517494 -8.7602844060389635e-05 0 0.0049246619037795767 -3.6427901367845599e-05 0 0.0049368838417104882 -6.3570111564376325e-05 0 0.0049598086495185956 -9.2789982471641987e-06 0 0.0049420807112218867 -5.8816763617524201e-05 0 0.0049565594341478714 -2.1513913748422147e-05 0 0.0049792602189123432 1.0539749056882917e-06 0 0.0049598086495185956 -9.2789982471641987e-06 0 0.0049616597521078666 1.0575579587195479e-06 0 0.0048745326589947806 -4.2446809785121425e-05 0 0.0049246619037795767 -3.6427901367845599e-05 0 0.0049616597521078666 1.0575579587195479e-06 0 0.0049246619037795767 -3.6427901367845599e-05 0 0.0049598086495185956 -9.2789982471641987e-06 0 0.0049616597521078666 1.0575579587195479e-06 0 0.0047964956295742942 -0.0001000335603416275 0 0.0048685945373517494 -8.7602844060389635e-05 0 0.0048423837238719082 -9.0011515771216592e-05 0 0.0047964956295742942 -0.0001000335603416275 0 0.0048423837238719082 -9.0011515771216592e-05 0 0.0048293524538588145 -5.8176062815653402e-05 0 0.0048425704035303463 -9.0896483228815894e-05 0 0.004868629849212624 -9.2903172119161224e-05 0 0.0049368838417104882 -6.3570111564376325e-05 0 0.0049286917292383483 -0.00011040096024886569 0 0.0048685945373517494 -8.7602844060389635e-05 0 0.004922507458646524 -3.1118094090071918e-05 0 0.0049568803895540907 -6.2282559932552187e-06 0 0.0048745326589947806 -4.2446809785121425e-05 0 0.0048685945373517494 -8.7602844060389635e-05 0 0.004843405272574302 -8.9299043473765562e-05 0 0.0048685945373517494 -8.7602844060389635e-05 0 0.0048423837238719082 -9.0011515771216592e-05 0 0.004843405272574302 -8.9299043473765562e-05 0 0.0048423837238719082 -9.0011515771216592e-05 0 0.0048429643788414235 -8.2355782247695648e-05 0 0.004843405272574302 -8.9299043473765562e-05 0 0.0048423837238719082 -9.0011515771216592e-05 0 0.0048429643788414235 -8.2355782247695648e-05 0 0.0048293524538588145 -5.8176062815653402e-05 0 0.0049568803895540907 -6.2282559932552187e-06 0 0.0046039741138314098 -0.00017084744767042478 0 0.0048429643788414235 -8.2355782247695648e-05 0 0.004843405272574302 -8.9299043473765562e-05 0 0.0048466575995912767 -8.2100940233308423e-05 0 0.0048429643788414235 -8.2355782247695648e-05 0 0.0048466575995912767 -8.2100940233308423e-05 0 0.0048456395893183178 -7.9162590683107446e-05 0 0.0049845641604116045 -3.1882197755612128e-06 0 0.004981751768015328 -2.6933402722441002e-06 0 0.004977097648619159 -1.2841632010453151e-05 0 0.0049834249294664562 4.6102941325048017e-07 0 0.0049845641604116045 -3.1882197755612128e-06 0 0.004981751768015328 -2.6933402722441002e-06 0 0.0049824423191630806 -7.1191231133209218e-07 0 0.0049834249294664562 4.6102941325048017e-07 0 0.004981751768015328 -2.6933402722441002e-06 0 0.004981751768015328 -2.6933402722441002e-06 0 0.0049800398419396442 -1.7652523331430014e-06 0 0.004977097648619159 -1.2841632010453151e-05 0 0.0049824423191630806 -7.1191231133209218e-07 0 0.004981751768015328 -2.6933402722441002e-06 0 0.0049800398419396442 -1.7652523331430014e-06 0 0.0049674946160460564 -7.311486445702577e-05 0 0.0049749180319193518 -9.7852852021585457e-05 0 0.0049570972407951917 -0.00010284883719774612 0 0.0049749180319193518 -9.7852852021585457e-05 0 0.0049570972407951917 -0.00010284883719774612 0 0.0049696384272132866 -0.00014517870675862082 0 0.0049749180319193518 -9.7852852021585457e-05 0 0.0049696384272132866 -0.00014517870675862082 0 0.0049846710811932071 -0.00016772605118094955 0 0.0049570972407951917 -0.00010284883719774612 0 0.0049696384272132866 -0.00014517870675862082 0 0.0049605589364974251 -0.00018628232267664359 0 0.004822304133416778 -5.6883996113742154e-05 0 0.0048366295758972598 -0.00025483128257107441 0 0.0047659310537484251 -0.00015417201168986311 0 0.0049354036299243415 -3.5624821986380359e-05 0 0.0045240797086171167 -0.00045660612028723365 0 0.0050133807392796206 -4.5726174290453911e-05 0 0.0046039741138314098 -0.00017084744767042478 0 0.0049696384272132866 -0.00014517870675862082 0 0.0049846710811932071 -0.00016772605118094955 0 0.0049713046598796086 -0.00017175199699687461 0 0.0049696384272132866 -0.00014517870675862082 0 0.0049713046598796086 -0.00017175199699687461 0 0.0049605589364974251 -0.00018628232267664359 0 0.0049846710811932071 -0.00016772605118094955 0 0.0049713046598796086 -0.00017175199699687461 0 0.0049707393417355254 -0.00018851413425037628 0 0.0048366295758972598 -0.00025483128257107441 0 0.0047659310537484251 -0.00015417201168986311 0 0.0047657354447747536 -0.00024263916414301941 0 0.0029895752948099234 -0.0011446004555633426 0 0.0029455126952719125 -0.0011037930717528498 0 0.0029523796369885359 -0.0010509906394631661 0 0.004786539281374352 -0.00027274422040769779 0 0.0047612222369941941 -0.00028658373036084649 0 0.0047853034846781798 -0.00035183845895509766 0 0.0045240797086171167 -0.00045660612028723365 0 0.0047732830528168157 -0.00035661496907875951 0 0.0047851125542517315 -0.00025755674534823678 0 0.0047612222369941941 -0.00028658373036084649 0 0.0047657354447747536 -0.00024263916414301941 0 0.0047851125542517315 -0.00025755674534823678 0 0.004786539281374352 -0.00027274422040769779 0 0.0047612222369941941 -0.00028658373036084649 0 0.0049713046598796086 -0.00017175199699687461 0 0.0049707393417355254 -0.00018851413425037628 0 0.0049605589364974251 -0.00018628232267664359 0 0.0041980526451895145 -0.00058449363383367278 0 0.0045240797086171167 -0.00045660612028723365 0 0.0046039741138314098 -0.00017084744767042478 0 0.0041980526451895145 -0.00058449363383367278 0 0.0042044876389415098 -0.00047908994829294117 0 0.0041248452624216194 -0.00060528087188161349 0 0.0042451608262836279 -0.00062670514267078314 0 0.0029774161195095217 -0.0011610880921007977 0 0.0029616912002403514 -0.0011423967602249392 0 0.0029442736310539147 -0.0011562731782462882 0 0.0041980526451895145 -0.00058449363383367278 0 0.0037338535310541881 -0.00076901523815680294 0 0.0029774161195095217 -0.0011610880921007977 0 0.0029616912002403514 -0.0011423967602249392 0 0.0029895752948099234 -0.0011446004555633426 0 0.0045240797086171167 -0.00045660612028723365 0 0.0042634657618102617 -0.00066519969181046232 0 0.0044137940764257541 -0.00046796910390765997 0 0.0043362359564623225 -0.00045420322747736125 0 0.0043578452299734656 -0.0005446057849162058 0 0.0041980526451895145 -0.00058449363383367278 0 0.0042634657618102617 -0.00066519969181046232 0 0.0029616912002403514 -0.0011423967602249392 0 0.0029895752948099234 -0.0011446004555633426 0 0.0029455126952719125 -0.0011037930717528498 0 0.0029616912002403514 -0.0011423967602249392 0 0.0029455126952719125 -0.0011037930717528498 0 0.0029442736310539147 -0.0011562731782462882 0 0.0047612222369941941 -0.00028658373036084649 0 0.0047449266631829331 -0.00031975720597959985 0 0.0047853034846781798 -0.00035183845895509766 0 0.0047449266631829331 -0.00031975720597959985 0 0.0047408595346345398 -0.0003566306961813743 0 0.0047853034846781798 -0.00035183845895509766 0 0.0042634657618102617 -0.00066519969181046232 0 0.0038601970342906876 -0.000689452134960891 0 0.0047408595346345398 -0.0003566306961813743 0 0.0047095548913626099 -0.00038319873370277211 0 0.0047544659184619005 -0.00039086257286869173 0 0.0047408595346345398 -0.0003566306961813743 0 0.0047853034846781798 -0.00035183845895509766 0 0.0047544659184619005 -0.00039086257286869173 0 0.0029455126952719125 -0.0011037930717528498 0 0.0028827044150640797 -0.0010382622561611959 0 0.0029442736310539147 -0.0011562731782462882 0 0.0027491927757642112 -0.001107133661571019 0 0.0037338535310541881 -0.00076901523815680294 0 0.0027611081912880396 -0.0010602886612346941 0 0.0027258416467132798 -0.0011463223557260209 0 0.002822850056210345 -0.0012248601957684999 0 0.0029455126952719125 -0.0011037930717528498 0 0.0029523796369885359 -0.0010509906394631661 0 0.0028827044150640797 -0.0010382622561611959 0 0.0027611081912880396 -0.0010602886612346941 0 0.0026745982037959964 -0.0010866744351874322 0 0.0026957436070646499 -0.0010162039083177793 0 0.0027611081912880396 -0.0010602886612346941 0 0.0027258416467132798 -0.0011463223557260209 0 0.0026745982037959964 -0.0010866744351874322 0 0.0048429643788414235 -8.2355782247695648e-05 0 0.0048456395893183178 -7.9162590683107446e-05 0 0.0048293524538588145 -5.8176062815653402e-05 0 0.0027258416467132798 -0.0011463223557260209 0 0.002822850056210345 -0.0012248601957684999 0 0.0026321152023146737 -0.0011941971197890352 0 0.0037338535310541881 -0.00076901523815680294 0 0.0037661997915109618 -0.00061551708750767146 0 0.0046039741138314098 -0.00017084744767042478 0 0.0037338535310541881 -0.00076901523815680294 0 0.0026321152023146737 -0.0011941971197890352 0 0.0026745982037959964 -0.0010866744351874322 0 0.0026010241717712075 -0.0010729756422329264 0 0.0027258416467132798 -0.0011463223557260209 0 0.0026321152023146737 -0.0011941971197890352 0 0.0026745982037959964 -0.0010866744351874322 0 0.0026745982037959964 -0.0010866744351874322 0 0.002625253482477696 -0.0010103099859708603 0 0.0026957436070646499 -0.0010162039083177793 0 0.0026745982037959964 -0.0010866744351874322 0 0.0026010241717712075 -0.0010729756422329264 0 0.002625253482477696 -0.0010103099859708603 0 0.0026321152023146737 -0.0011941971197890352 0 0.0025215170706106866 -0.0010716572622907383 0 0.0024447563563356656 -0.0011542415997697695 0 0.0026321152023146737 -0.0011941971197890352 0 0.0026010241717712075 -0.0010729756422329264 0 0.0025215170706106866 -0.0010716572622907383 0 0.0026010241717712075 -0.0010729756422329264 0 0.0025215170706106866 -0.0010716572622907383 0 0.0025514905893434018 -0.0010056265541381647 0 0.0047964956295742942 -0.0001000335603416275 0 0.0048293524538588145 -5.8176062815653402e-05 0 0.0047520613990206005 -3.3204733825839391e-05 0 0.0037661997915109618 -0.00061551708750767146 0 0.0035062186845182964 -0.00060309996950915932 0 0.0048303020795100642 2.9185594898814908e-05 0 0.004842193397367643 1.1763200216818052e-05 0 0.0047824618446479688 9.1927875276157409e-06 0 0.0048303020795100642 2.9185594898814908e-05 0 0.0048113613184990493 3.3066299081597282e-05 0 0.0048524768078853269 3.923157323706224e-05 0 0.0048303020795100642 2.9185594898814908e-05 0 0.0048113613184990493 3.3066299081597282e-05 0 0.0047824618446479688 9.1927875276157409e-06 0 0.0047597025647533649 1.8769348051035366e-05 0 0.0048113613184990493 3.3066299081597282e-05 0 0.0047824618446479688 9.1927875276157409e-06 0 0.0048335244684977671 5.0079745402334291e-05 0 0.0047744980152426434 2.7270233700214618e-05 0 0.0048010237998246889 3.9346683158678938e-05 0 0.0047597025647533649 1.8769348051035366e-05 0 0.0048113613184990493 3.3066299081597282e-05 0 0.0048335244684977671 5.0079745402334291e-05 0 0.0048997286453748515 6.0690149512056656e-05 0 0.0048113613184990493 3.3066299081597282e-05 0 0.0048482401597867405 4.1526514148600778e-05 0 0.0048524768078853269 3.923157323706224e-05 0 0.004937630446245643 0.00013071781680585923 0 0.0049568849194234488 6.3172567662036854e-05 0 0.0048988410558999645 4.5480274926697779e-05 0 0.0048010237998246889 3.9346683158678938e-05 0 0.0048988410558999645 4.5480274926697779e-05 0 0.0048482401597867405 4.1526514148600778e-05 0 0.0048010237998246889 3.9346683158678938e-05 0 0.0048113613184990493 3.3066299081597282e-05 0 0.0048482401597867405 4.1526514148600778e-05 0 0.0048482401597867405 4.1526514148600778e-05 0 0.0048724775208197927 4.0724792183847856e-05 0 0.0048524768078853269 3.923157323706224e-05 0 0.0048303020795100642 2.9185594898814908e-05 0 0.0048524768078853269 3.923157323706224e-05 0 0.0048617712159956337 3.716955411122197e-05 0 0.0048807668907400901 3.4727886220732908e-05 0 0.0048724775208197927 4.0724792183847856e-05 0 0.0048524768078853269 3.923157323706224e-05 0 0.0048807668907400901 3.4727886220732908e-05 0 0.0048524768078853269 3.923157323706224e-05 0 0.0048617712159956337 3.716955411122197e-05 0 0.0048792395070265393 2.6755869670618174e-05 0 0.0048807668907400901 3.4727886220732908e-05 0 0.0048617712159956337 3.716955411122197e-05 0 0.0048792395070265393 2.6755869670618174e-05 0 0.0048617712159956337 3.716955411122197e-05 0 0.0048726514882617014 3.8055600863087158e-05 0 0.0048553350110296127 -1.0352330891550904e-06 0 0.0046999730098574548 -9.5309545328116843e-05 0 0.0047832096188949605 -6.9350668219638482e-05 0 0.0048553350110296127 -1.0352330891550904e-06 0 0.0048792395070265393 2.6755869670618174e-05 0 0.0048726514882617014 3.8055600863087158e-05 0 0.0048410645015324171 -3.7707386787841311e-06 0 0.0047903328833110333 -3.1931522369285905e-05 0 0.0048553350110296127 -1.0352330891550904e-06 0 0.004822304133416778 -5.6883996113742154e-05 0 0.0047832096188949605 -6.9350668219638482e-05 0 0.0046999730098574548 -9.5309545328116843e-05 0 0.0047832096188949605 -6.9350668219638482e-05 0 0.0047659310537484251 -0.00015417201168986311 0 0.004822304133416778 -5.6883996113742154e-05 0 0.0047832096188949605 -6.9350668219638482e-05 0 0.0047659310537484251 -0.00015417201168986311 0 0.0046999730098574548 -9.5309545328116843e-05 0 0.0047659310537484251 -0.00015417201168986311 0 0.0047075544664646448 -0.00020670605222167308 0 0.0047659310537484251 -0.00015417201168986311 0 0.0047075544664646448 -0.00020670605222167308 0 0.0047657354447747536 -0.00024263916414301941 0 0.0046999730098574548 -9.5309545328116843e-05 0 0.0047075544664646448 -0.00020670605222167308 0 0.0046176590403785005 -0.0002384237290874822 0 0.0048303020795100642 2.9185594898814908e-05 0 0.0048617712159956337 3.716955411122197e-05 0 0.004842193397367643 1.1763200216818052e-05 0 0.0047903328833110333 -3.1931522369285905e-05 0 0.0047291744232826607 -0.00011953097194139376 0 0.0048617712159956337 3.716955411122197e-05 0 0.0048726514882617014 3.8055600863087158e-05 0 0.004842193397367643 1.1763200216818052e-05 0 0.0046176590403785005 -0.0002384237290874822 0 0.0047116000999758737 -0.00028250506903126536 0 0.00466078924356296 -0.00031920842129925825 0 0.0046176590403785005 -0.0002384237290874822 0 0.0046233843215917865 -0.00033438743852281643 0 0.00466078924356296 -0.00031920842129925825 0 0.0046176590403785005 -0.0002384237290874822 0 0.0046233843215917865 -0.00033438743852281643 0 0.0045754296749760748 -0.00034121306441659477 0 0.0047075544664646448 -0.00020670605222167308 0 0.0046176590403785005 -0.0002384237290874822 0 0.0047116000999758737 -0.00028250506903126536 0 0.0047612222369941941 -0.00028658373036084649 0 0.0047657354447747536 -0.00024263916414301941 0 0.0047116000999758737 -0.00028250506903126536 0 0.0047075544664646448 -0.00020670605222167308 0 0.0047657354447747536 -0.00024263916414301941 0 0.0047116000999758737 -0.00028250506903126536 0 0.0047612222369941941 -0.00028658373036084649 0 0.0047449266631829331 -0.00031975720597959985 0 0.0047116000999758737 -0.00028250506903126536 0 0.0047449266631829331 -0.00031975720597959985 0 0.0047408595346345398 -0.0003566306961813743 0 0.0047057273448116157 -0.00033871022131170305 0 0.0047449266631829331 -0.00031975720597959985 0 0.0047116000999758737 -0.00028250506903126536 0 0.0047057273448116157 -0.00033871022131170305 0 0.0047057273448116157 -0.00033871022131170305 0 0.00466078924356296 -0.00031920842129925825 0 0.0046609848487395352 -0.00036185874493953953 0 0.0047116000999758737 -0.00028250506903126536 0 0.0047057273448116157 -0.00033871022131170305 0 0.00466078924356296 -0.00031920842129925825 0 0.0047057273448116157 -0.00033871022131170305 0 0.0046609848487395352 -0.00036185874493953953 0 0.0047095548913626099 -0.00038319873370277211 0 0.0047408595346345398 -0.0003566306961813743 0 0.0047057273448116157 -0.00033871022131170305 0 0.0047095548913626099 -0.00038319873370277211 0 0.0046233843215917865 -0.00033438743852281643 0 0.00466078924356296 -0.00031920842129925825 0 0.0046609848487395352 -0.00036185874493953953 0 0.0046233843215917865 -0.00033438743852281643 0 0.0046609848487395352 -0.00036185874493953953 0 0.004631409945609807 -0.00037673737677650971 0 0.0046233843215917865 -0.00033438743852281643 0 0.004631409945609807 -0.00037673737677650971 0 0.0045754296749760748 -0.00034121306441659477 0 0.0047526042076533369 -2.6729599810078366e-05 0 0.0047112184597083943 -2.0119517112458043e-05 0 0.0046102842155475998 -5.847906640252536e-06 0 0.0047423964692872023 -2.0003004128318718e-05 0 0.0047526042076533369 -2.6729599810078366e-05 0 0.0047112184597083943 -2.0119517112458043e-05 0 0.0047643723302054786 -1.8709759544729531e-05 0 0.0047423964692872023 -2.0003004128318718e-05 0 0.0047526042076533369 -2.6729599810078366e-05 0 0.0046737080234489879 -8.217343145544368e-05 0 0.0046581770717533562 -0.00012780661849964386 0 0.0047643723302054786 -1.8709759544729531e-05 0 0.0047423964692872023 -2.0003004128318718e-05 0 0.0047414283742126147 -1.3172515457108046e-05 0 0.0047291744232826607 -0.00011953097194139376 0 0.0046581770717533562 -0.00012780661849964386 0 0.004842193397367643 1.1763200216818052e-05 0 0.0047643723302054786 -1.8709759544729531e-05 0 0.0047824618446479688 9.1927875276157409e-06 0 0.004842193397367643 1.1763200216818052e-05 0 0.0047643723302054786 -1.8709759544729531e-05 0 0.004769962391782399 -3.450080293601596e-05 0 0.0047643723302054786 -1.8709759544729531e-05 0 0.0047824618446479688 9.1927875276157409e-06 0 0.0047414283742126147 -1.3172515457108046e-05 0 0.0047597025647533649 1.8769348051035366e-05 0 0.0047824618446479688 9.1927875276157409e-06 0 0.0047330826588933388 -6.1816135533682414e-06 0 0.0047414283742126147 -1.3172515457108046e-05 0 0.0047330826588933388 -6.1816135533682414e-06 0 0.0047124548510312728 -1.5307861109083159e-05 0 0.0047824618446479688 9.1927875276157409e-06 0 0.0047414283742126147 -1.3172515457108046e-05 0 0.0047330826588933388 -6.1816135533682414e-06 0 0.0046974751849730399 -1.5448564770369406e-05 0 0.0047330826588933388 -6.1816135533682414e-06 0 0.0047124548510312728 -1.5307861109083159e-05 0 0.0046974751849730399 -1.5448564770369406e-05 0 0.0047124548510312728 -1.5307861109083159e-05 0 0.0046852161676444173 -1.6832833483571068e-05 0 0.0047414283742126147 -1.3172515457108046e-05 0 0.0047124548510312728 -1.5307861109083159e-05 0 0.0047112184597083943 -2.0119517112458043e-05 0 0.0047423964692872023 -2.0003004128318718e-05 0 0.0047414283742126147 -1.3172515457108046e-05 0 0.0047112184597083943 -2.0119517112458043e-05 0 0.0047124548510312728 -1.5307861109083159e-05 0 0.0047112184597083943 -2.0119517112458043e-05 0 0.0046852161676444173 -1.6832833483571068e-05 0 0.004679451857939854 -7.020729260048276e-06 0 0.0046852161676444173 -1.6832833483571068e-05 0 0.0046531590051831712 -6.9010341654758282e-06 0 0.0046852161676444173 -1.6832833483571068e-05 0 0.0046531590051831712 -6.9010341654758282e-06 0 0.0046102842155475998 -5.847906640252536e-06 0 0.0047112184597083943 -2.0119517112458043e-05 0 0.0046852161676444173 -1.6832833483571068e-05 0 0.0046102842155475998 -5.847906640252536e-06 0 0.0046102842155475998 -5.847906640252536e-06 0 0.0045780099106926724 2.1607531216168128e-05 0 0.0046298940432621437 5.6890023474582781e-06 0 0.0046531590051831712 -6.9010341654758282e-06 0 0.0046102842155475998 -5.847906640252536e-06 0 0.0046298940432621437 5.6890023474582781e-06 0 0.0046102842155475998 -5.847906640252536e-06 0 0.0045780099106926724 2.1607531216168128e-05 0 0.0045701461804439755 1.9802947624502876e-06 0 0.0046102842155475998 -5.847906640252536e-06 0 0.0045701461804439755 1.9802947624502876e-06 0 0.0045755362878883155 -4.5066612813827835e-06 0 0.0045780099106926724 2.1607531216168128e-05 0 0.0045701461804439755 1.9802947624502876e-06 0 0.0045256263727739676 -3.4291004225245094e-05 0 0.0045701461804439755 1.9802947624502876e-06 0 0.0045653528305239022 -2.0036924281472447e-05 0 0.0045256263727739676 -3.4291004225245094e-05 0 0.0045701461804439755 1.9802947624502876e-06 0 0.0045653528305239022 -2.0036924281472447e-05 0 0.0045755362878883155 -4.5066612813827835e-06 0 0.0045653528305239022 -2.0036924281472447e-05 0 0.0045755362878883155 -4.5066612813827835e-06 0 0.0045746195875376525 -5.5433134127066253e-06 0 0.0046581770717533562 -0.00012780661849964386 0 0.0046342895201293109 3.192096295035399e-05 0 0.0045761509599088028 -4.3560025274308738e-05 0 0.0045810920359636263 -1.9389453789907256e-05 0 0.0045746195875376525 -5.5433134127066253e-06 0 0.0046581770717533562 -0.00012780661849964386 0 0.0046005060870160956 -0.00021561962086553375 0 0.0045761509599088028 -4.3560025274308738e-05 0 0.0046102842155475998 -5.847906640252536e-06 0 0.0045810920359636263 -1.9389453789907256e-05 0 0.0045755362878883155 -4.5066612813827835e-06 0 0.0045810920359636263 -1.9389453789907256e-05 0 0.0045746195875376525 -5.5433134127066253e-06 0 0.0046102842155475998 -5.847906640252536e-06 0 0.0045755362878883155 -4.5066612813827835e-06 0 0.0045810920359636263 -1.9389453789907256e-05 0 0.004644745663112842 -0.00041291723510129824 0 0.0046453484063639508 -0.00041055446030432784 0 0.0045974169884177071 -0.00037330272734651797 0 0.004631409945609807 -0.00037673737677650971 0 0.0045754296749760748 -0.00034121306441659477 0 0.0046453484063639508 -0.00041055446030432784 0 0.004631409945609807 -0.00037673737677650971 0 0.004644745663112842 -0.00041291723510129824 0 0.0046453484063639508 -0.00041055446030432784 0 0.0046609848487395352 -0.00036185874493953953 0 0.004631409945609807 -0.00037673737677650971 0 0.004644745663112842 -0.00041291723510129824 0 0.0046092279228408415 -0.00040136575416620956 0 0.0046890369635643947 -0.00044794820603165337 0 0.004644745663112842 -0.00041291723510129824 0 0.0047336777492089687 -0.00041831058010506693 0 0.004742476164538649 -0.00046522374501509325 0 0.004644745663112842 -0.00041291723510129824 0 0.0047095548913626099 -0.00038319873370277211 0 0.0047336777492089687 -0.00041831058010506693 0 0.0046609848487395352 -0.00036185874493953953 0 0.004644745663112842 -0.00041291723510129824 0 0.0047095548913626099 -0.00038319873370277211 0 0.004644745663112842 -0.00041291723510129824 0 0.0045974169884177071 -0.00037330272734651797 0 0.0044918845469135039 -0.00039544104908629358 0 0.0045974169884177071 -0.00037330272734651797 0 0.004629312860506554 -0.00029930147489502719 0 0.0045404079441120123 -0.00032014871175838874 0 0.0045974169884177071 -0.00037330272734651797 0 0.0045404079441120123 -0.00032014871175838874 0 0.0044918845469135039 -0.00039544104908629358 0 0.0046005060870160956 -0.00021561962086553375 0 0.0046068541149480594 -0.00017052190443323753 0 0.0046453484063639508 -0.00041055446030432784 0 0.0045974169884177071 -0.00037330272734651797 0 0.004629312860506554 -0.00029930147489502719 0 0.0045653528305239022 -2.0036924281472447e-05 0 0.0045746195875376525 -5.5433134127066253e-06 0 0.0045944406576782304 -5.0408310550353597e-05 0 0.0045944406576782304 -5.0408310550353597e-05 0 0.0045812968197139316 -8.5074240024702756e-05 0 0.0045469371832200867 -7.2494175483192973e-05 0 0.0045653528305239022 -2.0036924281472447e-05 0 0.0045944406576782304 -5.0408310550353597e-05 0 0.0045469371832200867 -7.2494175483192973e-05 0 0.004629312860506554 -0.00029930147489502719 0 0.0045489930930867131 -0.00025008531285132963 0 0.0045579333936759609 -0.00011122107009427818 0 0.0045404079441120123 -0.00032014871175838874 0 0.0045489930930867131 -0.00025008531285132963 0 0.004474661256138668 -0.00024702333278051291 0 0.004629312860506554 -0.00029930147489502719 0 0.0045404079441120123 -0.00032014871175838874 0 0.0045489930930867131 -0.00025008531285132963 0 0.0045489930930867131 -0.00025008531285132963 0 0.0045148386126593167 -0.00017736043405125904 0 0.004474661256138668 -0.00024702333278051291 0 0.0046068541149480594 -0.00017052190443323753 0 0.0045629626792836322 -0.00011087208834898311 0 0.0045944406576782304 -5.0408310550353597e-05 0 0.0045579333936759609 -0.00011122107009427818 0 0.0045812968197139316 -8.5074240024702756e-05 0 0.0045489930930867131 -0.00025008531285132963 0 0.0045148386126593167 -0.00017736043405125904 0 0.0045579333936759609 -0.00011122107009427818 0 0.0045148386126593167 -0.00017736043405125904 0 0.0045579333936759609 -0.00011122107009427818 0 0.0044476381795451559 -0.00016317983071507074 0 0.0045579333936759609 -0.00011122107009427818 0 0.0045812968197139316 -8.5074240024702756e-05 0 0.0045906323287371641 -9.3858516390636613e-05 0 0.0045812968197139316 -8.5074240024702756e-05 0 0.0045285827900295068 -0.00016439129068700114 0 0.0045906323287371641 -9.3858516390636613e-05 0 0.0045469371832200867 -7.2494175483192973e-05 0 0.0044554397429790796 -0.00010059930720481582 0 0.0045285827900295068 -0.00016439129068700114 0 0.0045812968197139316 -8.5074240024702756e-05 0 0.0045469371832200867 -7.2494175483192973e-05 0 0.0045285827900295068 -0.00016439129068700114 0 0.0045469371832200867 -7.2494175483192973e-05 0 0.0044554397429790796 -0.00010059930720481582 0 0.0045256263727739676 -3.4291004225245094e-05 0 0.0044554397429790796 -0.00010059930720481582 0 0.0045256263727739676 -3.4291004225245094e-05 0 0.0043742469594563946 -7.1864686886110872e-05 0 0.0045780099106926724 2.1607531216168128e-05 0 0.0045256263727739676 -3.4291004225245094e-05 0 0.0043742469594563946 -7.1864686886110872e-05 0 0.0045653528305239022 -2.0036924281472447e-05 0 0.0045469371832200867 -7.2494175483192973e-05 0 0.0045256263727739676 -3.4291004225245094e-05 0 0.00250148853939333 -0.00088370013258135514 0 0.002486662798230553 -0.00080632675141594683 0 0.002405174551490826 -0.00086878959499627601 0 0.00250148853939333 -0.00088370013258135514 0 0.0025879991776681533 -0.0008293521597757535 0 0.002486662798230553 -0.00080632675141594683 0 0.00250148853939333 -0.00088370013258135514 0 0.0024808900606670347 -0.00095985422254282282 0 0.002589225248668572 -0.00091747951231866667 0 0.00250148853939333 -0.00088370013258135514 0 0.002589225248668572 -0.00091747951231866667 0 0.0025879991776681533 -0.0008293521597757535 0 0.00250148853939333 -0.00088370013258135514 0 0.0024808900606670347 -0.00095985422254282282 0 0.002405174551490826 -0.00086878959499627601 0 0.0025215170706106866 -0.0010716572622907383 0 0.0024808900606670347 -0.00095985422254282282 0 0.0024274183175418333 -0.0010469555549774332 0 0.0025215170706106866 -0.0010716572622907383 0 0.0024808900606670347 -0.00095985422254282282 0 0.0025514905893434018 -0.0010056265541381647 0 0.0024808900606670347 -0.00095985422254282282 0 0.0025514905893434018 -0.0010056265541381647 0 0.002589225248668572 -0.00091747951231866667 0 0.0025514905893434018 -0.0010056265541381647 0 0.002625253482477696 -0.0010103099859708603 0 0.002589225248668572 -0.00091747951231866667 0 0.002625253482477696 -0.0010103099859708603 0 0.0026553136462576931 -0.00096188166309024714 0 0.002589225248668572 -0.00091747951231866667 0 0.0026957436070646499 -0.0010162039083177793 0 0.0026553136462576931 -0.00096188166309024714 0 0.002710742456509829 -0.00090242131999156898 0 0.0026010241717712075 -0.0010729756422329264 0 0.0025514905893434018 -0.0010056265541381647 0 0.002625253482477696 -0.0010103099859708603 0 0.002625253482477696 -0.0010103099859708603 0 0.0026957436070646499 -0.0010162039083177793 0 0.0026553136462576931 -0.00096188166309024714 0 0.0026553136462576931 -0.00096188166309024714 0 0.002589225248668572 -0.00091747951231866667 0 0.002710742456509829 -0.00090242131999156898 0 0.0027593167725979222 -0.00088322220594326865 0 0.0026911022983003821 -0.00072319552479064989 0 0.0025879991776681533 -0.0008293521597757535 0 0.002710742456509829 -0.00090242131999156898 0 0.0026862660003282328 -0.00071157856877029284 0 0.002589225248668572 -0.00091747951231866667 0 0.0025879991776681533 -0.0008293521597757535 0 0.002710742456509829 -0.00090242131999156898 0 0.0027999779480542201 -0.0008986489773083144 0 0.0028990403756588377 -0.00092233287236392859 0 0.0028364859234113831 -0.00075135899628354051 0 0.0038254650516908739 -0.00071300877909321041 0 0.0041109817238332794 -0.00042652343945327086 0 0.0038601970342906876 -0.000689452134960891 0 0.0038254650516908739 -0.00071300877909321041 0 0.0029523796369885359 -0.0010509906394631661 0 0.0028827044150640797 -0.0010382622561611959 0 0.0028990403756588377 -0.00092233287236392859 0 0.0028827044150640797 -0.0010382622561611959 0 0.0027999779480542201 -0.0008986489773083144 0 0.0028990403756588377 -0.00092233287236392859 0 0.0027611081912880396 -0.0010602886612346941 0 0.0026957436070646499 -0.0010162039083177793 0 0.002710742456509829 -0.00090242131999156898 0 0.0027491927757642112 -0.001107133661571019 0 0.0027593167725979222 -0.00088322220594326865 0 0.0047867746058720129 -0.00044091689776300832 0 0.0047544659184619005 -0.00039086257286869173 0 0.0047336777492089687 -0.00041831058010506693 0 0.0047853034846781798 -0.00035183845895509766 0 0.0047867746058720129 -0.00044091689776300832 0 0.0047544659184619005 -0.00039086257286869173 0 0.0047095548913626099 -0.00038319873370277211 0 0.0047544659184619005 -0.00039086257286869173 0 0.0047336777492089687 -0.00041831058010506693 0 0.0046890369635643947 -0.00044794820603165337 0 0.0041109817238332794 -0.00042652343945327086 0 0.0047867746058720129 -0.00044091689776300832 0 0.0047336777492089687 -0.00041831058010506693 0 0.004742476164538649 -0.00046522374501509325 0 0.0047867746058720129 -0.00044091689776300832 0 0.004742476164538649 -0.00046522374501509325 0 0.0047903925988379524 -0.00050137100746897045 0 0.0045404079441120123 -0.00032014871175838874 0 0.0044918845469135039 -0.00039544104908629358 0 0.0044367495374089969 -0.00030153238154487162 0 0.0044918845469135039 -0.00039544104908629358 0 0.0044367495374089969 -0.00030153238154487162 0 0.0042866741589918864 -0.00030863429089836888 0 0.0045404079441120123 -0.00032014871175838874 0 0.0044367495374089969 -0.00030153238154487162 0 0.004474661256138668 -0.00024702333278051291 0 0.0044367495374089969 -0.00030153238154487162 0 0.0043735603758107153 -0.00023285737557058523 0 0.0042866741589918864 -0.00030863429089836888 0 0.0044367495374089969 -0.00030153238154487162 0 0.0043735603758107153 -0.00023285737557058523 0 0.004474661256138668 -0.00024702333278051291 0 0.0043735603758107153 -0.00023285737557058523 0 0.004474661256138668 -0.00024702333278051291 0 0.0044476381795451559 -0.00016317983071507074 0 0.0045579333936759609 -0.00011122107009427818 0 0.0044476381795451559 -0.00016317983071507074 0 0.0043427856009158093 -7.6239568576488747e-05 0 0.0034427569225653782 -0.00041140810849993223 0 0.0038336088204183319 -0.0003633279326469738 0 0.0045579333936759609 -0.00011122107009427818 0 0.0043427856009158093 -7.6239568576488747e-05 0 0.0045906323287371641 -9.3858516390636613e-05 0 0.0045148386126593167 -0.00017736043405125904 0 0.004474661256138668 -0.00024702333278051291 0 0.0044476381795451559 -0.00016317983071507074 0 0.0043735603758107153 -0.00023285737557058523 0 0.0044476381795451559 -0.00016317983071507074 0 0.0043427856009158093 -7.6239568576488747e-05 0 0.0043427856009158093 -7.6239568576488747e-05 0 0.0042464866289494323 -0.00022998987675318497 0 0.0039482402173426799 -0.00012082948191903111 0 0.0043735603758107153 -0.00023285737557058523 0 0.0043427856009158093 -7.6239568576488747e-05 0 0.0042464866289494323 -0.00022998987675318497 0 0.0027999779480542201 -0.0008986489773083144 0 0.0028364859234113831 -0.00075135899628354051 0 0.0026862660003282328 -0.00071157856877029284 0 0.0041759442483998667 -0.00027471752616243248 0 0.0041109817238332794 -0.00042652343945327086 0 0.0043735603758107153 -0.00023285737557058523 0 0.0042464866289494323 -0.00022998987675318497 0 0.0042866741589918864 -0.00030863429089836888 0 0.0041109817238332794 -0.00042652343945327086 0 0.0027060468661029612 -0.00045135743996660974 0 0.0042464866289494323 -0.00022998987675318497 0 0.0042754828106123946 -0.0003520146348200528 0 0.0039482402173426799 -0.00012082948191903111 0 0.0028364859234113831 -0.00075135899628354051 0 0.0026862660003282328 -0.00071157856877029284 0 0.0025670277516384068 -0.00058803095854147234 0 0.0025879991776681533 -0.0008293521597757535 0 0.0026862660003282328 -0.00071157856877029284 0 0.0025263249825411838 -0.00072403937296461286 0 0.0026862660003282328 -0.00071157856877029284 0 0.0025670277516384068 -0.00058803095854147234 0 0.0025263249825411838 -0.00072403937296461286 0 0.0034427569225653782 -0.00041140810849993223 0 0.0027060468661029612 -0.00045135743996660974 0 0.0027060468661029612 -0.00045135743996660974 0 0.0023482147207534044 -0.00063820949252557972 0 0.0027060468661029612 -0.00045135743996660974 0 0.0020183740738960554 -0.00054279641196947211 0 0.0025191196306859208 -0.00061656192563506941 0 0.0023852882545042911 -0.00064127683619081383 0 0.0023295458437550222 -0.00050456842866994974 0 0.0025670277516384068 -0.00058803095854147234 0 0.0025263249825411838 -0.00072403937296461286 0 0.0023852882545042911 -0.00064127683619081383 0 0.0025263249825411838 -0.00072403937296461286 0 0.0023895615447352028 -0.00075652197387315802 0 0.0023852882545042911 -0.00064127683619081383 0 0.0025879991776681533 -0.0008293521597757535 0 0.0025263249825411838 -0.00072403937296461286 0 0.002486662798230553 -0.00080632675141594683 0 0.0025263249825411838 -0.00072403937296461286 0 0.002486662798230553 -0.00080632675141594683 0 0.0023895615447352028 -0.00075652197387315802 0 0.002486662798230553 -0.00080632675141594683 0 0.002405174551490826 -0.00086878959499627601 0 0.0023895615447352028 -0.00075652197387315802 0 0.0019204627029957317 -0.00048053834440976685 0 0.0018350198783705285 -0.00055275474412803678 0 0.0018476345110265775 -0.00046632633430226977 0 0.0019204627029957317 -0.00048053834440976685 0 0.0018821191189411621 -0.00044048878461118679 0 0.0018476345110265775 -0.00046632633430226977 0 0.0019204627029957317 -0.00048053834440976685 0 0.0019789974929739938 -0.00044781598843984127 0 0.0018821191189411621 -0.00044048878461118679 0 0.0019204627029957317 -0.00048053834440976685 0 0.0019370057270863186 -0.00056078310059382854 0 0.0018350198783705285 -0.00055275474412803678 0 0.0019426131916775893 -0.00074802137628637703 0 0.0019370057270863186 -0.00056078310059382854 0 0.0018350198783705285 -0.00055275474412803678 0 0.0024274972243553288 -0.00076514526448165127 0 0.0019426131916775893 -0.00074802137628637703 0 0.0020979744099204906 -0.00047201805189455375 0 0.0019426131916775893 -0.00074802137628637703 0 0.0019370057270863186 -0.00056078310059382854 0 0.0020979744099204906 -0.00047201805189455375 0 0.0019204627029957317 -0.00048053834440976685 0 0.0019370057270863186 -0.00056078310059382854 0 0.0020979744099204906 -0.00047201805189455375 0 0.0019204627029957317 -0.00048053834440976685 0 0.0020979744099204906 -0.00047201805189455375 0 0.0019789974929739938 -0.00044781598843984127 0 0.0020969136631320325 -0.00046006168430846959 0 0.0022375593452781833 -0.00020977286821240927 0 0.0020979744099204906 -0.00047201805189455375 0 0.0024262451071723626 -0.00048828574032484492 0 0.0024923972863459855 5.7342438504014865e-05 0 0.0020979744099204906 -0.00047201805189455375 0 0.0019789974929739938 -0.00044781598843984127 0 0.0019805832852611716 -0.00044906297913768133 0 0.0024274972243553288 -0.00076514526448165127 0 0.0020979744099204906 -0.00047201805189455375 0 0.0024262451071723626 -0.00048828574032484492 0 0.0024274972243553288 -0.00076514526448165127 0 0.0027196437269942403 -0.00031397175505784472 0 0.0029526165013602562 -0.00044473807368268655 0 0.0024274972243553288 -0.00076514526448165127 0 0.0024262451071723626 -0.00048828574032484492 0 0.0027196437269942403 -0.00031397175505784472 0 0.0024274972243553288 -0.00076514526448165127 0 0.0031227301399834222 -0.00062821262103940866 0 0.0029526165013602562 -0.00044473807368268655 0 0.0027196437269942403 -0.00031397175505784472 0 0.0024923972863459855 5.7342438504014865e-05 0 0.002986510895079811 8.8405306774650176e-05 0 0.0024262451071723626 -0.00048828574032484492 0 0.0027196437269942403 -0.00031397175505784472 0 0.0024923972863459855 5.7342438504014865e-05 0 0.0024285656036955815 -7.5357627506936722e-07 0 0.0022375593452781833 -0.00020977286821240927 0 0.0028714988730723333 0.00044464980158236887 0 0.0024923972863459855 5.7342438504014865e-05 0 0.002986510895079811 8.8405306774650176e-05 0 0.0019879005333592699 -0.00043421636882496272 0 0.0019805832852611716 -0.00044906297913768133 0 0.0019367178401732005 -0.00043437750810705551 0 0.0019879005333592699 -0.00043421636882496272 0 0.0019367178401732005 -0.00043437750810705551 0 0.0019467054375783288 -0.00041068260763772963 0 0.0019789974929739938 -0.00044781598843984127 0 0.0019805832852611716 -0.00044906297913768133 0 0.0019367178401732005 -0.00043437750810705551 0 0.0019789974929739938 -0.00044781598843984127 0 0.0019367178401732005 -0.00043437750810705551 0 0.0018821191189411621 -0.00044048878461118679 0 0.0019367178401732005 -0.00043437750810705551 0 0.0018371429888200813 -0.00042158109817332247 0 0.0018896243991468515 -0.00041001205803218124 0 0.0019367178401732005 -0.00043437750810705551 0 0.0018821191189411621 -0.00044048878461118679 0 0.0018371429888200813 -0.00042158109817332247 0 0.0039568291194239744 -8.5871625360301969e-06 0 0.0037070654571152886 -0.0004426431753165144 0 0.0034570533248102805 -0.00023876274233046593 0 0.0039568291194239744 -8.5871625360301969e-06 0 0.0034570533248102805 -0.00023876274233046593 0 0.0034010673606330354 5.304525095061507e-05 0 0.0039568291194239744 -8.5871625360301969e-06 0 0.0037070654571152886 -0.0004426431753165144 0 0.0042859875886790489 -0.000197894926565509 0 0.0044554397429790796 -0.00010059930720481582 0 0.0045285827900295068 -0.00016439129068700114 0 0.0042859875886790489 -0.000197894926565509 0 0.0041152560166058672 -0.00029775033599285474 0 0.0042737429385417127 -0.00021279640083787267 0 0.0037070654571152886 -0.0004426431753165144 0 0.0032775232380730848 -0.00040002880096042328 0 0.0034570533248102805 -0.00023876274233046593 0 0.0041152560166058672 -0.00029775033599285474 0 0.0038336088204183319 -0.0003633279326469738 0 0.0037070654571152886 -0.0004426431753165144 0 0.0032775232380730848 -0.00040002880096042328 0 0.0031227301399834222 -0.00062821262103940866 0 0.0032775232380730848 -0.00040002880096042328 0 0.0029526165013602562 -0.00044473807368268655 0 0.003118609423746047 -0.00023461908675025372 0 0.0032775232380730848 -0.00040002880096042328 0 0.0031227301399834222 -0.00062821262103940866 0 0.0029526165013602562 -0.00044473807368268655 0 0.0027196437269942403 -0.00031397175505784472 0 0.0029526165013602562 -0.00044473807368268655 0 0.003118609423746047 -0.00023461908675025372 0 0.003118609423746047 -0.00023461908675025372 0 0.0034010673606330354 5.304525095061507e-05 0 0.002986510895079811 8.8405306774650176e-05 0 0.0027196437269942403 -0.00031397175505784472 0 0.003118609423746047 -0.00023461908675025372 0 0.002986510895079811 8.8405306774650176e-05 0 0.0032775232380730848 -0.00040002880096042328 0 0.003118609423746047 -0.00023461908675025372 0 0.0034570533248102805 -0.00023876274233046593 0 0.003118609423746047 -0.00023461908675025372 0 0.0034570533248102805 -0.00023876274233046593 0 0.0034010673606330354 5.304525095061507e-05 0 0.0034010673606330354 5.304525095061507e-05 0 0.002986510895079811 8.8405306774650176e-05 0 0.0032418320536632796 0.0004259905859098584 0 0.0028714988730723333 0.00044464980158236887 0 0.002986510895079811 8.8405306774650176e-05 0 0.0032418320536632796 0.0004259905859098584 0 0.0034010673606330354 5.304525095061507e-05 0 0.0032418320536632796 0.0004259905859098584 0 0.0037016944241361795 0.00032030038122578107 0 0.0032418320536632796 0.0004259905859098584 0 0.0037016944241361795 0.00032030038122578107 0 0.0034587159803573446 0.00062425244304957993 0 0.0037016944241361795 0.00032030038122578107 0 0.0039979898927454778 0.00058908906226125843 0 0.0034587159803573446 0.00062425244304957993 0 0.0039568291194239744 -8.5871625360301969e-06 0 0.0034010673606330354 5.304525095061507e-05 0 0.0037016944241361795 0.00032030038122578107 0 0.0039568291194239744 -8.5871625360301969e-06 0 0.0037016944241361795 0.00032030038122578107 0 0.0041786958204032753 0.00024490036986984541 0 0.0037016944241361795 0.00032030038122578107 0 0.0041786958204032753 0.00024490036986984541 0 0.0039979898927454778 0.00058908906226125843 0 0.0044507654158536872 0.00051758258573759367 0 0.0041786958204032753 0.00024490036986984541 0 0.0039979898927454778 0.00058908906226125843 0 0.0043441789561607744 0.0002111079358882038 0 0.004360755979594076 0.00014460139449758912 0 0.004223845463385798 0.0001461226545871394 0 0.0040291379299941792 0.00038927845571578397 0 0.0042474267571705384 0.00020940687290966367 0 0.0040291379299941792 0.00038927845571578397 0 0.0043802782365129651 8.9697904785315889e-05 0 0.0043748618170682029 0.00017676811352134629 0 0.0043441789561607744 0.0002111079358882038 0 0.0044089964357477739 0.00019213451061198499 0 0.0043748618170682029 0.00017676811352134629 0 0.0043441789561607744 0.0002111079358882038 0 0.004360755979594076 0.00014460139449758912 0 0.0043748618170682029 0.00017676811352134629 0 0.004360755979594076 0.00014460139449758912 0 0.004409195269943527 0.00012173090538139221 0 0.0043805227691620695 6.1303109386912172e-05 0 0.004223845463385798 0.0001461226545871394 0 0.0042952730319444112 -1.4131425474079626e-05 0 0.004360755979594076 0.00014460139449758912 0 0.0043805227691620695 6.1303109386912172e-05 0 0.004223845463385798 0.0001461226545871394 0 0.004360755979594076 0.00014460139449758912 0 0.0043805227691620695 6.1303109386912172e-05 0 0.004409195269943527 0.00012173090538139221 0 0.0039550434449544683 -1.2442039209948216e-05 0 0.0042474267571705384 0.00020940687290966367 0 0.0039568291194239744 -8.5871625360301969e-06 0 0.004223845463385798 0.0001461226545871394 0 0.0042952730319444112 -1.4131425474079626e-05 0 0.0039568291194239744 -8.5871625360301969e-06 0 0.0042952730319444112 -1.4131425474079626e-05 0 0.0042859875886790489 -0.000197894926565509 0 0.0042952730319444112 -1.4131425474079626e-05 0 0.0043750695664958325 -5.356109953207398e-05 0 0.0042859875886790489 -0.000197894926565509 0 0.0043805227691620695 6.1303109386912172e-05 0 0.0042952730319444112 -1.4131425474079626e-05 0 0.0043750695664958325 -5.356109953207398e-05 0 0.0043750695664958325 -5.356109953207398e-05 0 0.0042859875886790489 -0.000197894926565509 0 0.0043522893699987509 -0.00015026346962780337 0 0.0044974818771363109 1.8347358314804638e-05 0 0.0044880284375244852 -3.6706090294932254e-05 0 0.0043750695664958325 -5.356109953207398e-05 0 0.0044914519529012107 2.5484946091658658e-05 0 0.0043522893699987509 -0.00015026346962780337 0 0.0045183199337187644 6.0885485232305024e-05 0 0.0044914519529012107 2.5484946091658658e-05 0 0.0046241854073246734 5.7423233416075045e-05 0 0.0043805227691620695 6.1303109386912172e-05 0 0.0043750695664958325 -5.356109953207398e-05 0 0.004437435834736359 3.7940133777456316e-05 0 0.0043750695664958325 -5.356109953207398e-05 0 0.004437435834736359 3.7940133777456316e-05 0 0.0044914519529012107 2.5484946091658658e-05 0 0.004437435834736359 3.7940133777456316e-05 0 0.0044914519529012107 2.5484946091658658e-05 0 0.0044587918035419302 6.4161564899719651e-05 0 0.0045183199337187644 6.0885485232305024e-05 0 0.0044914519529012107 2.5484946091658658e-05 0 0.0044639343857525386 6.7476112867194285e-05 0 0.0045183199337187644 6.0885485232305024e-05 0 0.0044639343857525386 6.7476112867194285e-05 0 0.00444669164495088 9.9027975242814415e-05 0 0.0044914519529012107 2.5484946091658658e-05 0 0.0044639343857525386 6.7476112867194285e-05 0 0.0044587918035419302 6.4161564899719651e-05 0 0.0044639343857525386 6.7476112867194285e-05 0 0.0044587918035419302 6.4161564899719651e-05 0 0.0043795956829904472 7.1596111251734181e-05 0 0.0043559787330855696 7.2113471908726376e-05 0 0.0042914517571135272 6.1261274951825015e-05 0 0.0043795956829904472 7.1596111251734181e-05 0 0.0044587918035419302 6.4161564899719651e-05 0 0.004465636719420801 8.3425858771991272e-05 0 0.0043795956829904472 7.1596111251734181e-05 0 0.0044587918035419302 6.4161564899719651e-05 0 0.0044406653497280563 7.2685191782974958e-05 0 0.004465636719420801 8.3425858771991272e-05 0 0.0044112849429525447 7.9116209418207201e-05 0 0.0043804416228228624 8.0372846187258252e-05 0 0.0043805227691620695 6.1303109386912172e-05 0 0.004437435834736359 3.7940133777456316e-05 0 0.0044406653497280563 7.2685191782974958e-05 0 0.004437435834736359 3.7940133777456316e-05 0 0.0044587918035419302 6.4161564899719651e-05 0 0.0044406653497280563 7.2685191782974958e-05 0 0.0044406653497280563 7.2685191782974958e-05 0 0.004409195269943527 0.00012173090538139221 0 0.004465636719420801 8.3425858771991272e-05 0 0.0043805227691620695 6.1303109386912172e-05 0 0.0044406653497280563 7.2685191782974958e-05 0 0.004409195269943527 0.00012173090538139221 0 0.0043802782365129651 8.9697904785315889e-05 0 0.0044112849429525447 7.9116209418207201e-05 0 0.004409195269943527 0.00012173090538139221 0 0.0044089964357477739 0.00019213451061198499 0 0.004465636719420801 8.3425858771991272e-05 0 0.0045234430433981005 9.5796058267127036e-07 0 0.004369068414938118 1.9956389433888962e-05 0 0.0044571668143594447 -7.2377942184376743e-05 0 0.0043802782365129651 8.9697904785315889e-05 0 0.0044183934801195123 2.2201253333764275e-05 0 0.0044399656171419527 1.0046270743248108e-05 0 0.0043559787330855696 7.2113471908726376e-05 0 0.004369068414938118 1.9956389433888962e-05 0 0.0043748618170682029 0.00017676811352134629 0 0.004409195269943527 0.00012173090538139221 0 0.0044089964357477739 0.00019213451061198499 0 0.0043559787330855696 7.2113471908726376e-05 0 0.004369068414938118 1.9956389433888962e-05 0 0.0042914517571135272 6.1261274951825015e-05 0 0.004369068414938118 1.9956389433888962e-05 0 0.0042914517571135272 6.1261274951825015e-05 0 0.0042615623362432095 -5.4345775920366223e-05 0 0.0042914517571135272 6.1261274951825015e-05 0 0.0040620027960327418 5.6084596517855911e-05 0 0.0042615623362432095 -5.4345775920366223e-05 0 0.0042914517571135272 6.1261274951825015e-05 0 0.0040620027960327418 5.6084596517855911e-05 0 0.0042710385722628799 6.9737271080445417e-05 0 0.0040620027960327418 5.6084596517855911e-05 0 0.0038207276529198552 0.00045919323786889862 0 0.0037135248257097455 4.1985753493879696e-05 0 0.0040620027960327418 5.6084596517855911e-05 0 0.0042839795040113563 6.1464513852667007e-05 0 0.0042710385722628799 6.9737271080445417e-05 0 0.0040703937174798909 4.6412816066311419e-05 0 0.0040626233114344637 0.00025477167028020833 0 0.0042839795040113563 6.1464513852667007e-05 0 0.0042710385722628799 6.9737271080445417e-05 0 0.0043423736614197827 7.913858104814314e-05 0 0.0042914517571135272 6.1261274951825015e-05 0 0.0043795956829904472 7.1596111251734181e-05 0 0.0042710385722628799 6.9737271080445417e-05 0 0.0043795956829904472 7.1596111251734181e-05 0 0.0042710385722628799 6.9737271080445417e-05 0 0.0043423736614197827 7.913858104814314e-05 0 0.0031499071540943041 0.0001994657126458431 0 0.0034380822757841853 0.00027630490698491214 0 0.0034000511682913629 1.6823515328451699e-05 0 0.0031488726251469186 0.00039802539627699547 0 0.0031499071540943041 0.0001994657126458431 0 0.0034380822757841853 0.00027630490698491214 0 0.0034380822757841853 0.00027630490698491214 0 0.0037135248257097455 4.1985753493879696e-05 0 0.0034000511682913629 1.6823515328451699e-05 0 0.0038207276529198552 0.00045919323786889862 0 0.0034380822757841853 0.00027630490698491214 0 0.0037135248257097455 4.1985753493879696e-05 0 0.0038207276529198552 0.00045919323786889862 0 0.0034380822757841853 0.00027630490698491214 0 0.0034505114167210833 0.00053110422074521357 0 0.0031488726251469186 0.00039802539627699547 0 0.0034380822757841853 0.00027630490698491214 0 0.0034505114167210833 0.00053110422074521357 0 0.0031923721335286696 0.00060741710231388291 0 0.0034505114167210833 0.00053110422074521357 0 0.0034049941272222416 0.00075289276307831507 0 0.0031488726251469186 0.00039802539627699547 0 0.0031923721335286696 0.00060741710231388291 0 0.0034505114167210833 0.00053110422074521357 0 0.0034505114167210833 0.00053110422074521357 0 0.0034049941272222416 0.00075289276307831507 0 0.0036916358272787832 0.00073165572694508811 0 0.0038207276529198552 0.00045919323786889862 0 0.0034505114167210833 0.00053110422074521357 0 0.0036916358272787832 0.00073165572694508811 0 0.0029898938424597486 0.00080705895616974466 0 0.0037975731707081198 0.00037815022330340702 0 0.002826070152583389 0.00078053000424600316 0 0.0028938295038889155 0.00065942696841171471 0 0.0026662201020477942 0.00062601563610361049 0 0.002826070152583389 0.00078053000424600316 0 0.0026367165815463006 0.00082088687269347657 0 0.0026662201020477942 0.00062601563610361049 0 0.0031923721335286696 0.00060741710231388291 0 0.0031599097437762353 0.00072600276274888706 0 0.0034049941272222416 0.00075289276307831507 0 0.0030320521245966537 0.00072607137547813915 0 0.002826070152583389 0.00078053000424600316 0 0.0028938295038889155 0.00065942696841171471 0 0.0031235743612669656 0.00071595087560503306 0 0.0029898938424597486 0.00080705895616974466 0 0.00444669164495088 9.9027975242814415e-05 0 0.0043423736614197827 7.913858104814314e-05 0 0.0042568675387184441 0.00016523623800147614 0 0.0043795956829904472 7.1596111251734181e-05 0 0.00444669164495088 9.9027975242814415e-05 0 0.0043423736614197827 7.913858104814314e-05 0 0.0044639343857525386 6.7476112867194285e-05 0 0.0043795956829904472 7.1596111251734181e-05 0 0.00444669164495088 9.9027975242814415e-05 0 0.0040626233114344637 0.00025477167028020833 0 0.0037975731707081198 0.00037815022330340702 0 0.0042839795040113563 6.1464513852667007e-05 0 0.0043423736614197827 7.913858104814314e-05 0 0.0042568675387184441 0.00016523623800147614 0 0.0047004702165486228 2.5320914830621638e-05 0 0.0037975731707081198 0.00037815022330340702 0 0.0045760772252915211 9.7410793073782241e-05 0 0.0045396132144333726 6.1833673701924748e-05 0 0.0045881313850390393 5.5522128516685888e-05 0 0.0037975731707081198 0.00037815022330340702 0 0.0036149893946537839 0.00035889440398177285 0 0.00444669164495088 9.9027975242814415e-05 0 0.0045760772252915211 9.7410793073782241e-05 0 0.0045396132144333726 6.1833673701924748e-05 0 0.0045183199337187644 6.0885485232305024e-05 0 0.00444669164495088 9.9027975242814415e-05 0 0.0045396132144333726 6.1833673701924748e-05 0 0.0045396132144333726 6.1833673701924748e-05 0 0.0045883394511599855 6.1435381741477564e-05 0 0.0045900680492672128 5.4898229305478212e-05 0 0.0045183199337187644 6.0885485232305024e-05 0 0.0045396132144333726 6.1833673701924748e-05 0 0.0045883394511599855 6.1435381741477564e-05 0 0.0045900680492672128 5.4898229305478212e-05 0 0.0045881313850390393 5.5522128516685888e-05 0 0.0045900605024975592 5.8114349556548738e-05 0 0.0045396132144333726 6.1833673701924748e-05 0 0.0045900680492672128 5.4898229305478212e-05 0 0.0045881313850390393 5.5522128516685888e-05 0 0.0045900680492672128 5.4898229305478212e-05 0 0.0046285373953568933 6.6747152842968618e-05 0 0.0045900605024975592 5.8114349556548738e-05 0 0.0045883394511599855 6.1435381741477564e-05 0 0.0045900680492672128 5.4898229305478212e-05 0 0.0046285373953568933 6.6747152842968618e-05 0 0.0045883394511599855 6.1435381741477564e-05 0 0.0046285373953568933 6.6747152842968618e-05 0 0.0046805438750385422 7.4793951725060754e-05 0 0.0030222210266161679 0.0006411475687346991 0 0.0028938295038889155 0.00065942696841171471 0 0.0029222367533819319 0.00051405380341313517 0 0.0028938295038889155 0.00065942696841171471 0 0.0028000250118010222 0.00051953465494375384 0 0.0029222367533819319 0.00051405380341313517 0 0.0036149893946537839 0.00035889440398177285 0 0.0036155368074955478 0.00022765101873618526 0 0.0026662201020477942 0.00062601563610361049 0 0.0028000250118010222 0.00051953465494375384 0 0.0026941086726958987 0.00039893509353957593 0 0.0028938295038889155 0.00065942696841171471 0 0.0026662201020477942 0.00062601563610361049 0 0.0028000250118010222 0.00051953465494375384 0 0.0028000250118010222 0.00051953465494375384 0 0.0026941086726958987 0.00039893509353957593 0 0.0028601734137708979 0.00032979278778042003 0 0.0030924965249325615 0.00039419554209732245 0 0.0028601734137708979 0.00032979278778042003 0 0.0029222367533819319 0.00051405380341313517 0 0.0028000250118010222 0.00051953465494375384 0 0.0028601734137708979 0.00032979278778042003 0 0.0029222367533819319 0.00051405380341313517 0 0.0038528110513559024 9.3762263118759027e-05 0 0.004203300845603903 0.00020973613834023361 0 0.0030203674952721262 0.00016076595682016945 0 0.0028601734137708979 0.00032979278778042003 0 0.0027415863520814307 0.00016514530276120394 0 0.0026941086726958987 0.00039893509353957593 0 0.0028601734137708979 0.00032979278778042003 0 0.0027415863520814307 0.00016514530276120394 0 0.0036155368074955478 0.00022765101873618526 0 0.004203300845603903 0.00020973613834023361 0 0.0048440960192964004 5.3230746511509472e-05 0 0.0048240215075845728 0.00013994135166187874 0 0.0047847070232528415 7.9018402741541161e-05 0 0.0049563335562119249 -1.5844571009316591e-05 0 0.004203300845603903 0.00020973613834023361 0 0.0048578314594508402 6.5003066347016681e-05 0 0.0048355972422274513 6.8200534540983394e-05 0 0.0048510476354239971 5.9575789105491275e-05 0 0.0048440960192964004 5.3230746511509472e-05 0 0.0048355972422274513 6.8200534540983394e-05 0 0.0048510476354239971 5.9575789105491275e-05 0 0.0048578314594508402 6.5003066347016681e-05 0 0.0048684824378065501 4.6891519807529365e-05 0 0.0048510476354239971 5.9575789105491275e-05 0 0.0046285373953568933 6.6747152842968618e-05 0 0.0046883710307573396 0.00010257301753150238 0 0.0046805438750385422 7.4793951725060754e-05 0 0.004203300845603903 0.00020973613834023361 0 0.0048958444376921055 9.8971969183672592e-05 0 0.0046285373953568933 6.6747152842968618e-05 0 0.0045900605024975592 5.8114349556548738e-05 0 0.0046883710307573396 0.00010257301753150238 0 0.0045900605024975592 5.8114349556548738e-05 0 0.0045831302860671469 0.00011294546990715534 0 0.0046883710307573396 0.00010257301753150238 0 0.0048240215075845728 0.00013994135166187874 0 0.0047847070232528415 7.9018402741541161e-05 0 0.0046883710307573396 0.00010257301753150238 0 0.0047866508447038112 4.5188757157776162e-05 0 0.0047847070232528415 7.9018402741541161e-05 0 0.0046883710307573396 0.00010257301753150238 0 0.0047085111027118202 7.3602086945845669e-05 0 0.0046883710307573396 0.00010257301753150238 0 0.0046805438750385422 7.4793951725060754e-05 0 0.0047792428506259312 2.7709303061852528e-05 0 0.0046805438750385422 7.4793951725060754e-05 0 0.0047282285723688946 3.6799804691271846e-05 0 0.0047430830599531158 4.9183472029758928e-05 0 0.0046904820180073328 7.1887172632287112e-05 0 0.0046805438750385422 7.4793951725060754e-05 0 0.0046832193051250777 5.8836332225864946e-05 0 0.0047282285723688946 3.6799804691271846e-05 0 0.0046805438750385422 7.4793951725060754e-05 0 0.0046832193051250777 5.8836332225864946e-05 0 0.0046334228721277614 7.1914218523363172e-05 0 0.0046832193051250777 5.8836332225864946e-05 0 0.0047282285723688946 3.6799804691271846e-05 0 0.0047199489243321515 1.2233925770215514e-05 0 0.0046832193051250777 5.8836332225864946e-05 0 0.0047199489243321515 1.2233925770215514e-05 0 0.0046636281737421495 2.9671636341007286e-05 0 0.0047199489243321515 1.2233925770215514e-05 0 0.0046653288434140069 4.6444232497956137e-06 0 0.0046636281737421495 2.9671636341007286e-05 0 0.004679451857939854 -7.020729260048276e-06 0 0.0047199489243321515 1.2233925770215514e-05 0 0.0046653288434140069 4.6444232497956137e-06 0 0.004679451857939854 -7.020729260048276e-06 0 0.0046531590051831712 -6.9010341654758282e-06 0 0.0046653288434140069 4.6444232497956137e-06 0 0.0046653288434140069 4.6444232497956137e-06 0 0.0046298940432621437 5.6890023474582781e-06 0 0.0046636281737421495 2.9671636341007286e-05 0 0.0046531590051831712 -6.9010341654758282e-06 0 0.0046653288434140069 4.6444232497956137e-06 0 0.0046298940432621437 5.6890023474582781e-06 0 0.0045664719510252524 1.915947840894554e-05 0 0.0045196426596020274 -2.0125432838875438e-06 0 0.0045780099106926724 2.1607531216168128e-05 0 0.0046636281737421495 2.9671636341007286e-05 0 0.0046591124220408831 7.7682015356124093e-05 0 0.0045780099106926724 2.1607531216168128e-05 0 0.0046298940432621437 5.6890023474582781e-06 0 0.0046636281737421495 2.9671636341007286e-05 0 0.0046832193051250777 5.8836332225864946e-05 0 0.0046636281737421495 2.9671636341007286e-05 0 0.0046591124220408831 7.7682015356124093e-05 0 0.0044554397429790796 -0.00010059930720481582 0 0.0042859875886790489 -0.000197894926565509 0 0.0043742469594563946 -7.1864686886110872e-05 0 0.0042859875886790489 -0.000197894926565509 0 0.0043742469594563946 -7.1864686886110872e-05 0 0.0043522893699987509 -0.00015026346962780337 0 0.0046832193051250777 5.8836332225864946e-05 0 0.0046591124220408831 7.7682015356124093e-05 0 0.0046334228721277614 7.1914218523363172e-05 0 0.0045196426596020274 -2.0125432838875438e-06 0 0.0044880284375244852 -3.6706090294932254e-05 0 0.0046591124220408831 7.7682015356124093e-05 0 0.0046241854073246734 5.7423233416075045e-05 0 0.0046334228721277614 7.1914218523363172e-05 0 0.0045183199337187644 6.0885485232305024e-05 0 0.0046241854073246734 5.7423233416075045e-05 0 0.0046334228721277614 7.1914218523363172e-05 0 0.0045183199337187644 6.0885485232305024e-05 0 0.0045883394511599855 6.1435381741477564e-05 0 0.0046334228721277614 7.1914218523363172e-05 0 0.0045883394511599855 6.1435381741477564e-05 0 0.0046805438750385422 7.4793951725060754e-05 0 0.0046334228721277614 7.1914218523363172e-05 0 0.0038235617831152463 -3.5303360995035809e-05 0 0.0038107265203237597 7.3747862207898647e-06 0 0.0041497191612842425 2.1111891934394662e-07 0 0.0038235617831152463 -3.5303360995035809e-05 0 0.0037975499003336972 -3.1537384193714114e-05 0 0.0038107265203237597 7.3747862207898647e-06 0 0.0038235617831152463 -3.5303360995035809e-05 0 0.0038788206034800058 -1.4564121679493125e-07 0 0.0041497191612842425 2.1111891934394662e-07 0 0.0038235617831152463 -3.5303360995035809e-05 0 0.0038788206034800058 -1.4564121679493125e-07 0 0.0036705796893012877 -2.6469306137625558e-05 0 0.0038235617831152463 -3.5303360995035809e-05 0 0.0037386457836282015 -3.1621165953436832e-05 0 0.0036705796893012877 -2.6469306137625558e-05 0 0.0038235617831152463 -3.5303360995035809e-05 0 0.0037975499003336972 -3.1537384193714114e-05 0 0.0037386457836282015 -3.1621165953436832e-05 0 0.0038019116647868435 -3.4757071090984044e-05 0 0.0037386457836282015 -3.1621165953436832e-05 0 0.0037686523188812599 -1.2297969279342665e-05 0 0.0038019116647868435 -3.4757071090984044e-05 0 0.0037975499003336972 -3.1537384193714114e-05 0 0.0037386457836282015 -3.1621165953436832e-05 0 0.0038019116647868435 -3.4757071090984044e-05 0 0.0038419368757704668 -4.1013929699923365e-05 0 0.0037975499003336972 -3.1537384193714114e-05 0 0.0026278963144436332 0.00065019569614129631 0 0.0026119189247763596 0.00070102685524134811 0 0.0027302982626461474 0.00060551732802584734 0 0.003086492161198673 0.00039117663965091283 0 0.0032770775598243373 0.00027004973446706851 0 0.0038019116647868435 -3.4757071090984044e-05 0 0.003842955959582681 -4.9592181858960063e-05 0 0.0037686523188812599 -1.2297969279342665e-05 0 0.0038019116647868435 -3.4757071090984044e-05 0 0.003842955959582681 -4.9592181858960063e-05 0 0.0038419368757704668 -4.1013929699923365e-05 0 0.0026278963144436332 0.00065019569614129631 0 0.0026128460905539032 0.00066280803258483921 0 0.0026090201029191455 0.00065596785081662107 0 0.0027471640728297816 0.00072429060200466069 0 0.003086492161198673 0.00039117663965091283 0 0.0032543066024700623 0.00033858969568477626 0 0.0032695753806815135 0.00047017790260238141 0 0.0038422621315902412 -6.6485821207450672e-05 0 0.0039071056296504127 -5.5655131093827676e-05 0 0.0039737156496505287 -3.651568381909837e-05 0 0.0032543066024700623 0.00033858969568477626 0 0.0040182239320706607 8.4168645969414215e-05 0 0.0038422621315902412 -6.6485821207450672e-05 0 0.003842955959582681 -4.9592181858960063e-05 0 0.0038419368757704668 -4.1013929699923365e-05 0 0.0032543066024700623 0.00033858969568477626 0 0.0030319967446642924 0.00043528124760981366 0 0.0032543066024700623 0.00033858969568477626 0 0.003086492161198673 0.00039117663965091283 0 0.0030319967446642924 0.00043528124760981366 0 0.003086492161198673 0.00039117663965091283 0 0.0031968532551471295 0.00036089616149860657 0 0.0032151345692120561 0.0003991952324148927 0 0.0031895526031489249 0.0004416247124324294 0 0.0026114864695648329 0.00066506092219949936 0 0.0026128460905539032 0.00066280803258483921 0 0.0026089204838471089 0.0006615610205126754 0 0.0038422621315902412 -6.6485821207450672e-05 0 0.0038419368757704668 -4.1013929699923365e-05 0 0.0039071056296504127 -5.5655131093827676e-05 0 0.0038419368757704668 -4.1013929699923365e-05 0 0.0039071056296504127 -5.5655131093827676e-05 0 0.0038107265203237597 7.3747862207898647e-06 0 0.0038419368757704668 -4.1013929699923365e-05 0 0.0037975499003336972 -3.1537384193714114e-05 0 0.0038107265203237597 7.3747862207898647e-06 0 0.003921703363254642 -5.2459828312877666e-05 0 0.0040060890575374583 -3.35871028485555e-05 0 0.0039737156496505287 -3.651568381909837e-05 0 0.0041771750458795345 -1.4012800568466692e-05 0 0.0042060268960585345 -7.4354775302399958e-05 0 0.0039071056296504127 -5.5655131093827676e-05 0 0.0039737156496505287 -3.651568381909837e-05 0 0.0042060268960585345 -7.4354775302399958e-05 0 0.0039374738431710039 0.00027033446274797189 0 0.0039151698658692361 0.00030344354869334621 0 0.0039184489897843367 0.00023610354888627967 0 0.0039176380427150435 0.00017042969507237484 0 0.0039671072151342274 0.00025040986785400805 0 0.0039184489897843367 0.00023610354888627967 0 0.0039671072151342274 0.00025040986785400805 0 0.0039374738431710039 0.00027033446274797189 0 0.0039184489897843367 0.00023610354888627967 0 0.0039671072151342274 0.00025040986785400805 0 0.0039374738431710039 0.00027033446274797189 0 0.003949449866043721 0.00029867918837560628 0 0.0039671072151342274 0.00025040986785400805 0 0.003949449866043721 0.00029867918837560628 0 0.0039740387460460809 0.00032086346183417215 0 0.0040182239320706607 8.4168645969414215e-05 0 0.0040335321884517779 0.00017151263709198761 0 0.0039671072151342274 0.00025040986785400805 0 0.0039740387460460809 0.00032086346183417215 0 0.0040128418420814077 0.00032697078653096264 0 0.0038886689284364432 0.00040374798273345021 0 0.0034506628039034054 0.00051414181274603255 0 0.0039374738431710039 0.00027033446274797189 0 0.003949449866043721 0.00029867918837560628 0 0.0039151698658692361 0.00030344354869334621 0 0.0039740387460460809 0.00032086346183417215 0 0.0040128418420814077 0.00032697078653096264 0 0.0039904556155978049 0.00035508638436559844 0 0.003949449866043721 0.00029867918837560628 0 0.0039461772389793029 0.00033131880580187291 0 0.0039253731215958326 0.00030235450659955187 0 0.003949449866043721 0.00029867918837560628 0 0.0039740387460460809 0.00032086346183417215 0 0.0039461772389793029 0.00033131880580187291 0 0.0041771750458795345 -1.4012800568466692e-05 0 0.0041313530815160092 3.3828390912175123e-05 0 0.0042469141556831279 1.5661892247794482e-05 0 0.0039737156496505287 -3.651568381909837e-05 0 0.0041771750458795345 -1.4012800568466692e-05 0 0.0041313530815160092 3.3828390912175123e-05 0 0.0041771750458795345 -1.4012800568466692e-05 0 0.0042343838111330544 -3.1826482957816131e-05 0 0.0042469141556831279 1.5661892247794482e-05 0 0.0041771750458795345 -1.4012800568466692e-05 0 0.0042343838111330544 -3.1826482957816131e-05 0 0.0042060268960585345 -7.4354775302399958e-05 0 0.0042343838111330544 -3.1826482957816131e-05 0 0.0042060268960585345 -7.4354775302399958e-05 0 0.00415060586594023 1.2109857764278268e-08 0 0.0040060890575374583 -3.35871028485555e-05 0 0.0041501785092120554 -1.2953594547488788e-08 0 0.0042343838111330544 -3.1826482957816131e-05 0 0.0043827762513332022 -1.6151105724789792e-07 0 0.0042469141556831279 1.5661892247794482e-05 0 0.0042343838111330544 -3.1826482957816131e-05 0 0.00415060586594023 1.2109857764278268e-08 0 0.0043827762513332022 -1.6151105724789792e-07 0 0.0043827762513332022 -1.6151105724789792e-07 0 0.0043670129020810973 6.4329177189812085e-05 0 0.0046149749929665206 3.6326951398115884e-07 0 0.0043827762513332022 -1.6151105724789792e-07 0 0.0042469141556831279 1.5661892247794482e-05 0 0.0043670129020810973 6.4329177189812085e-05 0 0.0042469141556831279 1.5661892247794482e-05 0 0.0043670129020810973 6.4329177189812085e-05 0 0.0042261952314093781 8.7148167592040424e-05 0 0.0049317878389958892 6.5365380153376763e-05 0 0.0048295090259484552 8.9420202025199691e-05 0 0.0049495234138375605 0.00010424853384221136 0 0.0046088600155997587 7.0025260393836303e-05 0 0.0044758138397565875 0.00018392687658695127 0 0.0049317878389958892 6.5365380153376763e-05 0 0.0048295090259484552 8.9420202025199691e-05 0 0.004896831316480563 -8.3236927759515663e-06 0 0.0049317878389958892 6.5365380153376763e-05 0 0.004896831316480563 -8.3236927759515663e-06 0 0.0049483121184430495 3.157147535912368e-05 0 0.0048295090259484552 8.9420202025199691e-05 0 0.0046160912539777946 2.4044889243303063e-07 0 0.004896831316480563 -8.3236927759515663e-06 0 0.0046088600155997587 7.0025260393836303e-05 0 0.004615369192384396 4.2347889959727707e-08 0 0.0046160912539777946 2.4044889243303063e-07 0 0.004999655163138059 -1.2707170956920836e-07 0 0.004896831316480563 -8.3236927759515663e-06 0 0.004999655163138059 -1.2707170956920836e-07 0 0.004896831316480563 -8.3236927759515663e-06 0 0.0049999856657170442 1.0183366695489107e-08 0 0.004896831316480563 -8.3236927759515663e-06 0 0.0049606574027250324 8.179361103231395e-06 0 0.0049483121184430495 3.157147535912368e-05 0 0.0049999856657170442 1.0183366695489107e-08 0 0.0049912009131636769 4.8580169878732704e-06 0 0.0050000027295032225 -6.4833304515270973e-09 0 0.0049999856657170442 1.0183366695489107e-08 0 0.0049606574027250324 8.179361103231395e-06 0 0.0049912009131636769 4.8580169878732704e-06 0 0.004896831316480563 -8.3236927759515663e-06 0 0.0049999856657170442 1.0183366695489107e-08 0 0.0049606574027250324 8.179361103231395e-06 0 0.0049606574027250324 8.179361103231395e-06 0 0.0049483121184430495 3.157147535912368e-05 0 0.0049623477118333949 4.7269044942356414e-05 0 0.0049483293040452564 1.324478520001996e-06 0 0.0050205976542975241 5.6100557061226874e-05 0 0.0049606574027250324 8.179361103231395e-06 0 0.0049912009131636769 4.8580169878732704e-06 0 0.0049846284320086394 2.6726968885023794e-05 0 0.0049912009131636769 4.8580169878732704e-06 0 0.0049846284320086394 2.6726968885023794e-05 0 0.0050014089867668433 1.3154534314717945e-05 0 0.0049846284320086394 2.6726968885023794e-05 0 0.0049968032844462428 4.1066617606586407e-05 0 0.0050014089867668433 1.3154534314717945e-05 0 0.0049784809236752773 5.2597013045158844e-05 0 0.0049733127271437173 6.986447058558815e-05 0 0.0049890680522732744 7.3281681184852576e-05 0 0.0049784809236752773 5.2597013045158844e-05 0 0.0049623477118333949 4.7269044942356414e-05 0 0.0049733127271437173 6.986447058558815e-05 0 0.0050205976542975241 5.6100557061226874e-05 0 0.0046632389092183049 0.00010544283250400249 0 0.0044758138397565875 0.00018392687658695127 0 0.0044549263301728618 0.00022389486145087581 0 0.0049522313314374396 5.9271065962889809e-05 0 0.0049399811662997261 7.1947354060604898e-05 0 0.0049733127271437173 6.986447058558815e-05 0 0.0049317878389958892 6.5365380153376763e-05 0 0.0049483121184430495 3.157147535912368e-05 0 0.0049522313314374396 5.9271065962889809e-05 0 0.0049483121184430495 3.157147535912368e-05 0 0.0049623477118333949 4.7269044942356414e-05 0 0.0049522313314374396 5.9271065962889809e-05 0 0.0049606574027250324 8.179361103231395e-06 0 0.0049784809236752773 5.2597013045158844e-05 0 0.0049623477118333949 4.7269044942356414e-05 0 0.0049623477118333949 4.7269044942356414e-05 0 0.0049522313314374396 5.9271065962889809e-05 0 0.0049733127271437173 6.986447058558815e-05 0 0.0049317878389958892 6.5365380153376763e-05 0 0.0049522313314374396 5.9271065962889809e-05 0 0.0049399811662997261 7.1947354060604898e-05 0 0.0046236469006998753 0.00019112971785062769 0 0.0044758138397565875 0.00018392687658695127 0 0.0040335321884517779 0.00017151263709198761 0 0.0044758138397565875 0.00018392687658695127 0 0.0041313530815160092 3.3828390912175123e-05 0 0.0042469141556831279 1.5661892247794482e-05 0 0.0042261952314093781 8.7148167592040424e-05 0 0.0040564393631149481 0.00040293616679383114 0 0.0039881595136252602 0.00039179918120051485 0 0.0039904556155978049 0.00035508638436559844 0 0.0040128418420814077 0.00032697078653096264 0 0.0040564393631149481 0.00040293616679383114 0 0.0039904556155978049 0.00035508638436559844 0 0.0039881595136252602 0.00039179918120051485 0 0.0039577604539483401 0.00035769122735889521 0 0.0039250260238189909 0.00037695811090380675 0 0.0044549263301728618 0.00022389486145087581 0 0.0046632389092183049 0.00010544283250400249 0 0.0039881595136252602 0.00039179918120051485 0 0.0039904556155978049 0.00035508638436559844 0 0.0039577604539483401 0.00035769122735889521 0 0.0039740387460460809 0.00032086346183417215 0 0.0039904556155978049 0.00035508638436559844 0 0.0039577604539483401 0.00035769122735889521 0 0.0039740387460460809 0.00032086346183417215 0 0.0039461772389793029 0.00033131880580187291 0 0.0039577604539483401 0.00035769122735889521 0 0.0039461772389793029 0.00033131880580187291 0 0.0039577604539483401 0.00035769122735889521 0 0.0039250260238189909 0.00037695811090380675 0 0.0046632389092183049 0.00010544283250400249 0 0.0037651943306766453 0.00024763192617801108 0 0.0046632389092183049 0.00010544283250400249 0 0.0034506628039034054 0.00051414181274603255 0 0.0049884252036189371 -1.0215331284237299e-06 0 0.0049850234994256535 -2.7097089423730766e-06 0 0.0049884860866847318 9.9108115953746281e-07 0 0.0046632389092183049 0.00010544283250400249 0 0.0049570134550914313 -1.1673862755484459e-05 0 0.0039461772389793029 0.00033131880580187291 0 0.0039250260238189909 0.00037695811090380675 0 0.0039253731215958326 0.00030235450659955187 0 0.0049570134550914313 -1.1673862755484459e-05 0 0.0049471937967808435 -8.9698432172026522e-06 0 0.0048638480437054677 -3.2087337665730452e-05 0 0.0049227819306944479 1.1581360772528544e-05 0 0.0049627353556960952 -4.0879646855526274e-06 0 0.0047570363299050001 -4.7021651454641922e-05 0 0.0048638480437054677 -3.2087337665730452e-05 0 0.0048751329706104036 5.5050393398759562e-05 0 0.0048638480437054677 -3.2087337665730452e-05 0 0.0049227819306944479 1.1581360772528544e-05 0 0.0048751329706104036 5.5050393398759562e-05 0 0.0049850234994256535 -2.7097089423730766e-06 0 0.0049836388678914951 2.1105541564577428e-06 0 0.0049752751689347702 9.9085997414212427e-07 0 0.0049850234994256535 -2.7097089423730766e-06 0 0.0049884860866847318 9.9108115953746281e-07 0 0.0049836388678914951 2.1105541564577428e-06 0 0.0046632389092183049 0.00010544283250400249 0 0.0050342269407167468 -1.2855205208553475e-05 0 0.0049884252036189371 -1.0215331284237299e-06 0 0.0049884860866847318 9.9108115953746281e-07 0 0.0049917896163706255 1.6720612545744202e-06 0 0.0049884860866847318 9.9108115953746281e-07 0 0.0049917896163706255 1.6720612545744202e-06 0 0.0049923358346361767 1.5777626790745277e-06 0 0.0049884860866847318 9.9108115953746281e-07 0 0.0049923358346361767 1.5777626790745277e-06 0 0.0049836388678914951 2.1105541564577428e-06 0 0.0049923358346361767 1.5777626790745277e-06 0 0.0049999922972052213 9.2127300505288405e-10 0 0.0049999897989126052 1.7032876914222563e-09 0 0.0050342269407167468 -1.2855205208553475e-05 0 0.0049999793147695541 3.7602756266408013e-08 0 0.0049912009131636769 4.8580169878732704e-06 0 0.0050014089867668433 1.3154534314717945e-05 0 0.0050000027295032225 -6.4833304515270973e-09 0 0.0049917896163706255 1.6720612545744202e-06 0 0.0049923358346361767 1.5777626790745277e-06 0 0.0049999897989126052 1.7032876914222563e-09 0 0.0049999918873319471 -1.2486225694645983e-09 0 0.0049928389513355072 6.9695846146913771e-07 0 0.0049966167476231662 5.4909101380625262e-07 0 0.0049923358346361767 1.5777626790745277e-06 0 0.0049999922972052213 9.2127300505288405e-10 0 0.0049928389513355072 6.9695846146913771e-07 0 0.0049999922972052213 9.2127300505288405e-10 0 0.0049999918873319471 -1.2486225694645983e-09 0 0.0049928389513355072 6.9695846146913771e-07 0 0.0049928389513355072 6.9695846146913771e-07 0 0.0049875121592029004 1.8261559998457935e-06 0 0.0049836388678914951 2.1105541564577428e-06 0 0.0049923358346361767 1.5777626790745277e-06 0 0.0049928389513355072 6.9695846146913771e-07 0 0.0049836388678914951 2.1105541564577428e-06 0 0.0049770881216280455 5.2418964884587807e-06 0 0.004985523719023251 3.6216435928508098e-06 0 0.0049928389513355072 6.9695846146913771e-07 0 0.0049875121592029004 1.8261559998457935e-06 0 0.0049966167476231662 5.4909101380625262e-07 0 0.0049770881216280455 5.2418964884587807e-06 0 0.004973182795661499 2.1921063610033227e-06 0 0.0049662733331601195 1.0959613742258737e-05 0 0.0049683585402823137 6.8428169721676305e-06 0 0.0049622764151437855 1.156172108977492e-05 0 0.0049875121592029004 1.8261559998457935e-06 0 0.0049752751689347702 9.9085997414212427e-07 0 0.0049712128546371094 1.8633761517816465e-06 0 0.0049875121592029004 1.8261559998457935e-06 0 0.0049836388678914951 2.1105541564577428e-06 0 0.0049752751689347702 9.9085997414212427e-07 0 0.0049850234994256535 -2.7097089423730766e-06 0 0.0049752751689347702 9.9085997414212427e-07 0 0.0049627353556960952 -4.0879646855526274e-06 0 0.0049752751689347702 9.9085997414212427e-07 0 0.0049712128546371094 1.8633761517816465e-06 0 0.0049627353556960952 -4.0879646855526274e-06 0 0.0049698361644399981 5.0623580654102797e-06 0 0.0049715435769348672 5.6715210403112523e-06 0 0.0049754074910930831 1.7886648109659915e-05 0 0.0049712128546371094 1.8633761517816465e-06 0 0.0049698361644399981 5.0623580654102797e-06 0 0.0049715435769348672 5.6715210403112523e-06 0 0.0049712128546371094 1.8633761517816465e-06 0 0.0049698361644399981 5.0623580654102797e-06 0 0.0049627353556960952 -4.0879646855526274e-06 0 0.0049698361644399981 5.0623580654102797e-06 0 0.0049227819306944479 1.1581360772528544e-05 0 0.0049627353556960952 -4.0879646855526274e-06 0 0.0049662733331601195 1.0959613742258737e-05 0 0.0049712128546371094 1.8633761517816465e-06 0 0.0049683585402823137 6.8428169721676305e-06 0 0.0049683585402823137 6.8428169721676305e-06 0 0.0049691459099196825 6.3704185186447654e-06 0 0.0049622764151437855 1.156172108977492e-05 0 0.0049683585402823137 6.8428169721676305e-06 0 0.0049715435769348672 5.6715210403112523e-06 0 0.0049691459099196825 6.3704185186447654e-06 0 0.0049715435769348672 5.6715210403112523e-06 0 0.0049691459099196825 6.3704185186447654e-06 0 0.0049754074910930831 1.7886648109659915e-05 0 0.0049712128546371094 1.8633761517816465e-06 0 0.0049683585402823137 6.8428169721676305e-06 0 0.0049715435769348672 5.6715210403112523e-06 0 0.0049691459099196825 6.3704185186447654e-06 0 0.0049754074910930831 1.7886648109659915e-05 0 0.0049608504360671019 -3.0550763169187109e-08 0 0.0043682686740729015 0.00022183777936983929 0 0.0040900237039127735 -4.8237312102634141e-05 0 0.0046152989795523536 -0.00010611981176315404 0 0.0046244471697689396 -4.1065124509571213e-05 0 0.00478067792926881 -1.2205137235210815e-05 0 0.0045830871824788901 3.9695220039373629e-05 0 0.00478067792926881 -1.2205137235210815e-05 0 0.0046083114340748103 9.6199686659738297e-05 0 0.0046050030788282684 0.00010217481357017236 0 0.0047426972601305366 4.8630251031118649e-05 0 0.0046083114340748103 9.6199686659738297e-05 0 0.0046050030788282684 0.00010217481357017236 0 0.0046325697607268613 5.7331291325187658e-05 0 0.0045830871824788901 3.9695220039373629e-05 0 0.0032141999126120576 0.00055256239529910404 0 0.0046050030788282684 0.00010217481357017236 0 0.0045877829160763176 6.2221418525239286e-05 0 0.0046325697607268613 5.7331291325187658e-05 0 0.0045877829160763176 6.2221418525239286e-05 0 0.0046325697607268613 5.7331291325187658e-05 0 0.0045662319092277699 2.6069420391052682e-05 0 0.0045877829160763176 6.2221418525239286e-05 0 0.0045662319092277699 2.6069420391052682e-05 0 0.0045412777464534319 6.1635298635029305e-05 0 0.0046050030788282684 0.00010217481357017236 0 0.0045877829160763176 6.2221418525239286e-05 0 0.0045412777464534319 6.1635298635029305e-05 0 0.0043682686740729015 0.00022183777936983929 0 0.0041205290478632832 0.00054811230477989101 0 0.0038449468352943716 0.00027844312839738785 0 0.002561026771745664 0.00067411180483334322 0 0.0025737072925850154 0.00068620513871288738 0 0.0025745826950360033 0.00067098889172184314 0 0.0032141999126120576 0.00055256239529910404 0 0.0031802674800542712 0.00044663232008831114 0 0.0049227819306944479 1.1581360772528544e-05 0 0.0049754074910930831 1.7886648109659915e-05 0 0.0048751329706104036 5.5050393398759562e-05 0 0.0038449468352943716 0.00027844312839738785 0 0.0040900237039127735 -4.8237312102634141e-05 0 0.0035703378507663044 1.1406646566677391e-05 0 0.0046244471697689396 -4.1065124509571213e-05 0 0.0037651943306766453 0.00024763192617801108 0 0.0043682686740729015 0.00022183777936983929 0 0.0038449468352943716 0.00027844312839738785 0 0.0040900237039127735 -4.8237312102634141e-05 0 0.0049698361644399981 5.0623580654102797e-06 0 0.0049227819306944479 1.1581360772528544e-05 0 0.0049754074910930831 1.7886648109659915e-05 0 0.0031802674800542712 0.00044663232008831114 0 0.0037651943306766453 0.00024763192617801108 0 0.0039790171884262794 0.00030416234946449436 0 0.0039335017117332772 0.00026519879298816473 0 0.0039782279162512294 0.00026121832780540063 0 0.0037651943306766453 0.00024763192617801108 0 0.0034506628039034054 0.00051414181274603255 0 0.0025937026811681209 0.00070054494223266038 0 0.0026193864653899341 0.00069797899709027659 0 0.0026041215584784345 0.00068782126197826886 0 0.0026193864653899341 0.00069797899709027659 0 0.0026041215584784345 0.00068782126197826886 0 0.0026158465914915391 0.0006805696853602216 0 0.0034506628039034054 0.00051414181274603255 0 0.0032695753806815135 0.00047017790260238141 0 0.0026041215584784345 0.00068782126197826886 0 0.0026011360191146886 0.00067791262725172682 0 0.0025894264345490375 0.00068211421689321188 0 0.0026011360191146886 0.00067791262725172682 0 0.0025894264345490375 0.00068211421689321188 0 0.0025912804149936489 0.00067042766027307604 0 0.0026011360191146886 0.00067791262725172682 0 0.0026158465914915391 0.0006805696853602216 0 0.0026067896955679708 0.00066677677941478131 0 0.0026041215584784345 0.00068782126197826886 0 0.0026011360191146886 0.00067791262725172682 0 0.0026158465914915391 0.0006805696853602216 0 0.0025737072925850154 0.00068620513871288738 0 0.0025937026811681209 0.00070054494223266038 0 0.0025894264345490375 0.00068211421689321188 0 0.0025937026811681209 0.00070054494223266038 0 0.0026041215584784345 0.00068782126197826886 0 0.0025894264345490375 0.00068211421689321188 0 0.0025894264345490375 0.00068211421689321188 0 0.0025745826950360033 0.00067098889172184314 0 0.0025912804149936489 0.00067042766027307604 0 0.0025737072925850154 0.00068620513871288738 0 0.0025894264345490375 0.00068211421689321188 0 0.0025745826950360033 0.00067098889172184314 0 0.0025745826950360033 0.00067098889172184314 0 0.0025812568999173599 0.00065926588451434721 0 0.0025585690775926204 0.00065355026438674647 0 0.0025745826950360033 0.00067098889172184314 0 0.0025812568999173599 0.00065926588451434721 0 0.0025912804149936489 0.00067042766027307604 0 0.0026183846051387794 0.00065618541748048529 0 0.0026158465914915391 0.0006805696853602216 0 0.0026067896955679708 0.00066677677941478131 0 0.0026067896955679708 0.00066677677941478131 0 0.0025912804149936489 0.00067042766027307604 0 0.0025965321048811076 0.00066364370250551101 0 0.0026011360191146886 0.00067791262725172682 0 0.0026067896955679708 0.00066677677941478131 0 0.0025912804149936489 0.00067042766027307604 0 0.0025812568999173599 0.00065926588451434721 0 0.0025912804149936489 0.00067042766027307604 0 0.0025965321048811076 0.00066364370250551101 0 0.0025812568999173599 0.00065926588451434721 0 0.0025965321048811076 0.00066364370250551101 0 0.0025970434802788348 0.00065878695811709431 0 0.0026067896955679708 0.00066677677941478131 0 0.0025965321048811076 0.00066364370250551101 0 0.0026038289174021975 0.00066300466605201294 0 0.0025965321048811076 0.00066364370250551101 0 0.0026038289174021975 0.00066300466605201294 0 0.0025970434802788348 0.00065878695811709431 0 0.0026038289174021975 0.00066300466605201294 0 0.0026089204838471089 0.0006615610205126754 0 0.0025970434802788348 0.00065878695811709431 0 0.00260840481613918 0.00066269376976260664 0 0.0026038289174021975 0.00066300466605201294 0 0.0026089204838471089 0.0006615610205126754 0 0.0030319967446642924 0.00043528124760981366 0 0.002997284124481582 0.00045887135341651309 0 0.0026183846051387794 0.00065618541748048529 0 0.0026171267331774307 0.00065254691449343806 0 0.0026067896955679708 0.00066677677941478131 0 0.0030319967446642924 0.00043528124760981366 0 0.0027060549911667609 0.00073099430242395741 0 0.00260840481613918 0.00066269376976260664 0 0.0026067896955679708 0.00066677677941478131 0 0.0026038289174021975 0.00066300466605201294 0 0.0026278963144436332 0.00065019569614129631 0 0.0025817056904844102 0.00064343797065288257 0 0.0025999321779642398 0.00057424200045160705 0 0.0026090201029191455 0.00065596785081662107 0 0.0025970434802788348 0.00065878695811709431 0 0.0025817056904844102 0.00064343797065288257 0 0.0026128460905539032 0.00066280803258483921 0 0.0026089204838471089 0.0006615610205126754 0 0.0026090201029191455 0.00065596785081662107 0 0.0026089204838471089 0.0006615610205126754 0 0.0026090201029191455 0.00065596785081662107 0 0.0025970434802788348 0.00065878695811709431 0 0.0025812568999173599 0.00065926588451434721 0 0.0025970434802788348 0.00065878695811709431 0 0.0025817056904844102 0.00064343797065288257 0 0.0026278963144436332 0.00065019569614129631 0 0.0026090201029191455 0.00065596785081662107 0 0.0025817056904844102 0.00064343797065288257 0 0.0025817056904844102 0.00064343797065288257 0 0.0025585690775926204 0.00065355026438674647 0 0.002543534395228148 0.00059628474291023397 0 0.0025812568999173599 0.00065926588451434721 0 0.0025817056904844102 0.00064343797065288257 0 0.0025585690775926204 0.00065355026438674647 0 0.0022130094173628515 0.00081635506346194723 0 0.0024646952329488779 0.00057788354762797385 0 0.0021633307216462976 0.00079213763414327191 0 0.0020201787794411267 0.00080150089687523577 0 0.0020398527037732354 0.00064907007800752933 0 0.0020201787794411267 0.00080150089687523577 0 0.0018957652837871346 0.00081273383497973254 0 0.0018733568743399449 0.00064916659501053776 0 0.0020201787794411267 0.00080150089687523577 0 0.0018733568743399449 0.00064916659501053776 0 0.0020398527037732354 0.00064907007800752933 0 0.0046325697607268613 5.7331291325187658e-05 0 0.0045662319092277699 2.6069420391052682e-05 0 0.0045378795510147459 -5.9048037996979946e-05 0 0.0032141999126120576 0.00055256239529910404 0 0.0032700110478018798 0.00038067276506092897 0 0.0020422817408012103 0.00095001420498528764 0 0.0020201787794411267 0.00080150089687523577 0 0.0018957652837871346 0.00081273383497973254 0 0.0020422817408012103 0.00095001420498528764 0 0.0021633307216462976 0.00079213763414327191 0 0.0020201787794411267 0.00080150089687523577 0 0.002561026771745664 0.00067411180483334322 0 0.0025745826950360033 0.00067098889172184314 0 0.0025585690775926204 0.00065355026438674647 0 0.0032141999126120576 0.00055256239529910404 0 0.0022130094173628515 0.00081635506346194723 0 0.0044452508800996923 -2.8285416042799236e-05 0 0.0043634589286524637 3.1223517704592217e-05 0 0.0044730925146803432 2.4767100208821301e-05 0 0.0044452508800996923 -2.8285416042799236e-05 0 0.0043634589286524637 3.1223517704592217e-05 0 0.0044215411392678127 -8.5271124763319322e-05 0 0.0045661204178931471 2.2603582542377499e-05 0 0.0036485982276519219 -0.00013566784601767628 0 0.0044452508800996923 -2.8285416042799236e-05 0 0.0045378795510147459 -5.9048037996979946e-05 0 0.0044215411392678127 -8.5271124763319322e-05 0 0.0045662319092277699 2.6069420391052682e-05 0 0.0044730925146803432 2.4767100208821301e-05 0 0.0045378795510147459 -5.9048037996979946e-05 0 0.0044452508800996923 -2.8285416042799236e-05 0 0.0044730925146803432 2.4767100208821301e-05 0 0.0045378795510147459 -5.9048037996979946e-05 0 0.0018957652837871346 0.00081273383497973254 0 0.0017602753377686325 0.00066961148388872593 0 0.0018733568743399449 0.00064916659501053776 0 0.0032700110478018798 0.00038067276506092897 0 0.0027926605403963537 0.00034440212656296833 0 0.0045378795510147459 -5.9048037996979946e-05 0 0.0044215411392678127 -8.5271124763319322e-05 0 0.0044202878529621195 -0.00016469836332053868 0 0.0044215411392678127 -8.5271124763319322e-05 0 0.0043701728708787479 -0.00015515295149034692 0 0.0044202878529621195 -0.00016469836332053868 0 0.0043634589286524637 3.1223517704592217e-05 0 0.0044215411392678127 -8.5271124763319322e-05 0 0.0043701728708787479 -0.00015515295149034692 0 0.0036485982276519219 -0.00013566784601767628 0 0.0027926605403963537 0.00034440212656296833 0 0.0043634589286524637 3.1223517704592217e-05 0 0.0043603382748470566 -6.514143978538162e-05 0 0.0043254334415906027 -2.0640305355667383e-05 0 0.0036485982276519219 -0.00013566784601767628 0 0.0033465404437784201 -0.00031115866627245037 0 0.002663473157494844 -0.00056496938232431881 0 0.0025337014914002635 -0.00054724323896919154 0 0.0026004417112306783 -0.00060330320820294059 0 0.0043254334415906027 -2.0640305355667383e-05 0 0.004275442577474327 -4.9893727646753457e-05 0 0.0042917342856202707 8.8434044337285688e-06 0 0.0043603382748470566 -6.514143978538162e-05 0 0.0043254334415906027 -2.0640305355667383e-05 0 0.004275442577474327 -4.9893727646753457e-05 0 0.004275442577474327 -4.9893727646753457e-05 0 0.0042917342856202707 8.8434044337285688e-06 0 0.0042408752701950034 -1.3856828784975529e-06 0 0.0042917342856202707 8.8434044337285688e-06 0 0.004256505091472915 5.2374982007509831e-05 0 0.0042408752701950034 -1.3856828784975529e-06 0 0.0043634589286524637 3.1223517704592217e-05 0 0.0042917342856202707 8.8434044337285688e-06 0 0.0043066269431923689 5.4141312823471075e-05 0 0.0043634589286524637 3.1223517704592217e-05 0 0.0043254334415906027 -2.0640305355667383e-05 0 0.0042917342856202707 8.8434044337285688e-06 0 0.0043634589286524637 3.1223517704592217e-05 0 0.0043066269431923689 5.4141312823471075e-05 0 0.0043445472006838001 8.2034230596207393e-05 0 0.0043066269431923689 5.4141312823471075e-05 0 0.0043445472006838001 8.2034230596207393e-05 0 0.0042938185344263873 8.4478646636180189e-05 0 0.0042917342856202707 8.8434044337285688e-06 0 0.0043066269431923689 5.4141312823471075e-05 0 0.004256505091472915 5.2374982007509831e-05 0 0.0043066269431923689 5.4141312823471075e-05 0 0.004256505091472915 5.2374982007509831e-05 0 0.0042938185344263873 8.4478646636180189e-05 0 0.004256505091472915 5.2374982007509831e-05 0 0.0042938185344263873 8.4478646636180189e-05 0 0.0042717508119713985 9.2303250720265282e-05 0 0.004256505091472915 5.2374982007509831e-05 0 0.0042717508119713985 9.2303250720265282e-05 0 0.0042461333298295188 8.8543237151118861e-05 0 0.0044981612277823326 0.00014397451858787121 0 0.0046387650275812745 4.9080284896172013e-05 0 0.0042533627532687314 0.00013042040580472401 0 0.0044692806384804967 8.8249670762575232e-05 0 0.0042657446719558401 0.00012764674951364416 0 0.0042717508119713985 9.2303250720265282e-05 0 0.0043059636702105688 0.00011762822358007354 0 0.0042613317335639693 0.00011026660415825595 0 0.0043059636702105688 0.00011762822358007354 0 0.0042613317335639693 0.00011026660415825595 0 0.0042533627532687314 0.00013042040580472401 0 0.0042938185344263873 8.4478646636180189e-05 0 0.0042717508119713985 9.2303250720265282e-05 0 0.0043059636702105688 0.00011762822358007354 0 0.0044981612277823326 0.00014397451858787121 0 0.0046387650275812745 4.9080284896172013e-05 0 0.0046490006228842602 0.00018787912457507523 0 0.0048830372027969535 5.5040681308883972e-05 0 0.0047928450051327688 0.00012136592227560047 0 0.0044692806384804967 8.8249670762575232e-05 0 0.0046367363562026869 8.567204809599831e-05 0 0.0043445472006838001 8.2034230596207393e-05 0 0.0043059636702105688 0.00011762822358007354 0 0.0044167829741816392 0.00012770005564892269 0 0.0046387650275812745 4.9080284896172013e-05 0 0.0048745965602224077 5.4875987210144889e-05 0 0.0046490006228842602 0.00018787912457507523 0 0.0043445472006838001 8.2034230596207393e-05 0 0.0042938185344263873 8.4478646636180189e-05 0 0.0043059636702105688 0.00011762822358007354 0 0.0046387650275812745 4.9080284896172013e-05 0 0.0048745965602224077 5.4875987210144889e-05 0 0.0048693416863900378 4.9282531709322127e-05 0 0.0048745965602224077 5.4875987210144889e-05 0 0.0049120564322067371 2.2836404895978361e-05 0 0.0049502626682466815 1.7988626383430362e-05 0 0.0048745965602224077 5.4875987210144889e-05 0 0.0047304001584116458 -2.6791737283535884e-05 0 0.0049120564322067371 2.2836404895978361e-05 0 0.0048745965602224077 5.4875987210144889e-05 0 0.0048693416863900378 4.9282531709322127e-05 0 0.0047426972601305366 4.8630251031118649e-05 0 0.0043445472006838001 8.2034230596207393e-05 0 0.0044167829741816392 0.00012770005564892269 0 0.0044123194985930415 6.9668333553854077e-05 0 0.0043634589286524637 3.1223517704592217e-05 0 0.0044730925146803432 2.4767100208821301e-05 0 0.0044123194985930415 6.9668333553854077e-05 0 0.0044167829741816392 0.00012770005564892269 0 0.0044123194985930415 6.9668333553854077e-05 0 0.004487767324071793 7.5649370885863722e-05 0 0.0043634589286524637 3.1223517704592217e-05 0 0.0043445472006838001 8.2034230596207393e-05 0 0.0044123194985930415 6.9668333553854077e-05 0 0.0046050030788282684 0.00010217481357017236 0 0.0044167829741816392 0.00012770005564892269 0 0.004487767324071793 7.5649370885863722e-05 0 0.0046114405291383092 0.00010079612797859634 0 0.0046367363562026869 8.567204809599831e-05 0 0.0045662319092277699 2.6069420391052682e-05 0 0.0044730925146803432 2.4767100208821301e-05 0 0.0045412777464534319 6.1635298635029305e-05 0 0.0044730925146803432 2.4767100208821301e-05 0 0.0045412777464534319 6.1635298635029305e-05 0 0.004487767324071793 7.5649370885863722e-05 0 0.0044730925146803432 2.4767100208821301e-05 0 0.0044123194985930415 6.9668333553854077e-05 0 0.004487767324071793 7.5649370885863722e-05 0 0.0046050030788282684 0.00010217481357017236 0 0.0045412777464534319 6.1635298635029305e-05 0 0.004487767324071793 7.5649370885863722e-05 0 0.0046050030788282684 0.00010217481357017236 0 0.0048693416863900378 4.9282531709322127e-05 0 0.0047426972601305366 4.8630251031118649e-05 0 0.0046083114340748103 9.6199686659738297e-05 0 0.0047426972601305366 4.8630251031118649e-05 0 0.0047304001584116458 -2.6791737283535884e-05 0 0.00478067792926881 -1.2205137235210815e-05 0 0.00492037934175279 1.1433413733478572e-05 0 0.0048745965602224077 5.4875987210144889e-05 0 0.0047426972601305366 4.8630251031118649e-05 0 0.0047304001584116458 -2.6791737283535884e-05 0 0.0049608504360671019 -3.0550763169187109e-08 0 0.0049468221228566832 1.3644994249132357e-05 0 0.0049622764151437855 1.156172108977492e-05 0 0.0049691459099196825 6.3704185186447654e-06 0 0.0049608504360671019 -3.0550763169187109e-08 0 0.0049622764151437855 1.156172108977492e-05 0 0.0049452186761946319 8.1510485941232614e-06 0 0.0049468221228566832 1.3644994249132357e-05 0 0.0049120564322067371 2.2836404895978361e-05 0 0.00478067792926881 -1.2205137235210815e-05 0 0.0049662771438967936 -1.0273833111115137e-05 0 0.0049120564322067371 2.2836404895978361e-05 0 0.0049431015787345482 1.233008592582511e-05 0 0.0049502626682466815 1.7988626383430362e-05 0 0.0049468221228566832 1.3644994249132357e-05 0 0.0049120564322067371 2.2836404895978361e-05 0 0.0049431015787345482 1.233008592582511e-05 0 0.0049468221228566832 1.3644994249132357e-05 0 0.0049431015787345482 1.233008592582511e-05 0 0.004958727284863837 8.8584622010071875e-06 0 0.0049431015787345482 1.233008592582511e-05 0 0.0049608082773653899 8.4850744113127651e-06 0 0.0049502626682466815 1.7988626383430362e-05 0 0.0049431015787345482 1.233008592582511e-05 0 0.004958727284863837 8.8584622010071875e-06 0 0.0049608082773653899 8.4850744113127651e-06 0 0.0049678052879291159 7.9128663497057333e-06 0 0.004958727284863837 8.8584622010071875e-06 0 0.0049765179740593269 1.9291773400980229e-06 0 0.0049468221228566832 1.3644994249132357e-05 0 0.0049678052879291159 7.9128663497057333e-06 0 0.004958727284863837 8.8584622010071875e-06 0 0.004958727284863837 8.8584622010071875e-06 0 0.0049765179740593269 1.9291773400980229e-06 0 0.0049608082773653899 8.4850744113127651e-06 0 0.0049662733331601195 1.0959613742258737e-05 0 0.0049622764151437855 1.156172108977492e-05 0 0.0049678052879291159 7.9128663497057333e-06 0 0.0049468221228566832 1.3644994249132357e-05 0 0.0049622764151437855 1.156172108977492e-05 0 0.0049678052879291159 7.9128663497057333e-06 0 0.0049678052879291159 7.9128663497057333e-06 0 0.0049736468868847488 4.6350795673211788e-06 0 0.004987070001597556 8.5558224756588804e-08 0 0.0049662733331601195 1.0959613742258737e-05 0 0.0049678052879291159 7.9128663497057333e-06 0 0.0049736468868847488 4.6350795673211788e-06 0 0.0049678052879291159 7.9128663497057333e-06 0 0.004987070001597556 8.5558224756588804e-08 0 0.0049765179740593269 1.9291773400980229e-06 0 0.004987070001597556 8.5558224756588804e-08 0 0.0049999412586342589 -3.9865857228880791e-09 0 0.0049999981316223678 -4.3604854996834586e-09 0 0.0049736468868847488 4.6350795673211788e-06 0 0.004987070001597556 8.5558224756588804e-08 0 0.0049999412586342589 -3.9865857228880791e-09 0 0.004985523719023251 3.6216435928508098e-06 0 0.0049999919622317531 2.450010092723948e-09 0 0.0049999918873319471 -1.2486225694645983e-09 0 0.0049966167476231662 5.4909101380625262e-07 0 0.0050000010768172553 9.0305566324904166e-10 0 0.0049968671607065803 -3.2354790798626952e-06 0 0.0049999981316223678 -4.3604854996834586e-09 0 0.0049999838762444983 -1.6088108545410776e-09 0 0.0049968671607065803 -3.2354790798626952e-06 0 0.0049999981316223678 -4.3604854996834586e-09 0 0.0049906525834224232 -1.8587815014083362e-06 0 0.004987070001597556 8.5558224756588804e-08 0 0.0049999981316223678 -4.3604854996834586e-09 0 0.0049906525834224232 -1.8587815014083362e-06 0 0.0049906525834224232 -1.8587815014083362e-06 0 0.0049901087265046074 -1.6868669081912731e-06 0 0.0049765179740593269 1.9291773400980229e-06 0 0.004987070001597556 8.5558224756588804e-08 0 0.0049906525834224232 -1.8587815014083362e-06 0 0.0049765179740593269 1.9291773400980229e-06 0 0.0049968671607065803 -3.2354790798626952e-06 0 0.0049967035960887954 -5.2637827896514527e-06 0 0.0049975050695252564 -4.6411409581950963e-06 0 0.0049968671607065803 -3.2354790798626952e-06 0 0.0049901087265046074 -1.6868669081912731e-06 0 0.0049967035960887954 -5.2637827896514527e-06 0 0.0049968671607065803 -3.2354790798626952e-06 0 0.0049906525834224232 -1.8587815014083362e-06 0 0.0049901087265046074 -1.6868669081912731e-06 0 0.0049967035960887954 -5.2637827896514527e-06 0 0.0049923987575772573 3.3231020563365036e-07 0 0.0049943826620986861 6.1478902421015042e-06 0 0.0049901087265046074 -1.6868669081912731e-06 0 0.0049967035960887954 -5.2637827896514527e-06 0 0.0049923987575772573 3.3231020563365036e-07 0 0.0049967035960887954 -5.2637827896514527e-06 0 0.0049943826620986861 6.1478902421015042e-06 0 0.0049994032628050931 1.0310632792589723e-05 0 0.0049901087265046074 -1.6868669081912731e-06 0 0.0049923987575772573 3.3231020563365036e-07 0 0.0049873785614360294 4.7201679274462631e-06 0 0.0049923987575772573 3.3231020563365036e-07 0 0.0049873785614360294 4.7201679274462631e-06 0 0.0049943826620986861 6.1478902421015042e-06 0 0.0049901087265046074 -1.6868669081912731e-06 0 0.0049873785614360294 4.7201679274462631e-06 0 0.0049765179740593269 1.9291773400980229e-06 0 0.0049873785614360294 4.7201679274462631e-06 0 0.0049765179740593269 1.9291773400980229e-06 0 0.0049763990348866268 8.0959497549099901e-06 0 0.0049765179740593269 1.9291773400980229e-06 0 0.0049608082773653899 8.4850744113127651e-06 0 0.0049763990348866268 8.0959497549099901e-06 0 0.0049873785614360294 4.7201679274462631e-06 0 0.0049763990348866268 8.0959497549099901e-06 0 0.0049894328654313518 2.1616438746721853e-05 0 0.0048745965602224077 5.4875987210144889e-05 0 0.0049894328654313518 2.1616438746721853e-05 0 0.0049502626682466815 1.7988626383430362e-05 0 0.0049608082773653899 8.4850744113127651e-06 0 0.0049763990348866268 8.0959497549099901e-06 0 0.0049502626682466815 1.7988626383430362e-05 0 0.0049763990348866268 8.0959497549099901e-06 0 0.0049894328654313518 2.1616438746721853e-05 0 0.0049502626682466815 1.7988626383430362e-05 0 0.0049943826620986861 6.1478902421015042e-06 0 0.0049894328654313518 2.1616438746721853e-05 0 0.0049994032628050931 1.0310632792589723e-05 0 0.0049873785614360294 4.7201679274462631e-06 0 0.0049943826620986861 6.1478902421015042e-06 0 0.0049894328654313518 2.1616438746721853e-05 0 0.0047928450051327688 0.00012136592227560047 0 0.0047373471091436119 6.9133320087059346e-05 0 0.0044981612277823326 0.00014397451858787121 0 0.0044429162478381813 0.00020049586250880027 0 0.0042533627532687314 0.00013042040580472401 0 0.0046490006228842602 0.00018787912457507523 0 0.0044429162478381813 0.00020049586250880027 0 0.0043091165566824926 0.00034630736177320456 0 0.0044981612277823326 0.00014397451858787121 0 0.0046490006228842602 0.00018787912457507523 0 0.0044429162478381813 0.00020049586250880027 0 0.0043091165566824926 0.00034630736177320456 0 0.0042533627532687314 0.00013042040580472401 0 0.0042364425311194175 0.0001103958433706819 0 0.0047373471091436119 6.9133320087059346e-05 0 0.0044678019810869231 7.9545551521468589e-05 0 0.004702002769959069 4.3005891299000628e-05 0 0.0046895415486214965 2.134532364152479e-05 0 0.0046930661504549099 1.9761918658204306e-05 0 0.0044429162478381813 0.00020049586250880027 0 0.0043091165566824926 0.00034630736177320456 0 0.0042533627532687314 0.00013042040580472401 0 0.0049245199059439167 -2.4163289729881029e-05 0 0.0048530566589955904 -2.576960905246339e-05 0 0.004702002769959069 4.3005891299000628e-05 0 0.0046950227040095608 4.6077926020163727e-05 0 0.0046895415486214965 2.134532364152479e-05 0 0.0047373471091436119 6.9133320087059346e-05 0 0.0049245199059439167 -2.4163289729881029e-05 0 0.0049921704968956156 -5.0219184844913743e-05 0 0.0050159976163055685 -3.9647059764838452e-05 0 0.0050115660956162496 -6.7394386779392638e-05 0 0.0049921704968956156 -5.0219184844913743e-05 0 0.0050159976163055685 -3.9647059764838452e-05 0 0.004985367263381689 -2.1943872019515424e-05 0 0.0049245199059439167 -2.4163289729881029e-05 0 0.0050174971099895159 -2.9103594651969727e-05 0 0.0049924241978885906 -1.539250951474532e-05 0 0.0049960656713729313 -1.861102777937766e-05 0 0.004985367263381689 -2.1943872019515424e-05 0 0.0049924241978885906 -1.539250951474532e-05 0 0.0049959845778673271 -8.7377656661838868e-06 0 0.0049913420555884091 -1.2792691223689054e-05 0 0.0049924241978885906 -1.539250951474532e-05 0 0.0049913420555884091 -1.2792691223689054e-05 0 0.004985367263381689 -2.1943872019515424e-05 0 0.0049967035960887954 -5.2637827896514527e-06 0 0.0049943815568119325 -1.0770841008720442e-05 0 0.0049959845778673271 -8.7377656661838868e-06 0 0.0049943815568119325 -1.0770841008720442e-05 0 0.0049939854574637833 -1.0558703802174966e-05 0 0.0049959845778673271 -8.7377656661838868e-06 0 0.0050212445463464301 -1.1120220703904739e-05 0 0.0047373471091436119 6.9133320087059346e-05 0 0.0049245199059439167 -2.4163289729881029e-05 0 0.0049910639433932234 -4.2666858595730133e-06 0 0.0049924241978885906 -1.539250951474532e-05 0 0.0049960656713729313 -1.861102777937766e-05 0 0.0049959845778673271 -8.7377656661838868e-06 0 0.0049967035960887954 -5.2637827896514527e-06 0 0.0049975050695252564 -4.6411409581950963e-06 0 0.0049959845778673271 -8.7377656661838868e-06 0 0.0049959845778673271 -8.7377656661838868e-06 0 0.0049913420555884091 -1.2792691223689054e-05 0 0.0049934686910792165 -8.5370351329004288e-06 0 0.0049975050695252564 -4.6411409581950963e-06 0 0.0049959845778673271 -8.7377656661838868e-06 0 0.0049934686910792165 -8.5370351329004288e-06 0 0.0049913420555884091 -1.2792691223689054e-05 0 0.0049934686910792165 -8.5370351329004288e-06 0 0.0049873069862947372 -6.6166417125520385e-06 0 0.0049975050695252564 -4.6411409581950963e-06 0 0.0049934686910792165 -8.5370351329004288e-06 0 0.0049873069862947372 -6.6166417125520385e-06 0 0.0049913420555884091 -1.2792691223689054e-05 0 0.0049873069862947372 -6.6166417125520385e-06 0 0.004985367263381689 -2.1943872019515424e-05 0 0.0049937593248008567 -6.9718813119924767e-06 0 0.0049999988302150723 -1.6789959344004815e-09 0 0.0050017486025983326 -6.2775130843214575e-06 0 0.0050000053626179193 -1.6251119456933997e-09 0 0.0050000002802066653 2.1189676905101479e-10 0 0.0049968671607065803 -3.2354790798626952e-06 0 0.0049975050695252564 -4.6411409581950963e-06 0 0.0049999838762444983 -1.6088108545410776e-09 0 0.0049975050695252564 -4.6411409581950963e-06 0 0.0049873069862947372 -6.6166417125520385e-06 0 0.0049999838762444983 -1.6088108545410776e-09 0 0.00497570351055513 -8.7140895466936142e-06 0 0.0049999557495798335 -3.0595736853427309e-09 0 0.0049903263285649797 -3.6850744903444714e-06 0 0.0049999557495798335 -3.0595736853427309e-09 0 0.0049903263285649797 -3.6850744903444714e-06 0 0.0050000002802066653 2.1189676905101479e-10 0 0.0049903263285649797 -3.6850744903444714e-06 0 0.0050000002802066653 2.1189676905101479e-10 0 0.0049868939281169904 -8.9800616415702767e-06 0 0.0050017486025983326 -6.2775130843214575e-06 0 0.0050000002802066653 2.1189676905101479e-10 0 0.0049868939281169904 -8.9800616415702767e-06 0 0.0049873069862947372 -6.6166417125520385e-06 0 0.004971351446949648 -2.5979327391522458e-05 0 0.004985367263381689 -2.1943872019515424e-05 0 0.0049937593248008567 -6.9718813119924767e-06 0 0.0049730221669209429 -2.4576206547698314e-05 0 0.0050017486025983326 -6.2775130843214575e-06 0 0.0049868939281169904 -8.9800616415702767e-06 0 0.004971351446949648 -2.5979327391522458e-05 0 0.00497570351055513 -8.7140895466936142e-06 0 0.0049903263285649797 -3.6850744903444714e-06 0 0.004975906889826096 -1.4908808114197054e-05 0 0.0049868939281169904 -8.9800616415702767e-06 0 0.004975906889826096 -1.4908808114197054e-05 0 0.004971351446949648 -2.5979327391522458e-05 0 0.0049903263285649797 -3.6850744903444714e-06 0 0.0049868939281169904 -8.9800616415702767e-06 0 0.004975906889826096 -1.4908808114197054e-05 0 0.00497570351055513 -8.7140895466936142e-06 0 0.0049536672975011567 -3.0129219712233425e-05 0 0.004975906889826096 -1.4908808114197054e-05 0 0.0049536672975011567 -3.0129219712233425e-05 0 0.004975906889826096 -1.4908808114197054e-05 0 0.004971351446949648 -2.5979327391522458e-05 0 0.0049536672975011567 -3.0129219712233425e-05 0 0.004971351446949648 -2.5979327391522458e-05 0 0.0049586707627143388 -4.3091145607111232e-05 0 0.004971351446949648 -2.5979327391522458e-05 0 0.004985367263381689 -2.1943872019515424e-05 0 0.0049683769979356482 -5.1614445432258675e-05 0 0.0049921704968956156 -5.0219184844913743e-05 0 0.004985367263381689 -2.1943872019515424e-05 0 0.0049683769979356482 -5.1614445432258675e-05 0 0.0049921704968956156 -5.0219184844913743e-05 0 0.0049683769979356482 -5.1614445432258675e-05 0 0.0049723604117372011 -8.1233074955440387e-05 0 0.004971351446949648 -2.5979327391522458e-05 0 0.0049683769979356482 -5.1614445432258675e-05 0 0.0049586707627143388 -4.3091145607111232e-05 0 0.0049368838417104882 -6.3570111564376325e-05 0 0.0049536672975011567 -3.0129219712233425e-05 0 0.0049586707627143388 -4.3091145607111232e-05 0 0.0049368838417104882 -6.3570111564376325e-05 0 0.0049683769979356482 -5.1614445432258675e-05 0 0.0049586707627143388 -4.3091145607111232e-05 0 0.0049368838417104882 -6.3570111564376325e-05 0 0.0049286917292383483 -0.00011040096024886569 0 0.0049535962431147577 -8.3800757791786004e-05 0 0.0049368838417104882 -6.3570111564376325e-05 0 0.0049683769979356482 -5.1614445432258675e-05 0 0.0049535962431147577 -8.3800757791786004e-05 0 0.0049286917292383483 -0.00011040096024886569 0 0.0049616324321089126 -0.00010306638632568896 0 0.0049522124024915853 -0.00012083258043882919 0 0.0048425704035303463 -9.0896483228815894e-05 0 0.0049405188690087457 -0.00011457762997242142 0 0.0049286917292383483 -0.00011040096024886569 0 0.0049535962431147577 -8.3800757791786004e-05 0 0.0049616324321089126 -0.00010306638632568896 0 0.0049616324321089126 -0.00010306638632568896 0 0.0049827066314612313 -9.7023893014074603e-05 0 0.0049711749534957755 -0.00011772469673664781 0 0.0049616324321089126 -0.00010306638632568896 0 0.0049522124024915853 -0.00012083258043882919 0 0.0049711749534957755 -0.00011772469673664781 0 0.0049616324321089126 -0.00010306638632568896 0 0.0049723604117372011 -8.1233074955440387e-05 0 0.0049827066314612313 -9.7023893014074603e-05 0 0.0049683769979356482 -5.1614445432258675e-05 0 0.0049535962431147577 -8.3800757791786004e-05 0 0.0049723604117372011 -8.1233074955440387e-05 0 0.0049535962431147577 -8.3800757791786004e-05 0 0.0049616324321089126 -0.00010306638632568896 0 0.0049723604117372011 -8.1233074955440387e-05 0 0.0049921704968956156 -5.0219184844913743e-05 0 0.0049723604117372011 -8.1233074955440387e-05 0 0.0049922342404479922 -7.8611636530846109e-05 0 0.0049921704968956156 -5.0219184844913743e-05 0 0.0049922342404479922 -7.8611636530846109e-05 0 0.0050115660956162496 -6.7394386779392638e-05 0 0.0049922342404479922 -7.8611636530846109e-05 0 0.0050115660956162496 -6.7394386779392638e-05 0 0.005003511421039027 -9.6348348842134439e-05 0 0.0049723604117372011 -8.1233074955440387e-05 0 0.0049922342404479922 -7.8611636530846109e-05 0 0.0049827066314612313 -9.7023893014074603e-05 0 0.0042364425311194175 0.0001103958433706819 0 0.0042461333298295188 8.8543237151118861e-05 0 0.0042154087677117556 7.4660578217732016e-05 0 0.0048530566589955904 -2.576960905246339e-05 0 0.0045278842903098381 1.6600475251082093e-05 0 0.0044678019810869231 7.9545551521468589e-05 0 0.0045278842903098381 1.6600475251082093e-05 0 0.0046895415486214965 2.134532364152479e-05 0 0.0046930661504549099 1.9761918658204306e-05 0 0.0046812599130551837 -3.8272060974402233e-06 0 0.0042613317335639693 0.00011026660415825595 0 0.0042533627532687314 0.00013042040580472401 0 0.0042364425311194175 0.0001103958433706819 0 0.0042717508119713985 9.2303250720265282e-05 0 0.0042613317335639693 0.00011026660415825595 0 0.0042461333298295188 8.8543237151118861e-05 0 0.0042613317335639693 0.00011026660415825595 0 0.0042364425311194175 0.0001103958433706819 0 0.0042461333298295188 8.8543237151118861e-05 0 0.0045278842903098381 1.6600475251082093e-05 0 0.0041937390693190593 8.4312166031587264e-06 0 0.004256505091472915 5.2374982007509831e-05 0 0.0042154087677117556 7.4660578217732016e-05 0 0.0041985797057799631 2.1448627436980286e-05 0 0.004256505091472915 5.2374982007509831e-05 0 0.0042461333298295188 8.8543237151118861e-05 0 0.0042154087677117556 7.4660578217732016e-05 0 0.0049827066314612313 -9.7023893014074603e-05 0 0.0049908229667323502 -0.0001199193731738808 0 0.0049711749534957755 -0.00011772469673664781 0 0.0045278842903098381 1.6600475251082093e-05 0 0.0045701705205079858 -6.1864965091590752e-05 0 0.005003511421039027 -9.6348348842134439e-05 0 0.0049827066314612313 -9.7023893014074603e-05 0 0.0049908229667323502 -0.0001199193731738808 0 0.0042333396917661175 0.0001548400100170298 0 0.0041565205593851844 -8.4020176893130513e-05 0 0.0041964926503594352 -9.1087981720066788e-05 0 0.0049922342404479922 -7.8611636530846109e-05 0 0.005003511421039027 -9.6348348842134439e-05 0 0.0049827066314612313 -9.7023893014074603e-05 0 0.0049908229667323502 -0.0001199193731738808 0 0.0049767207151343524 -0.0001278907487464241 0 0.0049774540192925026 -0.00014035888911084494 0 0.0049908229667323502 -0.0001199193731738808 0 0.0049767207151343524 -0.0001278907487464241 0 0.0049711749534957755 -0.00011772469673664781 0 0.0041565205593851844 -8.4020176893130513e-05 0 0.0041964926503594352 -9.1087981720066788e-05 0 0.0041629216049014796 -0.00034733926546347781 0 0.0045701705205079858 -6.1864965091590752e-05 0 0.0039374734346090965 -0.00029144902623982888 0 0.0041565205593851844 -8.4020176893130513e-05 0 0.0041629216049014796 -0.00034733926546347781 0 0.0040818966291092463 -0.00033306099929535966 0 0.0041937390693190593 8.4312166031587264e-06 0 0.0034458094898426068 -0.0003255128584345825 0 0.004256505091472915 5.2374982007509831e-05 0 0.0041985797057799631 2.1448627436980286e-05 0 0.0042408752701950034 -1.3856828784975529e-06 0 0.0041985797057799631 2.1448627436980286e-05 0 0.0042408752701950034 -1.3856828784975529e-06 0 0.0041855151867420618 -3.5107981034311168e-05 0 0.0033465404437784201 -0.00031115866627245037 0 0.0034458094898426068 -0.0003255128584345825 0 0.004275442577474327 -4.9893727646753457e-05 0 0.0042408752701950034 -1.3856828784975529e-06 0 0.0041855151867420618 -3.5107981034311168e-05 0 0.0025337014914002635 -0.00054724323896919154 0 0.0024096990323410265 -0.00052538374382302599 0 0.0024850195805969236 -0.00060622565418864255 0 0.0049767207151343524 -0.0001278907487464241 0 0.0049774540192925026 -0.00014035888911084494 0 0.0049650215775199789 -0.00013687264353205117 0 0.0029404948921341761 -0.00065008815603703697 0 0.0038802976836860158 -0.00041131868087865324 0 0.0039374734346090965 -0.00029144902623982888 0 0.0038802976836860158 -0.00041131868087865324 0 0.0034244131145748096 -0.00052509529978422148 0 0.0034636872927459482 -0.00037645517462867294 0 0.0036882899049446747 -0.00057138283036051792 0 0.0034458094898426068 -0.0003255128584345825 0 0.0039374734346090965 -0.00029144902623982888 0 0.0039374734346090965 -0.00029144902623982888 0 0.0029404948921341761 -0.00065008815603703697 0 0.003295671177456157 -0.00037485604070043718 0 0.0032500072313201185 -0.00036672232747866489 0 0.0032650644143537777 -0.00041070755680599764 0 0.0034458094898426068 -0.0003255128584345825 0 0.0027318611392720994 -0.00052279492722277191 0 0.0024096990323410265 -0.00052538374382302599 0 0.0024005469738911773 -0.0005774488934857751 0 0.0024220027376114462 -0.00060054638995786329 0 0.0032500072313201185 -0.00036672232747866489 0 0.0032650644143537777 -0.00041070755680599764 0 0.003231941176061421 -0.00042759508747028683 0 0.003295671177456157 -0.00037485604070043718 0 0.0032650644143537777 -0.00041070755680599764 0 0.0032825823128027937 -0.00047357878020118778 0 0.0032650644143537777 -0.00041070755680599764 0 0.003231941176061421 -0.00042759508747028683 0 0.0032825823128027937 -0.00047357878020118778 0 0.0029404948921341761 -0.00065008815603703697 0 0.0027318611392720994 -0.00052279492722277191 0 0.0022020020639771029 -0.0010498995925005904 0 0.0022608511212398306 -0.0010525633884310309 0 0.0022728737070803811 -0.00099518567697174536 0 0.0022020020639771029 -0.0010498995925005904 0 0.0022608511212398306 -0.0010525633884310309 0 0.0022733104525641352 -0.0011121668936022119 0 0.0022608511212398306 -0.0010525633884310309 0 0.0023036562373389101 -0.0010473290906254527 0 0.0022728737070803811 -0.00099518567697174536 0 0.0022608511212398306 -0.0010525633884310309 0 0.0022733104525641352 -0.0011121668936022119 0 0.0023036562373389101 -0.0010473290906254527 0 0.0022733104525641352 -0.0011121668936022119 0 0.0023625002394300526 -0.0010784334156533025 0 0.0024447563563356656 -0.0011542415997697695 0 0.0022733104525641352 -0.0011121668936022119 0 0.0023036562373389101 -0.0010473290906254527 0 0.0023625002394300526 -0.0010784334156533025 0 0.0023036562373389101 -0.0010473290906254527 0 0.0023625002394300526 -0.0010784334156533025 0 0.0023487119218845456 -0.00099785301821364862 0 0.0024274183175418333 -0.0010469555549774332 0 0.0023625002394300526 -0.0010784334156533025 0 0.0023487119218845456 -0.00099785301821364862 0 0.0025215170706106866 -0.0010716572622907383 0 0.0024274183175418333 -0.0010469555549774332 0 0.0024447563563356656 -0.0011542415997697695 0 0.0024274183175418333 -0.0010469555549774332 0 0.0023625002394300526 -0.0010784334156533025 0 0.0024447563563356656 -0.0011542415997697695 0 0.0046304800755010041 -1.0626949763249051e-05 0 0.0047175404565148469 -6.9503653662131829e-05 0 0.0047520613990206005 -3.3204733825839391e-05 0 0.0047964956295742942 -0.0001000335603416275 0 0.0047175404565148469 -6.9503653662131829e-05 0 0.0047520613990206005 -3.3204733825839391e-05 0 0.0049650215775199789 -0.00013687264353205117 0 0.0049522124024915853 -0.00012083258043882919 0 0.0049711749534957755 -0.00011772469673664781 0 0.0038802976836860158 -0.00041131868087865324 0 0.0035062186845182964 -0.00060309996950915932 0 0.0038802976836860158 -0.00041131868087865324 0 0.0049405188690087457 -0.00011457762997242142 0 0.0049767207151343524 -0.0001278907487464241 0 0.0049650215775199789 -0.00013687264353205117 0 0.0049711749534957755 -0.00011772469673664781 0 0.0022296444296151397 -0.00083847420290293693 0 0.002315196148387608 -0.00076604518835974309 0 0.0022890851704842744 -0.00086401871147417041 0 0.0022344808008796266 -0.00090335310121277424 0 0.002313359005788555 -0.0007901636532782662 0 0.002326632364412844 -0.00087040248810145199 0 0.0022890851704842744 -0.00086401871147417041 0 0.0023009266406453376 -0.00093084515466531313 0 0.0022890851704842744 -0.00086401871147417041 0 0.0023009266406453376 -0.00093084515466531313 0 0.0022344808008796266 -0.00090335310121277424 0 0.0022890851704842744 -0.00086401871147417041 0 0.0023025170100211575 -0.00082879689017083681 0 0.002313359005788555 -0.0007901636532782662 0 0.002326632364412844 -0.00087040248810145199 0 0.0023025170100211575 -0.00082879689017083681 0 0.0022876141283875548 -0.00080091138952970934 0 0.002326632364412844 -0.00087040248810145199 0 0.0022890851704842744 -0.00086401871147417041 0 0.0023025170100211575 -0.00082879689017083681 0 0.002326632364412844 -0.00087040248810145199 0 0.002405174551490826 -0.00086878959499627601 0 0.0022876141283875548 -0.00080091138952970934 0 0.002326632364412844 -0.00087040248810145199 0 0.002405174551490826 -0.00086878959499627601 0 0.0023878032252163685 -0.00094261151861748109 0 0.0024808900606670347 -0.00095985422254282282 0 0.002405174551490826 -0.00086878959499627601 0 0.0023878032252163685 -0.00094261151861748109 0 0.0024808900606670347 -0.00095985422254282282 0 0.0024274183175418333 -0.0010469555549774332 0 0.0023878032252163685 -0.00094261151861748109 0 0.0024274183175418333 -0.0010469555549774332 0 0.0023878032252163685 -0.00094261151861748109 0 0.0023487119218845456 -0.00099785301821364862 0 0.0023487119218845456 -0.00099785301821364862 0 0.0023009266406453376 -0.00093084515466531313 0 0.0022728737070803811 -0.00099518567697174536 0 0.0023036562373389101 -0.0010473290906254527 0 0.0023487119218845456 -0.00099785301821364862 0 0.0022728737070803811 -0.00099518567697174536 0 0.002326632364412844 -0.00087040248810145199 0 0.0023878032252163685 -0.00094261151861748109 0 0.0023009266406453376 -0.00093084515466531313 0 0.0023878032252163685 -0.00094261151861748109 0 0.0023487119218845456 -0.00099785301821364862 0 0.0023009266406453376 -0.00093084515466531313 0 0.0023009266406453376 -0.00093084515466531313 0 0.0022728737070803811 -0.00099518567697174536 0 0.0022344808008796266 -0.00090335310121277424 0 0.0029404948921341761 -0.00065008815603703697 0 0.0022296444296151397 -0.00083847420290293693 0 0.0023616449186062297 -0.00054466291927136488 0 0.0023930292865150938 -0.00057334459127164129 0 0.0023834473137503706 -0.00063411621342231465 0 0.0022020020639771029 -0.0010498995925005904 0 0.0022728737070803811 -0.00099518567697174536 0 0.0022344808008796266 -0.00090335310121277424 0 0.0023616449186062297 -0.00054466291927136488 0 0.0023834473137503706 -0.00063411621342231465 0 0.0023230118535588653 -0.00066221548511992303 0 0.0023925578200114598 -0.0005735541772519335 0 0.0023834473137503706 -0.00063411621342231465 0 0.0024220027376114462 -0.00060054638995786329 0 0.0027318611392720994 -0.00052279492722277191 0 0.0024980159271042347 -0.00064301548244282932 0 0.0027318611392720994 -0.00052279492722277191 0 0.0025404477425838455 -0.00048772744576502025 0 0.0023834473137503706 -0.00063411621342231465 0 0.0024181636220003151 -0.0006546504404867662 0 0.0023674805475964135 -0.00067854903152477864 0 0.0023834473137503706 -0.00063411621342231465 0 0.0023230118535588653 -0.00066221548511992303 0 0.0023674805475964135 -0.00067854903152477864 0 0.0024181636220003151 -0.0006546504404867662 0 0.0024642896375935324 -0.00069842904973369208 0 0.0024850195805969236 -0.00060622565418864255 0 0.0024096990323410265 -0.00052538374382302599 0 0.0024220027376114462 -0.00060054638995786329 0 0.0024850195805969236 -0.00060622565418864255 0 0.0023834473137503706 -0.00063411621342231465 0 0.0024220027376114462 -0.00060054638995786329 0 0.0024181636220003151 -0.0006546504404867662 0 0.0024220027376114462 -0.00060054638995786329 0 0.0024181636220003151 -0.0006546504404867662 0 0.0024850195805969236 -0.00060622565418864255 0 0.0024642896375935324 -0.00069842904973369208 0 0.0023798764822147663 -0.00071555704594196748 0 0.0023466736979208327 -0.00078486253173406801 0 0.0024181636220003151 -0.0006546504404867662 0 0.0024642896375935324 -0.00069842904973369208 0 0.0023798764822147663 -0.00071555704594196748 0 0.0023230118535588653 -0.00066221548511992303 0 0.0023460096665238236 -0.00073682308164272855 0 0.002313359005788555 -0.0007901636532782662 0 0.0023230118535588653 -0.00066221548511992303 0 0.0023674805475964135 -0.00067854903152477864 0 0.0023460096665238236 -0.00073682308164272855 0 0.0024181636220003151 -0.0006546504404867662 0 0.0023674805475964135 -0.00067854903152477864 0 0.0023798764822147663 -0.00071555704594196748 0 0.0023674805475964135 -0.00067854903152477864 0 0.0023798764822147663 -0.00071555704594196748 0 0.0023460096665238236 -0.00073682308164272855 0 0.0023460096665238236 -0.00073682308164272855 0 0.0023466736979208327 -0.00078486253173406801 0 0.002313359005788555 -0.0007901636532782662 0 0.0023798764822147663 -0.00071555704594196748 0 0.0023460096665238236 -0.00073682308164272855 0 0.0023466736979208327 -0.00078486253173406801 0 0.0024642896375935324 -0.00069842904973369208 0 0.0023466736979208327 -0.00078486253173406801 0 0.0024904228713000568 -0.00079697071040457006 0 0.002175942263853016 -0.00076300538674009826 0 0.0021495711077913673 -0.00073158374231258429 0 0.0019930321309750729 -0.00074192455523389676 0 0.002004458979295408 -0.000626123320129875 0 0.0018225831892161794 -0.00066424867888787949 0 0.002004458979295408 -0.000626123320129875 0 0.0018960654410401941 -0.00055605958607597001 0 0.0018225831892161794 -0.00066424867888787949 0 0.0019930321309750729 -0.00074192455523389676 0 0.002004458979295408 -0.000626123320129875 0 0.0021334594277135121 -0.00069087329288790864 0 0.002004458979295408 -0.000626123320129875 0 0.0021335092624901039 -0.00062138471868592197 0 0.0020253144712763589 -0.00052065961784074539 0 0.0021335092624901039 -0.00062138471868592197 0 0.0022585766860235153 -0.00068054099161312027 0 0.0022040471255060055 -0.00056279733642101298 0 0.0021335092624901039 -0.00062138471868592197 0 0.0021334594277135121 -0.00069087329288790864 0 0.0022585766860235153 -0.00068054099161312027 0 0.002004458979295408 -0.000626123320129875 0 0.0021335092624901039 -0.00062138471868592197 0 0.0021334594277135121 -0.00069087329288790864 0 0.0023466736979208327 -0.00078486253173406801 0 0.002313359005788555 -0.0007901636532782662 0 0.0022876141283875548 -0.00080091138952970934 0 0.002175942263853016 -0.00076300538674009826 0 0.0022771075491439629 -0.00079696939569571937 0 0.0019930321309750729 -0.00074192455523389676 0 0.0021334594277135121 -0.00069087329288790864 0 0.0022876141283875548 -0.00080091138952970934 0 0.0021334594277135121 -0.00069087329288790864 0 0.0022876141283875548 -0.00080091138952970934 0 0.0022585766860235153 -0.00068054099161312027 0 0.0023025170100211575 -0.00082879689017083681 0 0.002313359005788555 -0.0007901636532782662 0 0.0022876141283875548 -0.00080091138952970934 0 0.002405174551490826 -0.00086878959499627601 0 0.0023895615447352028 -0.00075652197387315802 0 0.0022876141283875548 -0.00080091138952970934 0 0.0023895615447352028 -0.00075652197387315802 0 0.0022876141283875548 -0.00080091138952970934 0 0.0022585766860235153 -0.00068054099161312027 0 0.0023895615447352028 -0.00075652197387315802 0 0.0023852882545042911 -0.00064127683619081383 0 0.0022585766860235153 -0.00068054099161312027 0 0.0023852882545042911 -0.00064127683619081383 0 0.0022585766860235153 -0.00068054099161312027 0 0.0022040471255060055 -0.00056279733642101298 0 0.0023852882545042911 -0.00064127683619081383 0 0.0023295458437550222 -0.00050456842866994974 0 0.0022040471255060055 -0.00056279733642101298 0 0.0023295458437550222 -0.00050456842866994974 0 0.0022040471255060055 -0.00056279733642101298 0 0.0020942709245183664 -0.00043046206812521586 0 0.0020183740738960554 -0.00054279641196947211 0 0.0019737319275447657 -0.00045593514410921266 0 0.0022040471255060055 -0.00056279733642101298 0 0.0020942709245183664 -0.00043046206812521586 0 0.0020253144712763589 -0.00052065961784074539 0 0.0021335092624901039 -0.00062138471868592197 0 0.0022040471255060055 -0.00056279733642101298 0 0.0020253144712763589 -0.00052065961784074539 0 0.0018192355636724804 -0.00045827521776691085 0 0.0018476345110265775 -0.00046632633430226977 0 0.0018183885021164511 -0.00043445997414530316 0 0.0018350198783705285 -0.00055275474412803678 0 0.0018192355636724804 -0.00045827521776691085 0 0.0018476345110265775 -0.00046632633430226977 0 0.0018821191189411621 -0.00044048878461118679 0 0.0018476345110265775 -0.00046632633430226977 0 0.0018183885021164511 -0.00043445997414530316 0 0.0018192355636724804 -0.00045827521776691085 0 0.0018183885021164511 -0.00043445997414530316 0 0.001859869323374809 -0.0004203878182110442 0 0.0018183885021164511 -0.00043445997414530316 0 0.0017946481194072454 -0.0004261544832364741 0 0.0017922341842829626 -0.00042033985381913604 0 0.0018821191189411621 -0.00044048878461118679 0 0.0018183885021164511 -0.00043445997414530316 0 0.0018371429888200813 -0.00042158109817332247 0 0.0018183885021164511 -0.00043445997414530316 0 0.0017922341842829626 -0.00042033985381913604 0 0.0018371429888200813 -0.00042158109817332247 0 0.0018013968925892729 -0.00041714796372722008 0 0.001859869323374809 -0.0004203878182110442 0 0.0017946481194072454 -0.0004261544832364741 0 0.0018183885021164511 -0.00043445997414530316 0 0.001859869323374809 -0.0004203878182110442 0 0.0017946481194072454 -0.0004261544832364741 0 0.0018013968925892729 -0.00041714796372722008 0 0.001859869323374809 -0.0004203878182110442 0 0.001805010666260899 -0.00043357584851241334 0 0.001859869323374809 -0.0004203878182110442 0 0.0018634445312553764 -0.00047826865190843393 0 0.001805010666260899 -0.00043357584851241334 0 0.001859869323374809 -0.0004203878182110442 0 0.0018634445312553764 -0.00047826865190843393 0 0.0020253144712763589 -0.00052065961784074539 0 0.0019737319275447657 -0.00045593514410921266 0 0.0018730850833589357 -0.00042057219470247319 0 0.0020942709245183664 -0.00043046206812521586 0 0.001859869323374809 -0.0004203878182110442 0 0.0020253144712763589 -0.00052065961784074539 0 0.002004458979295408 -0.000626123320129875 0 0.0020253144712763589 -0.00052065961784074539 0 0.0018960654410401941 -0.00055605958607597001 0 0.0018634445312553764 -0.00047826865190843393 0 0.0020253144712763589 -0.00052065961784074539 0 0.0018960654410401941 -0.00055605958607597001 0 0.0018634445312553764 -0.00047826865190843393 0 0.0018960654410401941 -0.00055605958607597001 0 0.0017843769919894485 -0.00050611017522457784 0 0.0017843769919894485 -0.00050611017522457784 0 0.0017379312391683835 -0.0005529444122176413 0 0.0018225831892161794 -0.00066424867888787949 0 0.0018960654410401941 -0.00055605958607597001 0 0.0017843769919894485 -0.00050611017522457784 0 0.0018225831892161794 -0.00066424867888787949 0 0.0017843769919894485 -0.00050611017522457784 0 0.0017379312391683835 -0.0005529444122176413 0 0.001681475336227598 -0.00050765976112112754 0 0.0017843769919894485 -0.00050611017522457784 0 0.0017382001303393726 -0.00043651311055026656 0 0.001681475336227598 -0.00050765976112112754 0 0.0017843769919894485 -0.00050611017522457784 0 0.001805010666260899 -0.00043357584851241334 0 0.0017382001303393726 -0.00043651311055026656 0 0.0018634445312553764 -0.00047826865190843393 0 0.0017843769919894485 -0.00050611017522457784 0 0.001805010666260899 -0.00043357584851241334 0 0.001805010666260899 -0.00043357584851241334 0 0.0017382001303393726 -0.00043651311055026656 0 0.0017831427773113439 -0.0004112375810477743 0 0.0015836799332353344 -0.0004056313977185168 0 0.0016031266357652799 -0.00047482851747407325 0 0.0014135023299452999 -0.00039232891387737894 0 0.0014205193092805173 -0.00054189853582847173 0 0.0014682788864877334 -0.00051719951230590232 0 0.0018013968925892729 -0.00041714796372722008 0 0.001805010666260899 -0.00043357584851241334 0 0.0017831427773113439 -0.0004112375810477743 0 0.001568173521050016 -0.00052582681832935823 0 0.0014682788864877334 -0.00051719951230590232 0 0.0015553960225852888 -0.00040022984878857029 0 0.001568173521050016 -0.00052582681832935823 0 0.0015553960225852888 -0.00040022984878857029 0 0.0017039580795643156 -0.00042855035522306161 0 0.0014135023299452999 -0.00039232891387737894 0 0.0015553960225852888 -0.00040022984878857029 0 0.0014877794420000009 -0.00017660721100489692 0 0.0014135023299452999 -0.00039232891387737894 0 0.0014682788864877334 -0.00051719951230590232 0 0.0015553960225852888 -0.00040022984878857029 0 0.0015553960225852888 -0.00040022984878857029 0 0.0016647201349811276 -0.00029293667140641635 0 0.0017039580795643156 -0.00042855035522306161 0 0.0015553960225852888 -0.00040022984878857029 0 0.0016647201349811276 -0.00029293667140641635 0 0.0014877794420000009 -0.00017660721100489692 0 0.0016647201349811276 -0.00029293667140641635 0 0.0014877794420000009 -0.00017660721100489692 0 0.0016949949112934626 -0.00013320202043463081 0 0.0015836799332353344 -0.0004056313977185168 0 0.0015668976162647955 -0.00037606345337005146 0 0.001681475336227598 -0.00050765976112112754 0 0.0016862080597924848 -0.00056546944986328679 0 0.0016332693167107352 -0.00058308782968725752 0 0.0017379312391683835 -0.0005529444122176413 0 0.001681475336227598 -0.00050765976112112754 0 0.0016862080597924848 -0.00056546944986328679 0 0.0015668976162647955 -0.00037606345337005146 0 0.0017165663085403741 -8.4463367355152111e-05 0 0.0014877794420000009 -0.00017660721100489692 0 0.0016949949112934626 -0.00013320202043463081 0 0.001619316455435049 8.404929730627924e-05 0 0.0018243857244719251 0.00019881558265663884 0 0.0018029342125784414 0.00032312863335117673 0 0.0019008343521695226 0.00033822345237177932 0 0.0017165663085403741 -8.4463367355152111e-05 0 0.0018727859111437642 0.00034529614935942076 0 0.0017165663085403741 -8.4463367355152111e-05 0 0.0019749688146827485 -0.00030226264242150637 0 0.0018243857244719251 0.00019881558265663884 0 0.0018029342125784414 0.00032312863335117673 0 0.0017363491793510901 0.00021762646837407651 0 0.0018029342125784414 0.00032312863335117673 0 0.0018401773938763065 0.00043971871387611585 0 0.0017163647941227924 0.00041281404864933761 0 0.0018029342125784414 0.00032312863335117673 0 0.0018401773938763065 0.00043971871387611585 0 0.0019008343521695226 0.00033822345237177932 0 0.0019749688146827485 -0.00030226264242150637 0 0.0021573423422132794 -0.00011802619809763714 0 0.0026238902368968947 -0.0007651193312009745 0 0.0025848127836891428 -0.00073720567699187727 0 0.0026534357033493328 -0.00071339210626978071 0 0.0026238902368968947 -0.0007651193312009745 0 0.002653541043477997 -0.00080904893945744384 0 0.0026534357033493328 -0.00071339210626978071 0 0.0018029342125784414 0.00032312863335117673 0 0.0017363491793510901 0.00021762646837407651 0 0.0017163647941227924 0.00041281404864933761 0 0.0019749688146827485 -0.00030226264242150637 0 0.002197516177589762 -0.00070137531265899392 0 0.0026238902368968947 -0.0007651193312009745 0 0.002653541043477997 -0.00080904893945744384 0 0.0026015612235890957 -0.0008016519040885265 0 0.0016862080597924848 -0.00056546944986328679 0 0.0016332693167107352 -0.00058308782968725752 0 0.00167362199598771 -0.00059474904732959987 0 0.0016862080597924848 -0.00056546944986328679 0 0.00167362199598771 -0.00059474904732959987 0 0.0017247897407633359 -0.00061564284428541633 0 0.0017379312391683835 -0.0005529444122176413 0 0.0016862080597924848 -0.00056546944986328679 0 0.0017247897407633359 -0.00061564284428541633 0 0.0017379312391683835 -0.0005529444122176413 0 0.0017247897407633359 -0.00061564284428541633 0 0.0018225831892161794 -0.00066424867888787949 0 0.002197516177589762 -0.00070137531265899392 0 0.0021495711077913673 -0.00073158374231258429 0 0.0024642896375935324 -0.00069842904973369208 0 0.0024904228713000568 -0.00079697071040457006 0 0.0025343983099139593 -0.00070390360282126738 0 0.0024904228713000568 -0.00079697071040457006 0 0.0025848127836891428 -0.00073720567699187727 0 0.0025343983099139593 -0.00070390360282126738 0 0.0026238902368968947 -0.0007651193312009745 0 0.0026015612235890957 -0.0008016519040885265 0 0.0025848127836891428 -0.00073720567699187727 0 0.0026015612235890957 -0.0008016519040885265 0 0.0024904228713000568 -0.00079697071040457006 0 0.0025848127836891428 -0.00073720567699187727 0 0.0026073378471687717 -0.00065629494997420106 0 0.0025343983099139593 -0.00070390360282126738 0 0.0025363476139577761 -0.00063926593833402514 0 0.0025848127836891428 -0.00073720567699187727 0 0.0026073378471687717 -0.00065629494997420106 0 0.0025343983099139593 -0.00070390360282126738 0 0.0025848127836891428 -0.00073720567699187727 0 0.0026073378471687717 -0.00065629494997420106 0 0.0026534357033493328 -0.00071339210626978071 0 0.0024642896375935324 -0.00069842904973369208 0 0.0025343983099139593 -0.00070390360282126738 0 0.0025363476139577761 -0.00063926593833402514 0 0.0025337014914002635 -0.00054724323896919154 0 0.0025363476139577761 -0.00063926593833402514 0 0.0024850195805969236 -0.00060622565418864255 0 0.0024642896375935324 -0.00069842904973369208 0 0.0025363476139577761 -0.00063926593833402514 0 0.0024850195805969236 -0.00060622565418864255 0 0.0025337014914002635 -0.00054724323896919154 0 0.0025363476139577761 -0.00063926593833402514 0 0.0026004417112306783 -0.00060330320820294059 0 0.0026073378471687717 -0.00065629494997420106 0 0.0025363476139577761 -0.00063926593833402514 0 0.0026004417112306783 -0.00060330320820294059 0 0.0026073378471687717 -0.00065629494997420106 0 0.0026004417112306783 -0.00060330320820294059 0 0.0026666893242830955 -0.00060612608575055533 0 0.0036485982276519219 -0.00013566784601767628 0 0.0026690330292476316 -0.00014081053358548607 0 0.002663473157494844 -0.00056496938232431881 0 0.0026004417112306783 -0.00060330320820294059 0 0.0026666893242830955 -0.00060612608575055533 0 0.0025210464490587766 -0.0006788916643157819 0 0.0026690330292476316 -0.00014081053358548607 0 0.0029795856637595841 0.0001281856467420577 0 0.0029837882726946627 8.1553425950933809e-05 0 0.0030235061596000134 0.00012127557957631297 0 0.0016976372900507079 0.00060264105380965379 0 0.0017536678344426153 0.00066112597602183598 0 0.0017943275129839733 0.00054901484694051112 0 0.0026690330292476316 -0.00014081053358548607 0 0.0027926605403963537 0.00034440212656296833 0 0.0027926605403963537 0.00034440212656296833 0 0.0015437364695420946 0.00069420788590618702 0 0.0017536678344426153 0.00066112597602183598 0 0.0018733568743399449 0.00064916659501053776 0 0.0017943275129839733 0.00054901484694051112 0 0.0018733568743399449 0.00064916659501053776 0 0.0017943275129839733 0.00054901484694051112 0 0.0018926342997018716 0.00053468675489825354 0 0.0017943275129839733 0.00054901484694051112 0 0.0018401773938763065 0.00043971871387611585 0 0.0017163647941227924 0.00041281404864933761 0 0.0017943275129839733 0.00054901484694051112 0 0.0018401773938763065 0.00043971871387611585 0 0.0018926342997018716 0.00053468675489825354 0 0.0016976372900507079 0.00060264105380965379 0 0.0017943275129839733 0.00054901484694051112 0 0.0017163647941227924 0.00041281404864933761 0 0.0026690330292476316 -0.00014081053358548607 0 0.0021573423422132794 -0.00011802619809763714 0 0.0026073378471687717 -0.00065629494997420106 0 0.0026486034621685641 -0.0006116707018438398 0 0.0026534357033493328 -0.00071339210626978071 0 0.0019638392351730653 0.00046832183957446681 0 0.0021680604802473981 0.00047426169742402513 0 0.0020129550381145361 0.00027511903430911701 0 0.0019638392351730653 0.00046832183957446681 0 0.0020398527037732354 0.00064907007800752933 0 0.0021680604802473981 0.00047426169742402513 0 0.0018401773938763065 0.00043971871387611585 0 0.0019638392351730653 0.00046832183957446681 0 0.0019008343521695226 0.00033822345237177932 0 0.0018401773938763065 0.00043971871387611585 0 0.0019638392351730653 0.00046832183957446681 0 0.0018926342997018716 0.00053468675489825354 0 0.0018733568743399449 0.00064916659501053776 0 0.0018926342997018716 0.00053468675489825354 0 0.0020398527037732354 0.00064907007800752933 0 0.0019638392351730653 0.00046832183957446681 0 0.0018926342997018716 0.00053468675489825354 0 0.0020398527037732354 0.00064907007800752933 0 0.0021633307216462976 0.00079213763414327191 0 0.0020398527037732354 0.00064907007800752933 0 0.0023192829548581745 0.00063281999420279459 0 0.0020398527037732354 0.00064907007800752933 0 0.0023192829548581745 0.00063281999420279459 0 0.0021680604802473981 0.00047426169742402513 0 0.0025817056904844102 0.00064343797065288257 0 0.002543534395228148 0.00059628474291023397 0 0.0025999321779642398 0.00057424200045160705 0 0.002543534395228148 0.00059628474291023397 0 0.0025999321779642398 0.00057424200045160705 0 0.0025429873612481412 0.00042362543573981403 0 0.0024646952329488779 0.00057788354762797385 0 0.0025329305226474553 0.00044308894531605179 0 0.0023192829548581745 0.00063281999420279459 0 0.0025429873612481412 0.00042362543573981403 0 0.0021680604802473981 0.00047426169742402513 0 0.0025429873612481412 0.00042362543573981403 0 0.0021680604802473981 0.00047426169742402513 0 0.0021894321525296962 0.0002452860249710652 0 0.0025429873612481412 0.00042362543573981403 0 0.002387601349979244 0.0001597526202441047 0 0.0025821587413371451 0.00020422429377542172 0 0.0025429873612481412 0.00042362543573981403 0 0.0021894321525296962 0.0002452860249710652 0 0.002387601349979244 0.0001597526202441047 0 0.002387601349979244 0.0001597526202441047 0 0.0024872497550922504 5.2443179884444714e-05 0 0.002370233103229002 -2.842940091409698e-05 0 0.002387601349979244 0.0001597526202441047 0 0.0022222688837387188 1.7983191844340829e-05 0 0.002370233103229002 -2.842940091409698e-05 0 0.002387601349979244 0.0001597526202441047 0 0.0024872497550922504 5.2443179884444714e-05 0 0.0025821587413371451 0.00020422429377542172 0 0.0021894321525296962 0.0002452860249710652 0 0.0020736225944779172 9.2974986494939537e-05 0 0.0022222688837387188 1.7983191844340829e-05 0 0.0021894321525296962 0.0002452860249710652 0 0.002387601349979244 0.0001597526202441047 0 0.0022222688837387188 1.7983191844340829e-05 0 0.0020736225944779172 9.2974986494939537e-05 0 0.0020129550381145361 0.00027511903430911701 0 0.0018903284506828859 3.641227195167469e-05 0 0.0021894321525296962 0.0002452860249710652 0 0.0020736225944779172 9.2974986494939537e-05 0 0.0020129550381145361 0.00027511903430911701 0 0.0021680604802473981 0.00047426169742402513 0 0.0021894321525296962 0.0002452860249710652 0 0.0020129550381145361 0.00027511903430911701 0 0.0019638392351730653 0.00046832183957446681 0 0.0020129550381145361 0.00027511903430911701 0 0.0018013977143452244 0.00027539478875642176 0 0.0019409731349180719 0.00043737350506847014 0 0.0018727859111437642 0.00034529614935942076 0 0.0017165663085403741 -8.4463367355152111e-05 0 0.0018403911590726062 6.7963026758727381e-05 0 0.0020129550381145361 0.00027511903430911701 0 0.0018013977143452244 0.00027539478875642176 0 0.0018903284506828859 3.641227195167469e-05 0 0.0016841179420153069 9.2067615716040854e-05 0 0.0018013977143452244 0.00027539478875642176 0 0.0018903284506828859 3.641227195167469e-05 0 0.0016949949112934626 -0.00013320202043463081 0 0.001619316455435049 8.404929730627924e-05 0 0.0018903284506828859 3.641227195167469e-05 0 0.0016949949112934626 -0.00013320202043463081 0 0.0018903284506828859 3.641227195167469e-05 0 0.0020239095543138192 -0.00011862167196188029 0 0.0020736225944779172 9.2974986494939537e-05 0 0.0018903284506828859 3.641227195167469e-05 0 0.0020239095543138192 -0.00011862167196188029 0 0.0020239095543138192 -0.00011862167196188029 0 0.0020233215463126984 -0.00029839779324709263 0 0.001829615111057091 -0.00029806877664449846 0 0.0016949949112934626 -0.00013320202043463081 0 0.0020239095543138192 -0.00011862167196188029 0 0.001829615111057091 -0.00029806877664449846 0 0.0016647201349811276 -0.00029293667140641635 0 0.0016949949112934626 -0.00013320202043463081 0 0.001829615111057091 -0.00029806877664449846 0 0.001829615111057091 -0.00029806877664449846 0 0.0017039580795643156 -0.00042855035522306161 0 0.001925238634479882 -0.00043900044333443214 0 0.0016647201349811276 -0.00029293667140641635 0 0.001829615111057091 -0.00029806877664449846 0 0.0017039580795643156 -0.00042855035522306161 0 0.0020233215463126984 -0.00029839779324709263 0 0.001829615111057091 -0.00029806877664449846 0 0.001925238634479882 -0.00043900044333443214 0 0.0019081105284446322 -0.0005726102260734554 0 0.0021290497133322353 -0.00052672457656245686 0 0.0018723705298074975 -0.00077976636330309322 0 0.001925238634479882 -0.00043900044333443214 0 0.0019081105284446322 -0.0005726102260734554 0 0.0021290497133322353 -0.00052672457656245686 0 0.001925238634479882 -0.00043900044333443214 0 0.0019081105284446322 -0.0005726102260734554 0 0.0016830580505699181 -0.00055964147463659613 0 0.001568173521050016 -0.00052582681832935823 0 0.0017039580795643156 -0.00042855035522306161 0 0.0016830580505699181 -0.00055964147463659613 0 0.0017039580795643156 -0.00042855035522306161 0 0.001925238634479882 -0.00043900044333443214 0 0.0016830580505699181 -0.00055964147463659613 0 0.0018618366361029949 0.00011274515977806234 0 0.001734414873079115 0.00015735707252350701 0 0.0017884657528538254 7.8685993724628554e-05 0 0.001891590384383251 0.00021149448582348458 0 0.0018618366361029949 0.00011274515977806234 0 0.001734414873079115 0.00015735707252350701 0 0.001925238634479882 -0.00043900044333443214 0 0.0021290497133322353 -0.00052672457656245686 0 0.0021491101570958716 -0.00037556161199618827 0 0.0020233215463126984 -0.00029839779324709263 0 0.001925238634479882 -0.00043900044333443214 0 0.0021491101570958716 -0.00037556161199618827 0 0.0019430084279670747 -0.00027985146039361544 0 0.0021701429247583002 -0.00043881397874510469 0 0.0022091002616428128 -0.00042842024258103544 0 0.0024227744661693379 -0.00039604960970304179 0 0.0023677829327142024 -0.00026024049758190582 0 0.0022026236061495003 -0.00061747074299032384 0 0.0022091002616428128 -0.00042842024258103544 0 0.0024227744661693379 -0.00039604960970304179 0 0.0019430084279670747 -0.00027985146039361544 0 0.0021487951967170487 -2.3329114776467251e-05 0 0.001891590384383251 0.00021149448582348458 0 0.001734414873079115 0.00015735707252350701 0 0.0018695867743856631 0.00031413883738082906 0 0.0023677829327142024 -0.00026024049758190582 0 0.0022051035301811316 -0.00023368276304214794 0 0.0022671982484443291 -0.00012533001081587068 0 0.0023677829327142024 -0.00026024049758190582 0 0.0022671982484443291 -0.00012533001081587068 0 0.002428050740395813 -0.00014060569650964231 0 0.0020239095543138192 -0.00011862167196188029 0 0.0020233215463126984 -0.00029839779324709263 0 0.0022051035301811316 -0.00023368276304214794 0 0.0020239095543138192 -0.00011862167196188029 0 0.0022051035301811316 -0.00023368276304214794 0 0.0022671982484443291 -0.00012533001081587068 0 0.0020233215463126984 -0.00029839779324709263 0 0.0021491101570958716 -0.00037556161199618827 0 0.0022051035301811316 -0.00023368276304214794 0 0.0022091002616428128 -0.00042842024258103544 0 0.0023677829327142024 -0.00026024049758190582 0 0.0022051035301811316 -0.00023368276304214794 0 0.0021701429247583002 -0.00043881397874510469 0 0.0021954641908566034 -0.00023973747800289485 0 0.0020239095543138192 -0.00011862167196188029 0 0.0022671982484443291 -0.00012533001081587068 0 0.0022222688837387188 1.7983191844340829e-05 0 0.0020736225944779172 9.2974986494939537e-05 0 0.0020239095543138192 -0.00011862167196188029 0 0.0022222688837387188 1.7983191844340829e-05 0 0.0022671982484443291 -0.00012533001081587068 0 0.0022222688837387188 1.7983191844340829e-05 0 0.002370233103229002 -2.842940091409698e-05 0 0.0024796808529822844 -7.5539225390446768e-05 0 0.002428050740395813 -0.00014060569650964231 0 0.002370233103229002 -2.842940091409698e-05 0 0.0022671982484443291 -0.00012533001081587068 0 0.002428050740395813 -0.00014060569650964231 0 0.002370233103229002 -2.842940091409698e-05 0 0.0024872497550922504 5.2443179884444714e-05 0 0.0024796808529822844 -7.5539225390446768e-05 0 0.002370233103229002 -2.842940091409698e-05 0 0.0028183473396597649 -0.00016913657434293838 0 0.0027132358779543096 -0.00027867808398242125 0 0.0026280358158850062 5.5031104654454105e-05 0 0.0026074740857969601 -9.596617512976553e-05 0 0.0023768707514273553 6.7816667208851498e-05 0 0.0024872497550922504 5.2443179884444714e-05 0 0.0027132358779543096 -0.00027867808398242125 0 0.0026280358158850062 5.5031104654454105e-05 0 0.0024796808529822844 -7.5539225390446768e-05 0 0.002428050740395813 -0.00014060569650964231 0 0.0026253058908480655 -0.00018325963567782639 0 0.0024872497550922504 5.2443179884444714e-05 0 0.0024796808529822844 -7.5539225390446768e-05 0 0.0026253058908480655 -0.00018325963567782639 0 0.0026593454791642925 -2.9183868835091395e-05 0 0.0027005833567746765 -2.2856696853947284e-05 0 0.0029119281395679256 9.2198529723916432e-06 0 0.0026593454791642925 -2.9183868835091395e-05 0 0.0028387334397934711 -0.00017569637767840378 0 0.002844253989616523 1.3052462575176087e-05 0 0.0026280358158850062 5.5031104654454105e-05 0 0.0029641620408718621 -3.8685637076954314e-05 0 0.0028387334397934711 -0.00017569637767840378 0 0.002844253989616523 1.3052462575176087e-05 0 0.0026593454791642925 -2.9183868835091395e-05 0 0.0023768707514273553 6.7816667208851498e-05 0 0.0029641620408718621 -3.8685637076954314e-05 0 0.002978928792392282 -3.7824124831753023e-05 0 0.0029844783444464879 -3.562759113271485e-05 0 0.0022746630194259536 0.00023194815027202006 0 0.0022553791737960635 0.00021469096252696562 0 0.002309040831782478 0.00019304303148672339 0 0.0022553791737960635 0.00021469096252696562 0 0.0022895951363303912 0.00014524957479563616 0 0.002309040831782478 0.00019304303148672339 0 0.002978928792392282 -3.7824124831753023e-05 0 0.0029776966369525039 -2.7485250879715157e-05 0 0.0029844783444464879 -3.562759113271485e-05 0 0.0023768707514273553 6.7816667208851498e-05 0 0.0021751740313893015 0.00026868491102052274 0 0.0026593454791642925 -2.9183868835091395e-05 0 0.0026271409714620918 0.00010181523638583196 0 0.0023677829327142024 -0.00026024049758190582 0 0.002428050740395813 -0.00014060569650964231 0 0.0026253058908480655 -0.00018325963567782639 0 0.0021487951967170487 -2.3329114776467251e-05 0 0.0023768707514273553 6.7816667208851498e-05 0 0.0024227744661693379 -0.00039604960970304179 0 0.0023677829327142024 -0.00026024049758190582 0 0.0026253058908480655 -0.00018325963567782639 0 0.0018695867743856631 0.00031413883738082906 0 0.0020193490801156122 0.00046714636449605984 0 0.0020181516953321614 0.00030875503938902738 0 0.001891590384383251 0.00021149448582348458 0 0.0020181516953321614 0.00030875503938902738 0 0.0019896951326866907 0.00016536666814616775 0 0.001891590384383251 0.00021149448582348458 0 0.0018695867743856631 0.00031413883738082906 0 0.0020181516953321614 0.00030875503938902738 0 0.0020193490801156122 0.00046714636449605984 0 0.0020181516953321614 0.00030875503938902738 0 0.0021682055141666865 0.00026545390547876735 0 0.0020181516953321614 0.00030875503938902738 0 0.0021682055141666865 0.00026545390547876735 0 0.0020784627334043074 0.0002117214949927471 0 0.002141867756474652 0.00010033834946791338 0 0.0020784627334043074 0.0002117214949927471 0 0.0019896951326866907 0.00016536666814616775 0 0.002141867756474652 0.00010033834946791338 0 0.0019896951326866907 0.00016536666814616775 0 0.0020456516183099721 4.9391447761155229e-05 0 0.0021682055141666865 0.00026545390547876735 0 0.002141867756474652 0.00010033834946791338 0 0.0020784627334043074 0.0002117214949927471 0 0.0020181516953321614 0.00030875503938902738 0 0.0020784627334043074 0.0002117214949927471 0 0.0019896951326866907 0.00016536666814616775 0 0.0019896951326866907 0.00016536666814616775 0 0.0019397109960393804 8.6405320482825157e-05 0 0.0020456516183099721 4.9391447761155229e-05 0 0.0018618366361029949 0.00011274515977806234 0 0.0019896951326866907 0.00016536666814616775 0 0.0019397109960393804 8.6405320482825157e-05 0 0.001891590384383251 0.00021149448582348458 0 0.0018618366361029949 0.00011274515977806234 0 0.0019896951326866907 0.00016536666814616775 0 0.0025215017741646428 6.7357632014214525e-09 0 0.0026060474303584535 6.056406940781478e-05 0 0.0025210078531685857 3.1972454170459543e-07 0 0.0023708144726638314 0.00014304494385131191 0 0.0023355781642258283 6.9982976635862875e-06 0 0.0022895951363303912 0.00014524957479563616 0 0.0023708144726638314 0.00014304494385131191 0 0.0023355781642258283 6.9982976635862875e-06 0 0.0021751740313893015 0.00026868491102052274 0 0.0023568141104538384 -1.3638265525351158e-05 0 0.0021682055141666865 0.00026545390547876735 0 0.002141867756474652 0.00010033834946791338 0 0.0023355781642258283 6.9982976635862875e-06 0 0.0022895951363303912 0.00014524957479563616 0 0.0023708144726638314 0.00014304494385131191 0 0.002309040831782478 0.00019304303148672339 0 0.0028289129766370658 2.245858938963177e-05 0 0.0029282911239492731 -2.3272304633118834e-05 0 0.0029776966369525039 -2.7485250879715157e-05 0 0.0026060474303584535 6.056406940781478e-05 0 0.0026271409714620918 0.00010181523638583196 0 0.0025217097119944105 1.7304989704542982e-07 0 0.0028289129766370658 2.245858938963177e-05 0 0.0027929377873905934 -7.817663372053954e-08 0 0.0028289129766370658 2.245858938963177e-05 0 0.0027929377873905934 -7.817663372053954e-08 0 0.0029282911239492731 -2.3272304633118834e-05 0 0.0027929377873905934 -7.817663372053954e-08 0 0.0029282911239492731 -2.3272304633118834e-05 0 0.0030644218924017913 -2.9714613286268689e-08 0 0.0029776966369525039 -2.7485250879715157e-05 0 0.0030270880818471179 -3.5103932498569097e-05 0 0.0029844783444464879 -3.562759113271485e-05 0 0.0029282911239492731 -2.3272304633118834e-05 0 0.0029776966369525039 -2.7485250879715157e-05 0 0.0030270880818471179 -3.5103932498569097e-05 0 0.0029641620408718621 -3.8685637076954314e-05 0 0.0030270880818471179 -3.5103932498569097e-05 0 0.0029844783444464879 -3.562759113271485e-05 0 0.0029641620408718621 -3.8685637076954314e-05 0 0.0030270880818471179 -3.5103932498569097e-05 0 0.0032012636658608892 4.6081072331682488e-05 0 0.0030270880818471179 -3.5103932498569097e-05 0 0.0030644218924017913 -2.9714613286268689e-08 0 0.0032012636658608892 4.6081072331682488e-05 0 0.0029282911239492731 -2.3272304633118834e-05 0 0.0030270880818471179 -3.5103932498569097e-05 0 0.0030644218924017913 -2.9714613286268689e-08 0 0.0030644218924017913 -2.9714613286268689e-08 0 0.0033358343215165111 8.3868489893750779e-08 0 0.0032012636658608892 4.6081072331682488e-05 0 0.0033358343215165111 8.3868489893750779e-08 0 0.0032012636658608892 4.6081072331682488e-05 0 0.0034753880458717546 5.0222897421158415e-06 0 0.0032012636658608892 4.6081072331682488e-05 0 0.0029841910731059225 9.7074542381935588e-05 0 0.0029371257932397938 0.00040556807266758758 0 0.0032012636658608892 4.6081072331682488e-05 0 0.0035863952744378835 1.8132935965828728e-05 0 0.0034753880458717546 5.0222897421158415e-06 0 0.003230450163837956 4.6965846697858766e-05 0 0.0032547473301500224 0.00019838557026668341 0 0.0029641620408718621 -3.8685637076954314e-05 0 0.0032012636658608892 4.6081072331682488e-05 0 0.0029841910731059225 9.7074542381935588e-05 0 0.0029641620408718621 -3.8685637076954314e-05 0 0.002844253989616523 1.3052462575176087e-05 0 0.0029841910731059225 9.7074542381935588e-05 0 0.002844253989616523 1.3052462575176087e-05 0 0.0027607772446872321 0.00013178800745476226 0 0.0029841910731059225 9.7074542381935588e-05 0 0.0027607772446872321 0.00013178800745476226 0 0.0029841910731059225 9.7074542381935588e-05 0 0.0028573097644402795 0.00024427088656014278 0 0.0024872497550922504 5.2443179884444714e-05 0 0.0026280358158850062 5.5031104654454105e-05 0 0.0025821587413371451 0.00020422429377542172 0 0.002844253989616523 1.3052462575176087e-05 0 0.0027607772446872321 0.00013178800745476226 0 0.0026280358158850062 5.5031104654454105e-05 0 0.0027607772446872321 0.00013178800745476226 0 0.0026280358158850062 5.5031104654454105e-05 0 0.0025821587413371451 0.00020422429377542172 0 0.0025429873612481412 0.00042362543573981403 0 0.0025821587413371451 0.00020422429377542172 0 0.0027229432059994781 0.00037951293956655621 0 0.0027607772446872321 0.00013178800745476226 0 0.0025821587413371451 0.00020422429377542172 0 0.0027229432059994781 0.00037951293956655621 0 0.0029841910731059225 9.7074542381935588e-05 0 0.0028573097644402795 0.00024427088656014278 0 0.0029371257932397938 0.00040556807266758758 0 0.0027607772446872321 0.00013178800745476226 0 0.0027229432059994781 0.00037951293956655621 0 0.0028573097644402795 0.00024427088656014278 0 0.0027229432059994781 0.00037951293956655621 0 0.0028573097644402795 0.00024427088656014278 0 0.0029371257932397938 0.00040556807266758758 0 0.0032547473301500224 0.00019838557026668341 0 0.0032770775598243373 0.00027004973446706851 0 0.0027229432059994781 0.00037951293956655621 0 0.0029371257932397938 0.00040556807266758758 0 0.0027302982626461474 0.00060551732802584734 0 0.0025999321779642398 0.00057424200045160705 0 0.0027229432059994781 0.00037951293956655621 0 0.0027302982626461474 0.00060551732802584734 0 0.0025999321779642398 0.00057424200045160705 0 0.0025429873612481412 0.00042362543573981403 0 0.0027229432059994781 0.00037951293956655621 0 0.0026278963144436332 0.00065019569614129631 0 0.0025999321779642398 0.00057424200045160705 0 0.0027302982626461474 0.00060551732802584734 0 0.0035863952744378835 1.8132935965828728e-05 0 0.0037386457836282015 -3.1621165953436832e-05 0 0.0037686523188812599 -1.2297969279342665e-05 0 0.0035863952744378835 1.8132935965828728e-05 0 0.0037386457836282015 -3.1621165953436832e-05 0 0.0036705796893012877 -2.6469306137625558e-05 0 0.0038788206034800058 -1.4564121679493125e-07 0 0.0036705796893012877 -2.6469306137625558e-05 0 0.0036072856515671279 -3.350655735869308e-08 0 0.0033358343215165111 8.3868489893750779e-08 0 0.0036072856515671279 -3.350655735869308e-08 0 0.0034753880458717546 5.0222897421158415e-06 0 0.0036705796893012877 -2.6469306137625558e-05 0 0.0036072856515671279 -3.350655735869308e-08 0 0.0034753880458717546 5.0222897421158415e-06 0 0.0035863952744378835 1.8132935965828728e-05 0 0.0036705796893012877 -2.6469306137625558e-05 0 0.0034753880458717546 5.0222897421158415e-06 0 0.0015603744171770407 3.1822765347000424e-05 0 0.0016469898418812262 -1.7228833822065209e-06 0 0.0016206121193301395 -1.5333753122832727e-05 0 0.00099998410747009379 0.00025860461967995547 0 0.00085728738723838554 0.00024805972070792836 0 0.00087586504630865394 0.00036151615245954953 0 0.0012792976072335041 0.00012949657904720219 0 0.0013112535899728452 0.0001674380670611299 0 0.0015603744171770407 3.1822765347000424e-05 0 0.0016469898418812262 -1.7228833822065209e-06 0 0.0017162828458991506 1.4452933524870096e-06 0 0.0015603744171770407 3.1822765347000424e-05 0 0.001431497286132217 1.0292143686218129e-07 0 0.0016206121193301395 -1.5333753122832727e-05 0 0.0012792976072335041 0.00012949657904720219 0 0.0012621103936718827 4.7695583767745728e-05 0 0.001431497286132217 1.0292143686218129e-07 0 0.0012303061533320016 4.0271272860036142e-05 0 0.0011342756509516313 9.9786305398615358e-08 0 0.0015603744171770407 3.1822765347000424e-05 0 0.001431497286132217 1.0292143686218129e-07 0 0.0012303061533320016 4.0271272860036142e-05 0 0.00099998410747009379 0.00025860461967995547 0 0.0012303061533320016 4.0271272860036142e-05 0 0.00094874044526571568 6.3454613839165213e-05 0 0.00099998410747009379 0.00025860461967995547 0 0.00086290173620124473 0.00014804886014733966 0 0.00094874044526571568 6.3454613839165213e-05 0 0.00099998410747009379 0.00025860461967995547 0 0.00086290173620124473 0.00014804886014733966 0 0.00085728738723838554 0.00024805972070792836 0 0.00076373680936575323 0.00012066277694970584 0 0.00074138983626651856 0.00023351633803151995 0 0.00085728738723838554 0.00024805972070792836 0 0.00086290173620124473 0.00014804886014733966 0 0.00076373680936575323 0.00012066277694970584 0 0.00085728738723838554 0.00024805972070792836 0 0.00076373680936575323 0.00012066277694970584 0 0.00074138983626651856 0.00023351633803151995 0 0.00065083044805639995 0.0001853258537233212 0 0.0007059267228478462 0.00028201832481525101 0 0.0006361971878221809 0.00033289984623966309 0 0.00065083044805639995 0.0001853258537233212 0 0.00074138983626651856 0.00023351633803151995 0 0.0007059267228478462 0.00028201832481525101 0 0.00065083044805639995 0.0001853258537233212 0 0.00074138983626651856 0.00023351633803151995 0 0.0007059267228478462 0.00028201832481525101 0 0.00076458628423248785 0.00029465529567647772 0 0.0007059267228478462 0.00028201832481525101 0 0.00076458628423248785 0.00029465529567647772 0 0.00073479058068300833 0.00035803771630469857 0 0.0007059267228478462 0.00028201832481525101 0 0.00073479058068300833 0.00035803771630469857 0 0.0006361971878221809 0.00033289984623966309 0 0.00074138983626651856 0.00023351633803151995 0 0.00085728738723838554 0.00024805972070792836 0 0.00076458628423248785 0.00029465529567647772 0 0.00076458628423248785 0.00029465529567647772 0 0.00080716421970006367 0.00033403972567535938 0 0.00073479058068300833 0.00035803771630469857 0 0.00085728738723838554 0.00024805972070792836 0 0.00076458628423248785 0.00029465529567647772 0 0.00080716421970006367 0.00033403972567535938 0 0.00085728738723838554 0.00024805972070792836 0 0.00087586504630865394 0.00036151615245954953 0 0.00083119887132726848 0.00036204156389164628 0 0.00085989096074586609 0.0002426362631013575 0 0.00080544525340657427 0.0003969304747579847 0 0.00080716421970006367 0.00033403972567535938 0 0.00073479058068300833 0.00035803771630469857 0 0.00077144656380476889 0.00042148125137650281 0 0.00087586504630865394 0.00036151615245954953 0 0.00083119887132726848 0.00036204156389164628 0 0.00080195931587154169 0.00043763576445735069 0 0.00080544525340657427 0.0003969304747579847 0 0.0011472474615133593 0.00021200389705057534 0 0.0017162828458991506 1.4452933524870096e-06 0 0.0017337532877738705 -2.0159926058600136e-05 0 0.0017456449190416247 -1.8131224213940366e-05 0 0.0017162828458991506 1.4452933524870096e-06 0 0.0017456449190416247 -1.8131224213940366e-05 0 0.0017614167807361192 -1.7154693817469889e-05 0 0.0013112535899728452 0.0001674380670611299 0 0.0011472474615133593 0.00021200389705057534 0 0.00073479058068300833 0.00035803771630469857 0 0.00074684475799747065 0.00045080679884334422 0 0.00077144656380476889 0.00042148125137650281 0 0.00073479058068300833 0.00035803771630469857 0 0.00074684475799747065 0.00045080679884334422 0 0.0006361971878221809 0.00033289984623966309 0 0.0012275363805753657 -9.1763735689436599e-05 0 0.00070305516122277944 -0.00012503320318446961 0 0.00079987828593163109 -0.00034743378392226333 0 0.00083808363727208134 -0.00034994812969167043 0 0.00083166440535244017 -0.00030597217828778157 0 0.00079987828593163109 -0.00034743378392226333 0 0.0008356531485370775 -0.00039214207490696274 0 0.00083808363727208134 -0.00034994812969167043 0 0.0018013787393237838 -0.00010480380438093855 0 0.0018019856378597872 -0.00010420066974075782 0 0.001807997693128697 -9.7888797046799054e-05 0 0.00176428848984834 -1.2212698791704903e-05 0 0.00176750118547606 -9.8254432058850409e-06 0 0.0017916041514448747 1.2504455105810447e-05 0 0.0012275363805753657 -9.1763735689436599e-05 0 0.0013415954443671625 -0.00025115465197457748 0 0.001469350334108251 -2.6355237422001327e-05 0 0.0011472474615133593 0.00021200389705057534 0 0.0012275363805753657 -9.1763735689436599e-05 0 0.0011472474615133593 0.00021200389705057534 0 0.0014240221617133264 -3.4889274427361238e-05 0 0.0013494808083433459 -0.00012259836471587382 0 0.0012244972941353556 0.00019708195580074963 0 0.0012275363805753657 -9.1763735689436599e-05 0 0.001469350334108251 -2.6355237422001327e-05 0 0.0017337532877738705 -2.0159926058600136e-05 0 0.0017456449190416247 -1.8131224213940366e-05 0 0.0017555835004740624 -2.0073494530512375e-05 0 0.0017555835004740624 -2.0073494530512375e-05 0 0.0017610287164458631 -1.8190938081585251e-05 0 0.0017663165288756366 -1.3882641848960464e-05 0 0.0017456449190416247 -1.8131224213940366e-05 0 0.0017555835004740624 -2.0073494530512375e-05 0 0.0017610287164458631 -1.8190938081585251e-05 0 0.0017456449190416247 -1.8131224213940366e-05 0 0.0017614167807361192 -1.7154693817469889e-05 0 0.0017610287164458631 -1.8190938081585251e-05 0 0.0017599227961809026 -1.6351476597564504e-05 0 0.0017614167807361192 -1.7154693817469889e-05 0 0.0017610287164458631 -1.8190938081585251e-05 0 0.0017610287164458631 -1.8190938081585251e-05 0 0.00176750118547606 -9.8254432058850409e-06 0 0.0017663165288756366 -1.3882641848960464e-05 0 0.001469350334108251 -2.6355237422001327e-05 0 0.0016076712312360357 4.4927258444906818e-05 0 0.0017599227961809026 -1.6351476597564504e-05 0 0.0017610287164458631 -1.8190938081585251e-05 0 0.00176750118547606 -9.8254432058850409e-06 0 0.00176750118547606 -9.8254432058850409e-06 0 0.0017663165288756366 -1.3882641848960464e-05 0 0.0017745311223827209 -5.0415461684409218e-06 0 0.0017663165288756366 -1.3882641848960464e-05 0 0.0017745311223827209 -5.0415461684409218e-06 0 0.0017753364955624131 -1.314459455575809e-05 0 0.0017555835004740624 -2.0073494530512375e-05 0 0.0017663165288756366 -1.3882641848960464e-05 0 0.0017753364955624131 -1.314459455575809e-05 0 0.0017555835004740624 -2.0073494530512375e-05 0 0.0017483349729763929 -2.5407326607869696e-05 0 0.0017753364955624131 -1.314459455575809e-05 0 0.0017910729153213618 -2.6689599003176672e-05 0 0.0017483349729763929 -2.5407326607869696e-05 0 0.0017753364955624131 -1.314459455575809e-05 0 0.0017910729153213618 -2.6689599003176672e-05 0 0.0017483349729763929 -2.5407326607869696e-05 0 0.0017145393053229481 -1.8802042849419959e-05 0 0.0017337532877738705 -2.0159926058600136e-05 0 0.0017555835004740624 -2.0073494530512375e-05 0 0.0017483349729763929 -2.5407326607869696e-05 0 0.0017337532877738705 -2.0159926058600136e-05 0 0.0017483349729763929 -2.5407326607869696e-05 0 0.0016936561123798062 -1.961618318705444e-05 0 0.0017483349729763929 -2.5407326607869696e-05 0 0.0017145393053229481 -1.8802042849419959e-05 0 0.0016936561123798062 -1.961618318705444e-05 0 0.0017145393053229481 -1.8802042849419959e-05 0 0.0016936561123798062 -1.961618318705444e-05 0 0.0016206121193301395 -1.5333753122832727e-05 0 0.0016469898418812262 -1.7228833822065209e-06 0 0.0016936561123798062 -1.961618318705444e-05 0 0.0016206121193301395 -1.5333753122832727e-05 0 0.0016469898418812262 -1.7228833822065209e-06 0 0.0017162828458991506 1.4452933524870096e-06 0 0.0016936561123798062 -1.961618318705444e-05 0 0.0017162828458991506 1.4452933524870096e-06 0 0.0017337532877738705 -2.0159926058600136e-05 0 0.0016936561123798062 -1.961618318705444e-05 0 0.001431497286132217 1.0292143686218129e-07 0 0.0016206121193301395 -1.5333753122832727e-05 0 0.0017287215860340695 -1.5844241142605227e-07 0 0.0017145393053229481 -1.8802042849419959e-05 0 0.0016206121193301395 -1.5333753122832727e-05 0 0.0017287215860340695 -1.5844241142605227e-07 0 0.0017910729153213618 -2.6689599003176672e-05 0 0.0017145393053229481 -1.8802042849419959e-05 0 0.0017287215860340695 -1.5844241142605227e-07 0 0.0017910729153213618 -2.6689599003176672e-05 0 0.0017287215860340695 -1.5844241142605227e-07 0 0.0020251925755668584 1.3978223294219116e-07 0 0.0017910729153213618 -2.6689599003176672e-05 0 0.0020251925755668584 1.3978223294219116e-07 0 0.0018146785806546666 7.2522460532464492e-08 0 0.0017910729153213618 -2.6689599003176672e-05 0 0.0018146785806546666 7.2522460532464492e-08 0 0.0017753364955624131 -1.314459455575809e-05 0 0.0018146785806546666 7.2522460532464492e-08 0 0.0017891144361827126 1.5346782602319095e-05 0 0.0017753364955624131 -1.314459455575809e-05 0 0.0018146785806546666 7.2522460532464492e-08 0 0.0018202629033298944 5.6637909165204554e-05 0 0.0017891144361827126 1.5346782602319095e-05 0 0.0020251925755668584 1.3978223294219116e-07 0 0.0018146785806546666 7.2522460532464492e-08 0 0.0018202629033298944 5.6637909165204554e-05 0 0.0020260565224922335 1.4426493914927661e-07 0 0.0022352769099300168 -4.5306029600224347e-05 0 0.0022735816692603644 -2.4054610384960705e-07 0 0.0020257398283897439 -8.4725034526322944e-09 0 0.0020270013610894618 -2.666951789145956e-06 0 0.0022352769099300168 -4.5306029600224347e-05 0 0.0022735816692603644 -2.4054610384960705e-07 0 0.0022743063977773057 -1.7683353036885865e-05 0 0.0022735816692603644 -2.4054610384960705e-07 0 0.0022743063977773057 -1.7683353036885865e-05 0 0.0023355781642258283 6.9982976635862875e-06 0 0.0022352769099300168 -4.5306029600224347e-05 0 0.0022743063977773057 -1.7683353036885865e-05 0 0.0022174923680110255 -2.1142130714765447e-05 0 0.0022352769099300168 -4.5306029600224347e-05 0 0.0022174923680110255 -2.1142130714765447e-05 0 0.002129858850480565 -7.9870042706315175e-05 0 0.0020270013610894618 -2.666951789145956e-06 0 0.0019641140900690654 -2.1601973808894008e-05 0 0.002141867756474652 0.00010033834946791338 0 0.0022174923680110255 -2.1142130714765447e-05 0 0.0023355781642258283 6.9982976635862875e-06 0 0.0022743063977773057 -1.7683353036885865e-05 0 0.0022174923680110255 -2.1142130714765447e-05 0 0.0023355781642258283 6.9982976635862875e-06 0 0.0025210078531685857 3.1972454170459543e-07 0 0.0022735816692603644 -2.4054610384960705e-07 0 0.0023355781642258283 6.9982976635862875e-06 0 0.0018736545035620323 7.1739664704208059e-06 0 0.0020456516183099721 4.9391447761155229e-05 0 0.002129858850480565 -7.9870042706315175e-05 0 0.0018618366361029949 0.00011274515977806234 0 0.0018736545035620323 7.1739664704208059e-06 0 0.0019397109960393804 8.6405320482825157e-05 0 0.0018736545035620323 7.1739664704208059e-06 0 0.0019397109960393804 8.6405320482825157e-05 0 0.0020456516183099721 4.9391447761155229e-05 0 0.002141867756474652 0.00010033834946791338 0 0.0022174923680110255 -2.1142130714765447e-05 0 0.0020456516183099721 4.9391447761155229e-05 0 0.0022174923680110255 -2.1142130714765447e-05 0 0.0020456516183099721 4.9391447761155229e-05 0 0.002129858850480565 -7.9870042706315175e-05 0 0.0018736545035620323 7.1739664704208059e-06 0 0.0018072531001565874 1.9273959902656649e-05 0 0.001836986409908114 8.8181456384323113e-06 0 0.0018781530678962392 7.4125636610116105e-06 0 0.0019641140900690654 -2.1601973808894008e-05 0 0.0018295270683341704 -6.5041153353108955e-05 0 0.0018194635313827474 -2.0663460177884891e-05 0 0.001807997693128697 -9.7888797046799054e-05 0 0.0017994200279436102 -0.00010118227246747699 0 0.0018142851464838846 -6.4390986761207519e-05 0 0.0018072531001565874 1.9273959902656649e-05 0 0.001799225594139068 1.535752662265799e-05 0 0.001836986409908114 8.8181456384323113e-06 0 0.001799225594139068 1.535752662265799e-05 0 0.0017916041514448747 1.2504455105810447e-05 0 0.001836986409908114 8.8181456384323113e-06 0 0.0018072531001565874 1.9273959902656649e-05 0 0.001799225594139068 1.535752662265799e-05 0 0.0017891144361827126 1.5346782602319095e-05 0 0.0018202629033298944 5.6637909165204554e-05 0 0.0018072531001565874 1.9273959902656649e-05 0 0.0017891144361827126 1.5346782602319095e-05 0 0.0017891144361827126 1.5346782602319095e-05 0 0.0017825361205851512 5.4386738339714006e-06 0 0.0017745311223827209 -5.0415461684409218e-06 0 0.001799225594139068 1.535752662265799e-05 0 0.0017891144361827126 1.5346782602319095e-05 0 0.0017825361205851512 5.4386738339714006e-06 0 0.00176750118547606 -9.8254432058850409e-06 0 0.0017825361205851512 5.4386738339714006e-06 0 0.0017745311223827209 -5.0415461684409218e-06 0 0.0017891144361827126 1.5346782602319095e-05 0 0.0017745311223827209 -5.0415461684409218e-06 0 0.0017753364955624131 -1.314459455575809e-05 0 0.001469350334108251 -2.6355237422001327e-05 0 0.0018295270683341704 -6.5041153353108955e-05 0 0.0018013787393237838 -0.00010480380438093855 0 0.001807997693128697 -9.7888797046799054e-05 0 0.0017994200279436102 -0.00010118227246747699 0 0.001799225594139068 1.535752662265799e-05 0 0.0017825361205851512 5.4386738339714006e-06 0 0.0017916041514448747 1.2504455105810447e-05 0 0.00176750118547606 -9.8254432058850409e-06 0 0.0017825361205851512 5.4386738339714006e-06 0 0.0017916041514448747 1.2504455105810447e-05 0 0.0008356531485370775 -0.00039214207490696274 0 0.00087370744461424553 -0.00037928881495684092 0 0.00083808363727208134 -0.00034994812969167043 0 0.00087183988850887901 -0.00048933575559232929 0 0.00086969385506527417 -0.00068477811406357709 0 0.0010105384417128365 -0.00055541704586013578 0 0.0008356531485370775 -0.00039214207490696274 0 0.00087370744461424553 -0.00037928881495684092 0 0.00087859305431480157 -0.00043801621211605286 0 0.00082940702279292087 -0.00047097951776251917 0 0.0012331094147878395 -0.00040371881058019266 0 0.0017994200279436102 -0.00010118227246747699 0 0.0017639960974659974 -7.0092285411425348e-05 0 0.0018142851464838846 -6.4390986761207519e-05 0 0.0013415954443671625 -0.00025115465197457748 0 0.0012331094147878395 -0.00040371881058019266 0 0.0018736545035620323 7.1739664704208059e-06 0 0.001836986409908114 8.8181456384323113e-06 0 0.0018235029449192443 1.2722218801487973e-05 0 0.0017639960974659974 -7.0092285411425348e-05 0 0.0018142851464838846 -6.4390986761207519e-05 0 0.0017860714236461932 -3.5978137621231041e-05 0 0.0018194635313827474 -2.0663460177884891e-05 0 0.0018218770821944428 9.4253992026392023e-06 0 0.0018142851464838846 -6.4390986761207519e-05 0 0.0017860714236461932 -3.5978137621231041e-05 0 0.0018235029449192443 1.2722218801487973e-05 0 0.0017639960974659974 -7.0092285411425348e-05 0 0.0017860714236461932 -3.5978137621231041e-05 0 0.0017490323680245585 6.8274782998157245e-06 0 0.0015873163540724897 -0.00040127204881761709 0 0.0015923065324252306 -0.00033328458461660094 0 0.0015297484419229553 -0.00033233200747252403 0 0.0012331094147878395 -0.00040371881058019266 0 0.0016812296140663523 -8.4572809448791119e-05 0 0.0012331094147878395 -0.00040371881058019266 0 0.001483694510664996 -0.00059939895547733452 0 0.0015972913814348406 -0.00026451120305649354 0 0.0015923065324252306 -0.00033328458461660094 0 0.0015297484419229553 -0.00033233200747252403 0 0.001734414873079115 0.00015735707252350701 0 0.0017490323680245585 6.8274782998157245e-06 0 0.0017884657528538254 7.8685993724628554e-05 0 0.0019430084279670747 -0.00027985146039361544 0 0.001483694510664996 -0.00059939895547733452 0 0.0019430084279670747 -0.00027985146039361544 0 0.0016812296140663523 -8.4572809448791119e-05 0 0.0018618366361029949 0.00011274515977806234 0 0.0017884657528538254 7.8685993724628554e-05 0 0.0018235029449192443 1.2722218801487973e-05 0 0.0018618366361029949 0.00011274515977806234 0 0.0018736545035620323 7.1739664704208059e-06 0 0.0018235029449192443 1.2722218801487973e-05 0 0.0017490323680245585 6.8274782998157245e-06 0 0.0017884657528538254 7.8685993724628554e-05 0 0.0018235029449192443 1.2722218801487973e-05 0 0.0017860714236461932 -3.5978137621231041e-05 0 0.0017490323680245585 6.8274782998157245e-06 0 0.0018235029449192443 1.2722218801487973e-05 0 0.0016830580505699181 -0.00055964147463659613 0 0.0016536624589666496 -0.00058028260328630188 0 0.0015584252977683078 -0.0005745226193653736 0 0.001568173521050016 -0.00052582681832935823 0 0.0016830580505699181 -0.00055964147463659613 0 0.0015584252977683078 -0.0005745226193653736 0 0.0017464614860236603 -0.00063206245667772403 0 0.001483694510664996 -0.00059939895547733452 0 0.0019081105284446322 -0.0005726102260734554 0 0.0016830580505699181 -0.00055964147463659613 0 0.0018723705298074975 -0.00077976636330309322 0 0.00086969385506527417 -0.00068477811406357709 0 0.0010151466250889294 -0.00085352730686889019 0 0.0010097646313970039 -0.00070476748011737362 0 0.0010151466250889294 -0.00085352730686889019 0 0.0010097646313970039 -0.00070476748011737362 0 0.0011467551846266431 -0.00072418873672302174 0 0.0016536624589666496 -0.00058028260328630188 0 0.0015317357606435403 -0.00060682950407394093 0 0.0015584252977683078 -0.0005745226193653736 0 0.001483694510664996 -0.00059939895547733452 0 0.0013098183299986091 -0.0006825963529712624 0 0.0011467551846266431 -0.00072418873672302174 0 0.0010105384417128365 -0.00055541704586013578 0 0.0011613528115372732 -0.00049996708095568576 0 0.0010097646313970039 -0.00070476748011737362 0 0.0011467551846266431 -0.00072418873672302174 0 0.0010105384417128365 -0.00055541704586013578 0 0.00086969385506527417 -0.00068477811406357709 0 0.0010097646313970039 -0.00070476748011737362 0 0.0010105384417128365 -0.00055541704586013578 0 0.00087183988850887901 -0.00048933575559232929 0 0.0010105384417128365 -0.00055541704586013578 0 0.00095148548800026776 -0.00040548489368339276 0 0.0010105384417128365 -0.00055541704586013578 0 0.0011613528115372732 -0.00049996708095568576 0 0.0010820291880854376 -0.00041480734821812052 0 0.0010820291880854376 -0.00041480734821812052 0 0.0010909878972856215 -0.00031440455209089796 0 0.0012442137687615365 -0.00043555076719601873 0 0.0011613528115372732 -0.00049996708095568576 0 0.0010820291880854376 -0.00041480734821812052 0 0.0012442137687615365 -0.00043555076719601873 0 0.0010820291880854376 -0.00041480734821812052 0 0.0010909878972856215 -0.00031440455209089796 0 0.00097147391477790028 -0.0003235175088950942 0 0.00097147391477790028 -0.0003235175088950942 0 0.00095148548800026776 -0.00040548489368339276 0 0.00087122274598346462 -0.00032136766554093917 0 0.0010820291880854376 -0.00041480734821812052 0 0.00097147391477790028 -0.0003235175088950942 0 0.00095148548800026776 -0.00040548489368339276 0 0.0010105384417128365 -0.00055541704586013578 0 0.0010820291880854376 -0.00041480734821812052 0 0.00095148548800026776 -0.00040548489368339276 0 0.00087183988850887901 -0.00048933575559232929 0 0.00095148548800026776 -0.00040548489368339276 0 0.00087122274598346462 -0.00032136766554093917 0 0.00082940702279292087 -0.00047097951776251917 0 0.00088205306859689579 -0.00031147413828542061 0 0.00087370744461424553 -0.00037928881495684092 0 0.00083808363727208134 -0.00034994812969167043 0 0.00087122274598346462 -0.00032136766554093917 0 0.00083808363727208134 -0.00034994812969167043 0 0.00081232353027696513 -0.00029391864276306207 0 0.00087122274598346462 -0.00032136766554093917 0 0.0008562620717196942 -0.00041448874958840276 0 0.00070305516122277944 -0.00012503320318446961 0 0.00081232353027696513 -0.00029391864276306207 0 0.00087122274598346462 -0.00032136766554093917 0 0.00088523894609755338 -0.0002665983646257809 0 0.00097147391477790028 -0.0003235175088950942 0 0.00087122274598346462 -0.00032136766554093917 0 0.00088523894609755338 -0.0002665983646257809 0 0.00088523894609755338 -0.0002665983646257809 0 0.00085127504255216326 -0.00022563303382729303 0 0.00088483076724361702 -0.00021353815640010808 0 0.00081232353027696513 -0.00029391864276306207 0 0.00088523894609755338 -0.0002665983646257809 0 0.00085127504255216326 -0.00022563303382729303 0 0.00061937373735251216 -0.00034465534136206733 0 0.00059749156616901143 -0.00022697891762945619 0 0.00069904640076928282 -0.00025866460904061913 0 0.00070305516122277944 -0.00012503320318446961 0 0.00076575510994102104 -0.00026932540802847705 0 0.00070305516122277944 -0.00012503320318446961 0 0.00061594829864791516 5.2689371622755013e-06 0 0.00059749156616901143 -0.00022697891762945619 0 0.00069904640076928282 -0.00025866460904061913 0 0.00066540200765454675 -0.00014709779747584613 0 0.00069904640076928282 -0.00025866460904061913 0 0.00081798234747919351 -0.00015524970598297341 0 0.00066540200765454675 -0.00014709779747584613 0 0.00085127504255216326 -0.00022563303382729303 0 0.00088483076724361702 -0.00021353815640010808 0 0.00081798234747919351 -0.00015524970598297341 0 0.00076575510994102104 -0.00026932540802847705 0 0.00082808934107943559 -0.00014800060201956757 0 0.00088483076724361702 -0.00021353815640010808 0 0.00092005925713545982 -0.00017890302394143727 0 0.0009671120505806252 -0.0002464633160084915 0 0.00088483076724361702 -0.00021353815640010808 0 0.00092005925713545982 -0.00017890302394143727 0 0.00081798234747919351 -0.00015524970598297341 0 0.00092005925713545982 -0.00017890302394143727 0 0.0009671120505806252 -0.0002464633160084915 0 0.0010540052607712137 -0.00017630639240273695 0 0.0010909878972856215 -0.00031440455209089796 0 0.0009671120505806252 -0.0002464633160084915 0 0.0010540052607712137 -0.00017630639240273695 0 0.0010909878972856215 -0.00031440455209089796 0 0.00097147391477790028 -0.0003235175088950942 0 0.0009671120505806252 -0.0002464633160084915 0 0.00088523894609755338 -0.0002665983646257809 0 0.00088483076724361702 -0.00021353815640010808 0 0.0009671120505806252 -0.0002464633160084915 0 0.00097147391477790028 -0.0003235175088950942 0 0.00088523894609755338 -0.0002665983646257809 0 0.0009671120505806252 -0.0002464633160084915 0 0.0011215366887636759 -0.00033142864092199228 0 0.001159222121770698 -0.00020318233407131059 0 0.0012629037379887061 -0.00029642608227280822 0 0.0010909878972856215 -0.00031440455209089796 0 0.0012006471140710666 -0.00027682380223694293 0 0.0010540052607712137 -0.00017630639240273695 0 0.001160347932436679 -0.00030208722237907396 0 0.00099429789432065605 -0.00020189324952126072 0 0.0011215366887636759 -0.00033142864092199228 0 0.00093618086481355974 -0.00022908107748295144 0 0.001159222121770698 -0.00020318233407131059 0 0.00093618086481355974 -0.00022908107748295144 0 0.001159222121770698 -0.00020318233407131059 0 0.0010132876414402684 -0.00013653625131245981 0 0.001159222121770698 -0.00020318233407131059 0 0.0012894905552526998 -0.00021080246641827318 0 0.00131039900317948 -8.711894189055973e-05 0 0.001159222121770698 -0.00020318233407131059 0 0.0012894905552526998 -0.00021080246641827318 0 0.0012629037379887061 -0.00029642608227280822 0 0.0012894905552526998 -0.00021080246641827318 0 0.0013720129106599959 -0.00017992490238392649 0 0.00131039900317948 -8.711894189055973e-05 0 0.0012894905552526998 -0.00021080246641827318 0 0.0013720129106599959 -0.00017992490238392649 0 0.0013394630049398321 -0.00026198016088663885 0 0.0013720129106599959 -0.00017992490238392649 0 0.0014030833124128658 -0.00024242960430503579 0 0.0013394630049398321 -0.00026198016088663885 0 0.0013720129106599959 -0.00017992490238392649 0 0.0014030833124128658 -0.00024242960430503579 0 0.0014196651986450931 -0.00020114121147635135 0 0.0013394630049398321 -0.00026198016088663885 0 0.0014089722878260274 -0.00029084772969452784 0 0.0013648891032960787 -0.00033680256503376005 0 0.0014030833124128658 -0.00024242960430503579 0 0.0013394630049398321 -0.00026198016088663885 0 0.0014089722878260274 -0.00029084772969452784 0 0.0013394630049398321 -0.00026198016088663885 0 0.0012629037379887061 -0.00029642608227280822 0 0.0013648891032960787 -0.00033680256503376005 0 0.0012894905552526998 -0.00021080246641827318 0 0.0013394630049398321 -0.00026198016088663885 0 0.0012629037379887061 -0.00029642608227280822 0 0.0013648891032960787 -0.00033680256503376005 0 0.0013925974002419103 -0.00038910889590714365 0 0.0013027783410907352 -0.00038748779315669402 0 0.0012629037379887061 -0.00029642608227280822 0 0.0013648891032960787 -0.00033680256503376005 0 0.0013027783410907352 -0.00038748779315669402 0 0.0014089722878260274 -0.00029084772969452784 0 0.0013648891032960787 -0.00033680256503376005 0 0.0014361072952657028 -0.00032574395726246404 0 0.0013648891032960787 -0.00033680256503376005 0 0.0014196380273903044 -0.0003605610323452226 0 0.0014361072952657028 -0.00032574395726246404 0 0.0013648891032960787 -0.00033680256503376005 0 0.0013925974002419103 -0.00038910889590714365 0 0.0014196380273903044 -0.0003605610323452226 0 0.0013925974002419103 -0.00038910889590714365 0 0.0014196380273903044 -0.0003605610323452226 0 0.0014405845268890514 -0.0003979106429532408 0 0.0014196380273903044 -0.0003605610323452226 0 0.0014405845268890514 -0.0003979106429532408 0 0.0014644877249662303 -0.00035046531579795875 0 0.0013925974002419103 -0.00038910889590714365 0 0.0013027783410907352 -0.00038748779315669402 0 0.0014167142562243817 -0.00045118506928519992 0 0.0013027783410907352 -0.00038748779315669402 0 0.0012442137687615365 -0.00043555076719601873 0 0.0014167142562243817 -0.00045118506928519992 0 0.001160347932436679 -0.00030208722237907396 0 0.0012832718754842945 -0.00038335810554945328 0 0.0012006471140710666 -0.00027682380223694293 0 0.0013027783410907352 -0.00038748779315669402 0 0.0012442137687615365 -0.00043555076719601873 0 0.0011215366887636759 -0.00033142864092199228 0 0.0012629037379887061 -0.00029642608227280822 0 0.0013027783410907352 -0.00038748779315669402 0 0.0010909878972856215 -0.00031440455209089796 0 0.0012006471140710666 -0.00027682380223694293 0 0.0012442137687615365 -0.00043555076719601873 0 0.0011613528115372732 -0.00049996708095568576 0 0.0012442137687615365 -0.00043555076719601873 0 0.0013255659299094241 -0.0005624414501220682 0 0.0012442137687615365 -0.00043555076719601873 0 0.0013255659299094241 -0.0005624414501220682 0 0.0014167142562243817 -0.00045118506928519992 0 0.0013255659299094241 -0.0005624414501220682 0 0.0014281096669580388 -0.00056284648688192062 0 0.0014167142562243817 -0.00045118506928519992 0 0.0013255659299094241 -0.0005624414501220682 0 0.0014373828182026069 -0.00058102701361456815 0 0.0014281096669580388 -0.00056284648688192062 0 0.0015317357606435403 -0.00060682950407394093 0 0.0013255659299094241 -0.0005624414501220682 0 0.0014373828182026069 -0.00058102701361456815 0 0.0011467551846266431 -0.00072418873672302174 0 0.0011613528115372732 -0.00049996708095568576 0 0.0013255659299094241 -0.0005624414501220682 0 0.0013098183299986091 -0.0006825963529712624 0 0.0013553901275280785 -0.00055821645571126326 0 0.0015317357606435403 -0.00060682950407394093 0 0.0014373828182026069 -0.00058102701361456815 0 0.0015584252977683078 -0.0005745226193653736 0 0.0014373828182026069 -0.00058102701361456815 0 0.0014727439514442288 -0.00056842341230439655 0 0.0015584252977683078 -0.0005745226193653736 0 0.0014373828182026069 -0.00058102701361456815 0 0.0014727439514442288 -0.00056842341230439655 0 0.0014281096669580388 -0.00056284648688192062 0 0.0014727439514442288 -0.00056842341230439655 0 0.001443656402997985 -0.00056902310579855068 0 0.0014281096669580388 -0.00056284648688192062 0 0.001568173521050016 -0.00052582681832935823 0 0.0014682788864877334 -0.00051719951230590232 0 0.0014727439514442288 -0.00056842341230439655 0 0.0014682788864877334 -0.00051719951230590232 0 0.0014727439514442288 -0.00056842341230439655 0 0.001443656402997985 -0.00056902310579855068 0 0.001568173521050016 -0.00052582681832935823 0 0.0014727439514442288 -0.00056842341230439655 0 0.0015584252977683078 -0.0005745226193653736 0 0.0014205193092805173 -0.00054189853582847173 0 0.001443656402997985 -0.00056902310579855068 0 0.0015124622868757649 -0.00058724315448691056 0 0.0016031266357652799 -0.00047482851747407325 0 0.0016459835701383996 -0.0004970393000250518 0 0.0018013968925892729 -0.00041714796372722008 0 0.0017831427773113439 -0.0004112375810477743 0 0.0017780676603065945 -0.00042893277410747059 0 0.0014205193092805173 -0.00054189853582847173 0 0.0014682788864877334 -0.00051719951230590232 0 0.001443656402997985 -0.00056902310579855068 0 0.001443656402997985 -0.00056902310579855068 0 0.0014281096669580388 -0.00056284648688192062 0 0.0015124622868757649 -0.00058724315448691056 0 0.0014281096669580388 -0.00056284648688192062 0 0.0015124622868757649 -0.00058724315448691056 0 0.0015496886043899114 -0.0005170044263590461 0 0.0015496886043899114 -0.0005170044263590461 0 0.0014167142562243817 -0.00045118506928519992 0 0.0016426402237683117 -0.00043283134372663218 0 0.0014281096669580388 -0.00056284648688192062 0 0.0015496886043899114 -0.0005170044263590461 0 0.0014167142562243817 -0.00045118506928519992 0 0.0014294936783751924 -0.00044061455717008804 0 0.0015494712494557397 -0.00042475745604658933 0 0.0014167142562243817 -0.00045118506928519992 0 0.0014405845268890514 -0.0003979106429532408 0 0.0014603788255101611 -0.00040694858006805839 0 0.0013925974002419103 -0.00038910889590714365 0 0.0014167142562243817 -0.00045118506928519992 0 0.0014405845268890514 -0.0003979106429532408 0 0.0014405845268890514 -0.0003979106429532408 0 0.0014682548077424031 -0.00038572649750709805 0 0.0014603788255101611 -0.00040694858006805839 0 0.0014405845268890514 -0.0003979106429532408 0 0.0014682548077424031 -0.00038572649750709805 0 0.0014875939997375796 -0.0003589319192795636 0 0.0014682548077424031 -0.00038572649750709805 0 0.001492522678533458 -0.0003818728152553404 0 0.0014875939997375796 -0.0003589319192795636 0 0.0014682548077424031 -0.00038572649750709805 0 0.001492522678533458 -0.0003818728152553404 0 0.0014603788255101611 -0.00040694858006805839 0 0.001522895203613346 -0.00035980736497071085 0 0.0015896255134998851 -0.00029972770687409459 0 0.0015286653795832481 -0.00033046384015252142 0 0.001522895203613346 -0.00035980736497071085 0 0.0015511709292150158 -0.00040817233746331326 0 0.0015896255134998851 -0.00029972770687409459 0 0.001522895203613346 -0.00035980736497071085 0 0.0015286653795832481 -0.00033046384015252142 0 0.0014875939997375796 -0.0003589319192795636 0 0.001492522678533458 -0.0003818728152553404 0 0.001522895203613346 -0.00035980736497071085 0 0.0014875939997375796 -0.0003589319192795636 0 0.001492522678533458 -0.0003818728152553404 0 0.001522895203613346 -0.00035980736497071085 0 0.0015511709292150158 -0.00040817233746331326 0 0.001492522678533458 -0.0003818728152553404 0 0.0015511709292150158 -0.00040817233746331326 0 0.0014603788255101611 -0.00040694858006805839 0 0.0016632392983749814 -0.00041938151841323045 0 0.0015494712494557397 -0.00042475745604658933 0 0.0017747023484883358 -0.00043416590188449187 0 0.0016426402237683117 -0.00043283134372663218 0 0.0016823322576552673 -0.00045190870107027637 0 0.0015496886043899114 -0.0005170044263590461 0 0.0016426402237683117 -0.00043283134372663218 0 0.0016823322576552673 -0.00045190870107027637 0 0.0017780676603065945 -0.00042893277410747059 0 0.0016823322576552673 -0.00045190870107027637 0 0.0017535289247018497 -0.00043867214150285536 0 0.0016459835701383996 -0.0004970393000250518 0 0.0016840288734234292 -0.00045004439488787417 0 0.0015124622868757649 -0.00058724315448691056 0 0.0015496886043899114 -0.0005170044263590461 0 0.0016823322576552673 -0.00045190870107027637 0 0.0017747023484883358 -0.00043416590188449187 0 0.0017535289247018497 -0.00043867214150285536 0 0.0017790889333963637 -0.00042534641666766581 0 0.0017747023484883358 -0.00043416590188449187 0 0.0016823322576552673 -0.00045190870107027637 0 0.0017535289247018497 -0.00043867214150285536 0 0.0017535289247018497 -0.00043867214150285536 0 0.0017946481194072454 -0.0004261544832364741 0 0.0017802643871148811 -0.00042610728514754322 0 0.0017535289247018497 -0.00043867214150285536 0 0.0017946481194072454 -0.0004261544832364741 0 0.0017790889333963637 -0.00042534641666766581 0 0.0018013968925892729 -0.00041714796372722008 0 0.0017780676603065945 -0.00042893277410747059 0 0.0017802643871148811 -0.00042610728514754322 0 0.0018013968925892729 -0.00041714796372722008 0 0.0017946481194072454 -0.0004261544832364741 0 0.0017802643871148811 -0.00042610728514754322 0 0.0017780676603065945 -0.00042893277410747059 0 0.0017535289247018497 -0.00043867214150285536 0 0.0017802643871148811 -0.00042610728514754322 0 0.0017922341842829626 -0.00042033985381913604 0 0.0017506767142744547 -0.00041057017073420051 0 0.0018371429888200813 -0.00042158109817332247 0 0.0017946481194072454 -0.0004261544832364741 0 0.0017922341842829626 -0.00042033985381913604 0 0.0017790889333963637 -0.00042534641666766581 0 0.0017747023484883358 -0.00043416590188449187 0 0.0017790889333963637 -0.00042534641666766581 0 0.0017506767142744547 -0.00041057017073420051 0 0.0017922341842829626 -0.00042033985381913604 0 0.0017790889333963637 -0.00042534641666766581 0 0.0017506767142744547 -0.00041057017073420051 0 0.0016632392983749814 -0.00041938151841323045 0 0.0017413685234440271 -0.00041498089707216819 0 0.0017506767142744547 -0.00041057017073420051 0 0.0016592244490367795 -0.00035620823502157469 0 0.0017444545073530137 -0.00029620602320147013 0 0.0015511709292150158 -0.00040817233746331326 0 0.0016592244490367795 -0.00035620823502157469 0 0.0015896255134998851 -0.00029972770687409459 0 0.0015511709292150158 -0.00040817233746331326 0 0.0017506767142744547 -0.00041057017073420051 0 0.0016592244490367795 -0.00035620823502157469 0 0.0015896255134998851 -0.00029972770687409459 0 0.0016560706105674429 -0.00017700019064486656 0 0.0017444545073530137 -0.00029620602320147013 0 0.0016592244490367795 -0.00035620823502157469 0 0.0015896255134998851 -0.00029972770687409459 0 0.0017444545073530137 -0.00029620602320147013 0 0.0016560706105674429 -0.00017700019064486656 0 0.0016111086443813844 -7.4179315246299601e-05 0 0.0016800559496855196 -0.00010601592065921346 0 0.0015281415354270076 -0.00013396787819882386 0 0.0015413693196047831 -6.2904112078689719e-05 0 0.0015820494274510462 -5.965170854925915e-05 0 0.0016560706105674429 -0.00017700019064486656 0 0.0016111086443813844 -7.4179315246299601e-05 0 0.0015281415354270076 -0.00013396787819882386 0 0.0016111086443813844 -7.4179315246299601e-05 0 0.0015281415354270076 -0.00013396787819882386 0 0.0015820494274510462 -5.965170854925915e-05 0 0.0015896255134998851 -0.00029972770687409459 0 0.0015286653795832481 -0.00033046384015252142 0 0.0015200686484235816 -0.00032246603571264192 0 0.001569362297579327 -0.00028982907305803257 0 0.0015765293126509387 -0.00025208584603894234 0 0.0015896255134998851 -0.00029972770687409459 0 0.0016560706105674429 -0.00017700019064486656 0 0.0015281415354270076 -0.00013396787819882386 0 0.0015286653795832481 -0.00033046384015252142 0 0.0015000964556031321 -0.00033447043029879563 0 0.0015200686484235816 -0.00032246603571264192 0 0.0015286653795832481 -0.00033046384015252142 0 0.0015000964556031321 -0.00033447043029879563 0 0.0014875939997375796 -0.0003589319192795636 0 0.0014405845268890514 -0.0003979106429532408 0 0.0014875939997375796 -0.0003589319192795636 0 0.0014644877249662303 -0.00035046531579795875 0 0.0015000964556031321 -0.00033447043029879563 0 0.0014875939997375796 -0.0003589319192795636 0 0.0014644877249662303 -0.00035046531579795875 0 0.0015000964556031321 -0.00033447043029879563 0 0.0014644877249662303 -0.00035046531579795875 0 0.0014800986933380591 -0.00031804780951414068 0 0.0014196380273903044 -0.0003605610323452226 0 0.0014644877249662303 -0.00035046531579795875 0 0.0014361072952657028 -0.00032574395726246404 0 0.0014644877249662303 -0.00035046531579795875 0 0.0014800986933380591 -0.00031804780951414068 0 0.0014361072952657028 -0.00032574395726246404 0 0.0014089722878260274 -0.00029084772969452784 0 0.0014361072952657028 -0.00032574395726246404 0 0.0014525114955676217 -0.00029594923287861748 0 0.0014800986933380591 -0.00031804780951414068 0 0.0014361072952657028 -0.00032574395726246404 0 0.0014525114955676217 -0.00029594923287861748 0 0.0014800986933380591 -0.00031804780951414068 0 0.0015200686484235816 -0.00032246603571264192 0 0.00148048213782451 -0.00027507823833814772 0 0.0015765293126509387 -0.00025208584603894234 0 0.0011793168251825463 -0.00011120363098724944 0 0.0015000964556031321 -0.00033447043029879563 0 0.0014800986933380591 -0.00031804780951414068 0 0.0015200686484235816 -0.00032246603571264192 0 0.0015200686484235816 -0.00032246603571264192 0 0.001487514907391153 -0.00026516976189258271 0 0.00148048213782451 -0.00027507823833814772 0 0.0015281415354270076 -0.00013396787819882386 0 0.0015413693196047831 -6.2904112078689719e-05 0 0.0015048511578835354 -3.8472964662214401e-05 0 0.0011793168251825463 -0.00011120363098724944 0 0.0012631774524968352 -0.00012651642325384391 0 0.0015413693196047831 -6.2904112078689719e-05 0 0.0015048511578835354 -3.8472964662214401e-05 0 0.0015492203589617874 -2.88526880947597e-05 0 0.0014800986933380591 -0.00031804780951414068 0 0.0014525114955676217 -0.00029594923287861748 0 0.00148048213782451 -0.00027507823833814772 0 0.0014089722878260274 -0.00029084772969452784 0 0.0014525114955676217 -0.00029594923287861748 0 0.0014447295250604357 -0.00026934904629731749 0 0.0014525114955676217 -0.00029594923287861748 0 0.00148048213782451 -0.00027507823833814772 0 0.0014447295250604357 -0.00026934904629731749 0 0.00148048213782451 -0.00027507823833814772 0 0.0014641242780272976 -0.00024072274461551767 0 0.0014447295250604357 -0.00026934904629731749 0 0.0014959757890194941 -0.00025730217040817124 0 0.00148048213782451 -0.00027507823833814772 0 0.0014641242780272976 -0.00024072274461551767 0 0.0014030833124128658 -0.00024242960430503579 0 0.0014447295250604357 -0.00026934904629731749 0 0.0014384663456219028 -0.00022756180900280302 0 0.0014030833124128658 -0.00024242960430503579 0 0.0014089722878260274 -0.00029084772969452784 0 0.0014447295250604357 -0.00026934904629731749 0 0.0014641242780272976 -0.00024072274461551767 0 0.0014447295250604357 -0.00026934904629731749 0 0.0014384663456219028 -0.00022756180900280302 0 0.0014959757890194941 -0.00025730217040817124 0 0.0014641242780272976 -0.00024072274461551767 0 0.0014633641514872515 -0.00016755425113462806 0 0.0013720129106599959 -0.00017992490238392649 0 0.0014196651986450931 -0.00020114121147635135 0 0.0014633641514872515 -0.00016755425113462806 0 0.0011793168251825463 -0.00011120363098724944 0 0.00079839177266120788 -3.2096515214160037e-05 0 0.0014030833124128658 -0.00024242960430503579 0 0.0014384663456219028 -0.00022756180900280302 0 0.0014196651986450931 -0.00020114121147635135 0 0.0014384663456219028 -0.00022756180900280302 0 0.0014196651986450931 -0.00020114121147635135 0 0.0014633641514872515 -0.00016755425113462806 0 0.0014641242780272976 -0.00024072274461551767 0 0.0014384663456219028 -0.00022756180900280302 0 0.0014633641514872515 -0.00016755425113462806 0 0.00079839177266120788 -3.2096515214160037e-05 0 0.00046785994441983698 9.8790504811540193e-05 0 0.00051529804012358964 0.0001076821440306683 0 0.00054126422259949771 5.4064835595625153e-05 0 0.00050461751056901768 7.0929210686338233e-05 0 0.0015048511578835354 -3.8472964662214401e-05 0 0.0015505237047083735 3.1982756074994895e-06 0 0.0015492203589617874 -2.88526880947597e-05 0 0.0011793168251825463 -0.00011120363098724944 0 0.00098134173550359438 5.6379477401600446e-05 0 0.00051529804012358964 0.0001076821440306683 0 0.00050461751056901768 7.0929210686338233e-05 0 0.00047069869873203114 5.6079468212679636e-05 0 0.00052623702501053101 6.024974991703667e-05 0 0.00050461751056901768 7.0929210686338233e-05 0 0.00049476796036036124 3.6284952366999973e-05 0 0.00050461751056901768 7.0929210686338233e-05 0 0.00047069869873203114 5.6079468212679636e-05 0 0.00049476796036036124 3.6284952366999973e-05 0 0.0015505237047083735 3.1982756074994895e-06 0 0.0015676609819233038 -2.3770290409948649e-06 0 0.0015492203589617874 -2.88526880947597e-05 0 0.0015964370973650659 -0.00012568164300174375 0 0.0015732915288094388 4.5888832953596403e-06 0 0.0015051421666586865 -0.00023120682783856581 0 0.0016746558041606623 -0.00013134553832558951 0 0.0015964370973650659 -0.00012568164300174375 0 0.0016018498886110589 -0.00024390842487442282 0 0.0015964370973650659 -0.00012568164300174375 0 0.0016018498886110589 -0.00024390842487442282 0 0.0015051421666586865 -0.00023120682783856581 0 0.0015964370973650659 -0.00012568164300174375 0 0.0016089028096400579 -6.0081579504426111e-05 0 0.0015732915288094388 4.5888832953596403e-06 0 0.0016746558041606623 -0.00013134553832558951 0 0.0015964370973650659 -0.00012568164300174375 0 0.0016089028096400579 -6.0081579504426111e-05 0 0.0016111086443813844 -7.4179315246299601e-05 0 0.0016089028096400579 -6.0081579504426111e-05 0 0.0015732915288094388 4.5888832953596403e-06 0 0.0016111086443813844 -7.4179315246299601e-05 0 0.0016089028096400579 -6.0081579504426111e-05 0 0.0015820494274510462 -5.965170854925915e-05 0 0.0016746558041606623 -0.00013134553832558951 0 0.0016089028096400579 -6.0081579504426111e-05 0 0.0015820494274510462 -5.965170854925915e-05 0 0.0015676609819233038 -2.3770290409948649e-06 0 0.0015820494274510462 -5.965170854925915e-05 0 0.0015492203589617874 -2.88526880947597e-05 0 0.0016509126184353639 -7.7124132432953535e-05 0 0.0015850059942120541 -6.8926176761162873e-05 0 0.0015413693196047831 -6.2904112078689719e-05 0 0.0015820494274510462 -5.965170854925915e-05 0 0.0015492203589617874 -2.88526880947597e-05 0 0.00043698523317063761 -5.7746281224088703e-06 0 0.00044040163948629854 1.3715515432799616e-05 0 0.0004656929734582086 -5.6396525124335607e-06 0 0.00052555002391113821 -8.0058735508561782e-05 0 0.0004142270661896908 2.296212760385353e-07 0 0.00044040163948629854 1.3715515432799616e-05 0 0.00046715364017749255 2.4617595765395423e-05 0 0.0004656929734582086 -5.6396525124335607e-06 0 0.0015506501406478963 -0.00055880701985183386 0 0.0016746090849083415 -0.00039029989433409331 0 0.0015513937284724322 -0.00036469018303763765 0 0.00052555002391113821 -8.0058735508561782e-05 0 0.00092455693559211917 -0.00029256039853067621 0 0.0015506501406478963 -0.00055880701985183386 0 0.0015513937284724322 -0.00036469018303763765 0 0.0014296344070145624 -0.00041168912092246764 0 0.00094666122790191436 -0.00026311439494553949 0 0.00083830912673409064 -0.00027627276845530589 0 0.00098061133905819661 -9.7362614169852583e-05 0 0.00092455693559211917 -0.00029256039853067621 0 0.0011671110317087031 -0.00012453744820459771 0 0.00052555002391113821 -8.0058735508561782e-05 0 0.0011671110317087031 -0.00012453744820459771 0 0.0016746558041606623 -0.00013134553832558951 0 0.0016746090849083415 -0.00039029989433409331 0 0.0016018498886110589 -0.00024390842487442282 0 0.0016746090849083415 -0.00039029989433409331 0 0.0015513937284724322 -0.00036469018303763765 0 0.0016018498886110589 -0.00024390842487442282 0 0.0015513937284724322 -0.00036469018303763765 0 0.0016018498886110589 -0.00024390842487442282 0 0.0015051421666586865 -0.00023120682783856581 0 0.00098134173550359438 5.6379477401600446e-05 0 0.0011671110317087031 -0.00012453744820459771 0 0.00047069869873203114 5.6079468212679636e-05 0 0.00044040163948629854 1.3715515432799616e-05 0 0.00046715364017749255 2.4617595765395423e-05 0 0.0015505237047083735 3.1982756074994895e-06 0 0.0015676609819233038 -2.3770290409948649e-06 0 0.0015637519175342549 2.0130996314046146e-05 0 0.0016509126184353639 -7.7124132432953535e-05 0 0.0011671110317087031 -0.00012453744820459771 0 0.00047069869873203114 5.6079468212679636e-05 0 0.00046715364017749255 2.4617595765395423e-05 0 0.00049476796036036124 3.6284952366999973e-05 0 0.00046715364017749255 2.4617595765395423e-05 0 0.00049476796036036124 3.6284952366999973e-05 0 0.0004656929734582086 -5.6396525124335607e-06 0 0.00052623702501053101 6.024974991703667e-05 0 0.00049476796036036124 3.6284952366999973e-05 0 0.00051091830105777589 3.6619311750578559e-06 0 0.00052623702501053101 6.024974991703667e-05 0 0.00051091830105777589 3.6619311750578559e-06 0 0.00055491724906878376 1.7381664441696522e-06 0 0.00079839177266120788 -3.2096515214160037e-05 0 0.00052853951026313585 2.1585939837622448e-05 0 0.00051091830105777589 3.6619311750578559e-06 0 0.00052433403771550498 -4.6063852814182035e-05 0 0.00055491724906878376 1.7381664441696522e-06 0 0.00051091830105777589 3.6619311750578559e-06 0 0.0004656929734582086 -5.6396525124335607e-06 0 0.00052433403771550498 -4.6063852814182035e-05 0 0.00049476796036036124 3.6284952366999973e-05 0 0.00051091830105777589 3.6619311750578559e-06 0 0.0004656929734582086 -5.6396525124335607e-06 0 0.0004656929734582086 -5.6396525124335607e-06 0 0.00052433403771550498 -4.6063852814182035e-05 0 0.00046976004397823024 -9.0283269870434257e-05 0 0.0004656929734582086 -5.6396525124335607e-06 0 0.00046976004397823024 -9.0283269870434257e-05 0 0.0004115072107978466 -5.9806184890266911e-05 0 0.00052433403771550498 -4.6063852814182035e-05 0 0.00053307556215298946 -0.00012192302448617809 0 0.00058982845822596111 -6.9837851961002413e-05 0 0.00052433403771550498 -4.6063852814182035e-05 0 0.00053307556215298946 -0.00012192302448617809 0 0.00046976004397823024 -9.0283269870434257e-05 0 0.00053307556215298946 -0.00012192302448617809 0 0.00046976004397823024 -9.0283269870434257e-05 0 0.00044849608346890984 -0.00018428387630259555 0 0.00046976004397823024 -9.0283269870434257e-05 0 0.0003837273578548394 -0.00012955348548123776 0 0.0004115072107978466 -5.9806184890266911e-05 0 0.00046976004397823024 -9.0283269870434257e-05 0 0.0003837273578548394 -0.00012955348548123776 0 0.00044849608346890984 -0.00018428387630259555 0 0.00036113102178234209 -7.077119646089516e-06 0 0.0004656929734582086 -5.6396525124335607e-06 0 0.0004115072107978466 -5.9806184890266911e-05 0 0.0003837273578548394 -0.00012955348548123776 0 0.0004115072107978466 -5.9806184890266911e-05 0 0.00033987999884979841 -8.0355035636805409e-05 0 0.00033727641857401092 -8.9150168858764426e-05 0 0.00031439937187984531 -9.211889325014513e-05 0 0.00032474969335210402 -0.00013417214824173608 0 0.00052555002391113821 -8.0058735508561782e-05 0 0.00033548542413447879 -0.00011098289650389235 0 0.00031439937187984531 -9.211889325014513e-05 0 0.00032474969335210402 -0.00013417214824173608 0 0.00027119159163938814 -0.00014263150887772349 0 0.00036113102178234209 -7.077119646089516e-06 0 0.0004115072107978466 -5.9806184890266911e-05 0 0.00033987999884979841 -8.0355035636805409e-05 0 0.0003837273578548394 -0.00012955348548123776 0 0.00033987999884979841 -8.0355035636805409e-05 0 0.00031185833501933333 -0.00017698196575098029 0 0.00032474969335210402 -0.00013417214824173608 0 0.00031185833501933333 -0.00017698196575098029 0 0.00027119159163938814 -0.00014263150887772349 0 0.00033548542413447879 -0.00011098289650389235 0 0.00031619757868791605 -0.00016811328720894956 0 0.0003837273578548394 -0.00012955348548123776 0 0.00031532379279340189 -0.00018400688267534068 0 0.00031185833501933333 -0.00017698196575098029 0 0.00031532379279340189 -0.00018400688267534068 0 0.00031208183461178937 -0.00023326160452683692 0 0.00028243717355913437 -0.00021341525777745609 0 0.00031532379279340189 -0.00018400688267534068 0 0.00031185833501933333 -0.00017698196575098029 0 0.00028243717355913437 -0.00021341525777745609 0 0.0003837273578548394 -0.00012955348548123776 0 0.00031532379279340189 -0.00018400688267534068 0 0.00044849608346890984 -0.00018428387630259555 0 0.00031532379279340189 -0.00018400688267534068 0 0.00031208183461178937 -0.00023326160452683692 0 0.00032315235099245569 -0.0002271477269527136 0 0.00031546157879543542 -0.00018297823693958214 0 0.00038198919496806324 -0.00020383591040159342 0 0.00031208183461178937 -0.00023326160452683692 0 0.00030803971085838016 -0.00025057196524586479 0 0.00032315235099245569 -0.0002271477269527136 0 0.00031208183461178937 -0.00023326160452683692 0 0.00030080225181176396 -0.00027715032591273971 0 0.00028243717355913437 -0.00021341525777745609 0 0.00031208183461178937 -0.00023326160452683692 0 0.00030080225181176396 -0.00027715032591273971 0 0.00030803971085838016 -0.00025057196524586479 0 0.00030443172400717694 -0.00029154314831459049 0 0.00028751864250387747 -0.00030465843311442423 0 0.00030080225181176396 -0.00027715032591273971 0 0.00030082247005743342 -0.00024615113905996548 0 0.0003455730979499426 -0.00025559803437279828 0 0.00030080225181176396 -0.00027715032591273971 0 0.00030803971085838016 -0.00025057196524586479 0 0.00030082247005743342 -0.00024615113905996548 0 0.00030803971085838016 -0.00025057196524586479 0 0.00029735470738289499 -0.00024467644291022844 0 0.00030082247005743342 -0.00024615113905996548 0 0.00029735470738289499 -0.00024467644291022844 0 0.00030082247005743342 -0.00024615113905996548 0 0.00029190003712126726 -0.0002104837581076223 0 0.00029735470738289499 -0.00024467644291022844 0 0.00027970976241989306 -0.00022573445029145783 0 0.00029190003712126726 -0.0002104837581076223 0 0.00030082247005743342 -0.00024615113905996548 0 0.00031855554170189806 -0.00021663829585711486 0 0.00029190003712126726 -0.0002104837581076223 0 0.00026924034712222497 -0.00023626564712673898 0 0.00027970976241989306 -0.00022573445029145783 0 0.00026298868417667253 -0.00022475066218306052 0 0.00029735470738289499 -0.00024467644291022844 0 0.00026924034712222497 -0.00023626564712673898 0 0.00027970976241989306 -0.00022573445029145783 0 0.00029721775367287683 -0.00024496571834534771 0 0.00030174885585943498 -0.00024407582537202792 0 0.00029735470738289499 -0.00024467644291022844 0 0.00032613041060088657 -0.00025410877439746143 0 0.00031705760254824929 -0.0002416604544056777 0 0.00030803971085838016 -0.00025057196524586479 0 0.00029735470738289499 -0.00024467644291022844 0 0.00031705760254824929 -0.0002416604544056777 0 0.00032613041060088657 -0.00025410877439746143 0 0.00031705760254824929 -0.0002416604544056777 0 0.00033337788838948528 -0.00024319549454678219 0 0.00031705760254824929 -0.0002416604544056777 0 0.00033337788838948528 -0.00024319549454678219 0 0.0003284858272061927 -0.00023175103201935555 0 0.00031705760254824929 -0.0002416604544056777 0 0.0003284858272061927 -0.00023175103201935555 0 0.00032315235099245569 -0.0002271477269527136 0 0.00030803971085838016 -0.00025057196524586479 0 0.00031705760254824929 -0.0002416604544056777 0 0.00032315235099245569 -0.0002271477269527136 0 0.00042887475431763785 -0.00020841321447695815 0 0.00038198919496806324 -0.00020383591040159342 0 0.00053307556215298946 -0.00012192302448617809 0 0.00053196262575582582 -0.00018857319891240929 0 0.00044849608346890984 -0.00018428387630259555 0 0.00053307556215298946 -0.00012192302448617809 0 0.00053196262575582582 -0.00018857319891240929 0 0.00058316376125612036 -0.00015512289754453478 0 0.00058316376125612036 -0.00015512289754453478 0 0.00063137153025673114 -0.00012515550076235636 0 0.00064225034371784078 -0.00017002059048006814 0 0.00058316376125612036 -0.00015512289754453478 0 0.00060079845533434427 -0.00020005298968803916 0 0.00064225034371784078 -0.00017002059048006814 0 0.00033337788838948528 -0.00024319549454678219 0 0.0003284858272061927 -0.00023175103201935555 0 0.00035367509307337612 -0.00023671907200255836 0 0.00042887475431763785 -0.00020841321447695815 0 0.00047965177847762323 -0.00023226500468474803 0 0.00053196262575582582 -0.00018857319891240929 0 0.00058316376125612036 -0.00015512289754453478 0 0.00060079845533434427 -0.00020005298968803916 0 0.00030174885585943498 -0.00024407582537202792 0 0.00028850459672950622 -0.00025260094094981314 0 0.00033337788838948528 -0.00024319549454678219 0 0.00035367509307337612 -0.00023671907200255836 0 0.00035054196722934805 -0.00025530348162793444 0 0.00032613041060088657 -0.00025410877439746143 0 0.00033337788838948528 -0.00024319549454678219 0 0.00035054196722934805 -0.00025530348162793444 0 0.00035367509307337612 -0.00023671907200255836 0 0.00035054196722934805 -0.00025530348162793444 0 0.00036591942218190817 -0.00024757562402964511 0 0.00028850459672950622 -0.00025260094094981314 0 0.00037686440847818604 -0.00015413983453137586 0 0.00047965177847762323 -0.00023226500468474803 0 0.00052934759248135987 -0.00013068715968984481 0 0.00035367509307337612 -0.00023671907200255836 0 0.00036591942218190817 -0.00024757562402964511 0 0.00038396493573970142 -0.00024573216287196366 0 0.00035054196722934805 -0.00025530348162793444 0 0.00036591942218190817 -0.00024757562402964511 0 0.00037990487962001954 -0.00025389476948007477 0 0.00025340189445962447 -0.00022443190716066818 0 0.00024325756138815681 -0.00023175747462805682 0 0.00024779254907906432 -0.00021730861443017835 0 0.00025465806488889466 -0.00023256224318580519 0 0.00025340189445962447 -0.00022443190716066818 0 0.00024325756138815681 -0.00023175747462805682 0 0.00025465806488889466 -0.00023256224318580519 0 0.00025340189445962447 -0.00022443190716066818 0 0.00026298868417667253 -0.00022475066218306052 0 0.00026924034712222497 -0.00023626564712673898 0 0.00025465806488889466 -0.00023256224318580519 0 0.00026298868417667253 -0.00022475066218306052 0 0.00046118208651361374 -2.7789757141914068e-06 0 0.00055430928374009436 -0.00013981757244151444 0 0.00046404661825722463 -2.2572967509952085e-05 0 0.00057406697114158482 -0.00018938380109516923 0 0.00042992452234733036 -0.00017838669364843708 0 0.00046404661825722463 -2.2572967509952085e-05 0 0.00051448420547636558 -7.1627256068024011e-06 0 0.00052687884140344761 7.7779629595110776e-06 0 0.00046404661825722463 -2.2572967509952085e-05 0 0.00051064151463259125 -8.4844999726021466e-06 0 0.00051403771948190489 4.4755933321587127e-06 0 0.00046404661825722463 -2.2572967509952085e-05 0 0.00051064151463259125 -8.4844999726021466e-06 0 0.00051448420547636558 -7.1627256068024011e-06 0 0.00051064151463259125 -8.4844999726021466e-06 0 0.00052010420236068232 -7.9157417178915309e-06 0 0.00053041456505073851 -4.7377750291902052e-06 0 0.00052010420236068232 -7.9157417178915309e-06 0 0.00052425102873587543 -7.4918593015302399e-06 0 0.00052117443700210107 -9.0357854533154296e-06 0 0.00051064151463259125 -8.4844999726021466e-06 0 0.00052010420236068232 -7.9157417178915309e-06 0 0.00051705950854835929 -8.4147725967995411e-06 0 0.00052010420236068232 -7.9157417178915309e-06 0 0.00051705950854835929 -8.4147725967995411e-06 0 0.00052117443700210107 -9.0357854533154296e-06 0 0.00051064151463259125 -8.4844999726021466e-06 0 0.00051705950854835929 -8.4147725967995411e-06 0 0.00051448420547636558 -7.1627256068024011e-06 0 0.00037686440847818604 -0.00015413983453137586 0 0.00029897950010817243 -0.00017862765675753895 0 0.00040191055915026033 1.3923826707815769e-05 0 0.00042992452234733036 -0.00017838669364843708 0 0.0002685479353502024 -0.00020600284961166932 0 0.00046404661825722463 -2.2572967509952085e-05 0 0.00040191055915026033 1.3923826707815769e-05 0 0.00042992452234733036 -0.00017838669364843708 0 0.00045697760822042234 -0.00010614570246279409 0 0.00046704897873943744 -8.5652850790913685e-05 0 0.0005122046333311997 -0.00010309210295836347 0 0.00037686440847818604 -0.00015413983453137586 0 0.00052934759248135987 -0.00013068715968984481 0 0.00036591942218190817 -0.00024757562402964511 0 0.00037990487962001954 -0.00025389476948007477 0 0.00038396493573970142 -0.00024573216287196366 0 0.00057893680044807669 -2.415082838219891e-05 0 0.00055148146288980324 -3.0396970121670684e-05 0 0.0005671192295018903 -5.2423839494850747e-05 0 0.00037686440847818604 -0.00015413983453137586 0 0.00052123594058796753 -5.0651550137899191e-05 0 0.00046404661825722463 -2.2572967509952085e-05 0 0.00040191055915026033 1.3923826707815769e-05 0 0.00051403771948190489 4.4755933321587127e-06 0 0.00052934759248135987 -0.00013068715968984481 0 0.00052123594058796753 -5.0651550137899191e-05 0 0.00057893680044807669 -2.415082838219891e-05 0 0.00054987404227236606 -8.7203285597969616e-06 0 0.00055148146288980324 -3.0396970121670684e-05 0 0.00054987404227236606 -8.7203285597969616e-06 0 0.00054085472289734377 -1.8952983783781466e-05 0 0.00055148146288980324 -3.0396970121670684e-05 0 0.00052010420236068232 -7.9157417178915309e-06 0 0.00053041456505073851 -4.7377750291902052e-06 0 0.00052425102873587543 -7.4918593015302399e-06 0 0.00053041456505073851 -4.7377750291902052e-06 0 0.00053010558273246407 -1.1746424795250825e-05 0 0.00052547900269903254 -9.2983691743377196e-06 0 0.00052425102873587543 -7.4918593015302399e-06 0 0.00052547900269903254 -9.2983691743377196e-06 0 0.00052117443700210107 -9.0357854533154296e-06 0 0.00053041456505073851 -4.7377750291902052e-06 0 0.00052425102873587543 -7.4918593015302399e-06 0 0.00052547900269903254 -9.2983691743377196e-06 0 0.00051064151463259125 -8.4844999726021466e-06 0 0.00053041456505073851 -4.7377750291902052e-06 0 0.00051403771948190489 4.4755933321587127e-06 0 0.00052310923313183839 -4.5841632081007215e-05 0 0.00052123594058796753 -5.0651550137899191e-05 0 0.00053041456505073851 -4.7377750291902052e-06 0 0.00054987404227236606 -8.7203285597969616e-06 0 0.00054085472289734377 -1.8952983783781466e-05 0 0.00053041456505073851 -4.7377750291902052e-06 0 0.00053010558273246407 -1.1746424795250825e-05 0 0.00054085472289734377 -1.8952983783781466e-05 0 0.00053010558273246407 -1.1746424795250825e-05 0 0.00054085472289734377 -1.8952983783781466e-05 0 0.00053409231125672667 -2.1324641319508185e-05 0 0.00054085472289734377 -1.8952983783781466e-05 0 0.00055148146288980324 -3.0396970121670684e-05 0 0.00053409231125672667 -2.1324641319508185e-05 0 0.00052934759248135987 -0.00013068715968984481 0 0.00063887153695351036 -0.00010380978759277464 0 0.00055148146288980324 -3.0396970121670684e-05 0 0.0005671192295018903 -5.2423839494850747e-05 0 0.0005553502953404624 -4.4587858376573317e-05 0 0.0005671192295018903 -5.2423839494850747e-05 0 0.00057610759225943612 -5.3492351748109002e-05 0 0.0005553502953404624 -4.4587858376573317e-05 0 0.00060079845533434427 -0.00020005298968803916 0 0.00066629567888429363 -0.00022223919113402844 0 0.00064225034371784078 -0.00017002059048006814 0 0.00066629567888429363 -0.00022223919113402844 0 0.00069258220861443819 -0.00016805454553259959 0 0.00064225034371784078 -0.00017002059048006814 0 0.00063137153025673114 -0.00012515550076235636 0 0.00064225034371784078 -0.00017002059048006814 0 0.00067464923979008615 -0.00012410145501616046 0 0.00069258220861443819 -0.00016805454553259959 0 0.00064225034371784078 -0.00017002059048006814 0 0.00067464923979008615 -0.00012410145501616046 0 0.00063887153695351036 -0.00010380978759277464 0 0.00065362566713625077 -8.4061487240739583e-05 0 0.00069258220861443819 -0.00016805454553259959 0 0.00067464923979008615 -0.00012410145501616046 0 0.0007121594756953133 -0.00010502694445851063 0 0.0005671192295018903 -5.2423839494850747e-05 0 0.00059355969094169829 -4.9763491052593944e-05 0 0.00057610759225943612 -5.3492351748109002e-05 0 0.0007121594756953133 -0.00010502694445851063 0 0.00069434142400420567 -6.3938778759600829e-05 0 0.00070535788501830809 -4.4981036290245442e-05 0 0.00067464923979008615 -0.00012410145501616046 0 0.0007121594756953133 -0.00010502694445851063 0 0.00069434142400420567 -6.3938778759600829e-05 0 0.00069434142400420567 -6.3938778759600829e-05 0 0.00066680604307170911 -4.9141307660135187e-06 0 0.00074729156957272153 -2.2052614267582791e-05 0 0.00069434142400420567 -6.3938778759600829e-05 0 0.00064326289150480826 -6.9415923390315354e-05 0 0.00066680604307170911 -4.9141307660135187e-06 0 0.00067464923979008615 -0.00012410145501616046 0 0.00069434142400420567 -6.3938778759600829e-05 0 0.00064326289150480826 -6.9415923390315354e-05 0 0.00063137153025673114 -0.00012515550076235636 0 0.00067464923979008615 -0.00012410145501616046 0 0.00064326289150480826 -6.9415923390315354e-05 0 0.00058316376125612036 -0.00015512289754453478 0 0.00063137153025673114 -0.00012515550076235636 0 0.00058982845822596111 -6.9837851961002413e-05 0 0.00063137153025673114 -0.00012515550076235636 0 0.00064326289150480826 -6.9415923390315354e-05 0 0.00058982845822596111 -6.9837851961002413e-05 0 0.00053307556215298946 -0.00012192302448617809 0 0.00058316376125612036 -0.00015512289754453478 0 0.00058982845822596111 -6.9837851961002413e-05 0 0.00058982845822596111 -6.9837851961002413e-05 0 0.00061473771558884379 -2.7203357927824027e-05 0 0.0005769688858646983 -9.475828922270979e-06 0 0.00060122048176797943 -7.9617077589787724e-05 0 0.00052853951026313585 2.1585939837622448e-05 0 0.00052433403771550498 -4.6063852814182035e-05 0 0.00058982845822596111 -6.9837851961002413e-05 0 0.00055491724906878376 1.7381664441696522e-06 0 0.00064326289150480826 -6.9415923390315354e-05 0 0.00061473771558884379 -2.7203357927824027e-05 0 0.00066680604307170911 -4.9141307660135187e-06 0 0.00064326289150480826 -6.9415923390315354e-05 0 0.00058982845822596111 -6.9837851961002413e-05 0 0.00061473771558884379 -2.7203357927824027e-05 0 0.00061473771558884379 -2.7203357927824027e-05 0 0.00060767340567779147 1.2704371573343075e-05 0 0.00066680604307170911 -4.9141307660135187e-06 0 0.0010053004841380482 -5.0790051369966705e-05 0 0.00085970594794836075 -9.6102533652434409e-06 0 0.00061473771558884379 -2.7203357927824027e-05 0 0.0005769688858646983 -9.475828922270979e-06 0 0.00060767340567779147 1.2704371573343075e-05 0 0.00079839177266120788 -3.2096515214160037e-05 0 0.0010053004841380482 -5.0790051369966705e-05 0 0.0005637003320127518 3.1417763486954845e-05 0 0.0005769688858646983 -9.475828922270979e-06 0 0.00060767340567779147 1.2704371573343075e-05 0 0.0013720129106599959 -0.00017992490238392649 0 0.0014633641514872515 -0.00016755425113462806 0 0.00131039900317948 -8.711894189055973e-05 0 0.001159222121770698 -0.00020318233407131059 0 0.00131039900317948 -8.711894189055973e-05 0 0.0010729322822149831 -8.4354968170153175e-06 0 0.001159222121770698 -0.00020318233407131059 0 0.0010132876414402684 -0.00013653625131245981 0 0.0010729322822149831 -8.4354968170153175e-06 0 0.00093618086481355974 -0.00022908107748295144 0 0.0010132876414402684 -0.00013653625131245981 0 0.00088311061102612856 -7.2487456193752302e-05 0 0.00085970594794836075 -9.6102533652434409e-06 0 0.00076968525993434313 -1.9090247924543717e-05 0 0.0010132876414402684 -0.00013653625131245981 0 0.00088311061102612856 -7.2487456193752302e-05 0 0.0010729322822149831 -8.4354968170153175e-06 0 0.00088311061102612856 -7.2487456193752302e-05 0 0.0010729322822149831 -8.4354968170153175e-06 0 0.00074729156957272153 -2.2052614267582791e-05 0 0.00074146802918231207 -5.1889726922546439e-05 0 0.00075798000352936506 -0.000103239874176526 0 0.00068538173371764034 -5.1271184192023427e-05 0 0.00082343811475925257 -0.00010347038113025574 0 0.00070700639377072733 -5.236705373211098e-05 0 0.00088793614553094133 -9.4988100772878898e-05 0 0.00070088219054770121 -8.713765764742861e-05 0 0.00068538173371764034 -5.1271184192023427e-05 0 0.00088311061102612856 -7.2487456193752302e-05 0 0.00074146802918231207 -5.1889726922546439e-05 0 0.00074729156957272153 -2.2052614267582791e-05 0 0.00088311061102612856 -7.2487456193752302e-05 0 0.00074146802918231207 -5.1889726922546439e-05 0 0.00075798000352936506 -0.000103239874176526 0 0.00092005925713545982 -0.00017890302394143727 0 0.0010540052607712137 -0.00017630639240273695 0 0.00088793614553094133 -9.4988100772878898e-05 0 0.00099429789432065605 -0.00020189324952126072 0 0.00082343811475925257 -0.00010347038113025574 0 0.00093618086481355974 -0.00022908107748295144 0 0.00088311061102612856 -7.2487456193752302e-05 0 0.00075798000352936506 -0.000103239874176526 0 0.00088793614553094133 -9.4988100772878898e-05 0 0.00081798234747919351 -0.00015524970598297341 0 0.00070088219054770121 -8.713765764742861e-05 0 0.00092005925713545982 -0.00017890302394143727 0 0.00088793614553094133 -9.4988100772878898e-05 0 0.00081798234747919351 -0.00015524970598297341 0 0.00081798234747919351 -0.00015524970598297341 0 0.00066540200765454675 -0.00014709779747584613 0 0.00070088219054770121 -8.713765764742861e-05 0 0.00066540200765454675 -0.00014709779747584613 0 0.00063190112141503355 -8.803332272626611e-05 0 0.00059046973047508335 -0.00010784803242165908 0 0.00059749156616901143 -0.00022697891762945619 0 0.00066540200765454675 -0.00014709779747584613 0 0.00059046973047508335 -0.00010784803242165908 0 0.00063190112141503355 -8.803332272626611e-05 0 0.00061069798406082545 -7.6451383367319217e-05 0 0.00060146269462077906 -7.7138859744165758e-05 0 0.00063190112141503355 -8.803332272626611e-05 0 0.00061069798406082545 -7.6451383367319217e-05 0 0.00059046973047508335 -0.00010784803242165908 0 0.00063190112141503355 -8.803332272626611e-05 0 0.00070088219054770121 -8.713765764742861e-05 0 0.00060146269462077906 -7.7138859744165758e-05 0 0.00066540200765454675 -0.00014709779747584613 0 0.00063190112141503355 -8.803332272626611e-05 0 0.00070088219054770121 -8.713765764742861e-05 0 0.00070088219054770121 -8.713765764742861e-05 0 0.00060146269462077906 -7.7138859744165758e-05 0 0.00068538173371764034 -5.1271184192023427e-05 0 0.00060146269462077906 -7.7138859744165758e-05 0 0.00060066025619519726 -6.706873673514666e-05 0 0.00068538173371764034 -5.1271184192023427e-05 0 0.00061069798406082545 -7.6451383367319217e-05 0 0.00060146269462077906 -7.7138859744165758e-05 0 0.0005746819202994643 -0.00010745306009930078 0 0.00060146269462077906 -7.7138859744165758e-05 0 0.0005746819202994643 -0.00010745306009930078 0 0.00054773157340289285 -8.7107136587537035e-05 0 0.0005746819202994643 -0.00010745306009930078 0 0.00054773157340289285 -8.7107136587537035e-05 0 0.00046749039828433665 -8.8512720705031687e-05 0 0.00054773157340289285 -8.7107136587537035e-05 0 0.00053217030881574999 -6.9172317796285348e-05 0 0.00046669753809134819 -6.8754684695602542e-05 0 0.00054773157340289285 -8.7107136587537035e-05 0 0.00046669753809134819 -6.8754684695602542e-05 0 0.00046749039828433665 -8.8512720705031687e-05 0 0.00060146269462077906 -7.7138859744165758e-05 0 0.00054773157340289285 -8.7107136587537035e-05 0 0.00060066025619519726 -6.706873673514666e-05 0 0.00054773157340289285 -8.7107136587537035e-05 0 0.00060066025619519726 -6.706873673514666e-05 0 0.00053217030881574999 -6.9172317796285348e-05 0 0.00060066025619519726 -6.706873673514666e-05 0 0.00057570744845608364 -6.1820455561298497e-05 0 0.00053217030881574999 -6.9172317796285348e-05 0 0.00060066025619519726 -6.706873673514666e-05 0 0.00057570744845608364 -6.1820455561298497e-05 0 0.00065585800356231889 -5.1282127233620119e-05 0 0.00057570744845608364 -6.1820455561298497e-05 0 0.0006107002241871332 -5.464651697058081e-05 0 0.00065585800356231889 -5.1282127233620119e-05 0 0.0006107002241871332 -5.464651697058081e-05 0 0.00065585800356231889 -5.1282127233620119e-05 0 0.00063091844851660174 -4.8975151891349173e-05 0 0.00060066025619519726 -6.706873673514666e-05 0 0.00065585800356231889 -5.1282127233620119e-05 0 0.00068538173371764034 -5.1271184192023427e-05 0 0.00074146802918231207 -5.1889726922546439e-05 0 0.00068538173371764034 -5.1271184192023427e-05 0 0.00070719047110042994 -4.3578819422889834e-05 0 0.00065585800356231889 -5.1282127233620119e-05 0 0.00068538173371764034 -5.1271184192023427e-05 0 0.00070719047110042994 -4.3578819422889834e-05 0 0.00069434142400420567 -6.3938778759600829e-05 0 0.00074729156957272153 -2.2052614267582791e-05 0 0.00070535788501830809 -4.4981036290245442e-05 0 0.00074146802918231207 -5.1889726922546439e-05 0 0.00074729156957272153 -2.2052614267582791e-05 0 0.00070719047110042994 -4.3578819422889834e-05 0 0.00074729156957272153 -2.2052614267582791e-05 0 0.00070719047110042994 -4.3578819422889834e-05 0 0.00070535788501830809 -4.4981036290245442e-05 0 0.00065585800356231889 -5.1282127233620119e-05 0 0.00070719047110042994 -4.3578819422889834e-05 0 0.00070535788501830809 -4.4981036290245442e-05 0 0.00065362566713625077 -8.4061487240739583e-05 0 0.00069189407132984055 -5.2530118022023429e-05 0 0.00059355969094169829 -4.9763491052593944e-05 0 0.00070535788501830809 -4.4981036290245442e-05 0 0.00063091844851660174 -4.8975151891349173e-05 0 0.00065585800356231889 -5.1282127233620119e-05 0 0.00070535788501830809 -4.4981036290245442e-05 0 0.00063091844851660174 -4.8975151891349173e-05 0 0.00063091844851660174 -4.8975151891349173e-05 0 0.00057610759225943612 -5.3492351748109002e-05 0 0.00056788224845785999 -5.3070613781763592e-05 0 0.00059355969094169829 -4.9763491052593944e-05 0 0.00063091844851660174 -4.8975151891349173e-05 0 0.00057610759225943612 -5.3492351748109002e-05 0 0.00057570744845608364 -6.1820455561298497e-05 0 0.00056788224845785999 -5.3070613781763592e-05 0 0.00052766174487295565 -5.7489676820463903e-05 0 0.0006107002241871332 -5.464651697058081e-05 0 0.00063091844851660174 -4.8975151891349173e-05 0 0.00056788224845785999 -5.3070613781763592e-05 0 0.00057570744845608364 -6.1820455561298497e-05 0 0.0006107002241871332 -5.464651697058081e-05 0 0.00056788224845785999 -5.3070613781763592e-05 0 0.00056788224845785999 -5.3070613781763592e-05 0 0.0005254325980284018 -4.6078254292653769e-05 0 0.00052766174487295565 -5.7489676820463903e-05 0 0.00056788224845785999 -5.3070613781763592e-05 0 0.0005254325980284018 -4.6078254292653769e-05 0 0.00054471879448706687 -4.4053595448803464e-05 0 0.0005254325980284018 -4.6078254292653769e-05 0 0.00054471879448706687 -4.4053595448803464e-05 0 0.00051363205244358287 -3.2126118689748592e-05 0 0.0005254325980284018 -4.6078254292653769e-05 0 0.00051363205244358287 -3.2126118689748592e-05 0 0.00048951386400365553 -3.8838116396210673e-05 0 0.0005254325980284018 -4.6078254292653769e-05 0 0.00048951386400365553 -3.8838116396210673e-05 0 0.00048601613960931416 -4.7771381508633394e-05 0 0.00057610759225943612 -5.3492351748109002e-05 0 0.00054471879448706687 -4.4053595448803464e-05 0 0.0005553502953404624 -4.4587858376573317e-05 0 0.00057610759225943612 -5.3492351748109002e-05 0 0.00056788224845785999 -5.3070613781763592e-05 0 0.00054471879448706687 -4.4053595448803464e-05 0 0.00054471879448706687 -4.4053595448803464e-05 0 0.0005553502953404624 -4.4587858376573317e-05 0 0.00053628951845130946 -3.178465306574074e-05 0 0.00055148146288980324 -3.0396970121670684e-05 0 0.0005553502953404624 -4.4587858376573317e-05 0 0.00053628951845130946 -3.178465306574074e-05 0 0.00055148146288980324 -3.0396970121670684e-05 0 0.00053628951845130946 -3.178465306574074e-05 0 0.00053409231125672667 -2.1324641319508185e-05 0 0.00053628951845130946 -3.178465306574074e-05 0 0.00053409231125672667 -2.1324641319508185e-05 0 0.00052247834391498844 -2.058883012135021e-05 0 0.00053409231125672667 -2.1324641319508185e-05 0 0.00052247834391498844 -2.058883012135021e-05 0 0.00052667854687883252 -1.4503335938359988e-05 0 0.00053010558273246407 -1.1746424795250825e-05 0 0.00053409231125672667 -2.1324641319508185e-05 0 0.00052667854687883252 -1.4503335938359988e-05 0 0.00052247834391498844 -2.058883012135021e-05 0 0.00052119087290735744 -1.1958940209417108e-05 0 0.00052667854687883252 -1.4503335938359988e-05 0 0.00052247834391498844 -2.058883012135021e-05 0 0.00052119087290735744 -1.1958940209417108e-05 0 0.00051316331026632258 -1.3407436610452122e-05 0 0.00052119087290735744 -1.1958940209417108e-05 0 0.00052547900269903254 -9.2983691743377196e-06 0 0.00052667854687883252 -1.4503335938359988e-05 0 0.00052119087290735744 -1.1958940209417108e-05 0 0.00052547900269903254 -9.2983691743377196e-06 0 0.00052117443700210107 -9.0357854533154296e-06 0 0.00053010558273246407 -1.1746424795250825e-05 0 0.00052547900269903254 -9.2983691743377196e-06 0 0.00052667854687883252 -1.4503335938359988e-05 0 0.00052247834391498844 -2.058883012135021e-05 0 0.0005015403477681954 -1.9349501533819643e-05 0 0.00051316331026632258 -1.3407436610452122e-05 0 0.00052247834391498844 -2.058883012135021e-05 0 0.00051363205244358287 -3.2126118689748592e-05 0 0.0005015403477681954 -1.9349501533819643e-05 0 0.00054471879448706687 -4.4053595448803464e-05 0 0.00053628951845130946 -3.178465306574074e-05 0 0.00051363205244358287 -3.2126118689748592e-05 0 0.00053628951845130946 -3.178465306574074e-05 0 0.00052247834391498844 -2.058883012135021e-05 0 0.00051363205244358287 -3.2126118689748592e-05 0 0.00051363205244358287 -3.2126118689748592e-05 0 0.00048951386400365553 -3.8838116396210673e-05 0 0.00046781298364952112 -2.5586144692859201e-05 0 0.00046781298364952112 -2.5586144692859201e-05 0 0.0005015403477681954 -1.9349501533819643e-05 0 0.00047507765841001116 -1.2314828524299821e-05 0 0.00051363205244358287 -3.2126118689748592e-05 0 0.00046781298364952112 -2.5586144692859201e-05 0 0.0005015403477681954 -1.9349501533819643e-05 0 0.0005015403477681954 -1.9349501533819643e-05 0 0.00047507765841001116 -1.2314828524299821e-05 0 0.00049980829639003407 -8.7180600883319968e-06 0 0.00046781298364952112 -2.5586144692859201e-05 0 0.00047507765841001116 -1.2314828524299821e-05 0 0.00043295423959870312 -6.8726874273902244e-06 0 0.00047507765841001116 -1.2314828524299821e-05 0 0.00046955025101249568 2.9913419078621857e-06 0 0.00043295423959870312 -6.8726874273902244e-06 0 0.00046955025101249568 2.9913419078621857e-06 0 0.00043295423959870312 -6.8726874273902244e-06 0 0.00041748793059808185 2.5946683414653778e-05 0 0.00047507765841001116 -1.2314828524299821e-05 0 0.00046955025101249568 2.9913419078621857e-06 0 0.00049980829639003407 -8.7180600883319968e-06 0 0.00046955025101249568 2.9913419078621857e-06 0 0.00050426801891066838 3.0131754226618077e-07 0 0.00049980829639003407 -8.7180600883319968e-06 0 0.00050426801891066838 3.0131754226618077e-07 0 0.00051467444219790352 -8.6239579344581872e-06 0 0.00049980829639003407 -8.7180600883319968e-06 0 0.00051448420547636558 -7.1627256068024011e-06 0 0.00050426801891066838 3.0131754226618077e-07 0 0.00052687884140344761 7.7779629595110776e-06 0 0.00051448420547636558 -7.1627256068024011e-06 0 0.00050426801891066838 3.0131754226618077e-07 0 0.00051467444219790352 -8.6239579344581872e-06 0 0.00051705950854835929 -8.4147725967995411e-06 0 0.00051448420547636558 -7.1627256068024011e-06 0 0.00051467444219790352 -8.6239579344581872e-06 0 0.00051705950854835929 -8.4147725967995411e-06 0 0.00051467444219790352 -8.6239579344581872e-06 0 0.00052117443700210107 -9.0357854533154296e-06 0 0.00052119087290735744 -1.1958940209417108e-05 0 0.00051467444219790352 -8.6239579344581872e-06 0 0.00052117443700210107 -9.0357854533154296e-06 0 0.00052119087290735744 -1.1958940209417108e-05 0 0.00051467444219790352 -8.6239579344581872e-06 0 0.00051316331026632258 -1.3407436610452122e-05 0 0.00051467444219790352 -8.6239579344581872e-06 0 0.00049980829639003407 -8.7180600883319968e-06 0 0.00051316331026632258 -1.3407436610452122e-05 0 0.0005015403477681954 -1.9349501533819643e-05 0 0.00049980829639003407 -8.7180600883319968e-06 0 0.00051316331026632258 -1.3407436610452122e-05 0 0.00030915701394249143 -8.4339816383219781e-06 0 0.00038639182863701288 -1.847868892036038e-05 0 0.00030894882165830874 -2.7262069236512578e-05 0 0.00030915701394249143 -8.4339816383219781e-06 0 0.00038639182863701288 -1.847868892036038e-05 0 0.00036089792890401956 7.6277421638480566e-06 0 0.00043295423959870312 -6.8726874273902244e-06 0 0.00038639182863701288 -1.847868892036038e-05 0 0.00036089792890401956 7.6277421638480566e-06 0 0.00046781298364952112 -2.5586144692859201e-05 0 0.00043295423959870312 -6.8726874273902244e-06 0 0.00038639182863701288 -1.847868892036038e-05 0 0.00046781298364952112 -2.5586144692859201e-05 0 0.00038639182863701288 -1.847868892036038e-05 0 0.00042559145397845364 -3.7946075751279028e-05 0 0.00048951386400365553 -3.8838116396210673e-05 0 0.00046781298364952112 -2.5586144692859201e-05 0 0.00042559145397845364 -3.7946075751279028e-05 0 0.00038639182863701288 -1.847868892036038e-05 0 0.00042559145397845364 -3.7946075751279028e-05 0 0.00030894882165830874 -2.7262069236512578e-05 0 0.00042559145397845364 -3.7946075751279028e-05 0 0.00036780297227161784 -4.2663617476943133e-05 0 0.00030894882165830874 -2.7262069236512578e-05 0 0.00042559145397845364 -3.7946075751279028e-05 0 0.00046384017005221209 -5.5072733206471222e-05 0 0.00036780297227161784 -4.2663617476943133e-05 0 0.00046384017005221209 -5.5072733206471222e-05 0 0.00046669753809134819 -6.8754684695602542e-05 0 0.00036780297227161784 -4.2663617476943133e-05 0 0.00042559145397845364 -3.7946075751279028e-05 0 0.00046384017005221209 -5.5072733206471222e-05 0 0.00048601613960931416 -4.7771381508633394e-05 0 0.00048951386400365553 -3.8838116396210673e-05 0 0.00042559145397845364 -3.7946075751279028e-05 0 0.00048601613960931416 -4.7771381508633394e-05 0 0.00046384017005221209 -5.5072733206471222e-05 0 0.00048601613960931416 -4.7771381508633394e-05 0 0.00052766174487295565 -5.7489676820463903e-05 0 0.0005254325980284018 -4.6078254292653769e-05 0 0.00048601613960931416 -4.7771381508633394e-05 0 0.00052766174487295565 -5.7489676820463903e-05 0 0.00046384017005221209 -5.5072733206471222e-05 0 0.00052766174487295565 -5.7489676820463903e-05 0 0.00053217030881574999 -6.9172317796285348e-05 0 0.00057570744845608364 -6.1820455561298497e-05 0 0.00052766174487295565 -5.7489676820463903e-05 0 0.00053217030881574999 -6.9172317796285348e-05 0 0.00046384017005221209 -5.5072733206471222e-05 0 0.00053217030881574999 -6.9172317796285348e-05 0 0.00046669753809134819 -6.8754684695602542e-05 0 0.00046669753809134819 -6.8754684695602542e-05 0 0.00037070350830335086 -5.8289599223317711e-05 0 0.00036780297227161784 -4.2663617476943133e-05 0 0.00037070350830335086 -5.8289599223317711e-05 0 0.00033382064612563821 -0.00011561547473717924 0 0.00046749039828433665 -8.8512720705031687e-05 0 0.00046669753809134819 -6.8754684695602542e-05 0 0.00037070350830335086 -5.8289599223317711e-05 0 0.00046749039828433665 -8.8512720705031687e-05 0 0.00046304632131992162 -2.2873860392081944e-05 0 0.00053972515723082375 -9.734128793278619e-05 0 0.00037070350830335086 -5.8289599223317711e-05 0 0.00027359351193011427 -4.0648553117224088e-05 0 0.00033382064612563821 -0.00011561547473717924 0 0.00027359351193011427 -4.0648553117224088e-05 0 0.0002201813220867117 -2.7018132962488606e-05 0 0.00033382064612563821 -0.00011561547473717924 0 0.00037070350830335086 -5.8289599223317711e-05 0 0.00027359351193011427 -4.0648553117224088e-05 0 0.00026659156433368926 -3.4338738996427517e-05 0 0.00027359351193011427 -4.0648553117224088e-05 0 0.00026659156433368926 -3.4338738996427517e-05 0 0.00020731447758439282 -2.6935794074349859e-05 0 0.00026659156433368926 -3.4338738996427517e-05 0 0.00036780297227161784 -4.2663617476943133e-05 0 0.00027295378103540864 -3.2552184129928138e-05 0 0.00037070350830335086 -5.8289599223317711e-05 0 0.00026659156433368926 -3.4338738996427517e-05 0 0.00036780297227161784 -4.2663617476943133e-05 0 0.00030894882165830874 -2.7262069236512578e-05 0 0.00027295378103540864 -3.2552184129928138e-05 0 0.00019118464832795602 -2.7374277866631562e-05 0 0.00036780297227161784 -4.2663617476943133e-05 0 0.00030894882165830874 -2.7262069236512578e-05 0 0.00027295378103540864 -3.2552184129928138e-05 0 0.00026659156433368926 -3.4338738996427517e-05 0 0.00020979641469710304 -3.1408083952083276e-05 0 0.00020731447758439282 -2.6935794074349859e-05 0 0.00026659156433368926 -3.4338738996427517e-05 0 0.00027295378103540864 -3.2552184129928138e-05 0 0.00020979641469710304 -3.1408083952083276e-05 0 0.00020979641469710304 -3.1408083952083276e-05 0 0.00019118464832795602 -2.7374277866631562e-05 0 0.00011909411600730616 -2.6285214283815078e-05 0 0.00027295378103540864 -3.2552184129928138e-05 0 0.00020979641469710304 -3.1408083952083276e-05 0 0.00019118464832795602 -2.7374277866631562e-05 0 0.00019118464832795602 -2.7374277866631562e-05 0 0.00011909411600730616 -2.6285214283815078e-05 0 0.00012414860006829912 -1.8898231084678568e-05 0 0.00019118464832795602 -2.7374277866631562e-05 0 0.00021476873023705838 -1.2780544218086092e-05 0 0.00012414860006829912 -1.8898231084678568e-05 0 0.00030915701394249143 -8.4339816383219781e-06 0 0.00030894882165830874 -2.7262069236512578e-05 0 0.00021476873023705838 -1.2780544218086092e-05 0 0.00030894882165830874 -2.7262069236512578e-05 0 0.00019118464832795602 -2.7374277866631562e-05 0 0.00021476873023705838 -1.2780544218086092e-05 0 0.00011909411600730616 -2.6285214283815078e-05 0 0.00015991877210293353 -2.2433875592101133e-05 0 -5.4105328309086553e-05 -6.338656892120502e-08 0 0.00015991877210293353 -2.2433875592101133e-05 0 0.0002430725445161044 -8.8592890714871378e-08 0 -5.4105328309086553e-05 -6.338656892120502e-08 0 0.00020979641469710304 -3.1408083952083276e-05 0 0.00011909411600730616 -2.6285214283815078e-05 0 0.00020731447758439282 -2.6935794074349859e-05 0 0.00011909411600730616 -2.6285214283815078e-05 0 0.00020731447758439282 -2.6935794074349859e-05 0 0.00015991877210293353 -2.2433875592101133e-05 0 0.00020731447758439282 -2.6935794074349859e-05 0 0.00015991877210293353 -2.2433875592101133e-05 0 0.00024902397735392828 -2.3023176216962205e-05 0 0.00015991877210293353 -2.2433875592101133e-05 0 0.0002430725445161044 -8.8592890714871378e-08 0 0.00024902397735392828 -2.3023176216962205e-05 0 0.0002430725445161044 -8.8592890714871378e-08 0 0.00036685989048306362 8.6499746461256866e-08 0 0.00024902397735392828 -2.3023176216962205e-05 0 0.00036685989048306362 8.6499746461256866e-08 0 0.00024902397735392828 -2.3023176216962205e-05 0 0.0002201813220867117 -2.7018132962488606e-05 0 0.00039148372441765399 -4.2200933930067234e-06 0 0.00046304632131992162 -2.2873860392081944e-05 0 0.00020731447758439282 -2.6935794074349859e-05 0 0.00024902397735392828 -2.3023176216962205e-05 0 0.0002201813220867117 -2.7018132962488606e-05 0 0.00027359351193011427 -4.0648553117224088e-05 0 0.00020731447758439282 -2.6935794074349859e-05 0 0.0002201813220867117 -2.7018132962488606e-05 0 0.00036758897009294631 1.8271345446217432e-07 0 0.00070357637384626018 5.4108549229771786e-06 0 0.00054014906862294106 -8.3801325085346138e-08 0 0.00070357637384626018 5.4108549229771786e-06 0 0.00054014906862294106 -8.3801325085346138e-08 0 0.00076467457461980586 -6.2457874748087525e-05 0 0.00054014906862294106 -8.3801325085346138e-08 0 0.00083725336872172702 -1.586244714186851e-07 0 0.00076467457461980586 -6.2457874748087525e-05 0 0.00083725336872172702 -1.586244714186851e-07 0 0.00076467457461980586 -6.2457874748087525e-05 0 0.00089485143846007521 -3.4660425822689335e-05 0 0.00076467457461980586 -6.2457874748087525e-05 0 0.00078814709743513451 -6.5268233573284858e-05 0 0.00089485143846007521 -3.4660425822689335e-05 0 0.00070357637384626018 5.4108549229771786e-06 0 0.00076467457461980586 -6.2457874748087525e-05 0 0.00075838727673759607 -0.00010330258690818185 0 0.00076467457461980586 -6.2457874748087525e-05 0 0.00075838727673759607 -0.00010330258690818185 0 0.00078814709743513451 -6.5268233573284858e-05 0 0.0005746819202994643 -0.00010745306009930078 0 0.00033382064612563821 -0.00011561547473717924 0 0.00046749039828433665 -8.8512720705031687e-05 0 0.00056060737522874095 -0.00010319901208343595 0 0.00053972515723082375 -9.734128793278619e-05 0 0.0005746819202994643 -0.00010745306009930078 0 0.00075838727673759607 -0.00010330258690818185 0 0.00064678201813917803 -6.9008742764800241e-05 0 0.00061069798406082545 -7.6451383367319217e-05 0 0.0005746819202994643 -0.00010745306009930078 0 0.00064678201813917803 -6.9008742764800241e-05 0 0.00075838727673759607 -0.00010330258690818185 0 0.00064678201813917803 -6.9008742764800241e-05 0 0.00078814709743513451 -6.5268233573284858e-05 0 0.00078814709743513451 -6.5268233573284858e-05 0 0.00076138854390112758 5.8706284052726554e-06 0 0.0008626148165661123 -1.0134568211508981e-05 0 0.00064678201813917803 -6.9008742764800241e-05 0 0.00078814709743513451 -6.5268233573284858e-05 0 0.00076138854390112758 5.8706284052726554e-06 0 0.00061069798406082545 -7.6451383367319217e-05 0 0.00064678201813917803 -6.9008742764800241e-05 0 0.00059046973047508335 -0.00010784803242165908 0 0.00064678201813917803 -6.9008742764800241e-05 0 0.00076138854390112758 5.8706284052726554e-06 0 0.00066820832738535244 3.9051879829593048e-05 0 0.00064421799465456974 -7.0456341856871713e-05 0 0.00063258726474664908 -4.4605927290728494e-05 0 0.00061594829864791516 5.2689371622755013e-06 0 0.00063258726474664908 -4.4605927290728494e-05 0 0.00076373680936575323 0.00012066277694970584 0 0.00065083044805639995 0.0001853258537233212 0 0.00066820832738535244 3.9051879829593048e-05 0 0.00076373680936575323 0.00012066277694970584 0 0.00076138854390112758 5.8706284052726554e-06 0 0.00066820832738535244 3.9051879829593048e-05 0 0.00076373680936575323 0.00012066277694970584 0 0.00076138854390112758 5.8706284052726554e-06 0 0.00083582729973566547 6.1292779437418981e-05 0 0.00076138854390112758 5.8706284052726554e-06 0 0.00083582729973566547 6.1292779437418981e-05 0 0.0008626148165661123 -1.0134568211508981e-05 0 0.00086290173620124473 0.00014804886014733966 0 0.00076373680936575323 0.00012066277694970584 0 0.00083582729973566547 6.1292779437418981e-05 0 0.00083582729973566547 6.1292779437418981e-05 0 0.00094874044526571568 6.3454613839165213e-05 0 0.0008626148165661123 -1.0134568211508981e-05 0 0.00094874044526571568 6.3454613839165213e-05 0 0.00099761918730174697 -3.8460499405343266e-06 0 0.0008626148165661123 -1.0134568211508981e-05 0 0.00086290173620124473 0.00014804886014733966 0 0.00083582729973566547 6.1292779437418981e-05 0 0.00094874044526571568 6.3454613839165213e-05 0 0.0012303061533320016 4.0271272860036142e-05 0 0.00094874044526571568 6.3454613839165213e-05 0 0.00099761918730174697 -3.8460499405343266e-06 0 0.0012303061533320016 4.0271272860036142e-05 0 0.0011342756509516313 9.9786305398615358e-08 0 0.00099761918730174697 -3.8460499405343266e-06 0 0.0011342756509516313 9.9786305398615358e-08 0 0.00099761918730174697 -3.8460499405343266e-06 0 0.00089485143846007521 -3.4660425822689335e-05 0 0.00083725336872172702 -1.586244714186851e-07 0 0.0011342756509516313 9.9786305398615358e-08 0 0.00089485143846007521 -3.4660425822689335e-05 0 0.00078814709743513451 -6.5268233573284858e-05 0 0.00089485143846007521 -3.4660425822689335e-05 0 0.0008626148165661123 -1.0134568211508981e-05 0 0.00099761918730174697 -3.8460499405343266e-06 0 0.00089485143846007521 -3.4660425822689335e-05 0 0.0008626148165661123 -1.0134568211508981e-05 0 0.0029657244733175647 0.00027480822850441588 0 0.0030476407041237219 0.00029676777628105466 0 0.0030504323466919881 0.0002060405053455572 0 0.0029657244733175647 0.00027480822850441588 0 0.0029595401748773132 0.00037013759481839922 0 0.0030476407041237219 0.00029676777628105466 0 0.0029657244733175647 0.00027480822850441588 0 0.0028971631608749422 0.00031314538972352805 0 0.0029595401748773132 0.00037013759481839922 0 0.0029657244733175647 0.00027480822850441588 0 0.0028971631608749422 0.00031314538972352805 0 0.0028830379321248562 0.00020949045208664918 0 0.002881515227676774 0.00042997380163124858 0 0.0029595401748773132 0.00037013759481839922 0 0.0030076337738457856 0.0004852435934662662 0 0.0028971631608749422 0.00031314538972352805 0 0.002881515227676774 0.00042997380163124858 0 0.0029595401748773132 0.00037013759481839922 0 0.0029595401748773132 0.00037013759481839922 0 0.0030398655602141395 0.00039016925242626413 0 0.0030076337738457856 0.0004852435934662662 0 0.0029595401748773132 0.00037013759481839922 0 0.0030398655602141395 0.00039016925242626413 0 0.0030476407041237219 0.00029676777628105466 0 0.0030398655602141395 0.00039016925242626413 0 0.0030961325394577677 0.00035144733484625393 0 0.0030985318405802515 0.00044827580880903368 0 0.0030961325394577677 0.00035144733484625393 0 0.0031676674950125378 0.00039187277478100225 0 0.0031227524350808289 0.00028027972743927963 0 0.0031676674950125378 0.00039187277478100225 0 0.0031982135639215896 0.00047369805290278127 0 0.0030985318405802515 0.00044827580880903368 0 0.0030961325394577677 0.00035144733484625393 0 0.0031676674950125378 0.00039187277478100225 0 0.0030985318405802515 0.00044827580880903368 0 0.0030398655602141395 0.00039016925242626413 0 0.0030961325394577677 0.00035144733484625393 0 0.0030476407041237219 0.00029676777628105466 0 0.0031676674950125378 0.00039187277478100225 0 0.0032375037370237681 0.00034283907251734207 0 0.0032659156371015949 0.00046029064261532589 0 0.0031676674950125378 0.00039187277478100225 0 0.0031982135639215896 0.00047369805290278127 0 0.0032659156371015949 0.00046029064261532589 0 0.0031676674950125378 0.00039187277478100225 0 0.0032375037370237681 0.00034283907251734207 0 0.0031227524350808289 0.00028027972743927963 0 0.0032375037370237681 0.00034283907251734207 0 0.0031227524350808289 0.00028027972743927963 0 0.0032219461934787363 0.00022039304498520021 0 0.003135364372341797 0.00026319890886098433 0 0.0031357663632945311 0.00020887386282494703 0 0.0031227524350808289 0.00028027972743927963 0 0.0031575374116490315 0.000223759880243624 0 0.0031216361811679571 0.00019758434853509377 0 0.0030961325394577677 0.00035144733484625393 0 0.0030476407041237219 0.00029676777628105466 0 0.0031227524350808289 0.00028027972743927963 0 0.0030476407041237219 0.00029676777628105466 0 0.0031227524350808289 0.00028027972743927963 0 0.0030949444784908794 0.00022440196788649553 0 0.0030476407041237219 0.00029676777628105466 0 0.0030504323466919881 0.0002060405053455572 0 0.0030949444784908794 0.00022440196788649553 0 0.0030949444784908794 0.00022440196788649553 0 0.0031026000355249442 0.00017738472141866073 0 0.0031216361811679571 0.00019758434853509377 0 0.0031227524350808289 0.00028027972743927963 0 0.0030949444784908794 0.00022440196788649553 0 0.0031216361811679571 0.00019758434853509377 0 0.0030504323466919881 0.0002060405053455572 0 0.0030949444784908794 0.00022440196788649553 0 0.0031026000355249442 0.00017738472141866073 0 0.0031026000355249442 0.00017738472141866073 0 0.0031216361811679571 0.00019758434853509377 0 0.0031251141645692732 0.00018482435166497897 0 0.0031234149174300526 0.00019277242322912518 0 0.0031216361811679571 0.00019758434853509377 0 0.0031251141645692732 0.00018482435166497897 0 0.0031234149174300526 0.00019277242322912518 0 0.0031251141645692732 0.00018482435166497897 0 0.0031271271485038355 0.00018799367265774056 0 0.0031357663632945311 0.00020887386282494703 0 0.0028583427593461166 0.00013174629498019576 0 0.0031357663632945311 0.00020887386282494703 0 0.003127234677917643 0.00020158494120015648 0 0.0031026000355249442 0.00017738472141866073 0 0.0030773389149272834 0.00013131185626685774 0 0.0031228476498821908 0.00017805656099150895 0 0.0026284945565505798 -9.1858213239597855e-05 0 0.0027708067755649237 -4.5878518654743241e-05 0 0.0022385809400234206 -0.00031186365272896219 0 0.002181019324882722 -0.0003101447617033666 0 0.0021803384266910627 -0.00030099174722427 0 0.0031026000355249442 0.00017738472141866073 0 0.0031251141645692732 0.00018482435166497897 0 0.0031228476498821908 0.00017805656099150895 0 0.0022385809400234206 -0.00031186365272896219 0 0.0021803384266910627 -0.00030099174722427 0 0.0022386839328633191 -0.00029687478465153318 0 0.0030504323466919881 0.0002060405053455572 0 0.0031026000355249442 0.00017738472141866073 0 0.0030773389149272834 0.00013131185626685774 0 0.0022385809400234206 -0.00031186365272896219 0 0.0022900461486911544 -0.0003104838877330364 0 0.0022386839328633191 -0.00029687478465153318 0 0.0030773389149272834 0.00013131185626685774 0 0.0029827899177961885 0.00018035678904333128 0 0.0029218739453395286 9.4542240060330301e-05 0 0.0026284945565505798 -9.1858213239597855e-05 0 0.0026059810974999298 -0.00011440575830941136 0 0.0029657244733175647 0.00027480822850441588 0 0.0030504323466919881 0.0002060405053455572 0 0.0029827899177961885 0.00018035678904333128 0 0.0030504323466919881 0.0002060405053455572 0 0.0030773389149272834 0.00013131185626685774 0 0.0029827899177961885 0.00018035678904333128 0 0.0029827899177961885 0.00018035678904333128 0 0.0028830379321248562 0.00020949045208664918 0 0.0029218739453395286 9.4542240060330301e-05 0 0.0029657244733175647 0.00027480822850441588 0 0.0029827899177961885 0.00018035678904333128 0 0.0028830379321248562 0.00020949045208664918 0 0.0029218739453395286 9.4542240060330301e-05 0 0.0027528246620624661 7.8438085007297964e-05 0 0.0027649408883743624 0.00016101347090422878 0 0.0026059810974999298 -0.00011440575830941136 0 0.0025681775954229263 -5.9145592984885021e-05 0 0.0027605641562966753 6.1469145987236572e-05 0 0.0026928028691595553 6.6384411281969209e-05 0 0.0027232398154717358 8.9772257287192155e-05 0 0.0027605641562966753 6.1469145987236572e-05 0 0.0026928028691595553 6.6384411281969209e-05 0 0.0027168395863759846 7.9032316765840031e-06 0 0.0026928028691595553 6.6384411281969209e-05 0 0.0027232398154717358 8.9772257287192155e-05 0 0.0026716706296812938 9.5725918403811818e-05 0 0.0027232398154717358 8.9772257287192155e-05 0 0.0027074754220461476 0.00011791543461369551 0 0.0026716706296812938 9.5725918403811818e-05 0 0.0027232398154717358 8.9772257287192155e-05 0 0.0027074754220461476 0.00011791543461369551 0 0.0027649408883743624 0.00016101347090422878 0 0.0025681775954229263 -5.9145592984885021e-05 0 0.0027516985391332076 0.00019148427247772746 0 0.0027605641562966753 6.1469145987236572e-05 0 0.0027232398154717358 8.9772257287192155e-05 0 0.0027649408883743624 0.00016101347090422878 0 0.0027074754220461476 0.00011791543461369551 0 0.0027025590176096605 0.00020225175553932614 0 0.0027975583026089868 0.00024610274544267205 0 0.0027074754220461476 0.00011791543461369551 0 0.0027649408883743624 0.00016101347090422878 0 0.0027953090259252218 0.00028266378368134671 0 0.0027074754220461476 0.00011791543461369551 0 0.0027025590176096605 0.00020225175553932614 0 0.0026635947087264469 0.0001488700733330825 0 0.0027127396165555332 0.0001259259492057772 0 0.0027954254643872047 0.00026285088721892774 0 0.0028830379321248562 0.00020949045208664918 0 0.0029218739453395286 9.4542240060330301e-05 0 0.0027649408883743624 0.00016101347090422878 0 0.0028830379321248562 0.00020949045208664918 0 0.0027649408883743624 0.00016101347090422878 0 0.0027953090259252218 0.00028266378368134671 0 0.0025550756627767419 0.00014431863217563126 0 0.0025237096861941335 9.3108885873761517e-05 0 0.0025871863646152716 8.5962630062733081e-05 0 0.0025435575990883311 3.8373213493227085e-05 0 0.0025237096861941335 9.3108885873761517e-05 0 0.0025871863646152716 8.5962630062733081e-05 0 0.0025871863646152716 8.5962630062733081e-05 0 0.0026234437503278342 6.8467279440026166e-05 0 0.0026072992657075475 4.7899235329885288e-05 0 0.0025871863646152716 8.5962630062733081e-05 0 0.0026353905038210678 0.00010291527178947274 0 0.0026066682684207278 0.00016609363355940055 0 0.0026234437503278342 6.8467279440026166e-05 0 0.0026529176909376858 7.2624554357603199e-05 0 0.0026346300435702622 3.2337106070844666e-05 0 0.0025871863646152716 8.5962630062733081e-05 0 0.0026353905038210678 0.00010291527178947274 0 0.0026234437503278342 6.8467279440026166e-05 0 0.0026353905038210678 0.00010291527178947274 0 0.0026234437503278342 6.8467279440026166e-05 0 0.0026529176909376858 7.2624554357603199e-05 0 0.0026928028691595553 6.6384411281969209e-05 0 0.0026529176909376858 7.2624554357603199e-05 0 0.0026346300435702622 3.2337106070844666e-05 0 0.0026928028691595553 6.6384411281969209e-05 0 0.0026529176909376858 7.2624554357603199e-05 0 0.0026716706296812938 9.5725918403811818e-05 0 0.0026353905038210678 0.00010291527178947274 0 0.0026529176909376858 7.2624554357603199e-05 0 0.0026716706296812938 9.5725918403811818e-05 0 0.0026353905038210678 0.00010291527178947274 0 0.0026716706296812938 9.5725918403811818e-05 0 0.0026635947087264469 0.0001488700733330825 0 0.0027074754220461476 0.00011791543461369551 0 0.0026716706296812938 9.5725918403811818e-05 0 0.0026635947087264469 0.0001488700733330825 0 0.0027025590176096605 0.00020225175553932614 0 0.0026635947087264469 0.0001488700733330825 0 0.0026066682684207278 0.00016609363355940055 0 0.0026353905038210678 0.00010291527178947274 0 0.0026635947087264469 0.0001488700733330825 0 0.0026066682684207278 0.00016609363355940055 0 0.0025550756627767419 0.00014431863217563126 0 0.0025646713147541443 0.00017687075675639963 0 0.0026066682684207278 0.00016609363355940055 0 0.0025550756627767419 0.00014431863217563126 0 0.0025871863646152716 8.5962630062733081e-05 0 0.0026066682684207278 0.00016609363355940055 0 0.0025646713147541443 0.00017687075675639963 0 0.0026066682684207278 0.00016609363355940055 0 0.0025787219283314486 0.00017693830820527141 0 0.0026211871592861742 0.00013636229275752629 0 0.0025293809441396258 0.00032656070084353765 0 0.0027025590176096605 0.00020225175553932614 0 0.0026066682684207278 0.00016609363355940055 0 0.0026925604419528841 0.00028574759235781621 0 0.0026066682684207278 0.00016609363355940055 0 0.0025720201470777124 0.00033862566498932614 0 0.0026925604419528841 0.00028574759235781621 0 0.0025720201470777124 0.00033862566498932614 0 0.0026925604419528841 0.00028574759235781621 0 0.0026991917259362882 0.00039524166072605433 0 0.0025720201470777124 0.00033862566498932614 0 0.0026991917259362882 0.00039524166072605433 0 0.0026124700367805109 0.00042750520568210704 0 0.0028971631608749422 0.00031314538972352805 0 0.0028830379321248562 0.00020949045208664918 0 0.0027953090259252218 0.00028266378368134671 0 0.0027025590176096605 0.00020225175553932614 0 0.0027975583026089868 0.00024610274544267205 0 0.0026925604419528841 0.00028574759235781621 0 0.0027975583026089868 0.00024610274544267205 0 0.0026925604419528841 0.00028574759235781621 0 0.0027750029810745982 0.00036144883363133199 0 0.0026925604419528841 0.00028574759235781621 0 0.0027750029810745982 0.00036144883363133199 0 0.0026991917259362882 0.00039524166072605433 0 0.0028971631608749422 0.00031314538972352805 0 0.002881515227676774 0.00042997380163124858 0 0.0027953090259252218 0.00028266378368134671 0 0.0028861138233422824 0.00041544263941973366 0 0.0027954254643872047 0.00026285088721892774 0 0.002889067998534976 0.00039621081485927313 0 0.0027975583026089868 0.00024610274544267205 0 0.0027750029810745982 0.00036144883363133199 0 0.002889067998534976 0.00039621081485927313 0 0.0027750029810745982 0.00036144883363133199 0 0.0027778757567999668 0.00046900533106690407 0 0.002889067998534976 0.00039621081485927313 0 0.0028691452818402517 0.00050497347691978169 0 0.0027778757567999668 0.00046900533106690407 0 0.0027750029810745982 0.00036144883363133199 0 0.0027778757567999668 0.00046900533106690407 0 0.0026991917259362882 0.00039524166072605433 0 0.0027778757567999668 0.00046900533106690407 0 0.0026991917259362882 0.00039524166072605433 0 0.0027148923980070756 0.00045814799042652373 0 0.0027148923980070756 0.00045814799042652373 0 0.0027490715719822394 0.00048819275973205649 0 0.0026972387846655485 0.00049341201464344741 0 0.0027778757567999668 0.00046900533106690407 0 0.0027148923980070756 0.00045814799042652373 0 0.0027490715719822394 0.00048819275973205649 0 0.0027778757567999668 0.00046900533106690407 0 0.002773459794679147 0.00049753065361809632 0 0.0027490715719822394 0.00048819275973205649 0 0.0028651871674632646 0.00057265860434829881 0 0.002887185241411894 0.00053390121642890348 0 0.0026972387846655485 0.00049341201464344741 0 0.0039976598611877537 -0.0004996888168276991 0 0.0036024177705382709 -0.0006024622544262585 0 0.0037782011456493512 -0.00041791338454112242 0 0.0034688546539907708 2.2378656934412171e-05 0 0.0031170644226889109 -4.4213675560117821e-05 0 0.0027490715719822394 0.00048819275973205649 0 0.0027818703546696505 0.00052735709547232319 0 0.0026972387846655485 0.00049341201464344741 0 0.0028651871674632646 0.00057265860434829881 0 0.0026972387846655485 0.00049341201464344741 0 0.0026541210329336013 0.00053096954174786917 0 0.002773459794679147 0.00049753065361809632 0 0.0027490715719822394 0.00048819275973205649 0 0.0027818703546696505 0.00052735709547232319 0 0.0028143751939607047 0.00052887125200879175 0 0.0027197978673774801 0.00049852159920787541 0 0.0039976598611877537 -0.0004996888168276991 0 0.003935018020939875 -0.000406254115923082 0 0.0037782011456493512 -0.00041791338454112242 0 0.0028651871674632646 0.00057265860434829881 0 0.002887185241411894 0.00053390121642890348 0 0.0031243803885266153 0.00059962261754589123 0 0.0027778757567999668 0.00046900533106690407 0 0.002773459794679147 0.00049753065361809632 0 0.0028733566696666013 0.00055268166533720717 0 0.0027107582229064201 0.00049486796798132299 0 0.0031496927330411533 0.00044159112810599881 0 0.0028691452818402517 0.00050497347691978169 0 0.0027778757567999668 0.00046900533106690407 0 0.002890006445019654 0.00060765662808778896 0 0.0028651871674632646 0.00057265860434829881 0 0.0031471682782473597 0.00062095349988013993 0 0.0031243803885266153 0.00059962261754589123 0 0.0028143751939607047 0.00052887125200879175 0 0.0031496927330411533 0.00044159112810599881 0 0.0034688546539907708 2.2378656934412171e-05 0 0.0034913627812452022 0.0003874193472531671 0 0.002773459794679147 0.00049753065361809632 0 0.0027818703546696505 0.00052735709547232319 0 0.0028733566696666013 0.00055268166533720717 0 0.0026261219037482684 0.00015448181643438184 0 0.0025787219283314486 0.00017693830820527141 0 0.0026004556099659816 8.0496526659652775e-05 0 0.0026488645743436481 0.00046943938215307962 0 0.0026124700367805109 0.00042750520568210704 0 0.0025355822934184391 0.00049901328437203588 0 0.0025720201470777124 0.00033862566498932614 0 0.0026124700367805109 0.00042750520568210704 0 0.0025355822934184391 0.00049901328437203588 0 0.0025293809441396258 0.00032656070084353765 0 0.0028363988648165148 1.3425351922523942e-05 0 0.0026991917259362882 0.00039524166072605433 0 0.0026488645743436481 0.00046943938215307962 0 0.0026124700367805109 0.00042750520568210704 0 0.0027148923980070756 0.00045814799042652373 0 0.0026488645743436481 0.00046943938215307962 0 0.0026972387846655485 0.00049341201464344741 0 0.0026991917259362882 0.00039524166072605433 0 0.0027148923980070756 0.00045814799042652373 0 0.0026488645743436481 0.00046943938215307962 0 0.0026488645743436481 0.00046943938215307962 0 0.0026541210329336013 0.00053096954174786917 0 0.0025355822934184391 0.00049901328437203588 0 0.0026488645743436481 0.00046943938215307962 0 0.0026972387846655485 0.00049341201464344741 0 0.0026541210329336013 0.00053096954174786917 0 0.0036024177705382709 -0.0006024622544262585 0 0.0035946934256711259 -0.00040862959467643308 0 0.0037782011456493512 -0.00041791338454112242 0 0.0036024177705382709 -0.0006024622544262585 0 0.0033547328156568628 -0.00048646130989058741 0 0.0035946934256711259 -0.00040862959467643308 0 0.0036024177705382709 -0.0006024622544262585 0 0.0031303559963310103 -0.00070753790035076676 0 0.0033547328156568628 -0.00048646130989058741 0 0.0031170644226889109 -4.4213675560117821e-05 0 0.0028363988648165148 1.3425351922523942e-05 0 0.0029745903175389513 -6.6968045744021738e-07 0 0.0033547328156568628 -0.00048646130989058741 0 0.0034275163332698889 -0.00024699128002890681 0 0.0029745903175389513 -6.6968045744021738e-07 0 0.0031303559963310103 -0.00070753790035076676 0 0.0033547328156568628 -0.00048646130989058741 0 0.0034275163332698889 -0.00024699128002890681 0 0.0037172599944254596 -0.00022950316881995047 0 0.0034000511682913629 1.6823515328451699e-05 0 0.0033547328156568628 -0.00048646130989058741 0 0.0034275163332698889 -0.00024699128002890681 0 0.0035946934256711259 -0.00040862959467643308 0 0.0035946934256711259 -0.00040862959467643308 0 0.0037172599944254596 -0.00022950316881995047 0 0.0037782011456493512 -0.00041791338454112242 0 0.0034275163332698889 -0.00024699128002890681 0 0.0035946934256711259 -0.00040862959467643308 0 0.0037172599944254596 -0.00022950316881995047 0 0.0037172599944254596 -0.00022950316881995047 0 0.0037135248257097455 4.1985753493879696e-05 0 0.0034000511682913629 1.6823515328451699e-05 0 0.0029745903175389513 -6.6968045744021738e-07 0 0.0034275163332698889 -0.00024699128002890681 0 0.0034000511682913629 1.6823515328451699e-05 0 0.0029745903175389513 -6.6968045744021738e-07 0 0.0031499071540943041 0.0001994657126458431 0 0.0034000511682913629 1.6823515328451699e-05 0 0.0039976598611877537 -0.0004996888168276991 0 0.004116465730629828 -0.00036053209357208237 0 0.0043040558917445976 -0.0003963601619196029 0 0.004116465730629828 -0.00036053209357208237 0 0.003965158640229562 -0.00031168378431485741 0 0.0041344319891113319 -0.0001912049051729038 0 0.0042128504599890249 -0.00029253805504970851 0 0.004116465730629828 -0.00036053209357208237 0 0.0041344319891113319 -0.0001912049051729038 0 0.0042128504599890249 -0.00029253805504970851 0 0.0041344319891113319 -0.0001912049051729038 0 0.0042938353234758695 -0.0002224675069927315 0 0.0042128504599890249 -0.00029253805504970851 0 0.004116465730629828 -0.00036053209357208237 0 0.0043040558917445976 -0.0003963601619196029 0 0.0039976598611877537 -0.0004996888168276991 0 0.004116465730629828 -0.00036053209357208237 0 0.0039977183966854067 -0.00039803239304545272 0 0.004116465730629828 -0.00036053209357208237 0 0.0039977183966854067 -0.00039803239304545272 0 0.003965158640229562 -0.00031168378431485741 0 0.003935018020939875 -0.000406254115923082 0 0.003965158640229562 -0.00031168378431485741 0 0.0037782011456493512 -0.00041791338454112242 0 0.0039976598611877537 -0.0004996888168276991 0 0.0039977183966854067 -0.00039803239304545272 0 0.003935018020939875 -0.000406254115923082 0 0.0039977183966854067 -0.00039803239304545272 0 0.003935018020939875 -0.000406254115923082 0 0.003965158640229562 -0.00031168378431485741 0 0.0037172599944254596 -0.00022950316881995047 0 0.003965158640229562 -0.00031168378431485741 0 0.0037782011456493512 -0.00041791338454112242 0 0.0037172599944254596 -0.00022950316881995047 0 0.003965158640229562 -0.00031168378431485741 0 0.0039281204771739698 -0.0001316813955056131 0 0.003965158640229562 -0.00031168378431485741 0 0.0039281204771739698 -0.0001316813955056131 0 0.0041344319891113319 -0.0001912049051729038 0 0.0037172599944254596 -0.00022950316881995047 0 0.0037135248257097455 4.1985753493879696e-05 0 0.0039281204771739698 -0.0001316813955056131 0 0.0040620027960327418 5.6084596517855911e-05 0 0.0039281204771739698 -0.0001316813955056131 0 0.0041344319891113319 -0.0001912049051729038 0 0.0040620027960327418 5.6084596517855911e-05 0 0.0037135248257097455 4.1985753493879696e-05 0 0.0039281204771739698 -0.0001316813955056131 0 0.0040620027960327418 5.6084596517855911e-05 0 0.0041344319891113319 -0.0001912049051729038 0 0.0042615623362432095 -5.4345775920366223e-05 0 0.0041344319891113319 -0.0001912049051729038 0 0.0042615623362432095 -5.4345775920366223e-05 0 0.0042938353234758695 -0.0002224675069927315 0 0.004369068414938118 1.9956389433888962e-05 0 0.0042615623362432095 -5.4345775920366223e-05 0 0.0043632114849058573 -0.00010803362552484897 0 0.004369068414938118 1.9956389433888962e-05 0 0.0043632114849058573 -0.00010803362552484897 0 0.0044571668143594447 -7.2377942184376743e-05 0 0.0043632114849058573 -0.00010803362552484897 0 0.0044533392812541699 -0.00020612533629319659 0 0.0042938353234758695 -0.0002224675069927315 0 0.0042615623362432095 -5.4345775920366223e-05 0 0.0043632114849058573 -0.00010803362552484897 0 0.0042938353234758695 -0.0002224675069927315 0 0.0035391277404497258 0.00041553046077337025 0 0.0035161080078673673 0.00042834438406089012 0 0.0035148940104626496 0.00039009356734574839 0 0.0045234430433981005 9.5796058267127036e-07 0 0.0044571668143594447 -7.2377942184376743e-05 0 0.0045867112840308651 -5.6481974489318101e-05 0 0.0043802782365129651 8.9697904785315889e-05 0 0.0038502828935062963 0.00031951879267581342 0 0.0043632114849058573 -0.00010803362552484897 0 0.0044571668143594447 -7.2377942184376743e-05 0 0.0044533392812541699 -0.00020612533629319659 0 0.0044571668143594447 -7.2377942184376743e-05 0 0.0044533392812541699 -0.00020612533629319659 0 0.0045867112840308651 -5.6481974489318101e-05 0 0.0040337270576251737 8.7617338594340687e-05 0 0.0038502828935062963 0.00031951879267581342 0 0.0035391277404497258 0.00041553046077337025 0 0.0035462543162160993 0.00043472981668772181 0 0.0035161080078673673 0.00042834438406089012 0 0.0031918351835352392 0.00052313859157809177 0 0.0033114433360997729 0.00055859198716904713 0 0.003013311533831524 0.00065001267895681985 0 0.0029571636205943819 0.00063279866400950001 0 0.0030702079426395959 0.00068274707505393782 0 0.0030006293316184149 0.00057332042954886283 0 0.0031918351835352392 0.00052313859157809177 0 0.003013311533831524 0.00065001267895681985 0 0.0030976252125694539 0.00062998802861415288 0 0.0030702079426395959 0.00068274707505393782 0 0.0044533392812541699 -0.00020612533629319659 0 0.0042938353234758695 -0.0002224675069927315 0 0.0043040558917445976 -0.0003963601619196029 0 0.0035391277404497258 0.00041553046077337025 0 0.0035462543162160993 0.00043472981668772181 0 0.0035593873317143138 0.00043673012388754272 0 0.0040337270576251737 8.7617338594340687e-05 0 0.0034913627812452022 0.0003874193472531671 0 0.0031918351835352392 0.00052313859157809177 0 0.0031496927330411533 0.00044159112810599881 0 0.0031918351835352392 0.00052313859157809177 0 0.0034913627812452022 0.0003874193472531671 0 0.0032209963786167879 0.00048574952492741106 0 0.0032843547230150712 0.00049496719479248685 0 0.0032966090248324376 0.00050621471072438543 0 0.0042128504599890249 -0.00029253805504970851 0 0.0042938353234758695 -0.0002224675069927315 0 0.0043040558917445976 -0.0003963601619196029 0 0.002890006445019654 0.00060765662808778896 0 0.0029117825044118546 0.00053607397809963696 0 0.0029334084371880273 0.00059172559468340948 0 0.0034913627812452022 0.0003874193472531671 0 0.0031496927330411533 0.00044159112810599881 0 0.0028691452818402517 0.00050497347691978169 0 0.002890006445019654 0.00060765662808778896 0 0.0029117825044118546 0.00053607397809963696 0 0.0029117825044118546 0.00053607397809963696 0 0.0029334084371880273 0.00059172559468340948 0 0.0029774644718681686 0.0005778083424099066 0 0.0029576810550736754 0.00063368799792390461 0 0.002890006445019654 0.00060765662808778896 0 0.0029334084371880273 0.00059172559468340948 0 0.0029576810550736754 0.00063368799792390461 0 0.0029334084371880273 0.00059172559468340948 0 0.0029774644718681686 0.0005778083424099066 0 0.003013311533831524 0.00065001267895681985 0 0.0029774644718681686 0.0005778083424099066 0 0.0030325830762964546 0.00059653465146690258 0 0.003013311533831524 0.00065001267895681985 0 0.0029576810550736754 0.00063368799792390461 0 0.0029774644718681686 0.0005778083424099066 0 0.0029774644718681686 0.0005778083424099066 0 0.0030287163138803135 0.00054928782774603814 0 0.0030076337738457856 0.0004852435934662662 0 0.0030325830762964546 0.00059653465146690258 0 0.0030659577313758247 0.00057032579622030475 0 0.0030976252125694539 0.00062998802861415288 0 0.003013311533831524 0.00065001267895681985 0 0.0030325830762964546 0.00059653465146690258 0 0.0030976252125694539 0.00062998802861415288 0 0.0030287163138803135 0.00054928782774603814 0 0.0030774446177032769 0.00052137966142558052 0 0.0030659577313758247 0.00057032579622030475 0 0.0030325830762964546 0.00059653465146690258 0 0.0030287163138803135 0.00054928782774603814 0 0.0030659577313758247 0.00057032579622030475 0 0.0029774644718681686 0.0005778083424099066 0 0.0030325830762964546 0.00059653465146690258 0 0.0030287163138803135 0.00054928782774603814 0 0.0030287163138803135 0.00054928782774603814 0 0.0030076337738457856 0.0004852435934662662 0 0.0030774446177032769 0.00052137966142558052 0 0.0030398655602141395 0.00039016925242626413 0 0.0030076337738457856 0.0004852435934662662 0 0.0030985318405802515 0.00044827580880903368 0 0.0028861138233422824 0.00041544263941973366 0 0.0029725722566457647 0.00056816192015504295 0 0.002889067998534976 0.00039621081485927313 0 0.0029117825044118546 0.00053607397809963696 0 0.0029774644718681686 0.0005778083424099066 0 0.002881515227676774 0.00042997380163124858 0 0.0029774644718681686 0.0005778083424099066 0 0.0030076337738457856 0.0004852435934662662 0 0.002889067998534976 0.00039621081485927313 0 0.0028691452818402517 0.00050497347691978169 0 0.0029117825044118546 0.00053607397809963696 0 0.0031470177537989089 0.00050881415070391865 0 0.0031355426010953079 0.00056445514902284349 0 0.0032309388054240088 0.0005429663158463561 0 0.0031982135639215896 0.00047369805290278127 0 0.0031470177537989089 0.00050881415070391865 0 0.0032309388054240088 0.0005429663158463561 0 0.0031982135639215896 0.00047369805290278127 0 0.0032309388054240088 0.0005429663158463561 0 0.0032659156371015949 0.00046029064261532589 0 0.0031982135639215896 0.00047369805290278127 0 0.0030985318405802515 0.00044827580880903368 0 0.0031470177537989089 0.00050881415070391865 0 0.0030985318405802515 0.00044827580880903368 0 0.0030774446177032769 0.00052137966142558052 0 0.0031470177537989089 0.00050881415070391865 0 0.0030076337738457856 0.0004852435934662662 0 0.0030985318405802515 0.00044827580880903368 0 0.0030774446177032769 0.00052137966142558052 0 0.0030774446177032769 0.00052137966142558052 0 0.0031470177537989089 0.00050881415070391865 0 0.0031355426010953079 0.00056445514902284349 0 0.0030774446177032769 0.00052137966142558052 0 0.0031355426010953079 0.00056445514902284349 0 0.0030659577313758247 0.00057032579622030475 0 0.0031355426010953079 0.00056445514902284349 0 0.0030659577313758247 0.00057032579622030475 0 0.0030976252125694539 0.00062998802861415288 0 0.0031355426010953079 0.00056445514902284349 0 0.0030976252125694539 0.00062998802861415288 0 0.0031972776447649195 0.00061667472369994296 0 0.0031972776447649195 0.00061667472369994296 0 0.0032309388054240088 0.0005429663158463561 0 0.0033295839951935748 0.00062258625777225304 0 0.0031355426010953079 0.00056445514902284349 0 0.0031972776447649195 0.00061667472369994296 0 0.0032309388054240088 0.0005429663158463561 0 0.0032840020622541119 0.00062614199278453208 0 0.0033182847901871318 0.00064379813634268227 0 0.0031972776447649195 0.00061667472369994296 0 0.0031947491228340552 0.00073245553249867679 0 0.0033295839951935748 0.00062258625777225304 0 0.0033502725544210981 0.00064130224960622952 0 0.0033526112046115848 0.00064177743601030984 0 0.0033295839951935748 0.00062258625777225304 0 0.0032840020622541119 0.00062614199278453208 0 0.0033531974054106751 0.00064457990089753837 0 0.0032840020622541119 0.00062614199278453208 0 0.0033114433360997729 0.00055859198716904713 0 0.0030976252125694539 0.00062998802861415288 0 0.0031972776447649195 0.00061667472369994296 0 0.0031947491228340552 0.00073245553249867679 0 0.0030976252125694539 0.00062998802861415288 0 0.0031947491228340552 0.00073245553249867679 0 0.0030702079426395959 0.00068274707505393782 0 0.0033564849135245055 0.00064516493236076622 0 0.0033514836979902877 0.00064005429208122589 0 0.003356918862059933 0.00064407897430094837 0 0.0032840020622541119 0.00062614199278453208 0 0.0038502828935062963 0.00031951879267581342 0 0.0034807965604060913 0.00041934639984292181 0 0.0035161080078673673 0.00042834438406089012 0 0.0035148940104626496 0.00039009356734574839 0 0.0039417214270005153 0.00024604555980274048 0 0.0042273707139504225 0.000201135181919268 0 0.0040551162656030952 0.00035592152575930391 0 0.0040291379299941792 0.00038927845571578397 0 0.0038502828935062963 0.00031951879267581342 0 0.0033564849135245055 0.00064516493236076622 0 0.0033514836979902877 0.00064005429208122589 0 0.0033615149408712844 0.00065612403689916765 0 0.0040291379299941792 0.00038927845571578397 0 0.003645635256382034 0.00064490402473575052 0 0.0033514836979902877 0.00064005429208122589 0 0.0033526112046115848 0.00064177743601030984 0 0.0033615149408712844 0.00065612403689916765 0 0.003645635256382034 0.00064490402473575052 0 0.0034873466847600981 0.00062139732120100187 0 0.0033526112046115848 0.00064177743601030984 0 0.0033615149408712844 0.00065612403689916765 0 0.0033923632457900899 0.00063272404645735888 0 0.0033615149408712844 0.00065612403689916765 0 0.0033923632457900899 0.00063272404645735888 0 0.0034587159803573446 0.00062425244304957993 0 0.0033526112046115848 0.00064177743601030984 0 0.0033923632457900899 0.00063272404645735888 0 0.0033295839951935748 0.00062258625777225304 0 0.0033923632457900899 0.00063272404645735888 0 0.0033295839951935748 0.00062258625777225304 0 0.0033780583484538172 0.00063253089984835801 0 0.0033923632457900899 0.00063272404645735888 0 0.0034587159803573446 0.00062425244304957993 0 0.0033762250253592139 0.0006613748306219157 0 0.0033923632457900899 0.00063272404645735888 0 0.0033762250253592139 0.0006613748306219157 0 0.0033780583484538172 0.00063253089984835801 0 0.0032418320536632796 0.0004259905859098584 0 0.0034587159803573446 0.00062425244304957993 0 0.0032067067615362027 0.00067836238546665031 0 0.0028714988730723333 0.00044464980158236887 0 0.0032418320536632796 0.0004259905859098584 0 0.0032067067615362027 0.00067836238546665031 0 0.0024285656036955815 -7.5357627506936722e-07 0 0.0026244336866158317 0.00013505397732186734 0 0.0034587159803573446 0.00062425244304957993 0 0.0032067067615362027 0.00067836238546665031 0 0.0033762250253592139 0.0006613748306219157 0 0.0032067067615362027 0.00067836238546665031 0 0.0033762250253592139 0.0006613748306219157 0 0.0034004514475362078 0.00064668411262489077 0 0.0026244336866158317 0.00013505397732186734 0 0.0027621043902563832 0.00016407893517151559 0 0.0033762250253592139 0.0006613748306219157 0 0.0034004514475362078 0.00064668411262489077 0 0.0033780583484538172 0.00063253089984835801 0 0.0020478709415800954 -0.00039305900497795481 0 0.002149178941632086 -0.00029846057672572876 0 0.0020041382298745429 -0.00028141185951416087 0 0.0020256497406021933 -0.00022189531952543785 0 0.0020865126398517861 -0.00024005313033800246 0 0.0020041382298745429 -0.00028141185951416087 0 0.0021114303703052653 -0.00019533575745502553 0 0.00200851524538169 -0.00027609721654641242 0 0.002149178941632086 -0.00029846057672572876 0 0.0021097138278411468 -0.00016664179685320422 0 0.0020041382298745429 -0.00028141185951416087 0 0.0027621043902563832 0.00016407893517151559 0 0.0028740567621946293 0.00020508025704279344 0 0.002149178941632086 -0.00029846057672572876 0 0.0021097138278411468 -0.00016664179685320422 0 0.0022890243863986472 -0.00012792890229053382 0 0.0034004514475362078 0.00064668411262489077 0 0.0034048922212973538 0.00048103395347881322 0 0.0033763144997804072 0.0005699897026597157 0 0.0033763144997804072 0.0005699897026597157 0 0.0033462813064233693 0.00049931718427292623 0 0.0033348539680335462 0.00056202333927268399 0 0.0034048922212973538 0.00048103395347881322 0 0.0033763144997804072 0.0005699897026597157 0 0.0033462813064233693 0.00049931718427292623 0 0.0032309388054240088 0.0005429663158463561 0 0.0032659156371015949 0.00046029064261532589 0 0.0033348539680335462 0.00056202333927268399 0 0.0033462813064233693 0.00049931718427292623 0 0.0032659156371015949 0.00046029064261532589 0 0.0033348539680335462 0.00056202333927268399 0 0.0033295839951935748 0.00062258625777225304 0 0.0033348539680335462 0.00056202333927268399 0 0.0033780583484538172 0.00063253089984835801 0 0.0032309388054240088 0.0005429663158463561 0 0.0033295839951935748 0.00062258625777225304 0 0.0033348539680335462 0.00056202333927268399 0 0.0034004514475362078 0.00064668411262489077 0 0.0033763144997804072 0.0005699897026597157 0 0.0033780583484538172 0.00063253089984835801 0 0.0033763144997804072 0.0005699897026597157 0 0.0033348539680335462 0.00056202333927268399 0 0.0033780583484538172 0.00063253089984835801 0 0.0017506767142744547 -0.00041057017073420051 0 0.0018283863341257093 -0.00038594581486932746 0 0.0018371429888200813 -0.00042158109817332247 0 0.0018283863341257093 -0.00038594581486932746 0 0.0018371429888200813 -0.00042158109817332247 0 0.0018896243991468515 -0.00041001205803218124 0 0.0018283863341257093 -0.00038594581486932746 0 0.0018896243991468515 -0.00041001205803218124 0 0.0018926509012880191 -0.00037819123037020571 0 0.0018283863341257093 -0.00038594581486932746 0 0.0018926509012880191 -0.00037819123037020571 0 0.0018632600084414219 -0.0003222940749404083 0 0.0018926509012880191 -0.00037819123037020571 0 0.0019486388195737296 -0.00035533730750244305 0 0.0018632600084414219 -0.0003222940749404083 0 0.0018926509012880191 -0.00037819123037020571 0 0.0019467054375783288 -0.00041068260763772963 0 0.0019486388195737296 -0.00035533730750244305 0 0.0018896243991468515 -0.00041001205803218124 0 0.0018926509012880191 -0.00037819123037020571 0 0.0019467054375783288 -0.00041068260763772963 0 0.0019367178401732005 -0.00043437750810705551 0 0.0018896243991468515 -0.00041001205803218124 0 0.0019467054375783288 -0.00041068260763772963 0 0.0019879005333592699 -0.00043421636882496272 0 0.0020478709415800954 -0.00039305900497795481 0 0.0019467054375783288 -0.00041068260763772963 0 0.0020478709415800954 -0.00039305900497795481 0 0.0019486388195737296 -0.00035533730750244305 0 0.0020041382298745429 -0.00028141185951416087 0 0.0020478709415800954 -0.00039305900497795481 0 0.0019467054375783288 -0.00041068260763772963 0 0.0019486388195737296 -0.00035533730750244305 0 0.0019486388195737296 -0.00035533730750244305 0 0.0020041382298745429 -0.00028141185951416087 0 0.0019313374055780277 -0.00029121788713815376 0 0.0020041382298745429 -0.00028141185951416087 0 0.0019654350497679729 -0.00021957309970483871 0 0.0019313374055780277 -0.00029121788713815376 0 0.0020256497406021933 -0.00022189531952543785 0 0.0020041382298745429 -0.00028141185951416087 0 0.0019654350497679729 -0.00021957309970483871 0 0.0019654350497679729 -0.00021957309970483871 0 0.0018722120705962971 -0.00024399822587219697 0 0.0019313374055780277 -0.00029121788713815376 0 0.0018722120705962971 -0.00024399822587219697 0 0.0019313374055780277 -0.00029121788713815376 0 0.0018632600084414219 -0.0003222940749404083 0 0.0019486388195737296 -0.00035533730750244305 0 0.0019313374055780277 -0.00029121788713815376 0 0.0018632600084414219 -0.0003222940749404083 0 0.0018632600084414219 -0.0003222940749404083 0 0.0018097491283997414 -0.00026319902966722623 0 0.0017444545073530137 -0.00029620602320147013 0 0.0018722120705962971 -0.00024399822587219697 0 0.0018097491283997414 -0.00026319902966722623 0 0.0017720373774422849 -0.00018826661100492556 0 0.0018722120705962971 -0.00024399822587219697 0 0.0018632600084414219 -0.0003222940749404083 0 0.0018097491283997414 -0.00026319902966722623 0 0.0018097491283997414 -0.00026319902966722623 0 0.0017444545073530137 -0.00029620602320147013 0 0.0017720373774422849 -0.00018826661100492556 0 0.0018283863341257093 -0.00038594581486932746 0 0.0018632600084414219 -0.0003222940749404083 0 0.0017444545073530137 -0.00029620602320147013 0 0.0017506767142744547 -0.00041057017073420051 0 0.0018283863341257093 -0.00038594581486932746 0 0.0017444545073530137 -0.00029620602320147013 0 0.0016560706105674429 -0.00017700019064486656 0 0.0016800559496855196 -0.00010601592065921346 0 0.0017720373774422849 -0.00018826661100492556 0 0.0016560706105674429 -0.00017700019064486656 0 0.0017444545073530137 -0.00029620602320147013 0 0.0017720373774422849 -0.00018826661100492556 0 0.0018722120705962971 -0.00024399822587219697 0 0.0017720373774422849 -0.00018826661100492556 0 0.0018867285235318382 -0.00015264685670264441 0 0.0017720373774422849 -0.00018826661100492556 0 0.0017995087714819699 -8.0048758236713762e-05 0 0.0018867285235318382 -0.00015264685670264441 0 0.0016800559496855196 -0.00010601592065921346 0 0.0017720373774422849 -0.00018826661100492556 0 0.0017995087714819699 -8.0048758236713762e-05 0 0.0018976517648096128 -8.5645121876642361e-05 0 0.0018867285235318382 -0.00015264685670264441 0 0.0019755398508608957 -9.1558891626001703e-05 0 0.0017995087714819699 -8.0048758236713762e-05 0 0.0018976517648096128 -8.5645121876642361e-05 0 0.0018917298022850606 -1.0169202845350268e-05 0 0.0017995087714819699 -8.0048758236713762e-05 0 0.0018976517648096128 -8.5645121876642361e-05 0 0.0018867285235318382 -0.00015264685670264441 0 0.0018976517648096128 -8.5645121876642361e-05 0 0.0019755398508608957 -9.1558891626001703e-05 0 0.0018917298022850606 -1.0169202845350268e-05 0 0.0019654350497679729 -0.00021957309970483871 0 0.0018722120705962971 -0.00024399822587219697 0 0.0018867285235318382 -0.00015264685670264441 0 0.0019654350497679729 -0.00021957309970483871 0 0.0019699614039927686 -8.6299124856633938e-05 0 0.0020173837595869075 -0.00014644118219662151 0 0.0019654350497679729 -0.00021957309970483871 0 0.0018867285235318382 -0.00015264685670264441 0 0.0019755398508608957 -9.1558891626001703e-05 0 0.0019531556754443691 -0.00022369692932078529 0 0.0020255237406017245 -6.3140311422511445e-05 0 0.0020256497406021933 -0.00022189531952543785 0 0.0019654350497679729 -0.00021957309970483871 0 0.0020173837595869075 -0.00014644118219662151 0 0.0019699614039927686 -8.6299124856633938e-05 0 0.0020173837595869075 -0.00014644118219662151 0 0.0020158645061827789 -7.5480677652726334e-05 0 0.0019755398508608957 -9.1558891626001703e-05 0 0.0019899874880934957 6.2355551071691814e-05 0 0.0018917298022850606 -1.0169202845350268e-05 0 0.0019699614039927686 -8.6299124856633938e-05 0 0.0019882117918754391 2.3131866993456241e-05 0 0.0019811500155535633 3.8444585508999906e-05 0 0.0019699614039927686 -8.6299124856633938e-05 0 0.0019882117918754391 2.3131866993456241e-05 0 0.0019986457055932551 7.8465842563964259e-07 0 0.0019699614039927686 -8.6299124856633938e-05 0 0.0020245135541538204 -3.1078835869311202e-05 0 0.0019986457055932551 7.8465842563964259e-07 0 0.0020255237406017245 -6.3140311422511445e-05 0 0.0015662142042341407 -4.1039855177174475e-05 0 0.0015662142042341407 -4.1039855177174475e-05 0 0.0020401099704679695 6.9721512497225138e-05 0 0.0019882117918754391 2.3131866993456241e-05 0 0.0019923106503774235 4.6833244185778548e-05 0 0.0019986457055932551 7.8465842563964259e-07 0 0.00056695640114530987 -2.1211798843845993e-05 0 0.0006720496393110367 -3.223123520889883e-05 0 0.0010497138685467433 4.4935687685043949e-05 0 0.0019882117918754391 2.3131866993456241e-05 0 0.0019881749498204412 3.4540946734011816e-05 0 0.0019923106503774235 4.6833244185778548e-05 0 0.0019882117918754391 2.3131866993456241e-05 0 0.0019881749498204412 3.4540946734011816e-05 0 0.0019811500155535633 3.8444585508999906e-05 0 0.00056695640114530987 -2.1211798843845993e-05 0 0.00057495374251509152 -0.00010165024823320117 0 0.0006720496393110367 -3.223123520889883e-05 0 0.0011314041167251418 -0.00019912262864935651 0 0.0008230399628680144 -0.00023367622555997474 0 0.0014030918129661857 -7.5691535987881199e-05 0 0.0013496271807427139 -0.00011495253812689365 0 0.001411193121502393 -0.00017770748297829382 0 0.0015662142042341407 -4.1039855177174475e-05 0 0.0011314041167251418 -0.00019912262864935651 0 0.0015662142042341407 -4.1039855177174475e-05 0 0.0016155202710547733 -8.3452001004811387e-05 0 0.0019881749498204412 3.4540946734011816e-05 0 0.0019811500155535633 3.8444585508999906e-05 0 0.0019923106503774235 4.6833244185778548e-05 0 0.0011314041167251418 -0.00019912262864935651 0 0.0010212568226426041 -0.00037256736316656927 0 0.0016155202710547733 -8.3452001004811387e-05 0 0.0012267732458255542 -0.00022907444965429167 0 0.0010194995170135855 -0.00022071015788870636 0 0.0010672176454745957 -0.00018631904434121557 0 0.0010551897495960174 -0.00032050656860113842 0 0.0012267732458255542 -0.00022907444965429167 0 0.0010212568226426041 -0.00037256736316656927 0 0.0013496271807427139 -0.00011495253812689365 0 0.0013798476431108907 -0.00020026792697895886 0 0.001411193121502393 -0.00017770748297829382 0 0.0012267732458255542 -0.00022907444965429167 0 0.0011314041167251418 -0.00019912262864935651 0 0.0005767422291824021 -0.00010226381703486065 0 0.0006672106925276239 -0.00013508341467465644 0 0.0006720496393110367 -3.223123520889883e-05 0 0.0005767422291824021 -0.00010226381703486065 0 0.00057135472398103749 -0.00016823372206623531 0 0.0006672106925276239 -0.00013508341467465644 0 0.0010978260422126261 -0.00036316412259681922 0 0.0011148057034343244 -0.00041121443053824397 0 0.001001965737984243 -0.00043237648856466154 0 0.00057135472398103749 -0.00016823372206623531 0 0.00070902209440593382 -0.00020360087109483967 0 0.0006672106925276239 -0.00013508341467465644 0 0.00070902209440593382 -0.00020360087109483967 0 0.00075332338152255755 -0.00014070440123270642 0 0.00084413999069248566 -0.00022786433781790425 0 0.00070902209440593382 -0.00020360087109483967 0 0.0006672106925276239 -0.00013508341467465644 0 0.00075332338152255755 -0.00014070440123270642 0 0.0006672106925276239 -0.00013508341467465644 0 0.00075332338152255755 -0.00014070440123270642 0 0.0006720496393110367 -3.223123520889883e-05 0 0.00075332338152255755 -0.00014070440123270642 0 0.0006720496393110367 -3.223123520889883e-05 0 0.00087324624090323816 -6.1144742895604716e-05 0 0.0006720496393110367 -3.223123520889883e-05 0 0.00087324624090323816 -6.1144742895604716e-05 0 0.0010497138685467433 4.4935687685043949e-05 0 0.0015662142042341407 -4.1039855177174475e-05 0 0.0013685267940205163 4.445641496742452e-05 0 0.00075332338152255755 -0.00014070440123270642 0 0.00087324624090323816 -6.1144742895604716e-05 0 0.00084413999069248566 -0.00022786433781790425 0 0.00087324624090323816 -6.1144742895604716e-05 0 0.0010932370549386911 -0.00012963325075469482 0 0.00084413999069248566 -0.00022786433781790425 0 0.00087324624090323816 -6.1144742895604716e-05 0 0.0010497138685467433 4.4935687685043949e-05 0 0.0010932370549386911 -0.00012963325075469482 0 0.001992543712890035 6.4263216944626032e-05 0 0.0018250769065569457 5.0045642766077701e-05 0 0.0018917298022850606 -1.0169202845350268e-05 0 0.0017995087714819699 -8.0048758236713762e-05 0 0.0018250769065569457 5.0045642766077701e-05 0 0.0018917298022850606 -1.0169202845350268e-05 0 0.0017995087714819699 -8.0048758236713762e-05 0 0.0018250769065569457 5.0045642766077701e-05 0 0.0015732915288094388 4.5888832953596403e-06 0 0.0013685267940205163 4.445641496742452e-05 0 0.0015873794858905074 1.55400807456541e-05 0 0.0010932370549386911 -0.00012963325075469482 0 0.0015732915288094388 4.5888832953596403e-06 0 0.0012289089245179029 -0.00028525591690671266 0 0.0010497138685467433 4.4935687685043949e-05 0 0.0010932370549386911 -0.00012963325075469482 0 0.0015732915288094388 4.5888832953596403e-06 0 0.0015732915288094388 4.5888832953596403e-06 0 0.0015051421666586865 -0.00023120682783856581 0 0.0012289089245179029 -0.00028525591690671266 0 0.0016111086443813844 -7.4179315246299601e-05 0 0.0016800559496855196 -0.00010601592065921346 0 0.0015732915288094388 4.5888832953596403e-06 0 0.0016800559496855196 -0.00010601592065921346 0 0.0017995087714819699 -8.0048758236713762e-05 0 0.0015732915288094388 4.5888832953596403e-06 0 0.0022135394036958845 -9.2600862187532199e-05 0 0.0023145400160450949 -9.9439384177778804e-05 0 0.002195576232804709 -0.00017820990470777498 0 0.0022135394036958845 -9.2600862187532199e-05 0 0.002195576232804709 -0.00017820990470777498 0 0.0021366459300694207 -0.00011834704353712224 0 0.0022135394036958845 -9.2600862187532199e-05 0 0.0021650100819848158 -3.982647344736334e-05 0 0.0022595725428751164 -2.6196815324420213e-05 0 0.0022135394036958845 -9.2600862187532199e-05 0 0.0023145400160450949 -9.9439384177778804e-05 0 0.0022595725428751164 -2.6196815324420213e-05 0 0.0032375037370237681 0.00034283907251734207 0 0.0032219461934787363 0.00022039304498520021 0 0.003326821665835551 0.00030665861491600122 0 0.0023145400160450949 -9.9439384177778804e-05 0 0.0022595725428751164 -2.6196815324420213e-05 0 0.002379058132356724 -3.0445104037754036e-06 0 0.0027112687540512951 9.5809469228383867e-05 0 0.0028583427593461166 0.00013174629498019576 0 0.0031357663632945311 0.00020887386282494703 0 0.0027112687540512951 9.5809469228383867e-05 0 0.0029561792582813566 0.00018406646324084218 0 0.0027881488811561579 5.8712200727136264e-05 0 0.0028935462367452834 0.00022401085174745955 0 0.0034048922212973538 0.00048103395347881322 0 0.003326821665835551 0.00030665861491600122 0 0.0033171156239995628 0.00041681113936531264 0 0.0032375037370237681 0.00034283907251734207 0 0.0032659156371015949 0.00046029064261532589 0 0.0033171156239995628 0.00041681113936531264 0 0.0032375037370237681 0.00034283907251734207 0 0.003326821665835551 0.00030665861491600122 0 0.0033171156239995628 0.00041681113936531264 0 0.0033462813064233693 0.00049931718427292623 0 0.0032659156371015949 0.00046029064261532589 0 0.0033171156239995628 0.00041681113936531264 0 0.0022890243863986472 -0.00012792890229053382 0 0.0024434051956308414 9.1458149350935134e-05 0 0.0022597226530893595 -3.9452230694036974e-05 0 0.0027112687540512951 9.5809469228383867e-05 0 0.0021719577374315823 -0.00014134526568904132 0 0.0028740567621946293 0.00020508025704279344 0 0.0027112687540512951 9.5809469228383867e-05 0 0.0034048922212973538 0.00048103395347881322 0 0.0033462813064233693 0.00049931718427292623 0 0.0033171156239995628 0.00041681113936531264 0 0.0020865126398517861 -0.00024005313033800246 0 0.002195576232804709 -0.00017820990470777498 0 0.0021231010761716645 -0.00017774098951699299 0 0.0021114303703052653 -0.00019533575745502553 0 0.0021719577374315823 -0.00014134526568904132 0 0.0021097138278411468 -0.00016664179685320422 0 0.0022890243863986472 -0.00012792890229053382 0 0.0022597226530893595 -3.9452230694036974e-05 0 0.0020865126398517861 -0.00024005313033800246 0 0.0021231010761716645 -0.00017774098951699299 0 0.002074939225240215 -0.00017107729019813741 0 0.0021231010761716645 -0.00017774098951699299 0 0.002074939225240215 -0.00017107729019813741 0 0.0021366459300694207 -0.00011834704353712224 0 0.002195576232804709 -0.00017820990470777498 0 0.0021231010761716645 -0.00017774098951699299 0 0.0021366459300694207 -0.00011834704353712224 0 0.0020256497406021933 -0.00022189531952543785 0 0.002074939225240215 -0.00017107729019813741 0 0.0020173837595869075 -0.00014644118219662151 0 0.0020256497406021933 -0.00022189531952543785 0 0.0020865126398517861 -0.00024005313033800246 0 0.002074939225240215 -0.00017107729019813741 0 0.002074939225240215 -0.00017107729019813741 0 0.0020173837595869075 -0.00014644118219662151 0 0.002054789030996677 -0.0001025130637864696 0 0.0020173837595869075 -0.00014644118219662151 0 0.002054789030996677 -0.0001025130637864696 0 0.0020158645061827789 -7.5480677652726334e-05 0 0.0020491367159476883 -9.2717249861336035e-05 0 0.0020194701477325248 -1.7302594835279928e-05 0 0.002054789030996677 -0.0001025130637864696 0 0.0020751466226492277 -5.655589611451975e-05 0 0.002117072797920568 -7.058604627665161e-05 0 0.002054789030996677 -0.0001025130637864696 0 0.0020134048469696449 -7.8478019087191219e-06 0 0.0020345626296786436 -3.0976910882293315e-05 0 0.002054789030996677 -0.0001025130637864696 0 0.0020751466226492277 -5.655589611451975e-05 0 0.0020345626296786436 -3.0976910882293315e-05 0 0.002054789030996677 -0.0001025130637864696 0 0.0020158645061827789 -7.5480677652726334e-05 0 0.0020245135541538204 -3.1078835869311202e-05 0 0.0019699614039927686 -8.6299124856633938e-05 0 0.0020158645061827789 -7.5480677652726334e-05 0 0.0020245135541538204 -3.1078835869311202e-05 0 0.002074939225240215 -0.00017107729019813741 0 0.002054789030996677 -0.0001025130637864696 0 0.0021366459300694207 -0.00011834704353712224 0 0.002054789030996677 -0.0001025130637864696 0 0.0021366459300694207 -0.00011834704353712224 0 0.002117072797920568 -7.058604627665161e-05 0 0.002117072797920568 -7.058604627665161e-05 0 0.0021650100819848158 -3.982647344736334e-05 0 0.0021113384368003081 -3.0400255105859878e-05 0 0.0020751466226492277 -5.655589611451975e-05 0 0.002117072797920568 -7.058604627665161e-05 0 0.0021113384368003081 -3.0400255105859878e-05 0 0.0021366459300694207 -0.00011834704353712224 0 0.002117072797920568 -7.058604627665161e-05 0 0.0021650100819848158 -3.982647344736334e-05 0 0.0022135394036958845 -9.2600862187532199e-05 0 0.0021366459300694207 -0.00011834704353712224 0 0.0021650100819848158 -3.982647344736334e-05 0 0.0021650100819848158 -3.982647344736334e-05 0 0.0021113384368003081 -3.0400255105859878e-05 0 0.0021275090152108149 1.6279298980577205e-05 0 0.0021650100819848158 -3.982647344736334e-05 0 0.0021275090152108149 1.6279298980577205e-05 0 0.0021831866275919213 3.5853519250732069e-05 0 0.0020751466226492277 -5.655589611451975e-05 0 0.0021113384368003081 -3.0400255105859878e-05 0 0.0020722736658176665 5.5507705392034237e-06 0 0.0021113384368003081 -3.0400255105859878e-05 0 0.0021275090152108149 1.6279298980577205e-05 0 0.0020722736658176665 5.5507705392034237e-06 0 0.0021275090152108149 1.6279298980577205e-05 0 0.0020849483389198602 4.726649438514522e-05 0 0.0020722736658176665 5.5507705392034237e-06 0 0.0021275090152108149 1.6279298980577205e-05 0 0.0020849483389198602 4.726649438514522e-05 0 0.0021260487403851722 7.2264023644600707e-05 0 0.0021275090152108149 1.6279298980577205e-05 0 0.0021260487403851722 7.2264023644600707e-05 0 0.0021831866275919213 3.5853519250732069e-05 0 0.0020134048469696449 -7.8478019087191219e-06 0 0.0020345626296786436 -3.0976910882293315e-05 0 0.0020071157616265399 8.834556957283453e-05 0 0.0020722736658176665 5.5507705392034237e-06 0 0.0020345626296786436 -3.0976910882293315e-05 0 0.0020125914368178243 9.7481723200878087e-05 0 0.0016155202710547733 -8.3452001004811387e-05 0 0.0020194701477325248 -1.7302594835279928e-05 0 0.0019923106503774235 4.6833244185778548e-05 0 0.0020245135541538204 -3.1078835869311202e-05 0 0.0019986457055932551 7.8465842563964259e-07 0 0.0020481148080723991 2.313395312422508e-05 0 0.0017777116353382822 -5.4931446249162195e-05 0 0.0020751466226492277 -5.655589611451975e-05 0 0.0020722736658176665 5.5507705392034237e-06 0 0.0020345626296786436 -3.0976910882293315e-05 0 0.0020849483389198602 4.726649438514522e-05 0 0.0020722736658176665 5.5507705392034237e-06 0 0.0020125914368178243 9.7481723200878087e-05 0 0.0017777116353382822 -5.4931446249162195e-05 0 0.0019273228382859782 -0.00017878199210496725 0 0.0019703706562366891 9.06399269901754e-05 0 0.0020134048469696449 -7.8478019087191219e-06 0 0.0020071157616265399 8.834556957283453e-05 0 0.0015902510051482737 -0.0003074760256663151 0 0.0016489134163458772 -0.00027613760695994793 0 0.0018118765586249857 -0.00027108875461026414 0 0.0020849483389198602 4.726649438514522e-05 0 0.0020125914368178243 9.7481723200878087e-05 0 0.0021260487403851722 7.2264023644600707e-05 0 0.0016352284058150427 -7.8061001607596363e-05 0 0.0016486376022398438 -7.9176513150600112e-05 0 0.0016469695576442856 -6.9825271664620029e-05 0 0.0016155202710547733 -8.3452001004811387e-05 0 0.0017777116353382822 -5.4931446249162195e-05 0 0.0017777116353382822 -5.4931446249162195e-05 0 0.0015299621416479108 -0.00023594245804502083 0 0.0015299621416479108 -0.00023594245804502083 0 0.0012781815012546571 -0.00059948521974952974 0 0.0016489134163458772 -0.00027613760695994793 0 0.0015848925435654633 -0.00026135982379979169 0 0.0016991863764978851 -0.00018028201559226254 0 0.0013913485236135804 -0.00036812032662443019 0 0.0014054173981967355 -0.00046163112280495723 0 0.0011530408051714388 -0.0005437719281433511 0 0.0015902510051482737 -0.0003074760256663151 0 0.0016489134163458772 -0.00027613760695994793 0 0.0015848925435654633 -0.00026135982379979169 0 0.0015299621416479108 -0.00023594245804502083 0 0.0012816507274070925 -0.00041586541292679699 0 0.0012267732458255542 -0.00022907444965429167 0 0.0012816507274070925 -0.00041586541292679699 0 0.0014709530193579906 -0.00025594237839591096 0 0.0014040101500105776 -0.00025567001524827844 0 0.0014104756044329013 -0.00029975726842982003 0 0.0014571413958353633 -0.00021646703468004692 0 0.0014709530193579906 -0.00025594237839591096 0 0.0014040101500105776 -0.00025567001524827844 0 0.0016155202710547733 -8.3452001004811387e-05 0 0.0015299621416479108 -0.00023594245804502083 0 0.0020125914368178243 9.7481723200878087e-05 0 0.0021260487403851722 7.2264023644600707e-05 0 0.0021442433036854931 0.00011920357709290743 0 0.0021260487403851722 7.2264023644600707e-05 0 0.0021724870855641359 0.00012013467698410204 0 0.0021831866275919213 3.5853519250732069e-05 0 0.0021260487403851722 7.2264023644600707e-05 0 0.0021442433036854931 0.00011920357709290743 0 0.0021724870855641359 0.00012013467698410204 0 0.0016367936705030709 -0.00026652856313261739 0 0.0019273228382859782 -0.00017878199210496725 0 0.0016489134163458772 -0.00027613760695994793 0 0.0017987644426198997 -0.0002725291650138487 0 0.0016991863764978851 -0.00018028201559226254 0 0.0020513091805856483 -0.00020197685030229923 0 0.0012781815012546571 -0.00059948521974952974 0 0.0017987644426198997 -0.0002725291650138487 0 0.0018426700414342497 -0.00027136312079378529 0 0.0016991863764978851 -0.00018028201559226254 0 0.0011897627787143749 -0.00078858502762667196 0 0.0011840563226671026 -0.00075769103236557084 0 0.0011485589695047005 -0.00075970655652171616 0 0.0019273228382859782 -0.00017878199210496725 0 0.0020513091805856483 -0.00020197685030229923 0 0.0011897627787143749 -0.00078858502762667196 0 0.0012914026718142001 -0.0007890569407688425 0 0.0012141270274030683 -0.00075647457735238133 0 0.0020513091805856483 -0.00020197685030229923 0 0.0027708067755649237 -4.5878518654743241e-05 0 0.0020513091805856483 -0.00020197685030229923 0 0.0016405799477865026 -0.0006014905403048796 0 0.0030500418014483949 0.00019041303776962698 0 0.0030949159658805177 0.00016905656294108269 0 0.0031228476498821908 0.00017805656099150895 0 0.0020513091805856483 -0.00020197685030229923 0 0.0027203050665611317 0.00010431241539490153 0 0.0021724870855641359 0.00012013467698410204 0 0.0021831866275919213 3.5853519250732069e-05 0 0.002275043161580228 5.9096914966979648e-05 0 0.0021831866275919213 3.5853519250732069e-05 0 0.002275043161580228 5.9096914966979648e-05 0 0.0022595725428751164 -2.6196815324420213e-05 0 0.0021650100819848158 -3.982647344736334e-05 0 0.0021831866275919213 3.5853519250732069e-05 0 0.0022595725428751164 -2.6196815324420213e-05 0 0.002275043161580228 5.9096914966979648e-05 0 0.0022595725428751164 -2.6196815324420213e-05 0 0.002379058132356724 -3.0445104037754036e-06 0 0.0030949159658805177 0.00016905656294108269 0 0.0031251141645692732 0.00018482435166497897 0 0.0031223020242295177 0.00018067915965946403 0 0.0029104369652495337 0.00017560134427695707 0 0.0028583427593461166 0.00013174629498019576 0 0.0027203050665611317 0.00010431241539490153 0 0.0028583427593461166 0.00013174629498019576 0 0.0021115279740443909 -0.00030103352753068274 0 0.002181019324882722 -0.0003101447617033666 0 0.0021803384266910627 -0.00030099174722427 0 0.0030949159658805177 0.00016905656294108269 0 0.0031251141645692732 0.00018482435166497897 0 0.0031228476498821908 0.00017805656099150895 0 0.0012914026718142001 -0.0007890569407688425 0 0.0013053973283608379 -0.00070501541607349892 0 0.0012397591031770982 -0.00073247528971418223 0 0.0012914026718142001 -0.0007890569407688425 0 0.0012397591031770982 -0.00073247528971418223 0 0.0012141270274030683 -0.00075647457735238133 0 0.0013053973283608379 -0.00070501541607349892 0 0.0012272495299013473 -0.00068100080935476427 0 0.0012446508129864955 -0.00064120878707277587 0 0.0013053973283608379 -0.00070501541607349892 0 0.0012446508129864955 -0.00064120878707277587 0 0.0013447776702818492 -0.00063351758627147256 0 0.0013053973283608379 -0.00070501541607349892 0 0.0012272495299013473 -0.00068100080935476427 0 0.0012397591031770982 -0.00073247528971418223 0 0.0010924738392003939 -0.00077827865432919887 0 0.001249026226386705 -0.00064005322411870864 0 0.0012272495299013473 -0.00068100080935476427 0 0.0011930661639884693 -0.00069993413002738159 0 0.0012446508129864955 -0.00064120878707277587 0 0.0012272495299013473 -0.00068100080935476427 0 0.0012397591031770982 -0.00073247528971418223 0 0.0011877345139281968 -0.00072707445192393282 0 0.0010505271347644467 -0.00071057565392119429 0 0.0010374002717597919 -0.00080709346893799861 0 0.0012446508129864955 -0.00064120878707277587 0 0.0012272495299013473 -0.00068100080935476427 0 0.0011930661639884693 -0.00069993413002738159 0 0.0011868198978382972 -0.00071778343028250737 0 0.0010505271347644467 -0.00071057565392119429 0 0.0010374002717597919 -0.00080709346893799861 0 0.00099657029160493639 -0.00076994491956926009 0 0.0012345116312232705 -0.00067951657548697775 0 0.0011591863997181626 -0.00074211925455640911 0 0.0012397591031770982 -0.00073247528971418223 0 0.0012141270274030683 -0.00075647457735238133 0 0.0011877345139281968 -0.00072707445192393282 0 0.0012141270274030683 -0.00075647457735238133 0 0.0011840563226671026 -0.00075769103236557084 0 0.0011877345139281968 -0.00072707445192393282 0 0.0011897627787143749 -0.00078858502762667196 0 0.0012141270274030683 -0.00075647457735238133 0 0.0011840563226671026 -0.00075769103236557084 0 0.0010924738392003939 -0.00077827865432919887 0 0.0010704161484879919 -0.00067789100875949152 0 0.0011930661639884693 -0.00069993413002738159 0 0.0011868198978382972 -0.00071778343028250737 0 0.0011357051166629465 -0.00074131836806981576 0 0.0010374002717597919 -0.00080709346893799861 0 0.00084553284813669431 -0.00093733042972595144 0 0.0009370593307174047 -0.00080764757848179934 0 0.0011455564558483582 -0.00074744816498480279 0 0.0011868198978382972 -0.00071778343028250737 0 0.0011357051166629465 -0.00074131836806981576 0 0.0011840563226671026 -0.00075769103236557084 0 0.0011485589695047005 -0.00075970655652171616 0 0.0011877345139281968 -0.00072707445192393282 0 0.0012781815012546571 -0.00059948521974952974 0 0.0011591863997181626 -0.00074211925455640911 0 0.00084553284813669431 -0.00093733042972595144 0 0.00087678283167371026 -0.00083089265253225519 0 0.0009370593307174047 -0.00080764757848179934 0 0.0010704161484879919 -0.00067789100875949152 0 0.00095682434017428078 -0.00071773129000871061 0 0.0011148057034343244 -0.00041121443053824397 0 0.001001965737984243 -0.00043237648856466154 0 0.0010316578205290096 -0.0006344750995287004 0 0.0012816507274070925 -0.00041586541292679699 0 0.00095682434017428078 -0.00071773129000871061 0 0.0011098599047341456 -0.00058073037388870006 0 0.0010620506729154095 -0.00061536390410505402 0 0.0011199312186231628 -0.00065299057600888284 0 0.0014054173981967355 -0.00046163112280495723 0 0.0011530408051714388 -0.0005437719281433511 0 0.0012264259405672605 -0.00059093060570315661 0 0.0012816507274070925 -0.00041586541292679699 0 0.0010704161484879919 -0.00067789100875949152 0 0.0012781815012546571 -0.00059948521974952974 0 0.0010704161484879919 -0.00067789100875949152 0 0.00084553284813669431 -0.00093733042972595144 0 0.00081936688694146426 -0.00084534459727460503 0 0.00087678283167371026 -0.00083089265253225519 0 0.00084553284813669431 -0.00093733042972595144 0 0.00081936688694146426 -0.00084534459727460503 0 0.00075127372090255326 -0.0008763774924376033 0 0.00081936688694146426 -0.00084534459727460503 0 0.00075127372090255326 -0.0008763774924376033 0 0.00079371883128539675 -0.00079538030979907045 0 0.00095682434017428078 -0.00071773129000871061 0 0.0008932532335555938 -0.00073370676634793139 0 0.00075127372090255326 -0.0008763774924376033 0 0.00079371883128539675 -0.00079538030979907045 0 0.00072732904722670744 -0.00072926000638336185 0 0.00095682434017428078 -0.00071773129000871061 0 0.00077851965799945611 -0.00073489367126117894 0 0.00079371883128539675 -0.00079538030979907045 0 0.0008429892371838014 -0.0007929104802918913 0 0.00083102397185297946 -0.00073380256472028278 0 0.00081936688694146426 -0.00084534459727460503 0 0.00079371883128539675 -0.00079538030979907045 0 0.0008429892371838014 -0.0007929104802918913 0 0.00081936688694146426 -0.00084534459727460503 0 0.00087678283167371026 -0.00083089265253225519 0 0.0008429892371838014 -0.0007929104802918913 0 0.00087678283167371026 -0.00083089265253225519 0 0.0008429892371838014 -0.0007929104802918913 0 0.00089454515008478277 -0.00075913606210278612 0 0.0008429892371838014 -0.0007929104802918913 0 0.00083102397185297946 -0.00073380256472028278 0 0.00089454515008478277 -0.00075913606210278612 0 0.00079371883128539675 -0.00079538030979907045 0 0.00083102397185297946 -0.00073380256472028278 0 0.00072732904722670744 -0.00072926000638336185 0 0.00083102397185297946 -0.00073380256472028278 0 0.0008000750527739982 -0.0006625662688309619 0 0.00072732904722670744 -0.00072926000638336185 0 0.0010374002717597919 -0.00080709346893799861 0 0.00099657029160493639 -0.00076994491956926009 0 0.0009370593307174047 -0.00080764757848179934 0 0.00099657029160493639 -0.00076994491956926009 0 0.0009370593307174047 -0.00080764757848179934 0 0.00096386019801448781 -0.00073808500759452622 0 0.00087678283167371026 -0.00083089265253225519 0 0.0009370593307174047 -0.00080764757848179934 0 0.00089454515008478277 -0.00075913606210278612 0 0.0009370593307174047 -0.00080764757848179934 0 0.00089454515008478277 -0.00075913606210278612 0 0.00096386019801448781 -0.00073808500759452622 0 0.00083102397185297946 -0.00073380256472028278 0 0.00089454515008478277 -0.00075913606210278612 0 0.00090044341123631942 -0.0006721948319471353 0 0.00089454515008478277 -0.00075913606210278612 0 0.00096386019801448781 -0.00073808500759452622 0 0.00090044341123631942 -0.0006721948319471353 0 0.0010505271347644467 -0.00071057565392119429 0 0.00096386019801448781 -0.00073808500759452622 0 0.00099631050148684731 -0.00066462871619162066 0 0.00096386019801448781 -0.00073808500759452622 0 0.00099631050148684731 -0.00066462871619162066 0 0.00090044341123631942 -0.0006721948319471353 0 0.0010505271347644467 -0.00071057565392119429 0 0.00099657029160493639 -0.00076994491956926009 0 0.00096386019801448781 -0.00073808500759452622 0 0.00099631050148684731 -0.00066462871619162066 0 0.00098654283844312111 -0.00057253308802729256 0 0.0010823157049153894 -0.00063139858697377213 0 0.00099631050148684731 -0.00066462871619162066 0 0.00090044341123631942 -0.0006721948319471353 0 0.00098654283844312111 -0.00057253308802729256 0 0.00090044341123631942 -0.0006721948319471353 0 0.00098654283844312111 -0.00057253308802729256 0 0.00084307408089446254 -0.00057747142100278849 0 0.0008000750527739982 -0.0006625662688309619 0 0.00073959399198538194 -0.0005846866361167816 0 0.00072732904722670744 -0.00072926000638336185 0 0.00074072429575968498 -0.00060158420856791994 0 0.00077851965799945611 -0.00073489367126117894 0 0.00090044341123631942 -0.0006721948319471353 0 0.0008000750527739982 -0.0006625662688309619 0 0.00084307408089446254 -0.00057747142100278849 0 0.00083102397185297946 -0.00073380256472028278 0 0.00090044341123631942 -0.0006721948319471353 0 0.0008000750527739982 -0.0006625662688309619 0 0.0008000750527739982 -0.0006625662688309619 0 0.00084307408089446254 -0.00057747142100278849 0 0.00079320590410741389 -0.00060501672171473853 0 0.00084307408089446254 -0.00057747142100278849 0 0.00079320590410741389 -0.00060501672171473853 0 0.00075288144691616288 -0.00054843880831710579 0 0.0008000750527739982 -0.0006625662688309619 0 0.00079320590410741389 -0.00060501672171473853 0 0.00073959399198538194 -0.0005846866361167816 0 0.00073959399198538194 -0.0005846866361167816 0 0.00075288144691616288 -0.00054843880831710579 0 0.00070456806875605492 -0.00055517639369133311 0 0.00079320590410741389 -0.00060501672171473853 0 0.00073959399198538194 -0.0005846866361167816 0 0.00075288144691616288 -0.00054843880831710579 0 0.00079199726190123758 -0.00051501322047238301 0 0.00090345864408271012 -0.00044790736356293561 0 0.00069048549251721062 -0.00049569956008671675 0 0.00073054091823792928 -0.00050201306291343297 0 0.00069048549251721062 -0.00049569956008671675 0 0.00069752573813304075 -0.00046438309754097613 0 0.00081844619071920217 -0.00047911355182218368 0 0.00070369992560197962 -0.00048933339585475306 0 0.00079199726190123758 -0.00051501322047238301 0 0.00075288144691616288 -0.00054843880831710579 0 0.00069048549251721062 -0.00049569956008671675 0 0.00084307408089446254 -0.00057747142100278849 0 0.00079199726190123758 -0.00051501322047238301 0 0.00090345864408271012 -0.00044790736356293561 0 0.00084307408089446254 -0.00057747142100278849 0 0.00079199726190123758 -0.00051501322047238301 0 0.00075288144691616288 -0.00054843880831710579 0 0.00098654283844312111 -0.00057253308802729256 0 0.00090345864408271012 -0.00044790736356293561 0 0.0011367865381382914 -0.00045496269183108406 0 0.00081844619071920217 -0.00047911355182218368 0 0.00098346845180319743 -0.0004895895686917479 0 0.00098654283844312111 -0.00057253308802729256 0 0.00084307408089446254 -0.00057747142100278849 0 0.00090345864408271012 -0.00044790736356293561 0 0.00098654283844312111 -0.00057253308802729256 0 0.0011367865381382914 -0.00045496269183108406 0 0.0011619032692684738 -0.00056461346024276745 0 0.00073054091823792928 -0.00050201306291343297 0 0.00082562250199000851 -0.00052203502173477133 0 0.00079208751001431346 -0.00045741132106941158 0 0.00082562250199000851 -0.00052203502173477133 0 0.00087743364709490441 -0.00046044079513087748 0 0.00093364302964754576 -0.00053650407016644095 0 0.00098346845180319743 -0.0004895895686917479 0 0.0011136477465453884 -0.00050734690731634845 0 0.0011367865381382914 -0.00045496269183108406 0 0.0012809071657158065 -0.00056292088805541692 0 0.0013209305646406453 -0.00048445467184997316 0 0.0011367865381382914 -0.00045496269183108406 0 0.0012809071657158065 -0.00056292088805541692 0 0.0011619032692684738 -0.00056461346024276745 0 0.0012809071657158065 -0.00056292088805541692 0 0.0012446508129864955 -0.00064120878707277587 0 0.0011619032692684738 -0.00056461346024276745 0 0.0012809071657158065 -0.00056292088805541692 0 0.0012446508129864955 -0.00064120878707277587 0 0.0013447776702818492 -0.00063351758627147256 0 0.0012446508129864955 -0.00064120878707277587 0 0.0010823157049153894 -0.00063139858697377213 0 0.0011619032692684738 -0.00056461346024276745 0 0.00098654283844312111 -0.00057253308802729256 0 0.0010823157049153894 -0.00063139858697377213 0 0.0011619032692684738 -0.00056461346024276745 0 0.0010505271347644467 -0.00071057565392119429 0 0.0012446508129864955 -0.00064120878707277587 0 0.0010823157049153894 -0.00063139858697377213 0 0.0010505271347644467 -0.00071057565392119429 0 0.00099631050148684731 -0.00066462871619162066 0 0.0010823157049153894 -0.00063139858697377213 0 0.0014296344070145624 -0.00041168912092246764 0 0.0012289089245179029 -0.00028525591690671266 0 0.0013312826172791634 -0.00059089870052272595 0 0.0015506501406478963 -0.00055880701985183386 0 0.0014296344070145624 -0.00041168912092246764 0 0.0013312826172791634 -0.00059089870052272595 0 0.00092455693559211917 -0.00029256039853067621 0 0.00097715864335155963 -0.000622296210323132 0 0.0015513937284724322 -0.00036469018303763765 0 0.0014296344070145624 -0.00041168912092246764 0 0.0015051421666586865 -0.00023120682783856581 0 0.0014296344070145624 -0.00041168912092246764 0 0.0015051421666586865 -0.00023120682783856581 0 0.0012289089245179029 -0.00028525591690671266 0 0.0010932370549386911 -0.00012963325075469482 0 0.0012289089245179029 -0.00028525591690671266 0 0.00099118314054952479 -0.00030452093664481224 0 0.0012289089245179029 -0.00028525591690671266 0 0.00098432975171698373 -0.00048408928658806946 0 0.00099118314054952479 -0.00030452093664481224 0 0.001325003420280943 -0.00033577955374733241 0 0.00097715864335155963 -0.000622296210323132 0 0.0012289089245179029 -0.00028525591690671266 0 0.00098432975171698373 -0.00048408928658806946 0 0.001323937281557644 -0.00074515315135128938 0 0.0010056233726891801 -0.00067284828101357328 0 0.00098432975171698373 -0.00048408928658806946 0 0.001323937281557644 -0.00074515315135128938 0 0.0010056233726891801 -0.00067284828101357328 0 0.0008780251502629625 -0.00061925775860961676 0 0.00098432975171698373 -0.00048408928658806946 0 0.0010056233726891801 -0.00067284828101357328 0 0.0008780251502629625 -0.00061925775860961676 0 0.00081288569388822006 -0.00068447238478202329 0 0.0008780251502629625 -0.00061925775860961676 0 0.00075243842235493935 -0.0006652531876537751 0 0.00083433401979177136 -0.0005386757986200096 0 0.0008780251502629625 -0.00061925775860961676 0 0.00081288569388822006 -0.00068447238478202329 0 0.00075243842235493935 -0.0006652531876537751 0 0.00081288569388822006 -0.00068447238478202329 0 0.00075243842235493935 -0.0006652531876537751 0 0.00074367152897661555 -0.00071424433260036278 0 0.00083433401979177136 -0.0005386757986200096 0 0.00076370444787689901 -0.00048503250136588104 0 0.00085060006819284565 -0.00039986476195706482 0 0.00075243842235493935 -0.0006652531876537751 0 0.00083433401979177136 -0.0005386757986200096 0 0.00076370444787689901 -0.00048503250136588104 0 0.00083433401979177136 -0.0005386757986200096 0 0.00098432975171698373 -0.00048408928658806946 0 0.00085060006819284565 -0.00039986476195706482 0 0.0008780251502629625 -0.00061925775860961676 0 0.00083433401979177136 -0.0005386757986200096 0 0.00098432975171698373 -0.00048408928658806946 0 0.00098432975171698373 -0.00048408928658806946 0 0.00099118314054952479 -0.00030452093664481224 0 0.00085060006819284565 -0.00039986476195706482 0 0.00099118314054952479 -0.00030452093664481224 0 0.00084413999069248566 -0.00022786433781790425 0 0.00085060006819284565 -0.00039986476195706482 0 0.0010932370549386911 -0.00012963325075469482 0 0.00099118314054952479 -0.00030452093664481224 0 0.00084413999069248566 -0.00022786433781790425 0 0.00084413999069248566 -0.00022786433781790425 0 0.00085060006819284565 -0.00039986476195706482 0 0.00071317196820040447 -0.00034539753297295716 0 0.00076370444787689901 -0.00048503250136588104 0 0.00085060006819284565 -0.00039986476195706482 0 0.00071317196820040447 -0.00034539753297295716 0 0.00076370444787689901 -0.00048503250136588104 0 0.00071317196820040447 -0.00034539753297295716 0 0.0006624113924202943 -0.00046822382475870548 0 0.00057135472398103749 -0.00016823372206623531 0 0.00071317196820040447 -0.00034539753297295716 0 0.0006624113924202943 -0.00046822382475870548 0 0.0011148057034343244 -0.00041121443053824397 0 0.0010316578205290096 -0.0006344750995287004 0 0.0010901987989507679 -0.00067243491724845283 0 0.0010212568226426041 -0.00037256736316656927 0 0.0006811086155003301 -0.00062217047186606403 0 0.00075047146248482122 -0.00075533004654547323 0 0.00074554915617462128 -0.00077371602655663572 0 0.00074408534170869423 -0.00077511760765007194 0 0.00075047146248482122 -0.00075533004654547323 0 0.00074410737012661949 -0.00077219462478493128 0 0.00074554915617462128 -0.00077371602655663572 0 0.0010212568226426041 -0.00037256736316656927 0 0.0008932532335555938 -0.00073370676634793139 0 0.00070902209440593382 -0.00020360087109483967 0 0.00084413999069248566 -0.00022786433781790425 0 0.00071317196820040447 -0.00034539753297295716 0 0.00057135472398103749 -0.00016823372206623531 0 0.00070902209440593382 -0.00020360087109483967 0 0.00071317196820040447 -0.00034539753297295716 0 0.0008932532335555938 -0.00073370676634793139 0 0.00087151374821414676 -0.00072770928634547098 0 0.00074408534170869423 -0.00077511760765007194 0 0.00073205429468023529 -0.00075609007822791954 0 0.00070735955783563008 -0.00074198847223461031 0 0.00075243842235493935 -0.0006652531876537751 0 0.0006624113924202943 -0.00046822382475870548 0 0.00070735955783563008 -0.00074198847223461031 0 0.00074712806730644124 -0.00077563564867659117 0 0.00074554915617462128 -0.00077371602655663572 0 0.00074734088653114926 -0.00077030491097393624 0 0.0006811086155003301 -0.00062217047186606403 0 0.00071696915196760411 -0.00073342095820473836 0 0.0008932532335555938 -0.00073370676634793139 0 0.00077851965799945611 -0.00073489367126117894 0 0.00074712806730644124 -0.00077563564867659117 0 0.00074734088653114926 -0.00077030491097393624 0 0.00076189759192399429 -0.00076125286604003571 0 0.00086776989755989393 -0.00072885005850611875 0 0.00086764504878469395 -0.00072893233334473501 0 0.00086659718771876998 -0.00072936428893608104 0 0.00074554915617462128 -0.00077371602655663572 0 0.00074734088653114926 -0.00077030491097393624 0 0.00074408534170869423 -0.00077511760765007194 0 0.00075243842235493935 -0.0006652531876537751 0 0.00076370444787689901 -0.00048503250136588104 0 0.0006624113924202943 -0.00046822382475870548 0 0.00074734088653114926 -0.00077030491097393624 0 0.00074408534170869423 -0.00077511760765007194 0 0.00073205429468023529 -0.00075609007822791954 0 0.00074734088653114926 -0.00077030491097393624 0 0.00073205429468023529 -0.00075609007822791954 0 0.00076189759192399429 -0.00076125286604003571 0 0.00073205429468023529 -0.00075609007822791954 0 0.00076189759192399429 -0.00076125286604003571 0 0.00072926780968826318 -0.00073720091071850129 0 0.00073959399198538194 -0.0005846866361167816 0 0.0007255624998311254 -0.0007235150092077268 0 0.00070456806875605492 -0.00055517639369133311 0 0.00077851965799945611 -0.00073489367126117894 0 0.00072632902730226088 -0.00060934381886574391 0 0.00076189759192399429 -0.00076125286604003571 0 0.00073538116728732799 -0.00071162142093916954 0 0.00076682387691216704 -0.00066404046902196142 0 0.00076189759192399429 -0.00076125286604003571 0 0.00072926780968826318 -0.00073720091071850129 0 0.00073538116728732799 -0.00071162142093916954 0 0.00073205429468023529 -0.00075609007822791954 0 0.00072926780968826318 -0.00073720091071850129 0 0.00072016042648136852 -0.00073689688181055308 0 0.00073205429468023529 -0.00075609007822791954 0 0.00072016042648136852 -0.00073689688181055308 0 0.00070735955783563008 -0.00074198847223461031 0 0.00072926780968826318 -0.00073720091071850129 0 0.00072016042648136852 -0.00073689688181055308 0 0.00072556556914203348 -0.0007252419617384924 0 0.00072016042648136852 -0.00073689688181055308 0 0.00071503617248692606 -0.00072019222027873994 0 0.00070735955783563008 -0.00074198847223461031 0 0.00072016042648136852 -0.00073689688181055308 0 0.00071503617248692606 -0.00072019222027873994 0 0.00072556556914203348 -0.0007252419617384924 0 0.00072926780968826318 -0.00073720091071850129 0 0.00073538116728732799 -0.00071162142093916954 0 0.00072556556914203348 -0.0007252419617384924 0 0.00071503617248692606 -0.00072019222027873994 0 0.00073538116728732799 -0.00071162142093916954 0 0.00072556556914203348 -0.0007252419617384924 0 0.00071503617248692606 -0.00072019222027873994 0 0.00073538116728732799 -0.00071162142093916954 0 0.00071247944311095507 -0.00069273790390337469 0 0.00073538116728732799 -0.00071162142093916954 0 0.00071247944311095507 -0.00069273790390337469 0 0.00073239255835423514 -0.00067934569760036824 0 0.00071503617248692606 -0.00072019222027873994 0 0.00071247944311095507 -0.00069273790390337469 0 0.00070097142462106638 -0.00071896179369517106 0 0.00071247944311095507 -0.00069273790390337469 0 0.00070776315863480032 -0.00064787266466843365 0 0.00067865939354703217 -0.0006686711027060698 0 0.00071247944311095507 -0.00069273790390337469 0 0.00073239255835423514 -0.00067934569760036824 0 0.00070776315863480032 -0.00064787266466843365 0 0.00073239255835423514 -0.00067934569760036824 0 0.00076682387691216704 -0.00066404046902196142 0 0.00070776315863480032 -0.00064787266466843365 0 0.00073538116728732799 -0.00071162142093916954 0 0.00073239255835423514 -0.00067934569760036824 0 0.00076682387691216704 -0.00066404046902196142 0 0.00076682387691216704 -0.00066404046902196142 0 0.00069215606751659353 -0.00057722470737802626 0 0.00067477704791617872 -0.00047874926450836366 0 0.00070456806875605492 -0.00055517639369133311 0 0.00069048549251721062 -0.00049569956008671675 0 0.00067477704791617872 -0.00047874926450836366 0 0.00075288144691616288 -0.00054843880831710579 0 0.00070456806875605492 -0.00055517639369133311 0 0.00069048549251721062 -0.00049569956008671675 0 0.00076682387691216704 -0.00066404046902196142 0 0.00069215606751659353 -0.00057722470737802626 0 0.00070776315863480032 -0.00064787266466843365 0 0.00072632902730226088 -0.00060934381886574391 0 0.00068940415551220664 -0.00049383547240530084 0 0.00066102626068012744 -0.0005298547082578486 0 0.00069215606751659353 -0.00057722470737802626 0 0.00067477704791617872 -0.00047874926450836366 0 0.00066102626068012744 -0.0005298547082578486 0 0.00065493960511791671 -0.00055969374163870368 0 0.00062558084419935445 -0.00050830452632312387 0 0.00066102626068012744 -0.0005298547082578486 0 0.00069215606751659353 -0.00057722470737802626 0 0.00065493960511791671 -0.00055969374163870368 0 0.00069215606751659353 -0.00057722470737802626 0 0.00065493960511791671 -0.00055969374163870368 0 0.00067202101735789276 -0.00060772005003639567 0 0.00069215606751659353 -0.00057722470737802626 0 0.00067202101735789276 -0.00060772005003639567 0 0.00070776315863480032 -0.00064787266466843365 0 0.00067202101735789276 -0.00060772005003639567 0 0.00070776315863480032 -0.00064787266466843365 0 0.00067865939354703217 -0.0006686711027060698 0 0.00063054686647053687 -0.00063927704845249446 0 0.00062820051894744652 -0.00058591957718949104 0 0.00067865939354703217 -0.0006686711027060698 0 0.00067202101735789276 -0.00060772005003639567 0 0.00062820051894744652 -0.00058591957718949104 0 0.00067865939354703217 -0.0006686711027060698 0 0.00065493960511791671 -0.00055969374163870368 0 0.00067202101735789276 -0.00060772005003639567 0 0.00062820051894744652 -0.00058591957718949104 0 0.00062820051894744652 -0.00058591957718949104 0 0.00056236158102149561 -0.00052224082329428191 0 0.00062558084419935445 -0.00050830452632312387 0 0.00065493960511791671 -0.00055969374163870368 0 0.00062820051894744652 -0.00058591957718949104 0 0.00062558084419935445 -0.00050830452632312387 0 0.00062820051894744652 -0.00058591957718949104 0 0.00056236158102149561 -0.00052224082329428191 0 0.00056033928068808766 -0.00059758195932514452 0 0.00063054686647053687 -0.00063927704845249446 0 0.00056033928068808766 -0.00059758195932514452 0 0.00058440799105116377 -0.00068918309758166671 0 0.00063054686647053687 -0.00063927704845249446 0 0.00062820051894744652 -0.00058591957718949104 0 0.00056033928068808766 -0.00059758195932514452 0 0.00058440799105116377 -0.00068918309758166671 0 0.0006679518564484579 -0.00069441991021719463 0 0.00072293742492649622 -0.00075850511540493314 0 0.00063054686647053687 -0.00063927704845249446 0 0.00058440799105116377 -0.00068918309758166671 0 0.0006679518564484579 -0.00069441991021719463 0 0.00063054686647053687 -0.00063927704845249446 0 0.00067865939354703217 -0.0006686711027060698 0 0.0006679518564484579 -0.00069441991021719463 0 0.00067865939354703217 -0.0006686711027060698 0 0.00070097142462106638 -0.00071896179369517106 0 0.0006679518564484579 -0.00069441991021719463 0 0.00071247944311095507 -0.00069273790390337469 0 0.00067865939354703217 -0.0006686711027060698 0 0.00070097142462106638 -0.00071896179369517106 0 0.00070097142462106638 -0.00071896179369517106 0 0.0006679518564484579 -0.00069441991021719463 0 0.00072293742492649622 -0.00075850511540493314 0 0.00071503617248692606 -0.00072019222027873994 0 0.00070097142462106638 -0.00071896179369517106 0 0.00070735955783563008 -0.00074198847223461031 0 0.00070097142462106638 -0.00071896179369517106 0 0.00072293742492649622 -0.00075850511540493314 0 0.00070735955783563008 -0.00074198847223461031 0 0.00075243842235493935 -0.0006652531876537751 0 0.00070735955783563008 -0.00074198847223461031 0 0.00074367152897661555 -0.00071424433260036278 0 0.00072293742492649622 -0.00075850511540493314 0 0.00070735955783563008 -0.00074198847223461031 0 0.00074367152897661555 -0.00071424433260036278 0 0.00081288569388822006 -0.00068447238478202329 0 0.00072293742492649622 -0.00075850511540493314 0 0.00074367152897661555 -0.00071424433260036278 0 0.0010056233726891801 -0.00067284828101357328 0 0.00081288569388822006 -0.00068447238478202329 0 0.00072293742492649622 -0.00075850511540493314 0 0.00067179876957593578 -0.00080685719055995889 0 0.00097715864335155963 -0.000622296210323132 0 0.00058440799105116377 -0.00068918309758166671 0 0.00072293742492649622 -0.00075850511540493314 0 0.00036762265082497661 -0.00080376434859265485 0 0.00058440799105116377 -0.00068918309758166671 0 0.00050785176272502 -0.0006578366152495442 0 0.00036762265082497661 -0.00080376434859265485 0 0.0010056233726891801 -0.00067284828101357328 0 0.00072293742492649622 -0.00075850511540493314 0 0.001323937281557644 -0.00074515315135128938 0 0.00041841663525348481 -0.0006611550048600095 0 0.00050785176272502 -0.0006578366152495442 0 0.00036762265082497661 -0.00080376434859265485 0 0.00056033928068808766 -0.00059758195932514452 0 0.00058440799105116377 -0.00068918309758166671 0 0.00050785176272502 -0.0006578366152495442 0 0.00056033928068808766 -0.00059758195932514452 0 0.00050785176272502 -0.0006578366152495442 0 0.00045328557957603364 -0.00051361954993646311 0 0.00041841663525348481 -0.0006611550048600095 0 0.00050785176272502 -0.0006578366152495442 0 0.00045328557957603364 -0.00051361954993646311 0 0.00056236158102149561 -0.00052224082329428191 0 0.00056033928068808766 -0.00059758195932514452 0 0.00045328557957603364 -0.00051361954993646311 0 0.00042974166197532702 -0.00050313303673560903 0 0.00036230127884018221 -0.00058666457674043328 0 0.00032295991326548981 -0.00044119022190520807 0 0.00043779677841038179 -0.00044834211714009982 0 0.00028751864250387747 -0.00030465843311442423 0 0.00041841663525348481 -0.0006611550048600095 0 0.00045328557957603364 -0.00051361954993646311 0 0.00034004878443199892 -0.00063759703479421531 0 0.00031185833501933333 -0.00017698196575098029 0 0.00027119159163938814 -0.00014263150887772349 0 0.00028243717355913437 -0.00021341525777745609 0 0.00042018793805339319 -0.00053439563623647985 0 0.00043779677841038179 -0.00044834211714009982 0 0.00084124732632901388 -0.00039736326940372152 0 0.00074934590487221037 -0.00051134814160080303 0 0.00072443192898594794 -0.00041221605705280982 0 0.00092455693559211917 -0.00029256039853067621 0 0.00043779677841038179 -0.00044834211714009982 0 0.00043779677841038179 -0.00044834211714009982 0 0.00097715864335155963 -0.000622296210323132 0 0.00041841663525348481 -0.0006611550048600095 0 0.00034004878443199892 -0.00063759703479421531 0 0.00036762265082497661 -0.00080376434859265485 0 0.00039140592443999693 -0.00034527562312149644 0 0.00032295991326548981 -0.00044119022190520807 0 0.00040047863931535576 -0.00042800470792893531 0 0.00030080225181176396 -0.00027715032591273971 0 0.00039140592443999693 -0.00034527562312149644 0 0.00032295991326548981 -0.00044119022190520807 0 0.00042974166197532702 -0.00050313303673560903 0 0.00032295991326548981 -0.00044119022190520807 0 0.00040047863931535576 -0.00042800470792893531 0 0.00042974166197532702 -0.00050313303673560903 0 0.00040047863931535576 -0.00042800470792893531 0 0.00050611713710502465 -0.00042335032833543194 0 0.00056236158102149561 -0.00052224082329428191 0 0.00045328557957603364 -0.00051361954993646311 0 0.00050611713710502465 -0.00042335032833543194 0 0.00042018793805339319 -0.00053439563623647985 0 0.00050893825563988091 -0.00042090927130642201 0 0.00039140592443999693 -0.00034527562312149644 0 0.00040047863931535576 -0.00042800470792893531 0 0.00050611713710502465 -0.00042335032833543194 0 0.00039140592443999693 -0.00034527562312149644 0 0.00049691327981072188 -0.00034362227144709871 0 0.00050611713710502465 -0.00042335032833543194 0 0.00049691327981072188 -0.00034362227144709871 0 0.00050611713710502465 -0.00042335032833543194 0 0.00058227999548283852 -0.00037078334588876795 0 0.00050611713710502465 -0.00042335032833543194 0 0.00060934476286775567 -0.00044119411163306066 0 0.00058227999548283852 -0.00037078334588876795 0 0.00050611713710502465 -0.00042335032833543194 0 0.00057642296944969418 -0.00047344069563811124 0 0.00060934476286775567 -0.00044119411163306066 0 0.00056236158102149561 -0.00052224082329428191 0 0.00050611713710502465 -0.00042335032833543194 0 0.00057642296944969418 -0.00047344069563811124 0 0.00056236158102149561 -0.00052224082329428191 0 0.00057642296944969418 -0.00047344069563811124 0 0.00062558084419935445 -0.00050830452632312387 0 0.00057642296944969418 -0.00047344069563811124 0 0.00062558084419935445 -0.00050830452632312387 0 0.00060934476286775567 -0.00044119411163306066 0 0.00066102626068012744 -0.0005298547082578486 0 0.00062558084419935445 -0.00050830452632312387 0 0.00067477704791617872 -0.00047874926450836366 0 0.00062558084419935445 -0.00050830452632312387 0 0.00060934476286775567 -0.00044119411163306066 0 0.00067477704791617872 -0.00047874926450836366 0 0.00069048549251721062 -0.00049569956008671675 0 0.00067477704791617872 -0.00047874926450836366 0 0.00069752573813304075 -0.00046438309754097613 0 0.00067477704791617872 -0.00047874926450836366 0 0.00065428655501188402 -0.00042504377968520345 0 0.00069752573813304075 -0.00046438309754097613 0 0.00060934476286775567 -0.00044119411163306066 0 0.00067477704791617872 -0.00047874926450836366 0 0.00065428655501188402 -0.00042504377968520345 0 0.00060934476286775567 -0.00044119411163306066 0 0.00065428655501188402 -0.00042504377968520345 0 0.00058227999548283852 -0.00037078334588876795 0 0.00065428655501188402 -0.00042504377968520345 0 0.00058227999548283852 -0.00037078334588876795 0 0.00064941142480814777 -0.00036948893467861034 0 0.00058227999548283852 -0.00037078334588876795 0 0.00060745707664030927 -0.00030116542079470658 0 0.00064941142480814777 -0.00036948893467861034 0 0.00058227999548283852 -0.00037078334588876795 0 0.00060745707664030927 -0.00030116542079470658 0 0.00052782835384363933 -0.0003016205117579405 0 0.00060745707664030927 -0.00030116542079470658 0 0.00051680693921401198 -0.00022269149178804121 0 0.00052782835384363933 -0.0003016205117579405 0 0.00060745707664030927 -0.00030116542079470658 0 0.00051680693921401198 -0.00022269149178804121 0 0.00061263037488821603 -0.00023898890873697473 0 0.00051680693921401198 -0.00022269149178804121 0 0.00043491602200774457 -0.00027524640107700596 0 0.00037114934537585924 -0.00020937094491413357 0 0.00051680693921401198 -0.00022269149178804121 0 0.00052782835384363933 -0.0003016205117579405 0 0.00043491602200774457 -0.00027524640107700596 0 0.00049691327981072188 -0.00034362227144709871 0 0.00052782835384363933 -0.0003016205117579405 0 0.00043491602200774457 -0.00027524640107700596 0 0.00049691327981072188 -0.00034362227144709871 0 0.00058227999548283852 -0.00037078334588876795 0 0.00052782835384363933 -0.0003016205117579405 0 0.00039140592443999693 -0.00034527562312149644 0 0.00043491602200774457 -0.00027524640107700596 0 0.0003455730979499426 -0.00025559803437279828 0 0.00039140592443999693 -0.00034527562312149644 0 0.00049691327981072188 -0.00034362227144709871 0 0.00043491602200774457 -0.00027524640107700596 0 0.00043491602200774457 -0.00027524640107700596 0 0.00037114934537585924 -0.00020937094491413357 0 0.0003455730979499426 -0.00025559803437279828 0 0.00030082247005743342 -0.00024615113905996548 0 0.00031855554170189806 -0.00021663829585711486 0 0.0003455730979499426 -0.00025559803437279828 0 0.00037114934537585924 -0.00020937094491413357 0 0.00031855554170189806 -0.00021663829585711486 0 0.0003455730979499426 -0.00025559803437279828 0 0.00030080225181176396 -0.00027715032591273971 0 0.00039140592443999693 -0.00034527562312149644 0 0.0003455730979499426 -0.00025559803437279828 0 0.00082757330007634307 -0.00036602778927954775 0 0.00076660382088423844 -0.00039413299505740046 0 0.00076926651578358826 -0.00031856686496299641 0 0.00082691390622268292 -0.00041626988475250854 0 0.00082757330007634307 -0.00036602778927954775 0 0.00087344585669318583 -0.00040396771913444961 0 0.00082691390622268292 -0.00041626988475250854 0 0.00079208751001431346 -0.00045741132106941158 0 0.00076660382088423844 -0.00039413299505740046 0 0.00082691390622268292 -0.00041626988475250854 0 0.00082757330007634307 -0.00036602778927954775 0 0.00076660382088423844 -0.00039413299505740046 0 0.00082757330007634307 -0.00036602778927954775 0 0.00088008026830400758 -0.0003689640906163947 0 0.00087344585669318583 -0.00040396771913444961 0 0.00082757330007634307 -0.00036602778927954775 0 0.00088008026830400758 -0.0003689640906163947 0 0.00085903721080575696 -0.00034253249523844242 0 0.00093513026828652239 -0.00036001654645366271 0 0.00094120176394510077 -0.00036484982413639584 0 0.00088008026830400758 -0.0003689640906163947 0 0.00091411386674516623 -0.00036617288971430321 0 0.00090882728229782852 -0.00034684615307944327 0 0.00088008026830400758 -0.0003689640906163947 0 0.00089758020650606782 -0.00038965379602809381 0 0.00087344585669318583 -0.00040396771913444961 0 0.00088008026830400758 -0.0003689640906163947 0 0.00091411386674516623 -0.00036617288971430321 0 0.00089758020650606782 -0.00038965379602809381 0 0.00089758020650606782 -0.00038965379602809381 0 0.00087344585669318583 -0.00040396771913444961 0 0.00092293013091640855 -0.0004196569439558516 0 0.00091411386674516623 -0.00036617288971430321 0 0.00089758020650606782 -0.00038965379602809381 0 0.00092293013091640855 -0.0004196569439558516 0 0.00087743364709490441 -0.00046044079513087748 0 0.00092293013091640855 -0.0004196569439558516 0 0.00095398711431050756 -0.00047606661749767396 0 0.00082691390622268292 -0.00041626988475250854 0 0.00087344585669318583 -0.00040396771913444961 0 0.00087743364709490441 -0.00046044079513087748 0 0.00087344585669318583 -0.00040396771913444961 0 0.00087743364709490441 -0.00046044079513087748 0 0.00092293013091640855 -0.0004196569439558516 0 0.00082691390622268292 -0.00041626988475250854 0 0.00087743364709490441 -0.00046044079513087748 0 0.00079208751001431346 -0.00045741132106941158 0 0.00082562250199000851 -0.00052203502173477133 0 0.00087743364709490441 -0.00046044079513087748 0 0.00079208751001431346 -0.00045741132106941158 0 0.00073054091823792928 -0.00050201306291343297 0 0.00073591202275318998 -0.00044653104468706699 0 0.00069752573813304075 -0.00046438309754097613 0 0.00073054091823792928 -0.00050201306291343297 0 0.00079208751001431346 -0.00045741132106941158 0 0.00073591202275318998 -0.00044653104468706699 0 0.00079208751001431346 -0.00045741132106941158 0 0.00073591202275318998 -0.00044653104468706699 0 0.00076660382088423844 -0.00039413299505740046 0 0.00073591202275318998 -0.00044653104468706699 0 0.00069752573813304075 -0.00046438309754097613 0 0.00070216425932752584 -0.00040430565920330998 0 0.00065428655501188402 -0.00042504377968520345 0 0.00069752573813304075 -0.00046438309754097613 0 0.00070216425932752584 -0.00040430565920330998 0 0.00065428655501188402 -0.00042504377968520345 0 0.00070216425932752584 -0.00040430565920330998 0 0.00064941142480814777 -0.00036948893467861034 0 0.00070216425932752584 -0.00040430565920330998 0 0.00064941142480814777 -0.00036948893467861034 0 0.00070159237326717109 -0.00033779310645444836 0 0.00070216425932752584 -0.00040430565920330998 0 0.00076660382088423844 -0.00039413299505740046 0 0.00070159237326717109 -0.00033779310645444836 0 0.00073591202275318998 -0.00044653104468706699 0 0.00070216425932752584 -0.00040430565920330998 0 0.00076660382088423844 -0.00039413299505740046 0 0.00070159237326717109 -0.00033779310645444836 0 0.00068932874441507712 -0.00025858464864344746 0 0.00076926651578358826 -0.00031856686496299641 0 0.00076660382088423844 -0.00039413299505740046 0 0.00070159237326717109 -0.00033779310645444836 0 0.00076926651578358826 -0.00031856686496299641 0 0.00060745707664030927 -0.00030116542079470658 0 0.00064941142480814777 -0.00036948893467861034 0 0.00070159237326717109 -0.00033779310645444836 0 0.00060745707664030927 -0.00030116542079470658 0 0.00070159237326717109 -0.00033779310645444836 0 0.00068932874441507712 -0.00025858464864344746 0 0.00060745707664030927 -0.00030116542079470658 0 0.00061263037488821603 -0.00023898890873697473 0 0.00068932874441507712 -0.00025858464864344746 0 0.00061263037488821603 -0.00023898890873697473 0 0.00068932874441507712 -0.00025858464864344746 0 0.00063263612730029206 -0.00016803655049163379 0 0.00068932874441507712 -0.00025858464864344746 0 0.00078738604303544364 -0.00024117501263314352 0 0.00071822867200191268 -0.00019299566803749983 0 0.00068932874441507712 -0.00025858464864344746 0 0.00078738604303544364 -0.00024117501263314352 0 0.00076926651578358826 -0.00031856686496299641 0 0.00078738604303544364 -0.00024117501263314352 0 0.0008371071384712139 -0.00022824851226255016 0 0.00081112671133988274 -0.00019082559356531603 0 0.00078738604303544364 -0.00024117501263314352 0 0.00084472420676456981 -0.00029894356349468638 0 0.0008371071384712139 -0.00022824851226255016 0 0.00079704156782194264 -0.00024946669735971067 0 0.0008428793361737202 -0.00029194653090277998 0 0.00078738604303544364 -0.00024117501263314352 0 0.00076926651578358826 -0.00031856686496299641 0 0.00081815489589375249 -0.00032482674987886404 0 0.00078738604303544364 -0.00024117501263314352 0 0.00081815489589375249 -0.00032482674987886404 0 0.00085092209298340336 -0.00029469445727365755 0 0.00081815489589375249 -0.00032482674987886404 0 0.00085903721080575696 -0.00034253249523844242 0 0.00085092209298340336 -0.00029469445727365755 0 0.00082757330007634307 -0.00036602778927954775 0 0.00081815489589375249 -0.00032482674987886404 0 0.00085903721080575696 -0.00034253249523844242 0 0.00082757330007634307 -0.00036602778927954775 0 0.00076926651578358826 -0.00031856686496299641 0 0.00081815489589375249 -0.00032482674987886404 0 0.00090505815995356789 -0.00035789183357625863 0 0.00088071910080624114 -0.0002941545203714551 0 0.00088590108430580488 -0.00027491420825672601 0 0.0010747520309751844 -0.00039313676193857992 0 0.0010584946053819569 -0.00032434575678327014 0 0.0011086917573105604 -0.00036948944894426157 0 0.00094120176394510077 -0.00036484982413639584 0 0.00093170618588929801 -0.00030620735726537003 0 0.00088008026830400758 -0.0003689640906163947 0 0.00090882728229782852 -0.00034684615307944327 0 0.00085903721080575696 -0.00034253249523844242 0 0.00090882728229782852 -0.00034684615307944327 0 0.00085903721080575696 -0.00034253249523844242 0 0.00085092209298340336 -0.00029469445727365755 0 0.00094120176394510077 -0.00036484982413639584 0 0.0008428793361737202 -0.00029194653090277998 0 0.00084472420676456981 -0.00029894356349468638 0 0.00088071910080624114 -0.0002941545203714551 0 0.00088565433514750376 -0.00027530929895994421 0 0.00090505815995356789 -0.00035789183357625863 0 0.00084472420676456981 -0.00029894356349468638 0 0.00088071910080624114 -0.0002941545203714551 0 0.00086535700824521818 -0.0003377075420446394 0 0.00088530143426406602 -0.00026099419608573621 0 0.000850230744520072 -0.00017567806919433434 0 0.00088565433514750376 -0.00027530929895994421 0 0.0008371071384712139 -0.00022824851226255016 0 0.00085297103445153397 -0.0001371168982165365 0 0.0010584946053819569 -0.00032434575678327014 0 0.0010706221975791178 -0.00027807678004058045 0 0.0011086917573105604 -0.00036948944894426157 0 0.00092507489444788795 -0.00030218091400199186 0 0.00093170618588929801 -0.00030620735726537003 0 0.00084472420676456981 -0.00029894356349468638 0 0.00088565433514750376 -0.00027530929895994421 0 0.0008371071384712139 -0.00022824851226255016 0 0.00093170618588929801 -0.00030620735726537003 0 0.001002940946444236 -0.00030916557123623916 0 0.0014243754031118376 -0.00035813572650489583 0 0.0014495871098065172 -0.00037068302278632753 0 0.0014160043292405912 -0.00039831795585025309 0 0.0013960979520264247 -0.00035333979895567531 0 0.0014243754031118376 -0.00035813572650489583 0 0.0014160043292405912 -0.00039831795585025309 0 0.001002940946444236 -0.00030916557123623916 0 0.0012979637942514973 -0.00040280143657599822 0 0.0014243754031118376 -0.00035813572650489583 0 0.0014495871098065172 -0.00037068302278632753 0 0.0014501805373963702 -0.00034615330481936943 0 0.001468740816568217 -0.00035870990032856341 0 0.0014495871098065172 -0.00037068302278632753 0 0.0014501805373963702 -0.00034615330481936943 0 0.001468740816568217 -0.00035870990032856341 0 0.0014495871098065172 -0.00037068302278632753 0 0.0014755596398918016 -0.00037418490006902637 0 0.0014495871098065172 -0.00037068302278632753 0 0.0014678032087667341 -0.0003959907265439219 0 0.0014755596398918016 -0.00037418490006902637 0 0.0014678032087667341 -0.0003959907265439219 0 0.0014160043292405912 -0.00039831795585025309 0 0.0014491409467384123 -0.00041909051714940213 0 0.0014495871098065172 -0.00037068302278632753 0 0.0014678032087667341 -0.0003959907265439219 0 0.0014160043292405912 -0.00039831795585025309 0 0.0015376513161333585 -0.00035802730009346556 0 0.001523833192918667 -0.0003690143730523706 0 0.0015551902987610293 -0.00036406276771110135 0 0.001523833192918667 -0.0003690143730523706 0 0.0015425410274679762 -0.00038649242892938761 0 0.0015551902987610293 -0.00036406276771110135 0 0.0015376513161333585 -0.00035802730009346556 0 0.001523833192918667 -0.0003690143730523706 0 0.0015258169017299738 -0.00034956197103175617 0 0.0015376513161333585 -0.00035802730009346556 0 0.0015441456275194013 -0.00035171937367128804 0 0.0015258169017299738 -0.00034956197103175617 0 0.001523833192918667 -0.0003690143730523706 0 0.0015074120841735022 -0.00035152050408583012 0 0.0015258169017299738 -0.00034956197103175617 0 0.001523833192918667 -0.0003690143730523706 0 0.0014934269578304341 -0.00036240656190991558 0 0.001498086420673552 -0.00038411602925106391 0 0.0015074120841735022 -0.00035152050408583012 0 0.0014934269578304341 -0.00036240656190991558 0 0.0014816582555365802 -0.00034272987963510424 0 0.001523833192918667 -0.0003690143730523706 0 0.0015074120841735022 -0.00035152050408583012 0 0.0014934269578304341 -0.00036240656190991558 0 0.001468740816568217 -0.00035870990032856341 0 0.0014934269578304341 -0.00036240656190991558 0 0.0014816582555365802 -0.00034272987963510424 0 0.0014934269578304341 -0.00036240656190991558 0 0.0014755596398918016 -0.00037418490006902637 0 0.001498086420673552 -0.00038411602925106391 0 0.001468740816568217 -0.00035870990032856341 0 0.0014934269578304341 -0.00036240656190991558 0 0.0014755596398918016 -0.00037418490006902637 0 0.0014678032087667341 -0.0003959907265439219 0 0.0014755596398918016 -0.00037418490006902637 0 0.001498086420673552 -0.00038411602925106391 0 0.0014678032087667341 -0.0003959907265439219 0 0.0015020879686086718 -0.00041081026438515066 0 0.001498086420673552 -0.00038411602925106391 0 0.0015020879686086718 -0.00041081026438515066 0 0.001498086420673552 -0.00038411602925106391 0 0.0015206369574032863 -0.00039187386906318773 0 0.001523833192918667 -0.0003690143730523706 0 0.001498086420673552 -0.00038411602925106391 0 0.0015206369574032863 -0.00039187386906318773 0 0.001523833192918667 -0.0003690143730523706 0 0.0015206369574032863 -0.00039187386906318773 0 0.0015425410274679762 -0.00038649242892938761 0 0.0015020879686086718 -0.00041081026438515066 0 0.0015206369574032863 -0.00039187386906318773 0 0.0015351568694656097 -0.00041544229615785635 0 0.0015206369574032863 -0.00039187386906318773 0 0.0015425410274679762 -0.00038649242892938761 0 0.0015351568694656097 -0.00041544229615785635 0 0.001557557890727147 -0.00040482111843753721 0 0.0015425410274679762 -0.00038649242892938761 0 0.0015640598955756584 -0.00038941566576189651 0 0.001557557890727147 -0.00040482111843753721 0 0.0015425410274679762 -0.00038649242892938761 0 0.0015351568694656097 -0.00041544229615785635 0 0.0015411009839812516 -0.00044069713514448093 0 0.001553883193504078 -0.00046682479379766829 0 0.0015668982813780176 -0.00042691981689115162 0 0.0015411009839812516 -0.00044069713514448093 0 0.0015351568694656097 -0.00041544229615785635 0 0.0015668982813780176 -0.00042691981689115162 0 0.001557557890727147 -0.00040482111843753721 0 0.0015351568694656097 -0.00041544229615785635 0 0.0015668982813780176 -0.00042691981689115162 0 0.0015411009839812516 -0.00044069713514448093 0 0.0015351568694656097 -0.00041544229615785635 0 0.001513762816381329 -0.00044824409842717292 0 0.0014678032087667341 -0.0003959907265439219 0 0.0015020879686086718 -0.00041081026438515066 0 0.0014792550709367435 -0.00043449769788960927 0 0.0015020879686086718 -0.00041081026438515066 0 0.001513762816381329 -0.00044824409842717292 0 0.0014792550709367435 -0.00043449769788960927 0 0.0015020879686086718 -0.00041081026438515066 0 0.0015351568694656097 -0.00041544229615785635 0 0.001513762816381329 -0.00044824409842717292 0 0.0015220954835926319 -0.0004832474350246442 0 0.0014688982255167272 -0.00048541632753190667 0 0.0015243550143898849 -0.00050865430241701373 0 0.001513762816381329 -0.00044824409842717292 0 0.0015220954835926319 -0.0004832474350246442 0 0.0014688982255167272 -0.00048541632753190667 0 0.001513762816381329 -0.00044824409842717292 0 0.0014792550709367435 -0.00043449769788960927 0 0.0014688982255167272 -0.00048541632753190667 0 0.0015411009839812516 -0.00044069713514448093 0 0.001513762816381329 -0.00044824409842717292 0 0.001553883193504078 -0.00046682479379766829 0 0.001513762816381329 -0.00044824409842717292 0 0.0015220954835926319 -0.0004832474350246442 0 0.001553883193504078 -0.00046682479379766829 0 0.0015220954835926319 -0.0004832474350246442 0 0.001553883193504078 -0.00046682479379766829 0 0.0015555399309140011 -0.00050157144982694829 0 0.0012979637942514973 -0.00040280143657599822 0 0.0011975237880840995 -0.00042798347899607251 0 0.00091411386674516623 -0.00036617288971430321 0 0.00090895839773232512 -0.00034585904335574376 0 0.00099173592653221173 -0.00041930631284481205 0 0.00094120176394510077 -0.00036484982413639584 0 0.0011975237880840995 -0.00042798347899607251 0 0.0010747520309751844 -0.00039313676193857992 0 0.0011086917573105604 -0.00036948944894426157 0 0.001146745265447998 -0.00046117734724423576 0 0.00091411386674516623 -0.00036617288971430321 0 0.00099173592653221173 -0.00041930631284481205 0 0.00092293013091640855 -0.0004196569439558516 0 0.0014160043292405912 -0.00039831795585025309 0 0.0014342722445150776 -0.00044848986146304347 0 0.0014491409467384123 -0.00041909051714940213 0 0.0014678032087667341 -0.0003959907265439219 0 0.0014792550709367435 -0.00043449769788960927 0 0.0014491409467384123 -0.00041909051714940213 0 0.0014792550709367435 -0.00043449769788960927 0 0.0014342722445150776 -0.00044848986146304347 0 0.0014491409467384123 -0.00041909051714940213 0 0.0014792550709367435 -0.00043449769788960927 0 0.0014342722445150776 -0.00044848986146304347 0 0.0014688982255167272 -0.00048541632753190667 0 0.00099173592653221173 -0.00041930631284481205 0 0.00095398711431050756 -0.00047606661749767396 0 0.0010465249840851583 -0.00054577268526650839 0 0.0011975237880840995 -0.00042798347899607251 0 0.0013091036720807494 -0.00054138167319378084 0 0.0011975237880840995 -0.00042798347899607251 0 0.0014328419656059804 -0.00049503852118003907 0 0.0012698937809891874 -0.00039410303391523925 0 0.0013642731735774214 -0.00048461533196931286 0 0.0013399910534808524 -0.00056691441799044387 0 0.00087743364709490441 -0.00046044079513087748 0 0.00095398711431050756 -0.00047606661749767396 0 0.00093364302964754576 -0.00053650407016644095 0 0.00099173592653221173 -0.00041930631284481205 0 0.00092293013091640855 -0.0004196569439558516 0 0.00095398711431050756 -0.00047606661749767396 0 0.0011136477465453884 -0.00050734690731634845 0 0.0013091036720807494 -0.00054138167319378084 0 0.00095398711431050756 -0.00047606661749767396 0 0.00093364302964754576 -0.00053650407016644095 0 0.0010465249840851583 -0.00054577268526650839 0 0.0013209305646406453 -0.00048445467184997316 0 0.0014090830710452489 -0.00056027621079485267 0 0.0014537285017068803 -0.00049982044656178548 0 0.0012809071657158065 -0.00056292088805541692 0 0.0013209305646406453 -0.00048445467184997316 0 0.0014090830710452489 -0.00056027621079485267 0 0.0012809071657158065 -0.00056292088805541692 0 0.0013447776702818492 -0.00063351758627147256 0 0.0014090830710452489 -0.00056027621079485267 0 0.0013447776702818492 -0.00063351758627147256 0 0.0014090830710452489 -0.00056027621079485267 0 0.001429710562678719 -0.00063130651017215397 0 0.0014622625380942647 -0.00059701455565444605 0 0.0014964399248760937 -0.00058250434936489277 0 0.0014932427865829334 -0.00064477186589884561 0 0.0014622625380942647 -0.00059701455565444605 0 0.0014807837915901017 -0.00056919791956749303 0 0.0014964399248760937 -0.00058250434936489277 0 0.0014622625380942647 -0.00059701455565444605 0 0.0014090830710452489 -0.00056027621079485267 0 0.001429710562678719 -0.00063130651017215397 0 0.0014090830710452489 -0.00056027621079485267 0 0.0014807837915901017 -0.00056919791956749303 0 0.0014537285017068803 -0.00049982044656178548 0 0.0014807837915901017 -0.00056919791956749303 0 0.0014663508660806663 -0.00053157284280741762 0 0.0014961634450066481 -0.00056182946343602113 0 0.0014546938784042575 -0.00057719049269719792 0 0.0013091036720807494 -0.00054138167319378084 0 0.0014622625380942647 -0.00059701455565444605 0 0.0014090830710452489 -0.00056027621079485267 0 0.0014807837915901017 -0.00056919791956749303 0 0.0013642731735774214 -0.00048461533196931286 0 0.0013399910534808524 -0.00056691441799044387 0 0.0014583778566246925 -0.00057511963953998642 0 0.0014328419656059804 -0.00049503852118003907 0 0.0015011522169468057 -0.00054644797822084551 0 0.0014688982255167272 -0.00048541632753190667 0 0.0015095083750721995 -0.00052960778279293234 0 0.0015243550143898849 -0.00050865430241701373 0 0.0014663508660806663 -0.00053157284280741762 0 0.0015191528300138835 -0.00053615379593437867 0 0.001508741633875877 -0.00055154047284930148 0 0.0013091036720807494 -0.00054138167319378084 0 0.0015011522169468057 -0.00054644797822084551 0 0.0015191528300138835 -0.00053615379593437867 0 0.0015321105820429227 -0.00054791688306233199 0 0.0015214022267082449 -0.00055120768595542729 0 0.0015191528300138835 -0.00053615379593437867 0 0.001508741633875877 -0.00055154047284930148 0 0.0015214022267082449 -0.00055120768595542729 0 0.0014663508660806663 -0.00053157284280741762 0 0.0014961634450066481 -0.00056182946343602113 0 0.001508741633875877 -0.00055154047284930148 0 0.0015220954835926319 -0.0004832474350246442 0 0.0015555399309140011 -0.00050157144982694829 0 0.0015243550143898849 -0.00050865430241701373 0 0.0015555399309140011 -0.00050157144982694829 0 0.0015243550143898849 -0.00050865430241701373 0 0.0015389202628775809 -0.0005341037110381528 0 0.0015095083750721995 -0.00052960778279293234 0 0.0015243550143898849 -0.00050865430241701373 0 0.0015389202628775809 -0.0005341037110381528 0 0.0015191528300138835 -0.00053615379593437867 0 0.0015389202628775809 -0.0005341037110381528 0 0.0015321105820429227 -0.00054791688306233199 0 0.0015011522169468057 -0.00054644797822084551 0 0.0015312413670629656 -0.00054105963391960841 0 0.0015389202628775809 -0.0005341037110381528 0 0.0015522098572708651 -0.00055492398804859154 0 0.0015321105820429227 -0.00054791688306233199 0 0.0015555399309140011 -0.00050157144982694829 0 0.0015389202628775809 -0.0005341037110381528 0 0.0015658610496094973 -0.00053008724797209614 0 0.0015389202628775809 -0.0005341037110381528 0 0.0015658610496094973 -0.00053008724797209614 0 0.0015522098572708651 -0.00055492398804859154 0 0.0015658610496094973 -0.00053008724797209614 0 0.0015522098572708651 -0.00055492398804859154 0 0.0015932651154896805 -0.00055228717703554035 0 0.0015522098572708651 -0.00055492398804859154 0 0.001562017228707936 -0.00059652765300291749 0 0.0015932651154896805 -0.00055228717703554035 0 0.0015522098572708651 -0.00055492398804859154 0 0.0015321105820429227 -0.00054791688306233199 0 0.0015253021292777069 -0.00056550007007731995 0 0.0015522098572708651 -0.00055492398804859154 0 0.0015253021292777069 -0.00056550007007731995 0 0.001562017228707936 -0.00059652765300291749 0 0.0015073814363947046 -0.00058198006919027239 0 0.0016068083969614827 -0.00061127012026018009 0 0.0015253021292777069 -0.00056550007007731995 0 0.0014964399248760937 -0.00058250434936489277 0 0.001562017228707936 -0.00059652765300291749 0 0.0014961634450066481 -0.00056182946343602113 0 0.0015253021292777069 -0.00056550007007731995 0 0.0014964399248760937 -0.00058250434936489277 0 0.0014807837915901017 -0.00056919791956749303 0 0.0014961634450066481 -0.00056182946343602113 0 0.0014964399248760937 -0.00058250434936489277 0 0.0014961634450066481 -0.00056182946343602113 0 0.001508741633875877 -0.00055154047284930148 0 0.0015253021292777069 -0.00056550007007731995 0 0.001508741633875877 -0.00055154047284930148 0 0.0015214022267082449 -0.00055120768595542729 0 0.0015253021292777069 -0.00056550007007731995 0 0.0015321105820429227 -0.00054791688306233199 0 0.0015214022267082449 -0.00055120768595542729 0 0.0015253021292777069 -0.00056550007007731995 0 0.0014932427865829334 -0.00064477186589884561 0 0.0015389407154932475 -0.00070310959360643326 0 0.0016721971335639282 -0.00061530892504744062 0 0.0014964399248760937 -0.00058250434936489277 0 0.0014932427865829334 -0.00064477186589884561 0 0.0016721971335639282 -0.00061530892504744062 0 0.0014932427865829334 -0.00064477186589884561 0 0.0015389407154932475 -0.00070310959360643326 0 0.0014599994020477233 -0.00068881258387322767 0 0.0015389407154932475 -0.00070310959360643326 0 0.0016721971335639282 -0.00061530892504744062 0 0.0016402255854170453 -0.00076086581465585742 0 0.0022900461486911544 -0.0003104838877330364 0 0.0022911382030237578 -0.00028952043514091026 0 0.0022386839328633191 -0.00029687478465153318 0 0.0019251391733683947 -0.00055017589712550732 0 0.0018752025744997504 -0.00052517705187923478 0 0.0015389407154932475 -0.00070310959360643326 0 0.0016402255854170453 -0.00076086581465585742 0 0.0014488410177378396 -0.00078130955005790861 0 0.0015389407154932475 -0.00070310959360643326 0 0.0014488410177378396 -0.00078130955005790861 0 0.0014599994020477233 -0.00068881258387322767 0 0.0014488410177378396 -0.00078130955005790861 0 0.0014599994020477233 -0.00068881258387322767 0 0.0013945040563906601 -0.00068441316834069699 0 0.0013053973283608379 -0.00070501541607349892 0 0.0014488410177378396 -0.00078130955005790861 0 0.0013945040563906601 -0.00068441316834069699 0 0.0012914026718142001 -0.0007890569407688425 0 0.0013053973283608379 -0.00070501541607349892 0 0.0014488410177378396 -0.00078130955005790861 0 0.0016405799477865026 -0.0006014905403048796 0 0.0018752025744997504 -0.00052517705187923478 0 0.0013053973283608379 -0.00070501541607349892 0 0.0013447776702818492 -0.00063351758627147256 0 0.0013945040563906601 -0.00068441316834069699 0 0.0013447776702818492 -0.00063351758627147256 0 0.001429710562678719 -0.00063130651017215397 0 0.0013945040563906601 -0.00068441316834069699 0 0.001429710562678719 -0.00063130651017215397 0 0.0014599994020477233 -0.00068881258387322767 0 0.0013945040563906601 -0.00068441316834069699 0 0.0014622625380942647 -0.00059701455565444605 0 0.0014932427865829334 -0.00064477186589884561 0 0.001429710562678719 -0.00063130651017215397 0 0.0014932427865829334 -0.00064477186589884561 0 0.001429710562678719 -0.00063130651017215397 0 0.0014599994020477233 -0.00068881258387322767 0 0.0017480325164753404 -0.0006485251981816723 0 0.0017113811745516441 -0.00059882413829690688 0 0.0016566026285330662 -0.00062423239773817471 0 0.0022176573463998663 -0.00029419208540068623 0 0.001797432130980787 -0.00059234822846651386 0 0.0017480325164753404 -0.0006485251981816723 0 0.0017113811745516441 -0.00059882413829690688 0 0.0017587247958093868 -0.0006081076360450918 0 0.0017587247958093868 -0.0006081076360450918 0 0.0017917926037682628 -0.00060782201709482387 0 0.0017766450142271285 -0.00064443321042176717 0 0.0017587247958093868 -0.0006081076360450918 0 0.0017917926037682628 -0.00060782201709482387 0 0.0017917086165529375 -0.00058071028515593003 0 0.0018410698046426052 -0.00059781310871565626 0 0.0017917926037682628 -0.00060782201709482387 0 0.0017917086165529375 -0.00058071028515593003 0 0.0021433268698456934 -0.00041257389938916087 0 0.0023021511810206799 -0.00027193841394074594 0 0.0018410698046426052 -0.00059781310871565626 0 0.0017917926037682628 -0.00060782201709482387 0 0.0017766450142271285 -0.00064443321042176717 0 0.0025819865499883562 -0.00015731324318340881 0 0.0023021511810206799 -0.00027193841394074594 0 0.0024849219290557613 -0.00019679017347321113 0 0.0025522522023162871 -8.7032835412930785e-05 0 0.002627545065304247 -7.492501562227041e-05 0 0.0025256730380498128 -1.8445481382848392e-05 0 0.0025522522023162871 -8.7032835412930785e-05 0 0.0026220703330502161 -7.5637626214966079e-05 0 0.0017480325164753404 -0.0006485251981816723 0 0.0017587247958093868 -0.0006081076360450918 0 0.0017766450142271285 -0.00064443321042176717 0 0.0023021511810206799 -0.00027193841394074594 0 0.0024610256608104454 -0.00015407657853227941 0 0.0022176573463998663 -0.00029419208540068623 0 0.0024610256608104454 -0.00015407657853227941 0 0.0022924800306789684 -0.00026454288038259207 0 0.0023901785553155338 -0.00024929590225790735 0 0.0023528852415818013 -0.0002807971724482054 0 0.0022176573463998663 -0.00029419208540068623 0 0.0023021511810206799 -0.00027193841394074594 0 0.0025999815366621907 -1.8803792225039259e-05 0 0.0026021235129071495 1.847317913954549e-05 0 0.0026346300435702622 3.2337106070844666e-05 0 0.0025999815366621907 -1.8803792225039259e-05 0 0.0025857739545509179 4.9536984598203168e-06 0 0.0026021235129071495 1.847317913954549e-05 0 0.0025999815366621907 -1.8803792225039259e-05 0 0.0025857739545509179 4.9536984598203168e-06 0 0.002564048434836797 3.4821679428768323e-06 0 0.0025256730380498128 -1.8445481382848392e-05 0 0.0026220703330502161 -7.5637626214966079e-05 0 0.0026450321375551793 -5.6191279765397275e-05 0 0.0025256730380498128 -1.8445481382848392e-05 0 0.0025435575990883311 3.8373213493227085e-05 0 0.002564048434836797 3.4821679428768323e-06 0 0.0025256730380498128 -1.8445481382848392e-05 0 0.0025999815366621907 -1.8803792225039259e-05 0 0.002564048434836797 3.4821679428768323e-06 0 0.0025679974752181186 -4.3598546237924621e-05 0 0.0024610256608104454 -0.00015407657853227941 0 0.0025857739545509179 4.9536984598203168e-06 0 0.002564048434836797 3.4821679428768323e-06 0 0.002581298278226864 3.0985429860997318e-05 0 0.0025435575990883311 3.8373213493227085e-05 0 0.002564048434836797 3.4821679428768323e-06 0 0.002581298278226864 3.0985429860997318e-05 0 0.0025435575990883311 3.8373213493227085e-05 0 0.0025871863646152716 8.5962630062733081e-05 0 0.002581298278226864 3.0985429860997318e-05 0 0.0025871863646152716 8.5962630062733081e-05 0 0.002581298278226864 3.0985429860997318e-05 0 0.0026072992657075475 4.7899235329885288e-05 0 0.0026021235129071495 1.847317913954549e-05 0 0.002581298278226864 3.0985429860997318e-05 0 0.0026072992657075475 4.7899235329885288e-05 0 0.0025857739545509179 4.9536984598203168e-06 0 0.0026021235129071495 1.847317913954549e-05 0 0.002581298278226864 3.0985429860997318e-05 0 0.0026234437503278342 6.8467279440026166e-05 0 0.0026072992657075475 4.7899235329885288e-05 0 0.0026346300435702622 3.2337106070844666e-05 0 0.0026928028691595553 6.6384411281969209e-05 0 0.0024471760688590726 -0.00013185242465387666 0 0.0026139629727313595 -5.721117510163939e-05 0 0.002714628376437136 9.2590176915713612e-05 0 0.0024610256608104454 -0.00015407657853227941 0 0.0026928028691595553 6.6384411281969209e-05 0 0.0025999815366621907 -1.8803792225039259e-05 0 0.0026346300435702622 3.2337106070844666e-05 0 0.0024952561712069279 -0.00014531143707637308 0 0.0026139629727313595 -5.721117510163939e-05 0 0.0027486100381464013 -0.000100060392511053 0 0.0022176573463998663 -0.00029419208540068623 0 0.002241440866466644 -0.00035501480482018241 0 0.0024952561712069279 -0.00014531143707637308 0 0.0024471760688590726 -0.00013185242465387666 0 0.0026139629727313595 -5.721117510163939e-05 0 0.0026021235129071495 1.847317913954549e-05 0 0.0026072992657075475 4.7899235329885288e-05 0 0.0026346300435702622 3.2337106070844666e-05 0 0.0026928028691595553 6.6384411281969209e-05 0 0.0026139629727313595 -5.721117510163939e-05 0 0.0027168395863759846 7.9032316765840031e-06 0 0.0025681775954229263 -5.9145592984885021e-05 0 0.002241440866466644 -0.00035501480482018241 0 0.0027605641562966753 6.1469145987236572e-05 0 0.0027168395863759846 7.9032316765840031e-06 0 0.0027486100381464013 -0.000100060392511053 0 0.0026139629727313595 -5.721117510163939e-05 0 0.0027168395863759846 7.9032316765840031e-06 0 0.0027486100381464013 -0.000100060392511053 0 0.0019251391733683947 -0.00055017589712550732 0 0.002241440866466644 -0.00035501480482018241 0 0.0022900461486911544 -0.0003104838877330364 0 0.0023404851966841215 -0.00030818507304307413 0 0.0022911382030237578 -0.00028952043514091026 0 0.0023404851966841215 -0.00030818507304307413 0 0.0022911382030237578 -0.00028952043514091026 0 0.0023429143466665359 -0.00028070119614139892 0 0.0016068083969614827 -0.00061127012026018009 0 0.001797432130980787 -0.00059234822846651386 0 0.001562017228707936 -0.00059652765300291749 0 0.0016445863161246119 -0.00062063348131972279 0 0.0016168021045934726 -0.00057940218091658978 0 0.0016721971335639282 -0.00061530892504744062 0 0.0016402255854170453 -0.00076086581465585742 0 0.0018454016484072738 -0.0007265931347388906 0 0.0016721971335639282 -0.00061530892504744062 0 0.0018454016484072738 -0.0007265931347388906 0 0.0018543332967575117 -0.0006572754028611042 0 0.0021731355778614151 -0.0004183833638252034 0 0.0020353757671305191 -0.0004415039029901882 0 0.0020424435305157716 -0.0003852028137363568 0 0.002241440866466644 -0.00035501480482018241 0 0.001797432130980787 -0.00059234822846651386 0 0.0017113811745516441 -0.00059882413829690688 0 0.0016566026285330662 -0.00062423239773817471 0 0.001665988964053302 -0.00053372320659648899 0 0.0016554883872970582 -0.00054593183060692269 0 0.0016168021045934726 -0.00057940218091658978 0 0.0015932651154896805 -0.00055228717703554035 0 0.0016445863161246119 -0.00062063348131972279 0 0.0016554883872970582 -0.00054593183060692269 0 0.0016168021045934726 -0.00057940218091658978 0 0.001797432130980787 -0.00059234822846651386 0 0.0016460535071832045 -0.00054746526804350516 0 0.001562017228707936 -0.00059652765300291749 0 0.0016168021045934726 -0.00057940218091658978 0 0.0015932651154896805 -0.00055228717703554035 0 0.0015658610496094973 -0.00053008724797209614 0 0.0015932651154896805 -0.00055228717703554035 0 0.0015961575614249085 -0.00049812705211014206 0 0.0016554883872970582 -0.00054593183060692269 0 0.0015932651154896805 -0.00055228717703554035 0 0.0015961575614249085 -0.00049812705211014206 0 0.0015555399309140011 -0.00050157144982694829 0 0.0015658610496094973 -0.00053008724797209614 0 0.0015961575614249085 -0.00049812705211014206 0 0.0016460535071832045 -0.00054746526804350516 0 0.0016711457229105747 -0.00045967478802575834 0 0.0016554883872970582 -0.00054593183060692269 0 0.0015961575614249085 -0.00049812705211014206 0 0.0016679795456745257 -0.00045865134355339886 0 0.001665988964053302 -0.00053372320659648899 0 0.0017214348247425804 -0.00050096833345528798 0 0.0016679795456745257 -0.00045865134355339886 0 0.001665988964053302 -0.00053372320659648899 0 0.0017214348247425804 -0.00050096833345528798 0 0.0017497389333398893 -0.00055859994688659529 0 0.0017214348247425804 -0.00050096833345528798 0 0.0017697272588306572 -0.00047119570225430407 0 0.0017291970407774858 -0.0004473983870180682 0 0.0017113811745516441 -0.00059882413829690688 0 0.001665988964053302 -0.00053372320659648899 0 0.0017497389333398893 -0.00055859994688659529 0 0.0017113811745516441 -0.00059882413829690688 0 0.0017587247958093868 -0.0006081076360450918 0 0.0017497389333398893 -0.00055859994688659529 0 0.0017587247958093868 -0.0006081076360450918 0 0.0017917086165529375 -0.00058071028515593003 0 0.0017497389333398893 -0.00055859994688659529 0 0.0017917086165529375 -0.00058071028515593003 0 0.0017497389333398893 -0.00055859994688659529 0 0.0017803017237700131 -0.00051854168833785294 0 0.0018381294658656867 -0.00053021058531498488 0 0.0017917086165529375 -0.00058071028515593003 0 0.0017803017237700131 -0.00051854168833785294 0 0.0017214348247425804 -0.00050096833345528798 0 0.0017497389333398893 -0.00055859994688659529 0 0.0017803017237700131 -0.00051854168833785294 0 0.0017214348247425804 -0.00050096833345528798 0 0.0017803017237700131 -0.00051854168833785294 0 0.0017697272588306572 -0.00047119570225430407 0 0.0018205461310083885 -0.00046691296568045307 0 0.0017803017237700131 -0.00051854168833785294 0 0.0017697272588306572 -0.00047119570225430407 0 0.0018488154405769909 -0.00041167440526129474 0 0.0017859620279172146 -0.00043576823025909083 0 0.0017503407214834029 -0.00039727483355498402 0 0.0018205461310083885 -0.00046691296568045307 0 0.0017697272588306572 -0.00047119570225430407 0 0.0017859620279172146 -0.00043576823025909083 0 0.0017310777834995492 -0.00040538548668189018 0 0.0016131997638871365 -0.00035144318182962487 0 0.0015247175620734636 -0.0003403309596538893 0 0.0017932450628764182 -0.00040391524284715718 0 0.0016430063424048933 -0.00036979308126171837 0 0.0017859620279172146 -0.00043576823025909083 0 0.0017291970407774858 -0.0004473983870180682 0 0.0017503407214834029 -0.00039727483355498402 0 0.0017697272588306572 -0.00047119570225430407 0 0.0017859620279172146 -0.00043576823025909083 0 0.0017291970407774858 -0.0004473983870180682 0 0.0017291970407774858 -0.0004473983870180682 0 0.0016862555190638193 -0.00042105839219838611 0 0.0017503407214834029 -0.00039727483355498402 0 0.0017214348247425804 -0.00050096833345528798 0 0.0017291970407774858 -0.0004473983870180682 0 0.0016679795456745257 -0.00045865134355339886 0 0.0017291970407774858 -0.0004473983870180682 0 0.0016862555190638193 -0.00042105839219838611 0 0.0016679795456745257 -0.00045865134355339886 0 0.0016430063424048933 -0.00036979308126171837 0 0.0016231752449490312 -0.00038289560054101157 0 0.0015247175620734636 -0.0003403309596538893 0 0.0015886037523608894 -0.00038334689973499751 0 0.0015562960919630153 -0.00039133033250804086 0 0.0016862555190638193 -0.00042105839219838611 0 0.0017503407214834029 -0.00039727483355498402 0 0.0016609270799961453 -0.00038178850752196124 0 0.0015380047762105647 -0.00035996645421654911 0 0.0015247175620734636 -0.0003403309596538893 0 0.0015562960919630153 -0.00039133033250804086 0 0.0015380047762105647 -0.00035996645421654911 0 0.0016131997638871365 -0.00035144318182962487 0 0.0015247175620734636 -0.0003403309596538893 0 0.001553883193504078 -0.00046682479379766829 0 0.0015961575614249085 -0.00049812705211014206 0 0.0016168312423581912 -0.00043519015691469777 0 0.001553883193504078 -0.00046682479379766829 0 0.0015555399309140011 -0.00050157144982694829 0 0.0015961575614249085 -0.00049812705211014206 0 0.0016862555190638193 -0.00042105839219838611 0 0.0016679795456745257 -0.00045865134355339886 0 0.0016168312423581912 -0.00043519015691469777 0 0.0015961575614249085 -0.00049812705211014206 0 0.0016679795456745257 -0.00045865134355339886 0 0.0016168312423581912 -0.00043519015691469777 0 0.0016862555190638193 -0.00042105839219838611 0 0.0016168312423581912 -0.00043519015691469777 0 0.0016609270799961453 -0.00038178850752196124 0 0.0016168312423581912 -0.00043519015691469777 0 0.0015979328888340982 -0.00040049970424769284 0 0.0016609270799961453 -0.00038178850752196124 0 0.001553883193504078 -0.00046682479379766829 0 0.0016168312423581912 -0.00043519015691469777 0 0.0015668982813780176 -0.00042691981689115162 0 0.0016168312423581912 -0.00043519015691469777 0 0.0015979328888340982 -0.00040049970424769284 0 0.0015668982813780176 -0.00042691981689115162 0 0.001557557890727147 -0.00040482111843753721 0 0.0015979328888340982 -0.00040049970424769284 0 0.0015668982813780176 -0.00042691981689115162 0 0.0015640598955756584 -0.00038941566576189651 0 0.0015763966665247469 -0.00038123739448821123 0 0.0015551902987610293 -0.00036406276771110135 0 0.0015425410274679762 -0.00038649242892938761 0 0.0015640598955756584 -0.00038941566576189651 0 0.0015551902987610293 -0.00036406276771110135 0 0.001557557890727147 -0.00040482111843753721 0 0.0015979328888340982 -0.00040049970424769284 0 0.0015640598955756584 -0.00038941566576189651 0 0.0015979328888340982 -0.00040049970424769284 0 0.0015640598955756584 -0.00038941566576189651 0 0.0015763966665247469 -0.00038123739448821123 0 0.0015838878961646381 -0.00037983271023501818 0 0.0016231752449490312 -0.00038289560054101157 0 0.0015979328888340982 -0.00040049970424769284 0 0.0015763966665247469 -0.00038123739448821123 0 0.0016609270799961453 -0.00038178850752196124 0 0.0015763966665247469 -0.00038123739448821123 0 0.0015886037523608894 -0.00038334689973499751 0 0.0015946386385032336 -0.00041740125647466716 0 0.0015593412957851064 -0.00038149918696434812 0 0.0015530482103963265 -0.0003671163436263875 0 0.0015346757544002672 -0.00034172578118445455 0 0.0015441456275194013 -0.00035171937367128804 0 0.0015551902987610293 -0.00036406276771110135 0 0.0015763966665247469 -0.00038123739448821123 0 0.0015946386385032336 -0.00041740125647466716 0 0.0015551902987610293 -0.00036406276771110135 0 0.0015376513161333585 -0.00035802730009346556 0 0.0015441456275194013 -0.00035171937367128804 0 0.0015551902987610293 -0.00036406276771110135 0 0.0015017349355643144 -0.00040894300145104425 0 0.0015562960919630153 -0.00039133033250804086 0 0.0015412143750324625 -0.00043945684123730054 0 0.0015017349355643144 -0.00040894300145104425 0 0.0015380047762105647 -0.00035996645421654911 0 0.0015562960919630153 -0.00039133033250804086 0 0.0015886037523608894 -0.00038334689973499751 0 0.0015946386385032336 -0.00041740125647466716 0 0.0015562960919630153 -0.00039133033250804086 0 0.0015593412957851064 -0.00038149918696434812 0 0.0015186955476439387 -0.0004289274856584134 0 0.0015946386385032336 -0.00041740125647466716 0 0.0015562960919630153 -0.00039133033250804086 0 0.0015412143750324625 -0.00043945684123730054 0 0.0015946386385032336 -0.00041740125647466716 0 0.0015412143750324625 -0.00043945684123730054 0 0.001533579116393556 -0.00051170508124315315 0 0.0015017349355643144 -0.00040894300145104425 0 0.0014619613307268033 -0.00046729717784378227 0 0.0015412143750324625 -0.00043945684123730054 0 0.0014619613307268033 -0.00046729717784378227 0 0.0015412143750324625 -0.00043945684123730054 0 0.001533579116393556 -0.00051170508124315315 0 0.0015071325091653316 -0.00033987009838155321 0 0.0015084709253964574 -0.00035751996317076584 0 0.0014970713182524402 -0.00035301259248002624 0 0.0015071325091653316 -0.00033987009838155321 0 0.0015239527976400589 -0.00035001058807833786 0 0.0015084709253964574 -0.00035751996317076584 0 0.0015346757544002672 -0.00034172578118445455 0 0.0015071325091653316 -0.00033987009838155321 0 0.0015239527976400589 -0.00035001058807833786 0 0.0015239527976400589 -0.00035001058807833786 0 0.0015084709253964574 -0.00035751996317076584 0 0.0015251471691713511 -0.00036911505725462367 0 0.0015239527976400589 -0.00035001058807833786 0 0.0015342483404233165 -0.00034580652902379541 0 0.0015251471691713511 -0.00036911505725462367 0 0.0015084709253964574 -0.00035751996317076584 0 0.0015074207495876595 -0.00037153294276779693 0 0.0015251471691713511 -0.00036911505725462367 0 0.0015084709253964574 -0.00035751996317076584 0 0.0015074207495876595 -0.00037153294276779693 0 0.0014918476812613376 -0.00036802761592895291 0 0.0015346757544002672 -0.00034172578118445455 0 0.0015441456275194013 -0.00035171937367128804 0 0.0015387469687884201 -0.00034522742829555053 0 0.0015387469687884201 -0.00034522742829555053 0 0.001533406815664743 -0.00034435374385217662 0 0.001530353715091955 -0.00033864073340580193 0 0.0015387469687884201 -0.00034522742829555053 0 0.0015321901947538442 -0.00033898654301875371 0 0.001530353715091955 -0.00033864073340580193 0 0.0015441456275194013 -0.00035171937367128804 0 0.0015387469687884201 -0.00034522742829555053 0 0.001533406815664743 -0.00034435374385217662 0 0.0015346757544002672 -0.00034172578118445455 0 0.0015239527976400589 -0.00035001058807833786 0 0.0015342483404233165 -0.00034580652902379541 0 0.0015346757544002672 -0.00034172578118445455 0 0.0015387469687884201 -0.00034522742829555053 0 0.0015342483404233165 -0.00034580652902379541 0 0.0015104513343080815 -0.00036761529887959339 0 0.0015740716384061776 -0.00030658009237073512 0 0.0015342483404233165 -0.00034580652902379541 0 0.0015321901947538442 -0.00033898654301875371 0 0.001527301723370896 -0.00034566412854679173 0 0.0015387469687884201 -0.00034522742829555053 0 0.0015342483404233165 -0.00034580652902379541 0 0.0015321901947538442 -0.00033898654301875371 0 0.0015321901947538442 -0.00033898654301875371 0 0.001527301723370896 -0.00034566412854679173 0 0.0015330573102910749 -0.00034163447164437341 0 0.001527301723370896 -0.00034566412854679173 0 0.0015306453689926775 -0.00035328946526048851 0 0.0015330573102910749 -0.00034163447164437341 0 0.001527301723370896 -0.00034566412854679173 0 0.0015187397354147032 -0.00034411578151413079 0 0.0015155985876841543 -0.0003521177475574556 0 0.0015342483404233165 -0.00034580652902379541 0 0.001527301723370896 -0.00034566412854679173 0 0.0015187397354147032 -0.00034411578151413079 0 0.0015155985876841543 -0.0003521177475574556 0 0.0015162560187167225 -0.00035937527958125278 0 0.001523459352332583 -0.00035757022872831031 0 0.001527301723370896 -0.00034566412854679173 0 0.0015155985876841543 -0.0003521177475574556 0 0.001523459352332583 -0.00035757022872831031 0 0.001527301723370896 -0.00034566412854679173 0 0.0015306453689926775 -0.00035328946526048851 0 0.001523459352332583 -0.00035757022872831031 0 0.0015507421672038004 -0.00028939523262934224 0 0.0015156800716412447 -0.00032482065374879102 0 0.0015074207495876595 -0.00037153294276779693 0 0.0015251471691713511 -0.00036911505725462367 0 0.0015041522712245156 -0.0003917862433727488 0 0.0015740716384061776 -0.00030658009237073512 0 0.0012870537355420188 -0.00059738924848054802 0 0.0015074207495876595 -0.00037153294276779693 0 0.0015041522712245156 -0.0003917862433727488 0 0.0014918476812613376 -0.00036802761592895291 0 0.0015187397354147032 -0.00034411578151413079 0 0.0015155985876841543 -0.0003521177475574556 0 0.0015019890597812756 -0.00035414615803622127 0 0.0011751982744765345 -0.00054059048966324439 0 0.0012954468093788782 -0.0004512702161889092 0 0.0015155985876841543 -0.0003521177475574556 0 0.0015042959825846427 -0.00035526877248582205 0 0.0015162560187167225 -0.00035937527958125278 0 0.00078270684783784917 -0.00073686181845904729 0 0.00079050850929460615 -0.00074140862641338735 0 0.00078687442076043378 -0.00069963735483206902 0 0.0015155985876841543 -0.0003521177475574556 0 0.0015042959825846427 -0.00035526877248582205 0 0.0015019890597812756 -0.00035414615803622127 0 0.0011751982744765345 -0.00054059048966324439 0 0.0012870537355420188 -0.00059738924848054802 0 0.00041786281927581735 -0.00087632740301013502 0 0.00058110067530674431 -0.00070722306990048057 0 0.00079050850929460615 -0.00074140862641338735 0 0.00078687442076043378 -0.00069963735483206902 0 0.00082550001987149297 -0.00070980192037121222 0 0.00078270684783784917 -0.00073686181845904729 0 0.00078687442076043378 -0.00069963735483206902 0 0.00074625649933334056 -0.00068980237524116257 0 0.00015641818926200355 -0.0010790618123438539 0 0.00011920608894076073 -0.00096310837390002884 0 8.0958087240267683e-06 -0.0010433004758719482 0 0.00015641818926200355 -0.0010790618123438539 0 0.00011920608894076073 -0.00096310837390002884 0 0.00024663488524454951 -0.0010290125879841808 0 0.00011920608894076073 -0.00096310837390002884 0 0.00024968595127321496 -0.00092782785117654189 0 0.00024663488524454951 -0.0010290125879841808 0 0.00011920608894076073 -0.00096310837390002884 0 0.00016285306871168312 -0.00084288576756766744 0 5.5648893657703651e-05 -0.00085546276988800272 0 0.00011920608894076073 -0.00096310837390002884 0 0.00016285306871168312 -0.00084288576756766744 0 0.00024968595127321496 -0.00092782785117654189 0 0.00011920608894076073 -0.00096310837390002884 0 2.2757134349567304e-06 -0.00090275923142699264 0 8.0958087240267683e-06 -0.0010433004758719482 0 0.00058110067530674431 -0.00070722306990048057 0 0.00023032842839165141 -0.00058713846279274463 0 2.2757134349567304e-06 -0.00090275923142699264 0 8.0958087240267683e-06 -0.0010433004758719482 0 -0.0001434983642131098 -0.00083044521441704442 0 0.00011920608894076073 -0.00096310837390002884 0 2.2757134349567304e-06 -0.00090275923142699264 0 5.5648893657703651e-05 -0.00085546276988800272 0 0.001072765470622078 -0.00055732878031560581 0 0.0010187707191337708 -0.00052294518898161619 0 0.0010324224458526257 -0.00050094419460677765 0 0.0011751982744765345 -0.00054059048966324439 0 0.00058110067530674431 -0.00070722306990048057 0 0.0015162560187167225 -0.00035937527958125278 0 0.001523459352332583 -0.00035757022872831031 0 0.001524044176533072 -0.00036397576981820945 0 0.00058110067530674431 -0.00070722306990048057 0 0.00096787661241562266 -0.00039944118716980022 0 0.0012954468093788782 -0.0004512702161889092 0 0.0011963396609044844 -0.00032828966960445234 0 0.0010187707191337708 -0.00052294518898161619 0 0.0010324224458526257 -0.00050094419460677765 0 0.00096928004514753739 -0.00048355704288700533 0 0.0010187707191337708 -0.00052294518898161619 0 0.00096750683039136301 -0.0004883122086867882 0 0.00096928004514753739 -0.00048355704288700533 0 0.0015507421672038004 -0.00028939523262934224 0 0.0011963396609044844 -0.00032828966960445234 0 0.0015306453689926775 -0.00035328946526048851 0 0.001523459352332583 -0.00035757022872831031 0 0.001524044176533072 -0.00036397576981820945 0 0.0015081017960825421 -0.00026525770684586469 0 0.0015010324770443838 -0.00024537814660756152 0 0.0015152295007023408 -0.00023426283381708488 0 0.0015081017960825421 -0.00026525770684586469 0 0.0015010324770443838 -0.00024537814660756152 0 0.0014879083115492602 -0.00025539406355718939 0 0.0015010324770443838 -0.00024537814660756152 0 0.0015024800814024766 -0.00023436349126775585 0 0.0015152295007023408 -0.00023426283381708488 0 0.0015010324770443838 -0.00024537814660756152 0 0.0015024800814024766 -0.00023436349126775585 0 0.0014905502623579064 -0.00023733930361430084 0 0.0014964865490358385 -0.00022523439568478105 0 0.0015024800814024766 -0.00023436349126775585 0 0.0014905502623579064 -0.00023733930361430084 0 0.0014964865490358385 -0.00022523439568478105 0 0.0015066778173671231 -0.00022957747340933361 0 0.001483120766485308 -0.0002095755305002951 0 0.0014964865490358385 -0.00022523439568478105 0 0.0015024800814024766 -0.00023436349126775585 0 0.0015079977480860927 -0.00022898835995998766 0 0.0014365238738847635 -0.00030293073886136676 0 0.0011314114757821811 -0.00028768403128541227 0 0.00053139296730304441 -0.00029759944593364977 0 0.00055165373643775066 -0.00030276583577685872 0 0.00053475818109755772 -0.00025390388329114914 0 0.0015024800814024766 -0.00023436349126775585 0 0.0015079977480860927 -0.00022898835995998766 0 0.0015152295007023408 -0.00023426283381708488 0 0.0010986394198784003 -0.00026919134151389193 0 0.001183778484605387 -0.00032295752470707419 0 0.0011958522015848238 -0.00029275692184356207 0 0.0011314114757821811 -0.00028768403128541227 0 0.00096787661241562266 -0.00039944118716980022 0 0.0011314114757821811 -0.00028768403128541227 0 0.0011963396609044844 -0.00032828966960445234 0 0.0011963396609044844 -0.00032828966960445234 0 0.00096787661241562266 -0.00039944118716980022 0 0.00053139296730304441 -0.00029759944593364977 0 0.00051096537511176093 -0.00025428168758372149 0 0.00053475818109755772 -0.00025390388329114914 0 0.0011314114757821811 -0.00028768403128541227 0 0.00097796733323241838 -0.00023506359354262576 0 0.00053139296730304441 -0.00029759944593364977 0 0.00051096537511176093 -0.00025428168758372149 0 0.00047731179510952738 -0.00026167488333525644 0 0.00055165373643775066 -0.00030276583577685872 0 0.00057355558338120696 -0.00023832160895956254 0 0.00053475818109755772 -0.00025390388329114914 0 0.00096787661241562266 -0.00039944118716980022 0 0.00023032842839165141 -0.00058713846279274463 0 0.000582328940365652 -0.00057065984736133512 0 0.00059395934928341103 -0.00057174017895718853 0 0.0005881297382565973 -0.00058046476430725631 0 -0.0001434983642131098 -0.00083044521441704442 0 -7.6884271610991935e-05 -0.0007832264147678591 0 -2.7436706348651786e-05 -0.0008216252282774978 0 0.00023032842839165141 -0.00058713846279274463 0 0.00012730483869538781 -0.00041070658052787121 0 -0.00014370329901060511 -0.00083044582173794361 0 -0.00026265758635082154 -0.00066676280187494112 0 -0.00015210922658685864 -0.00073180781340247971 0 0.00023032842839165141 -0.00058713846279274463 0 0.0001157104878004619 -0.00074177497630969114 0 -0.00014370329901060511 -0.00083044582173794361 0 -0.00012949311854409986 -0.00079328342898533401 0 -0.00015210922658685864 -0.00073180781340247971 0 -0.00011179281204043578 -0.00075915103652034947 0 -0.00012949311854409986 -0.00079328342898533401 0 -0.00015210922658685864 -0.00073180781340247971 0 -0.00011179281204043578 -0.00075915103652034947 0 -7.6884271610991935e-05 -0.0007832264147678591 0 -8.8680305583622532e-05 -0.00072825243796987302 0 -0.00011179281204043578 -0.00075915103652034947 0 -7.6884271610991935e-05 -0.0007832264147678591 0 -0.00012949311854409986 -0.00079328342898533401 0 -0.0001434983642131098 -0.00083044521441704442 0 -7.6884271610991935e-05 -0.0007832264147678591 0 -0.00012949311854409986 -0.00079328342898533401 0 0.00057355558338120696 -0.00023832160895956254 0 0.00053007489256901225 -0.0002148797302529728 0 0.00052456783592490122 -0.00017050321633890126 0 0.00051096537511176093 -0.00025428168758372149 0 0.00050817838662879622 -0.00022044901794496477 0 0.000478337202992061 -0.00022327735992702069 0 0.00051096537511176093 -0.00025428168758372149 0 0.00053475818109755772 -0.00025390388329114914 0 0.00050817838662879622 -0.00022044901794496477 0 0.00057355558338120696 -0.00023832160895956254 0 0.00053475818109755772 -0.00025390388329114914 0 0.00053007489256901225 -0.0002148797302529728 0 0.00053475818109755772 -0.00025390388329114914 0 0.00053007489256901225 -0.0002148797302529728 0 0.00050817838662879622 -0.00022044901794496477 0 0.00050817838662879622 -0.00022044901794496477 0 0.00050922088504934079 -0.00019099212759604697 0 0.00048636942607804649 -0.00019470397172953902 0 0.00053007489256901225 -0.0002148797302529728 0 0.00050817838662879622 -0.00022044901794496477 0 0.00050922088504934079 -0.00019099212759604697 0 0.00052456783592490122 -0.00017050321633890126 0 0.00049417497901209416 -0.00016740698267142873 0 0.00046157786773204758 -0.00010384353782584934 0 0.00050922088504934079 -0.00019099212759604697 0 0.00049417497901209416 -0.00016740698267142873 0 0.00048636942607804649 -0.00019470397172953902 0 0.00050922088504934079 -0.00019099212759604697 0 0.00052456783592490122 -0.00017050321633890126 0 0.00049417497901209416 -0.00016740698267142873 0 0.00053007489256901225 -0.0002148797302529728 0 0.00050922088504934079 -0.00019099212759604697 0 0.00052456783592490122 -0.00017050321633890126 0 -0.0002391999911005653 -0.00060596530310335511 0 -0.00026265758635082154 -0.00066676280187494112 0 -0.00028693012342855938 -0.00056333826607349281 0 -0.0002391999911005653 -0.00060596530310335511 0 -0.00026265758635082154 -0.00066676280187494112 0 -0.00018527214806260617 -0.0006489317876889908 0 -0.00012480573310031499 -0.00068416072520280293 0 -8.8680305583622532e-05 -0.00072825243796987302 0 -5.9115701098587395e-05 -0.00067027938698852301 0 -0.00012480573310031499 -0.00068416072520280293 0 -8.8680305583622532e-05 -0.00072825243796987302 0 -0.00015210922658685864 -0.00073180781340247971 0 -0.00011179281204043578 -0.00075915103652034947 0 -8.8680305583622532e-05 -0.00072825243796987302 0 -0.00015210922658685864 -0.00073180781340247971 0 -0.00026265758635082154 -0.00066676280187494112 0 -0.00015210922658685864 -0.00073180781340247971 0 -0.00018527214806260617 -0.0006489317876889908 0 -0.00012480573310031499 -0.00068416072520280293 0 -0.00015210922658685864 -0.00073180781340247971 0 -0.00018527214806260617 -0.0006489317876889908 0 -0.00012480573310031499 -0.00068416072520280293 0 -0.00018527214806260617 -0.0006489317876889908 0 -0.00013166288536506005 -0.00062140208061852212 0 -0.0002391999911005653 -0.00060596530310335511 0 -0.00018527214806260617 -0.0006489317876889908 0 -0.0001981732109303631 -0.00058448996344954876 0 -0.00018527214806260617 -0.0006489317876889908 0 -0.00013166288536506005 -0.00062140208061852212 0 -0.0001981732109303631 -0.00058448996344954876 0 -0.00013166288536506005 -0.00062140208061852212 0 -5.9115701098587395e-05 -0.00067027938698852301 0 -6.9085721642492569e-05 -0.00060470916650429401 0 -0.00012480573310031499 -0.00068416072520280293 0 -0.00013166288536506005 -0.00062140208061852212 0 -5.9115701098587395e-05 -0.00067027938698852301 0 -5.9115701098587395e-05 -0.00067027938698852301 0 2.3769522444625656e-05 -0.00063996912998469792 0 -6.9085721642492569e-05 -0.00060470916650429401 0 -5.9115701098587395e-05 -0.00067027938698852301 0 -2.2210136959871981e-05 -0.00073197454292881728 0 2.3769522444625656e-05 -0.00063996912998469792 0 -8.8680305583622532e-05 -0.00072825243796987302 0 -5.9115701098587395e-05 -0.00067027938698852301 0 -2.2210136959871981e-05 -0.00073197454292881728 0 -2.2210136959871981e-05 -0.00073197454292881728 0 4.925193968403041e-05 -0.0007103231642021148 0 2.3769522444625656e-05 -0.00063996912998469792 0 2.3769522444625656e-05 -0.00063996912998469792 0 0.00012032610347249602 -0.00067995107423965114 0 9.289739469852552e-05 -0.00057437571012404281 0 0.00012032610347249602 -0.00067995107423965114 0 0.00023032676197421649 -0.00067828638837473228 0 0.00020344502193219465 -0.00058262260466764937 0 0.00012032610347249602 -0.00067995107423965114 0 9.289739469852552e-05 -0.00057437571012404281 0 0.00020344502193219465 -0.00058262260466764937 0 0.00012032610347249602 -0.00067995107423965114 0 0.00017262847800104164 -0.00075204691699798647 0 0.00023032676197421649 -0.00067828638837473228 0 4.925193968403041e-05 -0.0007103231642021148 0 0.00012032610347249602 -0.00067995107423965114 0 8.8814596492242298e-05 -0.00076775707876884267 0 0.00012032610347249602 -0.00067995107423965114 0 8.8814596492242298e-05 -0.00076775707876884267 0 0.00017262847800104164 -0.00075204691699798647 0 4.925193968403041e-05 -0.0007103231642021148 0 2.3769522444625656e-05 -0.00063996912998469792 0 0.00012032610347249602 -0.00067995107423965114 0 0.00017262847800104164 -0.00075204691699798647 0 0.00016285306871168312 -0.00084288576756766744 0 0.00026140831113988906 -0.00079177997154455091 0 8.8814596492242298e-05 -0.00076775707876884267 0 0.00017262847800104164 -0.00075204691699798647 0 0.00016285306871168312 -0.00084288576756766744 0 8.8814596492242298e-05 -0.00076775707876884267 0 0.00016285306871168312 -0.00084288576756766744 0 5.5648893657703651e-05 -0.00085546276988800272 0 2.2757134349567304e-06 -0.00090275923142699264 0 5.5648893657703651e-05 -0.00085546276988800272 0 -2.7436706348651786e-05 -0.0008216252282774978 0 5.5648893657703651e-05 -0.00085546276988800272 0 -2.7436706348651786e-05 -0.0008216252282774978 0 2.2333166254583127e-05 -0.00078258940533092289 0 2.2757134349567304e-06 -0.00090275923142699264 0 -0.0001434983642131098 -0.00083044521441704442 0 -2.7436706348651786e-05 -0.0008216252282774978 0 -2.2210136959871981e-05 -0.00073197454292881728 0 -2.7436706348651786e-05 -0.0008216252282774978 0 2.2333166254583127e-05 -0.00078258940533092289 0 -7.6884271610991935e-05 -0.0007832264147678591 0 -2.2210136959871981e-05 -0.00073197454292881728 0 -2.7436706348651786e-05 -0.0008216252282774978 0 -7.6884271610991935e-05 -0.0007832264147678591 0 -8.8680305583622532e-05 -0.00072825243796987302 0 -2.2210136959871981e-05 -0.00073197454292881728 0 4.925193968403041e-05 -0.0007103231642021148 0 8.8814596492242298e-05 -0.00076775707876884267 0 2.2333166254583127e-05 -0.00078258940533092289 0 -2.2210136959871981e-05 -0.00073197454292881728 0 4.925193968403041e-05 -0.0007103231642021148 0 2.2333166254583127e-05 -0.00078258940533092289 0 8.8814596492242298e-05 -0.00076775707876884267 0 5.5648893657703651e-05 -0.00085546276988800272 0 2.2333166254583127e-05 -0.00078258940533092289 0 0.00042621403689366196 -0.00018748969395582148 0 0.00045414584708850355 -0.00024089606775829655 0 0.00046785789551581863 -0.00018337889334675293 0 0.00089686753189465709 -9.1632685789275092e-05 0 0.00055789068012340195 -0.00014011403857776532 0 0.00082958766104038347 -0.00016965867714822589 0 0.00091563429699425202 -0.00013518256089908862 0 0.00094256743157837195 -0.00018889163887051829 0 0.00082958766104038347 -0.00016965867714822589 0 0.00086637875726179754 -2.8559331477378571e-05 0 0.00091563429699425202 -0.00013518256089908862 0 0.00089686753189465709 -9.1632685789275092e-05 0 0.0005074836232621514 -2.2835851811670513e-05 0 0.00078795274818679406 3.8262522008729944e-05 0 0.00072891148887470531 5.6266721589811456e-05 0 0.00071294253928573179 1.9802748712376085e-05 0 0.00078795274818679406 3.8262522008729944e-05 0 0.00072891148887470531 5.6266721589811456e-05 0 0.0007216801187983977 9.615312388825145e-05 0 0.00042621403689366196 -0.00018748969395582148 0 0.00045414584708850355 -0.00024089606775829655 0 0.00037998700947920803 -0.00017836119218640181 0 0.00072891148887470531 5.6266721589811456e-05 0 0.00071294253928573179 1.9802748712376085e-05 0 0.00069281751806788664 7.0999164279311741e-05 0 0.00072891148887470531 5.6266721589811456e-05 0 0.0007216801187983977 9.615312388825145e-05 0 0.00069281751806788664 7.0999164279311741e-05 0 0.00042621403689366196 -0.00018748969395582148 0 0.00037998700947920803 -0.00017836119218640181 0 0.0004032599140368422 -0.00014924702395219863 0 0.00037998700947920803 -0.00017836119218640181 0 0.0003634778010206101 -0.00014695708736187343 0 0.0004032599140368422 -0.00014924702395219863 0 0.0003634778010206101 -0.00014695708736187343 0 0.0004032599140368422 -0.00014924702395219863 0 0.00034756696759635699 -0.00012827094744920472 0 0.0003734932805953656 -0.00014372398257253826 0 0.00035770638710544726 -0.00013362261135722628 0 0.00037074724144369131 -0.00015075536988177248 0 0.0003901986271293682 -0.00014921321156295903 0 0.00037807913231534566 -0.00013553143545321481 0 0.00037074724144369131 -0.00015075536988177248 0 0.0003901986271293682 -0.00014921321156295903 0 0.00040040268283167294 -0.00017424498563022457 0 0.0003734932805953656 -0.00014372398257253826 0 0.00055789068012340195 -0.00014011403857776532 0 0.00042621403689366196 -0.00018748969395582148 0 0.0004032599140368422 -0.00014924702395219863 0 0.00046785789551581863 -0.00018337889334675293 0 0.0003901986271293682 -0.00014921321156295903 0 0.00040040268283167294 -0.00017424498563022457 0 0.00040386056335543096 -0.00015995210860055652 0 0.00040033591760892155 -0.00017877048855153131 0 0.00040386056335543096 -0.00015995210860055652 0 0.00041529457080083398 -0.00017442341805624004 0 0.00055789068012340195 -0.00014011403857776532 0 0.00047953233786019578 -0.00018257014206659146 0 0.00040386056335543096 -0.00015995210860055652 0 0.0004145426329209612 -0.00014225512207227854 0 0.00040006713775270008 -0.00014155682669695285 0 0.0003901986271293682 -0.00014921321156295903 0 0.00040386056335543096 -0.00015995210860055652 0 0.00040006713775270008 -0.00014155682669695285 0 0.00042509861936084842 -0.00016690051269442759 0 0.00041529457080083398 -0.00017442341805624004 0 0.00043117779112864744 -0.00019567047413041909 0 0.00040386056335543096 -0.00015995210860055652 0 0.00042509861936084842 -0.00016690051269442759 0 0.0004145426329209612 -0.00014225512207227854 0 0.00043328436395980439 -0.00014734154459026427 0 0.00042509861936084842 -0.00016690051269442759 0 0.0004145426329209612 -0.00014225512207227854 0 0.00043328436395980439 -0.00014734154459026427 0 0.00042509861936084842 -0.00016690051269442759 0 0.00044863241368369599 -0.00016684694235233761 0 0.00040386056335543096 -0.00015995210860055652 0 0.00042509861936084842 -0.00016690051269442759 0 0.00041529457080083398 -0.00017442341805624004 0 0.00049417497901209416 -0.00016740698267142873 0 0.00045693509386188729 -0.00015479171235615227 0 0.00046909187115069779 -0.0001742477606535811 0 0.00049417497901209416 -0.00016740698267142873 0 0.00045693509386188729 -0.00015479171235615227 0 0.00045563654823459215 -0.00013730721207384791 0 0.00043328436395980439 -0.00014734154459026427 0 0.00045693509386188729 -0.00015479171235615227 0 0.00044863241368369599 -0.00016684694235233761 0 0.00043328436395980439 -0.00014734154459026427 0 0.00045693509386188729 -0.00015479171235615227 0 0.00044531937403823247 -0.00014150967505478058 0 0.00045693509386188729 -0.00015479171235615227 0 0.00044863241368369599 -0.00016684694235233761 0 0.00046909187115069779 -0.0001742477606535811 0 0.00042509861936084842 -0.00016690051269442759 0 0.00044863241368369599 -0.00016684694235233761 0 0.00046029305502341775 -0.00019398747877042853 0 0.00044863241368369599 -0.00016684694235233761 0 0.00046029305502341775 -0.00019398747877042853 0 0.00046909187115069779 -0.0001742477606535811 0 0.00049417497901209416 -0.00016740698267142873 0 0.00048636942607804649 -0.00019470397172953902 0 0.00046909187115069779 -0.0001742477606535811 0 0.00046029305502341775 -0.00019398747877042853 0 0.00048636942607804649 -0.00019470397172953902 0 0.00046909187115069779 -0.0001742477606535811 0 0.000478337202992061 -0.00022327735992702069 0 0.00042603898750820661 -0.00022537234402476687 0 0.00047731179510952738 -0.00026167488333525644 0 0.00046029305502341775 -0.00019398747877042853 0 0.000478337202992061 -0.00022327735992702069 0 0.00042603898750820661 -0.00022537234402476687 0 0.00046029305502341775 -0.00019398747877042853 0 0.00048636942607804649 -0.00019470397172953902 0 0.000478337202992061 -0.00022327735992702069 0 0.00050817838662879622 -0.00022044901794496477 0 0.00048636942607804649 -0.00019470397172953902 0 0.000478337202992061 -0.00022327735992702069 0 0.00085133879054454366 -0.00016443551410072048 0 0.00097796733323241838 -0.00023506359354262576 0 0.00051096537511176093 -0.00025428168758372149 0 0.000478337202992061 -0.00022327735992702069 0 0.00047731179510952738 -0.00026167488333525644 0 0.00044846166533883371 -0.00017732128825615585 0 0.00085133879054454366 -0.00016443551410072048 0 0.00042509861936084842 -0.00016690051269442759 0 0.00046029305502341775 -0.00019398747877042853 0 0.00042603898750820661 -0.00022537234402476687 0 0.00055789068012340195 -0.00014011403857776532 0 0.00085133879054454366 -0.00016443551410072048 0 0.00040033591760892155 -0.00017877048855153131 0 0.00041529457080083398 -0.00017442341805624004 0 0.00043117779112864744 -0.00019567047413041909 0 0.00086637875726179754 -2.8559331477378571e-05 0 0.0010067486109272673 -0.0001153677118192802 0 0.00091563429699425202 -0.00013518256089908862 0 0.0010067486109272673 -0.0001153677118192802 0 0.00091563429699425202 -0.00013518256089908862 0 0.00094256743157837195 -0.00018889163887051829 0 0.00089686753189465709 -9.1632685789275092e-05 0 0.0013376420209241686 -0.00027666605880195398 0 0.0014341318753978971 -0.00012058549308564683 0 0.001490892434869701 -0.00016651538467164241 0 0.0014592967410776646 -0.00017393858261549613 0 0.0010067486109272673 -0.0001153677118192802 0 0.00094256743157837195 -0.00018889163887051829 0 0.0010243853819176482 -0.00033500934007986221 0 0.00085133879054454366 -0.00016443551410072048 0 0.0013376420209241686 -0.00027666605880195398 0 0.001448508773547565 -0.00018962305213999131 0 0.0014606522350611032 -0.00023366235381484441 0 0.0014686476219820477 -0.00022410158147544019 0 0.00082958766104038347 -0.00016965867714822589 0 0.00094256743157837195 -0.00018889163887051829 0 0.0010243853819176482 -0.00033500934007986221 0 0.0014606522350611032 -0.00023366235381484441 0 0.0014686476219820477 -0.00022410158147544019 0 0.0014640828588658285 -0.00024203483025383464 0 0.001448508773547565 -0.00018962305213999131 0 0.0014686476219820477 -0.00022410158147544019 0 0.0014779673267649625 -0.00021982852823469029 0 0.001483120766485308 -0.0002095755305002951 0 0.0014779673267649625 -0.00021982852823469029 0 0.0014856353362538439 -0.00022484072353132152 0 0.0014964865490358385 -0.00022523439568478105 0 0.001483120766485308 -0.0002095755305002951 0 0.0014856353362538439 -0.00022484072353132152 0 0.001448508773547565 -0.00018962305213999131 0 0.001483120766485308 -0.0002095755305002951 0 0.0014779673267649625 -0.00021982852823469029 0 0.0014686476219820477 -0.00022410158147544019 0 0.001473128217704868 -0.00023503766490759497 0 0.0014640828588658285 -0.00024203483025383464 0 0.0014686476219820477 -0.00022410158147544019 0 0.0014796897780187772 -0.00023112964842875628 0 0.001473128217704868 -0.00023503766490759497 0 0.0014686476219820477 -0.00022410158147544019 0 0.0014796897780187772 -0.00023112964842875628 0 0.0014779673267649625 -0.00021982852823469029 0 0.0014796897780187772 -0.00023112964842875628 0 0.0014779673267649625 -0.00021982852823469029 0 0.0014856353362538439 -0.00022484072353132152 0 0.0014796897780187772 -0.00023112964842875628 0 0.0014856353362538439 -0.00022484072353132152 0 0.0014905502623579064 -0.00023733930361430084 0 0.0014964865490358385 -0.00022523439568478105 0 0.0014856353362538439 -0.00022484072353132152 0 0.0014905502623579064 -0.00023733930361430084 0 0.0014905502623579064 -0.00023733930361430084 0 0.0014789074354691809 -0.00024132086989835859 0 0.0014879083115492602 -0.00025539406355718939 0 0.0015010324770443838 -0.00024537814660756152 0 0.0014905502623579064 -0.00023733930361430084 0 0.0014879083115492602 -0.00025539406355718939 0 0.0014796897780187772 -0.00023112964842875628 0 0.0014905502623579064 -0.00023733930361430084 0 0.0014789074354691809 -0.00024132086989835859 0 0.0014789074354691809 -0.00024132086989835859 0 0.001473128217704868 -0.00023503766490759497 0 0.0014640828588658285 -0.00024203483025383464 0 0.0014789074354691809 -0.00024132086989835859 0 0.0014879083115492602 -0.00025539406355718939 0 0.0014640828588658285 -0.00024203483025383464 0 0.0014796897780187772 -0.00023112964842875628 0 0.0014789074354691809 -0.00024132086989835859 0 0.001473128217704868 -0.00023503766490759497 0 0.0014920466852739306 -0.00017924674810823783 0 0.0014592967410776646 -0.00017393858261549613 0 0.0014582185401271575 -0.00021581392079232675 0 0.001490892434869701 -0.00016651538467164241 0 0.0014920466852739306 -0.00017924674810823783 0 0.0014592967410776646 -0.00017393858261549613 0 0.0013376420209241686 -0.00027666605880195398 0 0.0014172564724538738 -0.00022355196141465901 0 0.0014228068527114318 -0.00018595034554781819 0 0.0014592967410776646 -0.00017393858261549613 0 0.0014582185401271575 -0.00021581392079232675 0 0.0014341318753978971 -0.00012058549308564683 0 0.0014228068527114318 -0.00018595034554781819 0 0.0014592967410776646 -0.00017393858261549613 0 0.00089686753189465709 -9.1632685789275092e-05 0 0.0011204935906431229 -9.9680931702552601e-05 0 0.00078795274818679406 3.8262522008729944e-05 0 0.00076574883296804048 -4.7153890676305937e-05 0 0.00071294253928573179 1.9802748712376085e-05 0 0.00076574883296804048 -4.7153890676305937e-05 0 0.00071294253928573179 1.9802748712376085e-05 0 0.00068722069121796719 -5.1821454967408702e-05 0 0.0011204935906431229 -9.9680931702552601e-05 0 0.0010753420378500117 -0.00019313461640800637 0 0.00076574883296804048 -4.7153890676305937e-05 0 0.00074476290369074642 -0.00013089740528215624 0 0.00068722069121796719 -5.1821454967408702e-05 0 0.0014228068527114318 -0.00018595034554781819 0 0.0014582185401271575 -0.00021581392079232675 0 0.0014135202892961584 -0.00024827961681296237 0 0.0014582185401271575 -0.00021581392079232675 0 0.0014587979180845823 -0.00024863791674483034 0 0.0014135202892961584 -0.00024827961681296237 0 0.0014643149391917664 -0.00028169318450888686 0 0.0014135202892961584 -0.00024827961681296237 0 0.0014376021463239359 -0.00029836125710034928 0 0.0014587979180845823 -0.00024863791674483034 0 0.0014643149391917664 -0.00028169318450888686 0 0.0014135202892961584 -0.00024827961681296237 0 0.00074476290369074642 -0.00013089740528215624 0 0.00072514094560761303 -0.00021347694970030696 0 0.00069458870571583093 -0.00017696417738105008 0 0.0014135202892961584 -0.00024827961681296237 0 0.0014063079436785859 -0.00030405576745707051 0 0.0014376021463239359 -0.00029836125710034928 0 0.0010753420378500117 -0.00019313461640800637 0 0.0010712169420098489 -0.00025975050791944451 0 0.0014879083115492602 -0.00025539406355718939 0 0.001496230978504735 -0.00027411026284429824 0 0.0014819582472657116 -0.00028190597220202813 0 0.0014879083115492602 -0.00025539406355718939 0 0.0014640828588658285 -0.00024203483025383464 0 0.0014819582472657116 -0.00028190597220202813 0 0.0015081017960825421 -0.00026525770684586469 0 0.001496230978504735 -0.00027411026284429824 0 0.0015077831669344506 -0.00029395919846122081 0 0.0015081017960825421 -0.00026525770684586469 0 0.0014879083115492602 -0.00025539406355718939 0 0.001496230978504735 -0.00027411026284429824 0 0.0014920466852739306 -0.00017924674810823783 0 0.0014582185401271575 -0.00021581392079232675 0 0.001499986066559903 -0.00024867832925922417 0 0.0014172564724538738 -0.00022355196141465901 0 0.0014991100005995843 -0.00026244177598690839 0 0.0014582185401271575 -0.00021581392079232675 0 0.0014587979180845823 -0.00024863791674483034 0 0.001499986066559903 -0.00024867832925922417 0 0.0014643149391917664 -0.00028169318450888686 0 0.001499986066559903 -0.00024867832925922417 0 0.0014847433112111686 -0.00030231724005622135 0 0.0014587979180845823 -0.00024863791674483034 0 0.0014643149391917664 -0.00028169318450888686 0 0.001499986066559903 -0.00024867832925922417 0 0.0014991100005995843 -0.00026244177598690839 0 0.0015019521068532853 -0.00031706772117815336 0 0.0014819582472657116 -0.00028190597220202813 0 0.0015077831669344506 -0.00029395919846122081 0 0.0015061425109506408 -0.00031979643283694691 0 0.001496230978504735 -0.00027411026284429824 0 0.0014819582472657116 -0.00028190597220202813 0 0.0015077831669344506 -0.00029395919846122081 0 0.0015156800716412447 -0.00032482065374879102 0 0.0015189301614110865 -0.00032739428213175893 0 0.0015077831669344506 -0.00029395919846122081 0 0.0015189568453193168 -0.00032820397086088263 0 0.0015061425109506408 -0.00031979643283694691 0 0.0015321901947538442 -0.00033898654301875371 0 0.0015330573102910749 -0.00034163447164437341 0 0.0015189568453193168 -0.00032820397086088263 0 0.0015321901947538442 -0.00033898654301875371 0 0.0015189568453193168 -0.00032820397086088263 0 0.001530353715091955 -0.00033864073340580193 0 0.0015189568453193168 -0.00032820397086088263 0 0.0015061425109506408 -0.00031979643283694691 0 0.0015093918328954901 -0.0003303500590920516 0 0.001499986066559903 -0.00024867832925922417 0 0.0015061425109506408 -0.00031979643283694691 0 0.0014847433112111686 -0.00030231724005622135 0 0.0015061425109506408 -0.00031979643283694691 0 0.001496125420873142 -0.00032411426212777583 0 0.0014847433112111686 -0.00030231724005622135 0 0.0015061425109506408 -0.00031979643283694691 0 0.001496125420873142 -0.00032411426212777583 0 0.0015093918328954901 -0.0003303500590920516 0 0.0014643149391917664 -0.00028169318450888686 0 0.0014847433112111686 -0.00030231724005622135 0 0.0014648348991375378 -0.00030657377068742255 0 0.0014847433112111686 -0.00030231724005622135 0 0.0014814684203659767 -0.00032390028787960011 0 0.0014648348991375378 -0.00030657377068742255 0 0.001496125420873142 -0.00032411426212777583 0 0.0014847433112111686 -0.00030231724005622135 0 0.0014814684203659767 -0.00032390028787960011 0 0.0014814684203659767 -0.00032390028787960011 0 0.0014816582555365802 -0.00034272987963510424 0 0.0014562859773375432 -0.00032507364210221249 0 0.0014814684203659767 -0.00032390028787960011 0 0.0014816582555365802 -0.00034272987963510424 0 0.0015042359849685885 -0.00033783179938616937 0 0.0015074120841735022 -0.00035152050408583012 0 0.0014816582555365802 -0.00034272987963510424 0 0.0015042359849685885 -0.00033783179938616937 0 0.001496125420873142 -0.00032411426212777583 0 0.0014814684203659767 -0.00032390028787960011 0 0.0015042359849685885 -0.00033783179938616937 0 0.001496125420873142 -0.00032411426212777583 0 0.0015042359849685885 -0.00033783179938616937 0 0.0015093918328954901 -0.0003303500590920516 0 0.0015042359849685885 -0.00033783179938616937 0 0.0015093918328954901 -0.0003303500590920516 0 0.0015212362914907261 -0.00033837573156171428 0 0.0015189568453193168 -0.00032820397086088263 0 0.0015093918328954901 -0.0003303500590920516 0 0.0015212362914907261 -0.00033837573156171428 0 0.0015074120841735022 -0.00035152050408583012 0 0.0015042359849685885 -0.00033783179938616937 0 0.0015258169017299738 -0.00034956197103175617 0 0.0015042359849685885 -0.00033783179938616937 0 0.0015212362914907261 -0.00033837573156171428 0 0.0015258169017299738 -0.00034956197103175617 0 0.0015441456275194013 -0.00035171937367128804 0 0.0015258169017299738 -0.00034956197103175617 0 0.001533406815664743 -0.00034435374385217662 0 0.0015212362914907261 -0.00033837573156171428 0 0.0015258169017299738 -0.00034956197103175617 0 0.001533406815664743 -0.00034435374385217662 0 0.0015212362914907261 -0.00033837573156171428 0 0.001533406815664743 -0.00034435374385217662 0 0.001530353715091955 -0.00033864073340580193 0 0.0015189568453193168 -0.00032820397086088263 0 0.0015212362914907261 -0.00033837573156171428 0 0.001530353715091955 -0.00033864073340580193 0 0.0014063079436785859 -0.00030405576745707051 0 0.0014376021463239359 -0.00029836125710034928 0 0.0014218562601836053 -0.00033404467211848557 0 0.0014643149391917664 -0.00028169318450888686 0 0.0014376021463239359 -0.00029836125710034928 0 0.0014648348991375378 -0.00030657377068742255 0 0.0014376021463239359 -0.00029836125710034928 0 0.0014648348991375378 -0.00030657377068742255 0 0.0014562859773375432 -0.00032507364210221249 0 0.0014814684203659767 -0.00032390028787960011 0 0.0014648348991375378 -0.00030657377068742255 0 0.0014562859773375432 -0.00032507364210221249 0 0.0014376021463239359 -0.00029836125710034928 0 0.0014562859773375432 -0.00032507364210221249 0 0.0014218562601836053 -0.00033404467211848557 0 0.0014816582555365802 -0.00034272987963510424 0 0.0014562859773375432 -0.00032507364210221249 0 0.0014501805373963702 -0.00034615330481936943 0 0.001468740816568217 -0.00035870990032856341 0 0.0014816582555365802 -0.00034272987963510424 0 0.0014501805373963702 -0.00034615330481936943 0 0.0014562859773375432 -0.00032507364210221249 0 0.0014501805373963702 -0.00034615330481936943 0 0.0014218562601836053 -0.00033404467211848557 0 0.0013960979520264247 -0.00035333979895567531 0 0.0014063079436785859 -0.00030405576745707051 0 0.0014218562601836053 -0.00033404467211848557 0 0.001002940946444236 -0.00030916557123623916 0 0.0010712169420098489 -0.00025975050791944451 0 0.0014243754031118376 -0.00035813572650489583 0 0.0014501805373963702 -0.00034615330481936943 0 0.0014218562601836053 -0.00033404467211848557 0 0.0013960979520264247 -0.00035333979895567531 0 0.0014243754031118376 -0.00035813572650489583 0 0.0014218562601836053 -0.00033404467211848557 0 0.001002940946444236 -0.00030916557123623916 0 0.00073654139530270502 -0.00021645703039171863 0 0.00070676314967749307 -0.0002974816077670545 0 0.00072514094560761303 -0.00021347694970030696 0 0.00070496501185190682 -0.00027078095242901015 0 0.00070676314967749307 -0.0002974816077670545 0 0.00070496501185190682 -0.00027078095242901015 0 0.00068826779016511086 -0.00025468333632607958 0 0.00086535700824521818 -0.0003377075420446394 0 0.00081958531821630612 -0.00014646256947143868 0 0.000850230744520072 -0.00017567806919433434 0 0.00093170618588929801 -0.00030620735726537003 0 0.00073663996491313071 -0.00013781566128104661 0 0.00073663996491313071 -0.00013781566128104661 0 0.00073654139530270502 -0.00021645703039171863 0 0.00070496501185190682 -0.00027078095242901015 0 0.00068653355120889864 -0.00025468573364004248 0 0.00069712896623708284 -0.00022615978097633856 0 0.0007259620570220876 -0.00023547078548106408 0 0.00073654139530270502 -0.00021645703039171863 0 0.00067058660839352927 -0.00023892255807637504 0 0.00066867285295044621 -0.00021403387305095976 0 0.00064925779230885934 -0.00016183768944609054 0 0.00073663996491313071 -0.00013781566128104661 0 0.00061866293620346281 -5.7041882447834536e-05 0 0.00072514094560761303 -0.00021347694970030696 0 0.00070496501185190682 -0.00027078095242901015 0 0.00069712896623708284 -0.00022615978097633856 0 0.00067058660839352927 -0.00023892255807637504 0 0.0006862997956438708 -0.00025313942194853047 0 0.00066867285295044621 -0.00021403387305095976 0 0.00068653355120889864 -0.00025468573364004248 0 0.00069712896623708284 -0.00022615978097633856 0 0.00066867285295044621 -0.00021403387305095976 0 0.00073654139530270502 -0.00021645703039171863 0 0.00068715130037286199 -0.00021948929160277043 0 0.00066867285295044621 -0.00021403387305095976 0 0.00069458870571583093 -0.00017696417738105008 0 0.00064925779230885934 -0.00016183768944609054 0 0.00072514094560761303 -0.00021347694970030696 0 0.00069712896623708284 -0.00022615978097633856 0 0.00069458870571583093 -0.00017696417738105008 0 0.00069712896623708284 -0.00022615978097633856 0 0.00066867285295044621 -0.00021403387305095976 0 0.00069458870571583093 -0.00017696417738105008 0 0.00085297103445153397 -0.0001371168982165365 0 0.00077043140005212578 -6.0624917553610844e-05 0 0.00076817246294434173 -0.00015515909657196143 0 0.00061918780896876686 -2.9236182074761049e-06 0 0.00059229841726371251 2.4779447706343621e-05 0 0.00060673673416794158 3.6676648646341282e-05 0 0.00073663996491313071 -0.00013781566128104661 0 0.00067707369483852725 -9.7561197736616353e-06 0 0.00078738604303544364 -0.00024117501263314352 0 0.00076817246294434173 -0.00015515909657196143 0 0.00081112671133988274 -0.00019082559356531603 0 0.00085297103445153397 -0.0001371168982165365 0 0.00076817246294434173 -0.00015515909657196143 0 0.00081112671133988274 -0.00019082559356531603 0 0.0008371071384712139 -0.00022824851226255016 0 0.00085297103445153397 -0.0001371168982165365 0 0.00081112671133988274 -0.00019082559356531603 0 0.00078738604303544364 -0.00024117501263314352 0 0.00076817246294434173 -0.00015515909657196143 0 0.00071822867200191268 -0.00019299566803749983 0 0.00076817246294434173 -0.00015515909657196143 0 0.00071822867200191268 -0.00019299566803749983 0 0.00069284259124101789 -0.00010633866868892775 0 0.00068932874441507712 -0.00025858464864344746 0 0.00071822867200191268 -0.00019299566803749983 0 0.00063263612730029206 -0.00016803655049163379 0 0.00071822867200191268 -0.00019299566803749983 0 0.00063263612730029206 -0.00016803655049163379 0 0.00069284259124101789 -0.00010633866868892775 0 0.00063263612730029206 -0.00016803655049163379 0 0.00059840217243418211 -6.1489517607065235e-05 0 0.00069284259124101789 -0.00010633866868892775 0 0.00063263612730029206 -0.00016803655049163379 0 0.00059840217243418211 -6.1489517607065235e-05 0 0.00052717520808202129 -0.00012237467828815597 0 0.00077043140005212578 -6.0624917553610844e-05 0 0.00076817246294434173 -0.00015515909657196143 0 0.00069284259124101789 -0.00010633866868892775 0 0.00067707369483852725 -9.7561197736616353e-06 0 0.00062957269039056883 2.6868812256345443e-05 0 0.00059229841726371251 2.4779447706343621e-05 0 0.00057918953880533089 4.7860195585347173e-05 0 0.00058986932042849377 4.7534425745527899e-05 0 0.00077043140005212578 -6.0624917553610844e-05 0 0.00069284259124101789 -0.00010633866868892775 0 0.00067683521271321085 1.3226178300879534e-05 0 0.00059840217243418211 -6.1489517607065235e-05 0 0.00069284259124101789 -0.00010633866868892775 0 0.00067683521271321085 1.3226178300879534e-05 0 0.00059840217243418211 -6.1489517607065235e-05 0 0.00067683521271321085 1.3226178300879534e-05 0 0.00057886526585436253 2.0002965559925037e-05 0 0.00067683521271321085 1.3226178300879534e-05 0 0.00057886526585436253 2.0002965559925037e-05 0 0.00058040278625041649 6.0309846303233461e-05 0 0.00062957269039056883 2.6868812256345443e-05 0 0.00058712617193327479 5.8152345711243298e-05 0 0.00057918953880533089 4.7860195585347173e-05 0 0.00058040278625041649 6.0309846303233461e-05 0 0.00058144401915320287 5.9768270088092415e-05 0 0.00057918953880533089 4.7860195585347173e-05 0 0.00058144401915320287 5.9768270088092415e-05 0 0.00058986932042849377 4.7534425745527899e-05 0 0.00059284453977627145 5.8949488171142576e-05 0 0.00058986932042849377 4.7534425745527899e-05 0 0.00060673673416794158 3.6676648646341282e-05 0 0.00062674156264553389 -8.4015666371219151e-05 0 0.00068054000785050214 -0.00012127815239743817 0 0.00064925779230885934 -0.00016183768944609054 0 0.00061090833298862546 -1.4538725374915629e-05 0 0.00061866293620346281 -5.7041882447834536e-05 0 0.00058144401915320287 5.9768270088092415e-05 0 0.00059284453977627145 5.8949488171142576e-05 0 0.00058986932042849377 4.7534425745527899e-05 0 0.00062674156264553389 -8.4015666371219151e-05 0 0.00068054000785050214 -0.00012127815239743817 0 0.00068722069121796719 -5.1821454967408702e-05 0 0.00074476290369074642 -0.00013089740528215624 0 0.00068054000785050214 -0.00012127815239743817 0 0.00068722069121796719 -5.1821454967408702e-05 0 0.00074476290369074642 -0.00013089740528215624 0 0.00068054000785050214 -0.00012127815239743817 0 0.00069458870571583093 -0.00017696417738105008 0 0.00068054000785050214 -0.00012127815239743817 0 0.00069458870571583093 -0.00017696417738105008 0 0.00064925779230885934 -0.00016183768944609054 0 0.00059229841726371251 2.4779447706343621e-05 0 0.00058986932042849377 4.7534425745527899e-05 0 0.00060673673416794158 3.6676648646341282e-05 0 0.00031256915070545198 -0.00018169143739913912 0 0.00029475281883517578 -0.00016189682406053107 0 0.00029150721846305395 -0.00018118432730794686 0 0.00037114934537585924 -0.00020937094491413357 0 0.00031855554170189806 -0.00021663829585711486 0 0.00031256915070545198 -0.00018169143739913912 0 0.00037114934537585924 -0.00020937094491413357 0 0.00031256915070545198 -0.00018169143739913912 0 0.00038512761394747112 -0.00015709359295595348 0 0.00031256915070545198 -0.00018169143739913912 0 0.00038512761394747112 -0.00015709359295595348 0 0.00029475281883517578 -0.00016189682406053107 0 0.00038512761394747112 -0.00015709359295595348 0 0.0002447703005983367 -0.00015546778067674662 0 0.00029475281883517578 -0.00016189682406053107 0 0.00038512761394747112 -0.00015709359295595348 0 0.00052717520808202129 -0.00012237467828815597 0 0.00048478568707157352 -3.5743633891233188e-06 0 0.00037609822270123728 -0.0001582606288898259 0 0.00036373258699993718 -8.8481081871450966e-05 0 0.00051680693921401198 -0.00022269149178804121 0 0.00038512761394747112 -0.00015709359295595348 0 0.00052717520808202129 -0.00012237467828815597 0 0.00051680693921401198 -0.00022269149178804121 0 0.00037114934537585924 -0.00020937094491413357 0 0.00038512761394747112 -0.00015709359295595348 0 0.00051680693921401198 -0.00022269149178804121 0 0.00063263612730029206 -0.00016803655049163379 0 0.00052717520808202129 -0.00012237467828815597 0 0.00051680693921401198 -0.00022269149178804121 0 0.00061263037488821603 -0.00023898890873697473 0 0.00063263612730029206 -0.00016803655049163379 0 0.00059840217243418211 -6.1489517607065235e-05 0 0.00052717520808202129 -0.00012237467828815597 0 0.00048478568707157352 -3.5743633891233188e-06 0 0.00059840217243418211 -6.1489517607065235e-05 0 0.00057886526585436253 2.0002965559925037e-05 0 0.00048478568707157352 -3.5743633891233188e-06 0 0.00057886526585436253 2.0002965559925037e-05 0 0.00058040278625041649 6.0309846303233461e-05 0 0.00054835267296031995 7.4118097224007583e-05 0 0.00036373258699993718 -8.8481081871450966e-05 0 0.00033781063141702638 -6.3149337803032808e-05 0 0.00057886526585436253 2.0002965559925037e-05 0 0.00048478568707157352 -3.5743633891233188e-06 0 0.00054835267296031995 7.4118097224007583e-05 0 0.0002447703005983367 -0.00015546778067674662 0 0.00019257509696616015 -0.00019212023378763633 0 0.00013018390762751261 -0.00018944933245518787 0 0.0002447703005983367 -0.00015546778067674662 0 0.0002487573924272605 -0.000176657379754444 0 0.00019257509696616015 -0.00019212023378763633 0 0.0002447703005983367 -0.00015546778067674662 0 0.00029475281883517578 -0.00016189682406053107 0 0.0002487573924272605 -0.000176657379754444 0 0.0002487573924272605 -0.000176657379754444 0 0.00022942194586289758 -0.00020258772488852836 0 0.00019257509696616015 -0.00019212023378763633 0 0.0002487573924272605 -0.000176657379754444 0 0.00026977842812485797 -0.00018477314600487386 0 0.00022942194586289758 -0.00020258772488852836 0 0.00029475281883517578 -0.00016189682406053107 0 0.0002487573924272605 -0.000176657379754444 0 0.00026977842812485797 -0.00018477314600487386 0 0.00029475281883517578 -0.00016189682406053107 0 0.00026977842812485797 -0.00018477314600487386 0 0.00029150721846305395 -0.00018118432730794686 0 0.00021541375315047142 -0.00024175384274449391 0 0.0002482917765153977 -0.00021417164511168156 0 0.00024584275021882177 -0.00024311882685483413 0 0.00026977842812485797 -0.00018477314600487386 0 0.0002482917765153977 -0.00021417164511168156 0 0.00022942194586289758 -0.00020258772488852836 0 0.00021541375315047142 -0.00024175384274449391 0 0.0002482917765153977 -0.00021417164511168156 0 0.00022942194586289758 -0.00020258772488852836 0 0.00022942194586289758 -0.00020258772488852836 0 0.00018368742367428929 -0.00022642747197471535 0 0.00019257509696616015 -0.00019212023378763633 0 0.00021541375315047142 -0.00024175384274449391 0 0.00018368742367428929 -0.00022642747197471535 0 0.00016092255656767923 -0.00027434082397670396 0 0.00021541375315047142 -0.00024175384274449391 0 0.00022942194586289758 -0.00020258772488852836 0 0.00018368742367428929 -0.00022642747197471535 0 0.00018368742367428929 -0.00022642747197471535 0 0.00011337164982480686 -0.00023147567101190669 0 0.00016092255656767923 -0.00027434082397670396 0 0.00011337164982480686 -0.00023147567101190669 0 0.00019257509696616015 -0.00019212023378763633 0 0.00013018390762751261 -0.00018944933245518787 0 0.00018368742367428929 -0.00022642747197471535 0 0.00011337164982480686 -0.00023147567101190669 0 0.00019257509696616015 -0.00019212023378763633 0 0.00054835267296031995 7.4118097224007583e-05 0 0.00056818926415601052 7.2639533988335083e-05 0 0.00057194683222637488 7.689966732067151e-05 0 0.00058040278625041649 6.0309846303233461e-05 0 0.00054835267296031995 7.4118097224007583e-05 0 0.00056818926415601052 7.2639533988335083e-05 0 0.00033781063141702638 -6.3149337803032808e-05 0 0.00030539722708435843 -9.2655522943392961e-05 0 0.00011337164982480686 -0.00023147567101190669 0 4.6835472223373063e-05 -0.00028282337466429945 0 3.9076496530899347e-05 -0.00025743951964718958 0 0.00011337164982480686 -0.00023147567101190669 0 0.00013018390762751261 -0.00018944933245518787 0 3.9076496530899347e-05 -0.00025743951964718958 0 4.6835472223373063e-05 -0.00028282337466429945 0 3.9076496530899347e-05 -0.00025743951964718958 0 2.5818237663308113e-06 -0.00026593781330840196 0 -1.9284517840825258e-05 -0.00025978034007514202 0 2.5818237663308113e-06 -0.00026593781330840196 0 -5.3075891212634868e-05 -0.00020665193731214275 0 4.6835472223373063e-05 -0.00028282337466429945 0 -1.9284517840825258e-05 -0.00025978034007514202 0 2.5818237663308113e-06 -0.00026593781330840196 0 4.6835472223373063e-05 -0.00028282337466429945 0 -1.9284517840825258e-05 -0.00025978034007514202 0 -0.00012118098067125124 -0.00025719974577352399 0 3.3627644677729482e-05 -0.00027821151628971714 0 4.9362723076101416e-06 -0.00029056892405796475 0 0.00011337164982480686 -0.00023147567101190669 0 4.6835472223373063e-05 -0.00028282337466429945 0 0.00016092255656767923 -0.00027434082397670396 0 4.6835472223373063e-05 -0.00028282337466429945 0 0.00013224751120693038 -0.00033756008662435031 0 0.00016092255656767923 -0.00027434082397670396 0 0.00016092255656767923 -0.00027434082397670396 0 0.00018144953707809806 -0.00032324002274591239 0 0.00021266343078110508 -0.00028272220588999625 0 0.00013224751120693038 -0.00033756008662435031 0 0.00016092255656767923 -0.00027434082397670396 0 0.00018144953707809806 -0.00032324002274591239 0 0.00018144953707809806 -0.00032324002274591239 0 0.00021266343078110508 -0.00028272220588999625 0 0.00021471047315823781 -0.00033230319050475124 0 0.00021541375315047142 -0.00024175384274449391 0 0.00016092255656767923 -0.00027434082397670396 0 0.00021266343078110508 -0.00028272220588999625 0 0.00021541375315047142 -0.00024175384274449391 0 0.00021266343078110508 -0.00028272220588999625 0 0.00024584275021882177 -0.00024311882685483413 0 0.00060346032581513854 -4.6355539135649338e-06 0 0.00066659980950033388 3.061132831165492e-06 0 0.0006628117328458166 4.9180329106961715e-05 0 0.00071294253928573179 1.9802748712376085e-05 0 0.00066659980950033388 3.061132831165492e-06 0 0.00068722069121796719 -5.1821454967408702e-05 0 0.00060346032581513854 -4.6355539135649338e-06 0 0.00066659980950033388 3.061132831165492e-06 0 0.00068722069121796719 -5.1821454967408702e-05 0 0.00071294253928573179 1.9802748712376085e-05 0 0.00066659980950033388 3.061132831165492e-06 0 0.0006628117328458166 4.9180329106961715e-05 0 0.00062674156264553389 -8.4015666371219151e-05 0 0.00060346032581513854 -4.6355539135649338e-06 0 0.00068722069121796719 -5.1821454967408702e-05 0 0.00061090833298862546 -1.4538725374915629e-05 0 0.00059287716077183455 3.3240662318806313e-05 0 0.00058144401915320287 5.9768270088092415e-05 0 0.00059284453977627145 5.8949488171142576e-05 0 0.00058206111588141767 6.8566971245752939e-05 0 0.00058144401915320287 5.9768270088092415e-05 0 0.00058206111588141767 6.8566971245752939e-05 0 0.00057264966011463 7.0173344921268583e-05 0 0.00058040278625041649 6.0309846303233461e-05 0 0.00057264966011463 7.0173344921268583e-05 0 0.00056818926415601052 7.2639533988335083e-05 0 0.00058040278625041649 6.0309846303233461e-05 0 0.00058144401915320287 5.9768270088092415e-05 0 0.00057264966011463 7.0173344921268583e-05 0 0.00057264966011463 7.0173344921268583e-05 0 0.00056818926415601052 7.2639533988335083e-05 0 0.00057194683222637488 7.689966732067151e-05 0 0.00057264966011463 7.0173344921268583e-05 0 0.00057194683222637488 7.689966732067151e-05 0 0.00056856454789423999 7.2076551201783983e-05 0 0.00058206111588141767 6.8566971245752939e-05 0 0.00056856454789423999 7.2076551201783983e-05 0 0.00055774728835802998 7.0182674600799497e-05 0 0.00058206111588141767 6.8566971245752939e-05 0 0.00057264966011463 7.0173344921268583e-05 0 0.00056856454789423999 7.2076551201783983e-05 0 0.00055774728835802998 7.0182674600799497e-05 0 0.00057974111241276144 7.9132249086534223e-05 0 0.00059328813831453656 0.00010755752948495667 0 0.00054814618316470357 6.7458771124897975e-05 0 0.00055766471158767152 8.7615517917533127e-05 0 0.00058206111588141767 6.8566971245752939e-05 0 0.00055774728835802998 7.0182674600799497e-05 0 0.00057974111241276144 7.9132249086534223e-05 0 0.00030539722708435843 -9.2655522943392961e-05 0 0.00028494565838801651 -0.0001159083860258118 0 0.00057194683222637488 7.689966732067151e-05 0 0.00056856454789423999 7.2076551201783983e-05 0 0.00055774728835802998 7.0182674600799497e-05 0 0.00057194683222637488 7.689966732067151e-05 0 0.00055774728835802998 7.0182674600799497e-05 0 0.00056796249338332354 3.6158591051243079e-05 0 0.00056796249338332354 3.6158591051243079e-05 0 0.00053393625872499026 4.0007766236627985e-05 0 0.0005058910093727418 -2.1717294577119379e-06 0 0.00055774728835802998 7.0182674600799497e-05 0 0.00053393625872499026 4.0007766236627985e-05 0 0.00049022678120026416 4.2501804099553515e-05 0 0.00055774728835802998 7.0182674600799497e-05 0 0.00056796249338332354 3.6158591051243079e-05 0 0.00053393625872499026 4.0007766236627985e-05 0 0.00053393625872499026 4.0007766236627985e-05 0 0.00049022678120026416 4.2501804099553515e-05 0 0.0005058910093727418 -2.1717294577119379e-06 0 0.00049022678120026416 4.2501804099553515e-05 0 0.00047070996383624767 7.3852443451305001e-06 0 0.0005058910093727418 -2.1717294577119379e-06 0 0.00063736081746457434 0.00011508276157105964 0 0.00059328813831453656 0.00010755752948495667 0 0.00065432600909086868 0.00015467133451670838 0 0.00049022678120026416 4.2501804099553515e-05 0 0.00043088590948886176 4.9663909699359419e-07 0 0.00047070996383624767 7.3852443451305001e-06 0 0.00055766471158767152 8.7615517917533127e-05 0 0.00049181188923309198 -2.0674617528615485e-05 0 0.00063736081746457434 0.00011508276157105964 0 0.00059328813831453656 0.00010755752948495667 0 0.00062335698535236886 7.3666053704521349e-05 0 0.00059287716077183455 3.3240662318806313e-05 0 0.00058088205222371018 7.600072572499467e-05 0 0.00057974111241276144 7.9132249086534223e-05 0 0.00059328813831453656 0.00010755752948495667 0 0.00062335698535236886 7.3666053704521349e-05 0 0.00060346032581513854 -4.6355539135649338e-06 0 0.00057974111241276144 7.9132249086534223e-05 0 0.00062335698535236886 7.3666053704521349e-05 0 0.00060346032581513854 -4.6355539135649338e-06 0 0.00062335698535236886 7.3666053704521349e-05 0 0.0006628117328458166 4.9180329106961715e-05 0 0.00071294253928573179 1.9802748712376085e-05 0 0.0006628117328458166 4.9180329106961715e-05 0 0.00069281751806788664 7.0999164279311741e-05 0 0.00062335698535236886 7.3666053704521349e-05 0 0.0006628117328458166 4.9180329106961715e-05 0 0.00066523533798338924 9.213571608223543e-05 0 0.0006628117328458166 4.9180329106961715e-05 0 0.00069281751806788664 7.0999164279311741e-05 0 0.00066523533798338924 9.213571608223543e-05 0 0.0007216801187983977 9.615312388825145e-05 0 0.00069281751806788664 7.0999164279311741e-05 0 0.00066523533798338924 9.213571608223543e-05 0 0.00037998700947920803 -0.00017836119218640181 0 0.0003634778010206101 -0.00014695708736187343 0 0.0003294405898229578 -0.00013061362286634673 0 0.0007216801187983977 9.615312388825145e-05 0 0.000669739664372069 0.00011450175740504563 0 0.00066523533798338924 9.213571608223543e-05 0 0.0005074836232621514 -2.2835851811670513e-05 0 0.00049181188923309198 -2.0674617528615485e-05 0 0.0007216801187983977 9.615312388825145e-05 0 0.000669739664372069 0.00011450175740504563 0 0.00065432600909086868 0.00015467133451670838 0 0.00063736081746457434 0.00011508276157105964 0 0.00062335698535236886 7.3666053704521349e-05 0 0.00066523533798338924 9.213571608223543e-05 0 0.00063736081746457434 0.00011508276157105964 0 0.000669739664372069 0.00011450175740504563 0 0.00066523533798338924 9.213571608223543e-05 0 0.00063736081746457434 0.00011508276157105964 0 0.000669739664372069 0.00011450175740504563 0 0.00065432600909086868 0.00015467133451670838 0 0.0003634778010206101 -0.00014695708736187343 0 0.00034756696759635699 -0.00012827094744920472 0 0.0003294405898229578 -0.00013061362286634673 0 0.00034756696759635699 -0.00012827094744920472 0 0.0003294405898229578 -0.00013061362286634673 0 0.00035776828197693004 -0.00011246169237189645 0 0.00043311542508223789 -5.2941241952593128e-06 0 0.00043501456480716242 -2.4189491797341869e-05 0 0.00042170923851028291 -3.5825180773525377e-05 0 0.00049181188923309198 -2.0674617528615485e-05 0 0.00046199301647161537 -4.7058623132682766e-06 0 0.00043311542508223789 -5.2941241952593128e-06 0 0.00043501456480716242 -2.4189491797341869e-05 0 0.00044773187562163432 -1.5018026492362028e-05 0 0.00043501456480716242 -2.4189491797341869e-05 0 0.00044347732716015699 -4.408284704130794e-05 0 0.00044773187562163432 -1.5018026492362028e-05 0 0.00043501456480716242 -2.4189491797341869e-05 0 0.00042170923851028291 -3.5825180773525377e-05 0 0.00044347732716015699 -4.408284704130794e-05 0 0.00049181188923309198 -2.0674617528615485e-05 0 0.00035983952842645443 -9.1195409615804027e-05 0 0.00043311542508223789 -5.2941241952593128e-06 0 0.00042170923851028291 -3.5825180773525377e-05 0 0.00039590503710059403 -4.5660504610514181e-05 0 0.00042170923851028291 -3.5825180773525377e-05 0 0.0004151736215195071 -6.7192472837956306e-05 0 0.00039590503710059403 -4.5660504610514181e-05 0 0.0004151736215195071 -6.7192472837956306e-05 0 0.00045865803696107604 -6.4455327603477012e-05 0 0.00044347732716015699 -4.408284704130794e-05 0 0.0004151736215195071 -6.7192472837956306e-05 0 0.00045865803696107604 -6.4455327603477012e-05 0 0.00042526088475961486 -9.6644267596942806e-05 0 0.00042170923851028291 -3.5825180773525377e-05 0 0.0004151736215195071 -6.7192472837956306e-05 0 0.00044347732716015699 -4.408284704130794e-05 0 0.00047070996383624767 7.3852443451305001e-06 0 0.00044773187562163432 -1.5018026492362028e-05 0 0.0005058910093727418 -2.1717294577119379e-06 0 0.00046197414894077462 -5.837077382906582e-05 0 0.00050165300281844135 -6.595842971601322e-06 0 0.00044347732716015699 -4.408284704130794e-05 0 0.00044773187562163432 -1.5018026492362028e-05 0 0.0005058910093727418 -2.1717294577119379e-06 0 0.00045865803696107604 -6.4455327603477012e-05 0 0.00044347732716015699 -4.408284704130794e-05 0 0.0005058910093727418 -2.1717294577119379e-06 0 0.00043088590948886176 4.9663909699359419e-07 0 0.00047070996383624767 7.3852443451305001e-06 0 0.00044773187562163432 -1.5018026492362028e-05 0 0.00046506087652124111 -5.9221173588742136e-05 0 0.0005058910093727418 -2.1717294577119379e-06 0 0.00052745267685473652 -4.9353952020449277e-05 0 0.00056796249338332354 3.6158591051243079e-05 0 0.0005058910093727418 -2.1717294577119379e-06 0 0.00052745267685473652 -4.9353952020449277e-05 0 2.5818237663308113e-06 -0.00026593781330840196 0 1.59062326476581e-05 -0.000177329352724914 0 -5.3075891212634868e-05 -0.00020665193731214275 0 0.00028494565838801651 -0.0001159083860258118 0 0.0002697221972243257 -0.00011011271963851789 0 1.59062326476581e-05 -0.000177329352724914 0 -4.4114523090720551e-05 -8.5603433127818347e-05 0 -8.3202935295993466e-05 -0.00013260646429766478 0 1.59062326476581e-05 -0.000177329352724914 0 -5.3075891212634868e-05 -0.00020665193731214275 0 -8.3202935295993466e-05 -0.00013260646429766478 0 0.00046506087652124111 -5.9221173588742136e-05 0 0.00052745267685473652 -4.9353952020449277e-05 0 0.00048944936081599349 -0.00011708952962109522 0 1.59062326476581e-05 -0.000177329352724914 0 4.2016417714722958e-05 -6.570922832763286e-05 0 -4.4114523090720551e-05 -8.5603433127818347e-05 0 0.0002697221972243257 -0.00011011271963851789 0 0.00028409212496479302 -0.00010827446980462953 0 -4.4114523090720551e-05 -8.5603433127818347e-05 0 -6.0584696955081065e-05 8.9504186711929977e-06 0 -0.00013815284798419098 -4.6978562168285545e-05 0 4.2016417714722958e-05 -6.570922832763286e-05 0 -6.0584696955081065e-05 8.9504186711929977e-06 0 1.702099193939463e-05 2.6381428603656012e-05 0 4.2016417714722958e-05 -6.570922832763286e-05 0 -4.4114523090720551e-05 -8.5603433127818347e-05 0 -6.0584696955081065e-05 8.9504186711929977e-06 0 0.00028409212496479302 -0.00010827446980462953 0 0.00012531548438331609 4.4974250325320721e-05 0 4.2016417714722958e-05 -6.570922832763286e-05 0 8.577510093559831e-05 6.6683373887206851e-05 0 1.702099193939463e-05 2.6381428603656012e-05 0 0.00048944936081599349 -0.00011708952962109522 0 0.00044434746234972165 -0.0001405559297679398 0 0.00045882606646654187 -0.00017828556233460887 0 0.00048944936081599349 -0.00011708952962109522 0 0.00044434746234972165 -0.0001405559297679398 0 0.000430590320468115 -0.00010941755088594183 0 0.00044397196917461907 -0.00011672542370156634 0 0.00019743293032141898 -1.2998151101200574e-05 0 0.00044434746234972165 -0.0001405559297679398 0 0.000430590320468115 -0.00010941755088594183 0 0.00039946537884109548 -0.00015658018167034665 0 0.00042526088475961486 -9.6644267596942806e-05 0 0.0003909226329758456 -0.00011584155181704062 0 0.0003973788996752496 -0.00014403915003103097 0 0.0004151736215195071 -6.7192472837956306e-05 0 0.00042526088475961486 -9.6644267596942806e-05 0 0.00038180969615589795 -8.6317995062116072e-05 0 0.00046197414894077462 -5.837077382906582e-05 0 0.00044397196917461907 -0.00011672542370156634 0 0.00046506087652124111 -5.9221173588742136e-05 0 0.00048944936081599349 -0.00011708952962109522 0 0.000430590320468115 -0.00010941755088594183 0 0.00016993716877859486 -0.00036301897079506814 0 0.00021158642522165898 -0.00036418063137738204 0 0.00021471047315823781 -0.00033230319050475124 0 0.00016993716877859486 -0.00036301897079506814 0 0.0001919122028406003 -0.00038833728444297844 0 0.00021158642522165898 -0.00036418063137738204 0 0.00018144953707809806 -0.00032324002274591239 0 0.00016993716877859486 -0.00036301897079506814 0 0.00021471047315823781 -0.00033230319050475124 0 0.00013224751120693038 -0.00033756008662435031 0 0.00018144953707809806 -0.00032324002274591239 0 0.00016993716877859486 -0.00036301897079506814 0 4.9362723076101416e-06 -0.00029056892405796475 0 -4.3342156476306853e-05 -0.00026146415390446501 0 -4.3342156476306853e-05 -0.00026146415390446501 0 -5.4594880224346285e-05 -0.00025810869884648811 0 -0.00012118098067125124 -0.00025719974577352399 0 -0.0002450877167990928 -0.00017704229846631194 0 -0.00015226165136594227 -0.00014008396457414462 0 -0.00012118098067125124 -0.00025719974577352399 0 -0.00015226165136594227 -0.00014008396457414462 0 -5.3075891212634868e-05 -0.00020665193731214275 0 -1.9284517840825258e-05 -0.00025978034007514202 0 -0.00012118098067125124 -0.00025719974577352399 0 -5.3075891212634868e-05 -0.00020665193731214275 0 -0.00015226165136594227 -0.00014008396457414462 0 -5.3075891212634868e-05 -0.00020665193731214275 0 -8.3202935295993466e-05 -0.00013260646429766478 0 -4.4114523090720551e-05 -8.5603433127818347e-05 0 -8.3202935295993466e-05 -0.00013260646429766478 0 -0.00013815284798419098 -4.6978562168285545e-05 0 -0.00015226165136594227 -0.00014008396457414462 0 -8.3202935295993466e-05 -0.00013260646429766478 0 -0.00013815284798419098 -4.6978562168285545e-05 0 -6.0584696955081065e-05 8.9504186711929977e-06 0 -0.00013815284798419098 -4.6978562168285545e-05 0 -0.00015860001010421074 7.5129017660561942e-05 0 -0.00013815284798419098 -4.6978562168285545e-05 0 -0.00023754291549334453 -5.5007942077858232e-05 0 -0.00024803730434995637 6.9342212223762179e-05 0 -0.0002450877167990928 -0.00017704229846631194 0 -0.00015226165136594227 -0.00014008396457414462 0 -0.00023754291549334453 -5.5007942077858232e-05 0 -0.00015226165136594227 -0.00014008396457414462 0 -0.00013815284798419098 -4.6978562168285545e-05 0 -0.00023754291549334453 -5.5007942077858232e-05 0 -0.0002450877167990928 -0.00017704229846631194 0 -0.00023754291549334453 -5.5007942077858232e-05 0 -0.00034905925077205658 -8.1462408513156151e-05 0 -0.00023754291549334453 -5.5007942077858232e-05 0 -0.00031237327554493562 1.280442555259592e-05 0 -0.00024803730434995637 6.9342212223762179e-05 0 -0.00023754291549334453 -5.5007942077858232e-05 0 -0.00031237327554493562 1.280442555259592e-05 0 -0.00034905925077205658 -8.1462408513156151e-05 0 -5.4594880224346285e-05 -0.00025810869884648811 0 -0.00026918443631900491 -0.00010082625800937369 0 -0.00031237327554493562 1.280442555259592e-05 0 -0.00034905925077205658 -8.1462408513156151e-05 0 -0.00037883508758486411 3.0622850311642894e-05 0 -0.00034905925077205658 -8.1462408513156151e-05 0 -0.00037883508758486411 3.0622850311642894e-05 0 -0.00043935880644392183 2.0964887320832358e-05 0 -0.00039992754307514557 0.00017145064453460786 0 -0.00043014638462979618 9.8820860192632136e-05 0 -0.00049987218127350939 0.00022108082958770167 0 -0.00039992754307514557 0.00017145064453460786 0 -0.00043014638462979618 9.8820860192632136e-05 0 -0.00033942823411556208 8.457517396139288e-05 0 -0.00043045379561931465 7.939027315421684e-05 0 -0.00026918443631900491 -0.00010082625800937369 0 -0.00043014638462979618 9.8820860192632136e-05 0 -0.00037883508758486411 3.0622850311642894e-05 0 -0.00043935880644392183 2.0964887320832358e-05 0 -0.00043014638462979618 9.8820860192632136e-05 0 -0.00037883508758486411 3.0622850311642894e-05 0 -0.00033942823411556208 8.457517396139288e-05 0 -0.00031237327554493562 1.280442555259592e-05 0 -0.00033942823411556208 8.457517396139288e-05 0 -0.00024803730434995637 6.9342212223762179e-05 0 -0.00033942823411556208 8.457517396139288e-05 0 -0.00030662644722731226 0.00014728528011199952 0 -0.00024803730434995637 6.9342212223762179e-05 0 -0.00031237327554493562 1.280442555259592e-05 0 -0.00037883508758486411 3.0622850311642894e-05 0 -0.00033942823411556208 8.457517396139288e-05 0 -0.00030662644722731226 0.00014728528011199952 0 -0.0002676966320903378 0.00015878093727588028 0 -0.00024803730434995637 6.9342212223762179e-05 0 -0.00039992754307514557 0.00017145064453460786 0 -0.00033942823411556208 8.457517396139288e-05 0 -0.00030662644722731226 0.00014728528011199952 0 -0.0002676966320903378 0.00015878093727588028 0 -0.00024803730434995637 6.9342212223762179e-05 0 -0.00021677916390274376 0.00013792658447643575 0 -0.00024803730434995637 6.9342212223762179e-05 0 -0.00015860001010421074 7.5129017660561942e-05 0 -0.00021677916390274376 0.00013792658447643575 0 -0.00013815284798419098 -4.6978562168285545e-05 0 -0.00024803730434995637 6.9342212223762179e-05 0 -0.00015860001010421074 7.5129017660561942e-05 0 -0.00015860001010421074 7.5129017660561942e-05 0 -0.00021677916390274376 0.00013792658447643575 0 -0.00016312441904222912 0.00014323107628697927 0 -0.00021677916390274376 0.00013792658447643575 0 -0.00016312441904222912 0.00014323107628697927 0 -0.00021723340383091562 0.00017934517994807684 0 -0.00021677916390274376 0.00013792658447643575 0 -0.00021723340383091562 0.00017934517994807684 0 -0.00026629378301977458 0.00019419332405738615 0 -0.00021723340383091562 0.00017934517994807684 0 -0.00027027262410739251 0.00021083109504361309 0 -0.00026629378301977458 0.00019419332405738615 0 -0.00016312441904222912 0.00014323107628697927 0 -0.00021723340383091562 0.00017934517994807684 0 -0.00015503138525263668 0.0001820641510863894 0 -0.00021723340383091562 0.00017934517994807684 0 -0.00015503138525263668 0.0001820641510863894 0 -0.00018235943659629272 0.00021453539021834209 0 -0.00021723340383091562 0.00017934517994807684 0 -0.00027027262410739251 0.00021083109504361309 0 -0.00018235943659629272 0.00021453539021834209 0 -0.00061972063990228257 0.00032186224755632366 0 -0.00046135982791614211 0.00027835741721623136 0 -0.00054874508132170795 0.00027384474128022831 0 -0.00018258732696935782 0.00028683076288770604 0 -0.00027027262410739251 0.00021083109504361309 0 -0.00046135982791614211 0.00027835741721623136 0 -0.00044725170427408254 0.00029313802647548231 0 -0.00044778374651232937 0.00028505214368890381 0 -0.00018258732696935782 0.00028683076288770604 0 -0.00027027262410739251 0.00021083109504361309 0 -0.00018235943659629272 0.00021453539021834209 0 -0.00028669827685071336 0.00021236937843926846 0 -0.00041970000997692246 0.00024097731995546825 0 -0.00027027262410739251 0.00021083109504361309 0 -0.00028172806054030619 0.00022415455742786589 0 -0.00026629378301977458 0.00019419332405738615 0 -0.00027027262410739251 0.00021083109504361309 0 -0.00046135982791614211 0.00027835741721623136 0 -0.00056289545691699762 0.00025733923950435692 0 -0.00046135982791614211 0.00027835741721623136 0 -0.00053675144154036907 0.00027510416316064399 0 -0.00052332879146380442 0.00027455804999286932 0 -0.00046135982791614211 0.00027835741721623136 0 -0.00056289545691699762 0.00025733923950435692 0 -0.00053675144154036907 0.00027510416316064399 0 -0.00028172806054030619 0.00022415455742786589 0 -0.00026629378301977458 0.00019419332405738615 0 -0.00030240113067211771 0.00019453439007693872 0 -0.0002676966320903378 0.00015878093727588028 0 -0.00021677916390274376 0.00013792658447643575 0 -0.00026629378301977458 0.00019419332405738615 0 -0.0002676966320903378 0.00015878093727588028 0 -0.00026629378301977458 0.00019419332405738615 0 -0.00030240113067211771 0.00019453439007693872 0 -0.00030240113067211771 0.00019453439007693872 0 -0.00031754729157238218 0.00021720991855464714 0 -0.00035085188383037987 0.00020134620815714035 0 -0.00030662644722731226 0.00014728528011199952 0 -0.0002676966320903378 0.00015878093727588028 0 -0.00030240113067211771 0.00019453439007693872 0 -0.00030662644722731226 0.00014728528011199952 0 -0.00030240113067211771 0.00019453439007693872 0 -0.00035085188383037987 0.00020134620815714035 0 -0.00056289545691699762 0.00025733923950435692 0 -0.00056550354727964583 0.0002374046858867299 0 -0.00055325403084116554 0.00025959219060805414 0 -0.00028172806054030619 0.00022415455742786589 0 -0.00031754729157238218 0.00021720991855464714 0 -0.00033850325515088152 0.00024898211269210909 0 -0.00041970000997692246 0.00024097731995546825 0 -0.00043903626322651867 0.00023860781119406009 0 -0.00028172806054030619 0.00022415455742786589 0 -0.00030240113067211771 0.00019453439007693872 0 -0.00031754729157238218 0.00021720991855464714 0 -0.00056289545691699762 0.00025733923950435692 0 -0.00055325403084116554 0.00025959219060805414 0 -0.00053675144154036907 0.00027510416316064399 0 -0.00031754729157238218 0.00021720991855464714 0 -0.00033850325515088152 0.00024898211269210909 0 -0.00035085188383037987 0.00020134620815714035 0 -0.00033850325515088152 0.00024898211269210909 0 -0.00035085188383037987 0.00020134620815714035 0 -0.00040462573467164598 0.00026698832501889457 0 -0.00039992754307514557 0.00017145064453460786 0 -0.00030662644722731226 0.00014728528011199952 0 -0.00043031321489813828 0.00033629194185383658 0 -0.00031452697181920787 0.00015057652796093683 0 -0.00037495311695532832 0.00028309961826915135 0 -0.00039992754307514557 0.00017145064453460786 0 -0.00043031321489813828 0.00033629194185383658 0 -0.00049987218127350939 0.00022108082958770167 0 -6.1901198109769464e-05 0.00014578524541924368 0 -7.8164723507542796e-05 0.00013905016891424895 0 -8.5302859745867439e-05 0.00015625189833381033 0 -6.1901198109769464e-05 0.00014578524541924368 0 -8.5302859745867439e-05 0.00015625189833381033 0 -6.4178202514009883e-05 0.00017651941416855821 0 -4.2003800028124122e-05 0.00016021983368042774 0 -4.1432893693125484e-05 0.00013771242775745591 0 -1.1227019492459094e-05 0.00014304867791829 0 -6.1901198109769464e-05 0.00014578524541924368 0 -4.2003800028124122e-05 0.00016021983368042774 0 -6.4178202514009883e-05 0.00017651941416855821 0 -6.1901198109769464e-05 0.00014578524541924368 0 -4.2003800028124122e-05 0.00016021983368042774 0 -4.1432893693125484e-05 0.00013771242775745591 0 -4.1432893693125484e-05 0.00013771242775745591 0 -6.7781182740747644e-05 0.00012673536659146663 0 -2.7324124736133475e-05 0.00011129796626617859 0 0.00012531548438331609 4.4974250325320721e-05 0 0.00019743293032141898 -1.2998151101200574e-05 0 0.00044434746234972165 -0.0001405559297679398 0 0.00045882606646654187 -0.00017828556233460887 0 0.00039946537884109548 -0.00015658018167034665 0 -6.1901198109769464e-05 0.00014578524541924368 0 -4.1432893693125484e-05 0.00013771242775745591 0 -6.7781182740747644e-05 0.00012673536659146663 0 -6.1901198109769464e-05 0.00014578524541924368 0 -7.8164723507542796e-05 0.00013905016891424895 0 -6.8658480233014195e-05 0.00012332813875671816 0 -9.9888580392129891e-06 0.0001230932030665276 0 0.00012531548438331609 4.4974250325320721e-05 0 0.00012531548438331609 4.4974250325320721e-05 0 -7.0048059505370145e-05 0.00012085512586598446 0 -7.8164723507542796e-05 0.00013905016891424895 0 -6.8658480233014195e-05 0.00012332813875671816 0 -9.6694403381066728e-05 0.00013116421128505886 0 -6.0584696955081065e-05 8.9504186711929977e-06 0 1.702099193939463e-05 2.6381428603656012e-05 0 7.8411961394273098e-07 9.7763888798645799e-05 0 8.577510093559831e-05 6.6683373887206851e-05 0 1.702099193939463e-05 2.6381428603656012e-05 0 7.8411961394273098e-07 9.7763888798645799e-05 0 -6.0584696955081065e-05 8.9504186711929977e-06 0 -0.00015860001010421074 7.5129017660561942e-05 0 -0.00011229828384508325 0.00012756029490862942 0 -6.0584696955081065e-05 8.9504186711929977e-06 0 7.8411961394273098e-07 9.7763888798645799e-05 0 -0.00011229828384508325 0.00012756029490862942 0 -0.00016312441904222912 0.00014323107628697927 0 -0.00011229828384508325 0.00012756029490862942 0 -0.00011312462285206866 0.00016133103445068676 0 -0.00015860001010421074 7.5129017660561942e-05 0 -0.00016312441904222912 0.00014323107628697927 0 -0.00011229828384508325 0.00012756029490862942 0 -9.6694403381066728e-05 0.00013116421128505886 0 -0.00011229828384508325 0.00012756029490862942 0 -0.00011312462285206866 0.00016133103445068676 0 -9.6694403381066728e-05 0.00013116421128505886 0 -8.5302859745867439e-05 0.00015625189833381033 0 -0.00011312462285206866 0.00016133103445068676 0 -7.8164723507542796e-05 0.00013905016891424895 0 -9.6694403381066728e-05 0.00013116421128505886 0 -8.5302859745867439e-05 0.00015625189833381033 0 -7.0048059505370145e-05 0.00012085512586598446 0 -9.6667047766329711e-05 0.00012550138235967328 0 -8.5302859745867439e-05 0.00015625189833381033 0 -9.055500697954089e-05 0.00018664415662061708 0 -0.00011312462285206866 0.00016133103445068676 0 -9.055500697954089e-05 0.00018664415662061708 0 -0.00011312462285206866 0.00016133103445068676 0 -0.00012421445112214692 0.00021192370051299525 0 -9.055500697954089e-05 0.00018664415662061708 0 -0.00012421445112214692 0.00021192370051299525 0 -8.1035538603092911e-05 0.00021559521036322845 0 -0.00016312441904222912 0.00014323107628697927 0 -0.00011312462285206866 0.00016133103445068676 0 -0.00015503138525263668 0.0001820641510863894 0 -0.00011312462285206866 0.00016133103445068676 0 -0.00015503138525263668 0.0001820641510863894 0 -0.00012421445112214692 0.00021192370051299525 0 -0.00015503138525263668 0.0001820641510863894 0 -0.00018235943659629272 0.00021453539021834209 0 -0.00012421445112214692 0.00021192370051299525 0 -0.00044725170427408254 0.00029313802647548231 0 -0.00023168652523971583 0.00031165498879885147 0 -0.00018258732696935782 0.00028683076288770604 0 -0.00018235943659629272 0.00021453539021834209 0 -0.00012421445112214692 0.00021192370051299525 0 -0.00018258732696935782 0.00028683076288770604 0 -0.00012421445112214692 0.00021192370051299525 0 -0.00011536879824611763 0.00026200373933935533 0 -0.00012421445112214692 0.00021192370051299525 0 -8.1035538603092911e-05 0.00021559521036322845 0 -0.00011536879824611763 0.00026200373933935533 0 -8.1035538603092911e-05 0.00021559521036322845 0 -7.4531627504495788e-05 0.00025891707140531352 0 -0.00011536879824611763 0.00026200373933935533 0 -8.1035538603092911e-05 0.00021559521036322845 0 -3.768304576195412e-05 0.00019482199128203291 0 -7.4531627504495788e-05 0.00025891707140531352 0 -9.055500697954089e-05 0.00018664415662061708 0 -8.1035538603092911e-05 0.00021559521036322845 0 -6.4178202514009883e-05 0.00017651941416855821 0 -8.1035538603092911e-05 0.00021559521036322845 0 -6.4178202514009883e-05 0.00017651941416855821 0 -3.768304576195412e-05 0.00019482199128203291 0 -8.5302859745867439e-05 0.00015625189833381033 0 -9.055500697954089e-05 0.00018664415662061708 0 -6.4178202514009883e-05 0.00017651941416855821 0 -4.2003800028124122e-05 0.00016021983368042774 0 -6.4178202514009883e-05 0.00017651941416855821 0 -3.768304576195412e-05 0.00019482199128203291 0 -0.0015939073214382466 3.9463727968201614e-05 0 -0.0016048270192227643 0.0001264860289362137 0 -0.0015311222110814362 8.1324426635676788e-05 0 -0.0016048270192227643 0.0001264860289362137 0 -0.0015311222110814362 8.1324426635676788e-05 0 -0.0015976011201383727 0.00020006880301843267 0 -0.0015939073214382466 3.9463727968201614e-05 0 -0.0016048270192227643 0.0001264860289362137 0 -0.0016954504148783513 0.00018433525569418175 0 -0.00072893942314919413 9.208244174793305e-05 0 -0.0013711368202120628 0.0002570109959314307 0 -0.0032993030743092172 -4.1873474955554822e-05 0 -0.0033491761821806284 -0.00016709592517168489 0 -0.0034498793439633113 3.8592258020824784e-05 0 -0.0032993030743092172 -4.1873474955554822e-05 0 -0.0033491761821806284 -0.00016709592517168489 0 -0.00318281268064966 -8.1543374091440227e-05 0 -0.002409808377353613 -2.9658017448753925e-05 0 -0.0028057399190458574 -4.4879749658602747e-05 0 -0.0033491761821806284 -0.00016709592517168489 0 -0.00318281268064966 -8.1543374091440227e-05 0 -0.0031177106953436924 -0.00023964434622762284 0 -0.00318281268064966 -8.1543374091440227e-05 0 -0.0031177106953436924 -0.00023964434622762284 0 -0.0030402707104894388 -9.0084251786080619e-05 0 -0.0033491761821806284 -0.00016709592517168489 0 -0.0031177106953436924 -0.00023964434622762284 0 -0.0032351045329844477 -0.00037366925078308449 0 -0.0031177106953436924 -0.00023964434622762284 0 -0.0032351045329844477 -0.00037366925078308449 0 -0.0031092500897426096 -0.00039936282275752742 0 -0.002409808377353613 -2.9658017448753925e-05 0 -0.002410449852778938 -0.00020943288277059161 0 -0.0015939073214382466 3.9463727968201614e-05 0 -0.0015138167937734195 -9.593660545559891e-06 0 -0.0014809664364924806 -0.00011332803673383339 0 -0.0015311222110814362 8.1324426635676788e-05 0 -0.0015138167937734195 -9.593660545559891e-06 0 -0.0014584541439704739 -4.4737245442069259e-05 0 -0.0015939073214382466 3.9463727968201614e-05 0 -0.0015311222110814362 8.1324426635676788e-05 0 -0.0015138167937734195 -9.593660545559891e-06 0 -4.2003800028124122e-05 0.00016021983368042774 0 -3.768304576195412e-05 0.00019482199128203291 0 -1.1227019492459094e-05 0.00014304867791829 0 -0.0015138167937734195 -9.593660545559891e-06 0 -0.0014809664364924806 -0.00011332803673383339 0 -0.0014614184753204084 -7.7905627690986231e-05 0 -0.00072893942314919413 9.208244174793305e-05 0 -0.0007733622930107991 1.6050985662345329e-05 0 -0.0007733622930107991 1.6050985662345329e-05 0 -0.0011139770101791192 -0.00019885139308908117 0 -0.0015138167937734195 -9.593660545559891e-06 0 -0.0014584541439704739 -4.4737245442069259e-05 0 -0.0014614184753204084 -7.7905627690986231e-05 0 -0.0032351045329844477 -0.00037366925078308449 0 -0.0031092500897426096 -0.00039936282275752742 0 -0.0031227801304536469 -0.00056144733478581622 0 -0.002410449852778938 -0.00020943288277059161 0 -0.0016135174149406594 -0.00020173000947405588 0 -0.0031092500897426096 -0.00039936282275752742 0 -0.0031227801304536469 -0.00056144733478581622 0 -0.0030406176312826284 -0.00047456321148650469 0 -0.0014584541439704739 -4.4737245442069259e-05 0 -0.0014614184753204084 -7.7905627690986231e-05 0 -0.0013862887916215611 -0.00017382809087809078 0 -0.0014796222112374979 -0.00011311576639023031 0 -0.0014614184753204084 -7.7905627690986231e-05 0 -0.0013862887916215611 -0.00017382809087809078 0 -0.0014796222112374979 -0.00011311576639023031 0 -0.0013862887916215611 -0.00017382809087809078 0 -0.0014137691592757773 -0.0002024246608438709 0 -0.0002938835671594238 -0.00011248430387569845 0 -0.00038302133096647042 1.9396564752798917e-05 0 -0.00029853578330303322 9.9978993873258402e-05 0 -0.0007733622930107991 1.6050985662345329e-05 0 -0.00057666746075322106 1.6562769563385061e-05 0 -0.0013687360556409783 -0.00011359230014720855 0 -0.0014133745931310671 -2.196038985288352e-05 0 -0.0017192716689728169 -0.00045200595813564266 0 -0.0016135174149406594 -0.00020173000947405588 0 -0.00057666746075322106 1.6562769563385061e-05 0 -0.00094865186500321013 -0.00020489080869309697 0 -0.0010011839345681385 -9.6777980313542621e-05 0 -0.00075192960636819299 -1.3692307817613911e-05 0 -0.0016135174149406594 -0.00020173000947405588 0 -0.00098804073822164368 -0.0001544531668589748 0 -0.00098804073822164368 -0.0001544531668589748 0 -0.00023712234971891608 -4.6181122188055617e-05 0 -0.0010011839345681385 -9.6777980313542621e-05 0 -0.00084536972041698172 0.00012344270051663998 0 -0.00075192960636819299 -1.3692307817613911e-05 0 -0.00023712234971891608 -4.6181122188055617e-05 0 -0.00057666746075322106 1.6562769563385061e-05 0 -0.0002938835671594238 -0.00011248430387569845 0 -0.00029853578330303322 9.9978993873258402e-05 0 -0.00018698139977475439 5.939576501836676e-05 0 -4.1432893693125484e-05 0.00013771242775745591 0 -1.1227019492459094e-05 0.00014304867791829 0 -2.7324124736133475e-05 0.00011129796626617859 0 -0.0007733622930107991 1.6050985662345329e-05 0 0.00019743293032141898 -1.2998151101200574e-05 0 -0.00046156990684176081 -4.9419594890461106e-05 0 -0.00040230000394118767 -5.3229336440448304e-05 0 -0.00041292270084946226 -5.5289885788974109e-06 0 -0.00040230000394118767 -5.3229336440448304e-05 0 -0.00041292270084946226 -5.5289885788974109e-06 0 -0.00038037893036581586 -1.0044375465915583e-05 0 -0.00040230000394118767 -5.3229336440448304e-05 0 -0.00037007988782028603 -0.00011908724980372285 0 -0.0004388158028683283 -0.00011807710318396608 0 -0.00046156990684176081 -4.9419594890461106e-05 0 -0.00040230000394118767 -5.3229336440448304e-05 0 -0.0004388158028683283 -0.00011807710318396608 0 -0.00058891167858877709 -8.1126787796229858e-05 0 -0.00051454959682527464 -0.00011019275495941542 0 -0.00052867654760875647 -1.0394636985731334e-05 0 -0.00046156990684176081 -4.9419594890461106e-05 0 -0.00051454959682527464 -0.00011019275495941542 0 -0.00052867654760875647 -1.0394636985731334e-05 0 -0.00046156990684176081 -4.9419594890461106e-05 0 -0.00051454959682527464 -0.00011019275495941542 0 -0.0004388158028683283 -0.00011807710318396608 0 -0.00098804073822164368 -0.0001544531668589748 0 -0.001988819340291762 -0.00024370288047400817 0 -0.0016135174149406594 -0.00020173000947405588 0 -0.001988819340291762 -0.00024370288047400817 0 -0.00046156990684176081 -4.9419594890461106e-05 0 -0.00052867654760875647 -1.0394636985731334e-05 0 -0.00044415390727971238 -7.0984219181710612e-07 0 -0.001988819340291762 -0.00024370288047400817 0 -0.0014555937568162198 2.9024027121858706e-05 0 -0.00052867654760875647 -1.0394636985731334e-05 0 -0.00044415390727971238 -7.0984219181710612e-07 0 -0.00040770998002106481 3.1425613211791219e-05 0 -0.001988819340291762 -0.00024370288047400817 0 -0.0029065169854517584 -0.00022685204807518274 0 -0.0030406176312826284 -0.00047456321148650469 0 -0.0028988407927027669 -0.00028117508379864824 0 -0.0030297512270969942 -0.00033767579446097445 0 -0.0031092500897426096 -0.00039936282275752742 0 -0.0030406176312826284 -0.00047456321148650469 0 -0.0030297512270969942 -0.00033767579446097445 0 -0.0025696817219048929 -3.0690570916945371e-05 0 -0.0026650733327422166 -8.541386753822289e-05 0 -0.0026634995637231551 -9.6870896312464258e-05 0 -0.00044415390727971238 -7.0984219181710612e-07 0 -0.00041393014284008982 1.3521620058432325e-05 0 -0.00040770998002106481 3.1425613211791219e-05 0 -0.00044415390727971238 -7.0984219181710612e-07 0 -0.00041292270084946226 -5.5289885788974109e-06 0 -0.00041393014284008982 1.3521620058432325e-05 0 -0.00046156990684176081 -4.9419594890461106e-05 0 -0.00044415390727971238 -7.0984219181710612e-07 0 -0.00041292270084946226 -5.5289885788974109e-06 0 -0.00041292270084946226 -5.5289885788974109e-06 0 -0.00037955781098535698 1.4700094836392416e-05 0 -0.00039367866511608938 1.7939146489336173e-05 0 -0.00041292270084946226 -5.5289885788974109e-06 0 -0.00041393014284008982 1.3521620058432325e-05 0 -0.00039367866511608938 1.7939146489336173e-05 0 -0.00041393014284008982 1.3521620058432325e-05 0 -0.00040310115382327042 2.0787206522754487e-05 0 -0.00040770998002106481 3.1425613211791219e-05 0 -0.00041393014284008982 1.3521620058432325e-05 0 -0.00040310115382327042 2.0787206522754487e-05 0 -0.00039367866511608938 1.7939146489336173e-05 0 -0.00040770998002106481 3.1425613211791219e-05 0 -0.0004012551712636267 1.401297109829846e-05 0 -0.00040284961632869207 -7.3417556151120932e-06 0 -0.0014555937568162198 2.9024027121858706e-05 0 -0.0015699954129567873 -9.0148665815500273e-05 0 -0.0026650733327422166 -8.541386753822289e-05 0 -0.0026634995637231551 -9.6870896312464258e-05 0 -0.00267987385679487 -9.0222088710230016e-05 0 -0.00040310115382327042 2.0787206522754487e-05 0 -0.0004012551712636267 1.401297109829846e-05 0 -0.00039367866511608938 1.7939146489336173e-05 0 -0.00040310115382327042 2.0787206522754487e-05 0 -0.00040770998002106481 3.1425613211791219e-05 0 -0.0004012551712636267 1.401297109829846e-05 0 -0.0028988407927027669 -0.00028117508379864824 0 -0.0029392237736195368 -0.00022303071745398122 0 -0.0028808462168189758 -0.00015343635623977256 0 -0.0028988407927027669 -0.00028117508379864824 0 -0.0029392237736195368 -0.00022303071745398122 0 -0.0029897207693094425 -0.00026390622958752071 0 -0.0031177106953436924 -0.00023964434622762284 0 -0.0031092500897426096 -0.00039936282275752742 0 -0.0030297512270969942 -0.00033767579446097445 0 -0.0031177106953436924 -0.00023964434622762284 0 -0.0030297512270969942 -0.00033767579446097445 0 -0.0029897207693094425 -0.00026390622958752071 0 -0.0028988407927027669 -0.00028117508379864824 0 -0.0030297512270969942 -0.00033767579446097445 0 -0.0029897207693094425 -0.00026390622958752071 0 -0.0029392237736195368 -0.00022303071745398122 0 -0.0029897207693094425 -0.00026390622958752071 0 -0.0029843626064617683 -0.00018994667114153021 0 -0.0031177106953436924 -0.00023964434622762284 0 -0.0029897207693094425 -0.00026390622958752071 0 -0.0029843626064617683 -0.00018994667114153021 0 -0.0031177106953436924 -0.00023964434622762284 0 -0.0029843626064617683 -0.00018994667114153021 0 -0.0030402707104894388 -9.0084251786080619e-05 0 -0.0030402707104894388 -9.0084251786080619e-05 0 -0.0029205959868300194 -9.5862765623942674e-05 0 -0.0030589728991940895 2.2110553105817735e-05 0 -0.0029843626064617683 -0.00018994667114153021 0 -0.0030402707104894388 -9.0084251786080619e-05 0 -0.0029205959868300194 -9.5862765623942674e-05 0 -0.00318281268064966 -8.1543374091440227e-05 0 -0.0030402707104894388 -9.0084251786080619e-05 0 -0.0030589728991940895 2.2110553105817735e-05 0 -0.0028988407927027669 -0.00028117508379864824 0 -0.0028808462168189758 -0.00015343635623977256 0 -0.002708550297907121 -5.2534266962976108e-05 0 -0.0029065169854517584 -0.00022685204807518274 0 -0.0026663336800186372 -3.1206413854485193e-05 0 -0.0029843626064617683 -0.00018994667114153021 0 -0.0028808462168189758 -0.00015343635623977256 0 -0.0029205959868300194 -9.5862765623942674e-05 0 -0.0029392237736195368 -0.00022303071745398122 0 -0.0029843626064617683 -0.00018994667114153021 0 -0.0028808462168189758 -0.00015343635623977256 0 -0.0028808462168189758 -0.00015343635623977256 0 -0.0029205959868300194 -9.5862765623942674e-05 0 -0.0028248774635694627 -6.3371554715001743e-05 0 -0.0028808462168189758 -0.00015343635623977256 0 -0.0028248774635694627 -6.3371554715001743e-05 0 -0.002708550297907121 -5.2534266962976108e-05 0 -0.0026634995637231551 -9.6870896312464258e-05 0 -0.002708550297907121 -5.2534266962976108e-05 0 -0.00267987385679487 -9.0222088710230016e-05 0 -0.002708550297907121 -5.2534266962976108e-05 0 -0.00267987385679487 -9.0222088710230016e-05 0 -0.0026328753026180888 1.597492804076128e-05 0 -0.00040294575734554499 -5.053141659195632e-05 0 -0.00049989557469465144 -5.6842279426017483e-05 0 -0.00049522888918374455 -0.00015355398589476436 0 -0.00040294575734554499 -5.053141659195632e-05 0 -0.00049989557469465144 -5.6842279426017483e-05 0 -0.00043109542943286106 -1.0993892892974483e-05 0 -0.0015699954129567873 -9.0148665815500273e-05 0 -0.0014184175353617867 -4.6060767270501423e-05 0 -0.00049989557469465144 -5.6842279426017483e-05 0 -0.00055825960964047642 -0.00011203274070931116 0 -0.00049522888918374455 -0.00015355398589476436 0 -0.00043109542943286106 -1.0993892892974483e-05 0 -0.00052355774434217309 3.5187113637819871e-05 0 -0.00039595302962075436 1.4398567711395663e-05 0 -0.00049989557469465144 -5.6842279426017483e-05 0 -0.00043109542943286106 -1.0993892892974483e-05 0 -0.00052355774434217309 3.5187113637819871e-05 0 -0.00040770998002106481 3.1425613211791219e-05 0 -0.00040294575734554499 -5.053141659195632e-05 0 -0.00040284961632869207 -7.3417556151120932e-06 0 -0.00043109542943286106 -1.0993892892974483e-05 0 -0.00040041460441238655 7.9140149213309393e-06 0 -0.00039595302962075436 1.4398567711395663e-05 0 -0.00043109542943286106 -1.0993892892974483e-05 0 -0.00040041460441238655 7.9140149213309393e-06 0 -0.00040284961632869207 -7.3417556151120932e-06 0 -0.0004012551712636267 1.401297109829846e-05 0 -0.00040041460441238655 7.9140149213309393e-06 0 -0.00039367866511608938 1.7939146489336173e-05 0 -0.0004012551712636267 1.401297109829846e-05 0 -0.00040041460441238655 7.9140149213309393e-06 0 -0.00040284961632869207 -7.3417556151120932e-06 0 -0.00040294575734554499 -5.053141659195632e-05 0 -0.00043109542943286106 -1.0993892892974483e-05 0 -0.00040284961632869207 -7.3417556151120932e-06 0 -0.00069107916021088724 -3.4533843379093033e-05 0 -0.00067127013031115636 -9.7397787827033431e-05 0 -0.00059440306484906348 -6.6994402530571676e-05 0 -0.00069107916021088724 -3.4533843379093033e-05 0 -0.00067127013031115636 -9.7397787827033431e-05 0 -0.00072886292195646803 -0.00010454378019668785 0 -0.00067127013031115636 -9.7397787827033431e-05 0 -0.00070158756799536986 -0.00014821269014289124 0 -0.00072886292195646803 -0.00010454378019668785 0 -0.00067127013031115636 -9.7397787827033431e-05 0 -0.00059440306484906348 -6.6994402530571676e-05 0 -0.00062826278720777052 -0.00013998486120353259 0 -0.00049989557469465144 -5.6842279426017483e-05 0 -0.00059440306484906348 -6.6994402530571676e-05 0 -0.00055825960964047642 -0.00011203274070931116 0 -0.00059440306484906348 -6.6994402530571676e-05 0 -0.00055825960964047642 -0.00011203274070931116 0 -0.00062826278720777052 -0.00013998486120353259 0 -0.00049989557469465144 -5.6842279426017483e-05 0 -0.00059440306484906348 -6.6994402530571676e-05 0 -0.00052355774434217309 3.5187113637819871e-05 0 -0.00020887168036678601 0.00011761411554896442 0 -0.00032488319663695285 8.0522344568310664e-05 0 0.00012196415926166256 0.0002458755698884228 0 -8.5550344538312572e-05 0.0001478593629189559 0 0.00016047751814567281 9.3666691453428932e-05 0 -0.00069107916021088724 -3.4533843379093033e-05 0 -0.00059440306484906348 -6.6994402530571676e-05 0 -0.00052355774434217309 3.5187113637819871e-05 0 -8.5550344538312572e-05 0.0001478593629189559 0 -1.811895537267082e-06 -4.5766531046560033e-05 0 0.00016047751814567281 9.3666691453428932e-05 0 -8.5550344538312572e-05 0.0001478593629189559 0 -1.811895537267082e-06 -4.5766531046560033e-05 0 -0.00019970397364964791 -4.8210073635106517e-05 0 -1.811895537267082e-06 -4.5766531046560033e-05 0 -0.00019970397364964791 -4.8210073635106517e-05 0 -0.00015846758702688961 -0.00019461195266643434 0 -1.811895537267082e-06 -4.5766531046560033e-05 0 7.4639051700386405e-05 -0.00019320196406945268 0 0.00016338836565963187 -7.9521381591852748e-05 0 -1.811895537267082e-06 -4.5766531046560033e-05 0 0.00016047751814567281 9.3666691453428932e-05 0 0.00016338836565963187 -7.9521381591852748e-05 0 -0.00035125031036032929 2.2447588825204114e-05 0 -0.00037955781098535698 1.4700094836392416e-05 0 -0.00039595302962075436 1.4398567711395663e-05 0 -0.00035125031036032929 2.2447588825204114e-05 0 -0.00037955781098535698 1.4700094836392416e-05 0 -0.00038037893036581586 -1.0044375465915583e-05 0 -0.00041292270084946226 -5.5289885788974109e-06 0 -0.00037955781098535698 1.4700094836392416e-05 0 -0.00038037893036581586 -1.0044375465915583e-05 0 -0.00037955781098535698 1.4700094836392416e-05 0 -0.00039367866511608938 1.7939146489336173e-05 0 -0.00039595302962075436 1.4398567711395663e-05 0 -0.00040041460441238655 7.9140149213309393e-06 0 -0.00039367866511608938 1.7939146489336173e-05 0 -0.00039595302962075436 1.4398567711395663e-05 0 -8.5550344538312572e-05 0.0001478593629189559 0 -0.00035125031036032929 2.2447588825204114e-05 0 -0.00019970397364964791 -4.8210073635106517e-05 0 -0.00032488319663695285 8.0522344568310664e-05 0 -0.00034891759504867875 2.9535439957214097e-05 0 -0.00052355774434217309 3.5187113637819871e-05 0 -0.00035125031036032929 2.2447588825204114e-05 0 -0.00039595302962075436 1.4398567711395663e-05 0 -0.00033220859553760622 -4.7325193563071826e-05 0 -0.0001515132777987948 -0.00017264788163346716 0 -0.00019970397364964791 -4.8210073635106517e-05 0 -0.00034782777952807549 -4.1155083557142001e-05 0 -0.00015846758702688961 -0.00019461195266643434 0 -0.00035125031036032929 2.2447588825204114e-05 0 -0.00019970397364964791 -4.8210073635106517e-05 0 -0.00034782777952807549 -4.1155083557142001e-05 0 -0.00035125031036032929 2.2447588825204114e-05 0 -0.00034782777952807549 -4.1155083557142001e-05 0 -0.00038037893036581586 -1.0044375465915583e-05 0 -0.00040230000394118767 -5.3229336440448304e-05 0 -0.00034782777952807549 -4.1155083557142001e-05 0 -0.00038037893036581586 -1.0044375465915583e-05 0 -0.00040230000394118767 -5.3229336440448304e-05 0 -0.00034782777952807549 -4.1155083557142001e-05 0 -0.00037007988782028603 -0.00011908724980372285 0 -0.00034782777952807549 -4.1155083557142001e-05 0 -0.0002957536644747923 -0.00018322766500061016 0 -0.00013901642836098774 -0.00015228674241145071 0 -0.00034782777952807549 -4.1155083557142001e-05 0 -0.00037007988782028603 -0.00011908724980372285 0 -0.0002957536644747923 -0.00018322766500061016 0 -0.00037007988782028603 -0.00011908724980372285 0 -0.0002957536644747923 -0.00018322766500061016 0 -0.00039653588505865885 -0.00023563067540268871 0 -0.0002957536644747923 -0.00018322766500061016 0 -0.00013901642836098774 -0.00015228674241145071 0 -0.00020553939752770861 -0.00026018364389329067 0 -0.00013901642836098774 -0.00015228674241145071 0 -0.00020553939752770861 -0.00026018364389329067 0 -8.485738110306888e-05 -0.00032233377982248751 0 -0.00020553939752770861 -0.00026018364389329067 0 -8.485738110306888e-05 -0.00032233377982248751 0 -0.00017520462627232888 -0.00037876741279131715 0 -0.00020553939752770861 -0.00026018364389329067 0 -0.00029722533572045532 -0.00032906952456976011 0 -0.00017520462627232888 -0.00037876741279131715 0 -0.0002957536644747923 -0.00018322766500061016 0 -0.00029722533572045532 -0.00032906952456976011 0 -0.00039653588505865885 -0.00023563067540268871 0 -0.00029722533572045532 -0.00032906952456976011 0 -0.00035809988311671231 -0.0003977043056532311 0 -0.00039653588505865885 -0.00023563067540268871 0 -0.0002957536644747923 -0.00018322766500061016 0 -0.00020553939752770861 -0.00026018364389329067 0 -0.00029722533572045532 -0.00032906952456976011 0 7.4639051700386405e-05 -0.00019320196406945268 0 0.00021883602420605199 -0.00020818295440879883 0 0.000171830790155015 -0.0003105331543439038 0 7.4639051700386405e-05 -0.00019320196406945268 0 0.00021883602420605199 -0.00020818295440879883 0 0.00016338836565963187 -7.9521381591852748e-05 0 -1.811895537267082e-06 -4.5766531046560033e-05 0 -0.00015846758702688961 -0.00019461195266643434 0 7.4639051700386405e-05 -0.00019320196406945268 0 -0.00015846758702688961 -0.00019461195266643434 0 7.4639051700386405e-05 -0.00019320196406945268 0 3.6094865374511013e-05 -0.00032647975650702479 0 -0.0001515132777987948 -0.00017264788163346716 0 4.776971957997093e-05 -0.00031043790394831935 0 -0.00013901642836098774 -0.00015228674241145071 0 -8.485738110306888e-05 -0.00032233377982248751 0 5.5324656097216508e-05 -0.00029193843433724097 0 3.6094865374511013e-05 -0.00032647975650702479 0 0.00023946092440368927 -0.00044751858765494862 0 0.000171830790155015 -0.0003105331543439038 0 7.4639051700386405e-05 -0.00019320196406945268 0 3.6094865374511013e-05 -0.00032647975650702479 0 0.000171830790155015 -0.0003105331543439038 0 4.776971957997093e-05 -0.00031043790394831935 0 0.00022526436293471785 -0.00044049379240759633 0 5.5324656097216508e-05 -0.00029193843433724097 0 5.7018362804788201e-05 -0.00042061427488676215 0 0.00023946092440368927 -0.00044751858765494862 0 5.7018362804788201e-05 -0.00042061427488676215 0 0.00015284386231114325 -0.0005057215284671884 0 0.00023946092440368927 -0.00044751858765494862 0 5.7018362804788201e-05 -0.00042061427488676215 0 4.568219453004479e-05 -0.00049952928645215743 0 0.00015284386231114325 -0.0005057215284671884 0 -8.485738110306888e-05 -0.00032233377982248751 0 5.7018362804788201e-05 -0.00042061427488676215 0 -6.938160010327353e-05 -0.00045647331803786432 0 5.7018362804788201e-05 -0.00042061427488676215 0 -6.938160010327353e-05 -0.00045647331803786432 0 4.568219453004479e-05 -0.00049952928645215743 0 -8.485738110306888e-05 -0.00032233377982248751 0 5.5324656097216508e-05 -0.00029193843433724097 0 5.7018362804788201e-05 -0.00042061427488676215 0 -6.938160010327353e-05 -0.00045647331803786432 0 -1.6087562918363243e-05 -0.000553116410973209 0 -0.00011981508165666337 -0.00054335144730186175 0 2.3769522444625656e-05 -0.00063996912998469792 0 -1.6087562918363243e-05 -0.000553116410973209 0 -6.9085721642492569e-05 -0.00060470916650429401 0 -1.6087562918363243e-05 -0.000553116410973209 0 -6.9085721642492569e-05 -0.00060470916650429401 0 -0.00011981508165666337 -0.00054335144730186175 0 -1.6087562918363243e-05 -0.000553116410973209 0 4.568219453004479e-05 -0.00049952928645215743 0 9.289739469852552e-05 -0.00057437571012404281 0 2.3769522444625656e-05 -0.00063996912998469792 0 -1.6087562918363243e-05 -0.000553116410973209 0 9.289739469852552e-05 -0.00057437571012404281 0 -6.938160010327353e-05 -0.00045647331803786432 0 -1.6087562918363243e-05 -0.000553116410973209 0 4.568219453004479e-05 -0.00049952928645215743 0 4.568219453004479e-05 -0.00049952928645215743 0 9.289739469852552e-05 -0.00057437571012404281 0 0.00015284386231114325 -0.0005057215284671884 0 9.289739469852552e-05 -0.00057437571012404281 0 0.00015284386231114325 -0.0005057215284671884 0 0.00020344502193219465 -0.00058262260466764937 0 -0.00028717119507961063 -0.00049600056097838746 0 -0.0003771205580678737 -0.00050166545402290693 0 -0.00035809988311671231 -0.0003977043056532311 0 -0.0002491434991768901 -0.00043013000588849323 0 -0.00028717119507961063 -0.00049600056097838746 0 -0.00035809988311671231 -0.0003977043056532311 0 -0.00029722533572045532 -0.00032906952456976011 0 -0.0002491434991768901 -0.00043013000588849323 0 -0.00035809988311671231 -0.0003977043056532311 0 -0.00029722533572045532 -0.00032906952456976011 0 -0.0002491434991768901 -0.00043013000588849323 0 -0.00017520462627232888 -0.00037876741279131715 0 -8.485738110306888e-05 -0.00032233377982248751 0 -6.938160010327353e-05 -0.00045647331803786432 0 -0.00017520462627232888 -0.00037876741279131715 0 -6.938160010327353e-05 -0.00045647331803786432 0 -0.00017520462627232888 -0.00037876741279131715 0 -0.00015973070510514551 -0.00046836370403106908 0 -0.0002491434991768901 -0.00043013000588849323 0 -0.00015973070510514551 -0.00046836370403106908 0 -0.00021349857968836251 -0.00051324465036104729 0 -0.0002491434991768901 -0.00043013000588849323 0 -0.00017520462627232888 -0.00037876741279131715 0 -0.00015973070510514551 -0.00046836370403106908 0 -0.00015973070510514551 -0.00046836370403106908 0 -0.00021349857968836251 -0.00051324465036104729 0 -0.00011981508165666337 -0.00054335144730186175 0 -6.938160010327353e-05 -0.00045647331803786432 0 -0.00015973070510514551 -0.00046836370403106908 0 -0.00011981508165666337 -0.00054335144730186175 0 -0.00013166288536506005 -0.00062140208061852212 0 -6.9085721642492569e-05 -0.00060470916650429401 0 -0.00011981508165666337 -0.00054335144730186175 0 -0.00013166288536506005 -0.00062140208061852212 0 -0.00011981508165666337 -0.00054335144730186175 0 -0.0001981732109303631 -0.00058448996344954876 0 -0.00021349857968836251 -0.00051324465036104729 0 -0.00011981508165666337 -0.00054335144730186175 0 -0.0001981732109303631 -0.00058448996344954876 0 0.00012730483869538781 -0.00041070658052787121 0 3.3353533315603814e-05 -0.00029927195532796684 0 -0.00026265758635082154 -0.00066676280187494112 0 -0.00028693012342855938 -0.00056333826607349281 0 -0.0003771205580678737 -0.00050166545402290693 0 -0.0002391999911005653 -0.00060596530310335511 0 -0.0001981732109303631 -0.00058448996344954876 0 -0.00024503179828226152 -0.00055253409221480635 0 -0.00021349857968836251 -0.00051324465036104729 0 -0.0001981732109303631 -0.00058448996344954876 0 -0.00024503179828226152 -0.00055253409221480635 0 -0.0002391999911005653 -0.00060596530310335511 0 -0.00024503179828226152 -0.00055253409221480635 0 -0.00028693012342855938 -0.00056333826607349281 0 -0.0002491434991768901 -0.00043013000588849323 0 -0.00021349857968836251 -0.00051324465036104729 0 -0.00028717119507961063 -0.00049600056097838746 0 -0.00021349857968836251 -0.00051324465036104729 0 -0.00024503179828226152 -0.00055253409221480635 0 -0.00028717119507961063 -0.00049600056097838746 0 -0.00024503179828226152 -0.00055253409221480635 0 -0.00028717119507961063 -0.00049600056097838746 0 -0.00028693012342855938 -0.00056333826607349281 0 -0.00028717119507961063 -0.00049600056097838746 0 -0.00028693012342855938 -0.00056333826607349281 0 -0.0003771205580678737 -0.00050166545402290693 0 0.00048493520609569924 -0.00016105280127596519 0 0.00047488766980833565 -0.00010790197158594555 0 0.00049417497901209416 -0.00016740698267142873 0 0.00045563654823459215 -0.00013730721207384791 0 0.00045975723813529071 -0.00011573892524773788 0 0.00049417497901209416 -0.00016740698267142873 0 0.00044420974967856477 -0.00010279230062761951 0 0.00046157786773204758 -0.00010384353782584934 0 0.00045693509386188729 -0.00015479171235615227 0 0.00044531937403823247 -0.00014150967505478058 0 0.00045563654823459215 -0.00013730721207384791 0 0.00045563654823459215 -0.00013730721207384791 0 0.00044625114884547061 -0.00012044327549656111 0 0.00043583445561663591 -0.00012734899428124168 0 0.00044531937403823247 -0.00014150967505478058 0 0.00045563654823459215 -0.00013730721207384791 0 0.00043583445561663591 -0.00012734899428124168 0 0.00044625114884547061 -0.00012044327549656111 0 0.00043342181282882944 -0.00010357916735800761 0 0.00043583445561663591 -0.00012734899428124168 0 0.00045563654823459215 -0.00013730721207384791 0 0.00044625114884547061 -0.00012044327549656111 0 0.00045975723813529071 -0.00011573892524773788 0 0.00044625114884547061 -0.00012044327549656111 0 0.00045975723813529071 -0.00011573892524773788 0 0.00043342181282882944 -0.00010357916735800761 0 3.3353533315603814e-05 -0.00029927195532796684 0 4.0078992303918578e-05 -0.00019770975318347806 0 0.00047488766980833565 -0.00010790197158594555 0 4.0078992303918578e-05 -0.00019770975318347806 0 -0.0003771205580678737 -0.00050166545402290693 0 -0.00035809988311671231 -0.0003977043056532311 0 -0.00047862624586214191 -0.00034185124896699367 0 0.00045975723813529071 -0.00011573892524773788 0 0.00042644834037794605 -8.3706263936312369e-05 0 0.00043342181282882944 -0.00010357916735800761 0 0.00044420974967856477 -0.00010279230062761951 0 0.00046157786773204758 -0.00010384353782584934 0 0.00039053533223950415 -3.3820225918315425e-05 0 0.00040586259402593136 -8.9171951150364732e-05 0 0.0004155593030474493 -0.0001196892364256862 0 0.00039676691868332191 -0.00010879378359685276 0 0.00040586259402593136 -8.9171951150364732e-05 0 0.00043342181282882944 -0.00010357916735800761 0 0.0004155593030474493 -0.0001196892364256862 0 0.00040586259402593136 -8.9171951150364732e-05 0 0.00042644834037794605 -8.3706263936312369e-05 0 0.00043342181282882944 -0.00010357916735800761 0 0.0004155593030474493 -0.0001196892364256862 0 0.00042467506290872506 -0.00013404021280400465 0 0.00043583445561663591 -0.00012734899428124168 0 0.00043342181282882944 -0.00010357916735800761 0 0.0004155593030474493 -0.0001196892364256862 0 0.00043583445561663591 -0.00012734899428124168 0 0.00043328436395980439 -0.00014734154459026427 0 0.00044531937403823247 -0.00014150967505478058 0 0.00043583445561663591 -0.00012734899428124168 0 0.00043328436395980439 -0.00014734154459026427 0 0.00042467506290872506 -0.00013404021280400465 0 0.00043583445561663591 -0.00012734899428124168 0 0.00043328436395980439 -0.00014734154459026427 0 0.00042467506290872506 -0.00013404021280400465 0 0.0004145426329209612 -0.00014225512207227854 0 0.0004155593030474493 -0.0001196892364256862 0 0.00042467506290872506 -0.00013404021280400465 0 0.0004145426329209612 -0.00014225512207227854 0 0.0004155593030474493 -0.0001196892364256862 0 0.0004145426329209612 -0.00014225512207227854 0 0.00040282881034416567 -0.0001267470812112901 0 0.0003901986271293682 -0.00014921321156295903 0 0.00040006713775270008 -0.00014155682669695285 0 0.00038942795579717857 -0.00012981159090960548 0 0.0004145426329209612 -0.00014225512207227854 0 0.00040006713775270008 -0.00014155682669695285 0 0.00040282881034416567 -0.0001267470812112901 0 0.00040006713775270008 -0.00014155682669695285 0 0.00040282881034416567 -0.0001267470812112901 0 0.00038942795579717857 -0.00012981159090960548 0 0.00037807913231534566 -0.00013553143545321481 0 0.00038942795579717857 -0.00012981159090960548 0 0.00037801020498846242 -0.0001171799006187181 0 0.0003901986271293682 -0.00014921321156295903 0 0.00037807913231534566 -0.00013553143545321481 0 0.00038942795579717857 -0.00012981159090960548 0 0.00038942795579717857 -0.00012981159090960548 0 0.00037801020498846242 -0.0001171799006187181 0 0.00039676691868332191 -0.00010879378359685276 0 0.00040282881034416567 -0.0001267470812112901 0 0.00038942795579717857 -0.00012981159090960548 0 0.00039676691868332191 -0.00010879378359685276 0 0.0004155593030474493 -0.0001196892364256862 0 0.00040282881034416567 -0.0001267470812112901 0 0.00039676691868332191 -0.00010879378359685276 0 0.00037074724144369131 -0.00015075536988177248 0 0.00034756696759635699 -0.00012827094744920472 0 0.000365283298399806 -0.00012864489242670136 0 0.00034756696759635699 -0.00012827094744920472 0 0.000365283298399806 -0.00012864489242670136 0 0.00035776828197693004 -0.00011246169237189645 0 0.00037807913231534566 -0.00013553143545321481 0 0.00037801020498846242 -0.0001171799006187181 0 0.000365283298399806 -0.00012864489242670136 0 0.00037074724144369131 -0.00015075536988177248 0 0.00037807913231534566 -0.00013553143545321481 0 0.000365283298399806 -0.00012864489242670136 0 0.00037801020498846242 -0.0001171799006187181 0 0.000365283298399806 -0.00012864489242670136 0 0.00035776828197693004 -0.00011246169237189645 0 0.0004151736215195071 -6.7192472837956306e-05 0 0.00039269592630457133 -7.1926424225576043e-05 0 0.00038180969615589795 -8.6317995062116072e-05 0 0.00039269592630457133 -7.1926424225576043e-05 0 0.0003835787174512426 -8.4627912147837732e-05 0 0.00038180969615589795 -8.6317995062116072e-05 0 0.0004151736215195071 -6.7192472837956306e-05 0 0.00039590503710059403 -4.5660504610514181e-05 0 0.00039269592630457133 -7.1926424225576043e-05 0 0.00037801020498846242 -0.0001171799006187181 0 0.00035776828197693004 -0.00011246169237189645 0 0.0003835787174512426 -8.4627912147837732e-05 0 0.00035983952842645443 -9.1195409615804027e-05 0 0.00039014263206038245 -7.6640526709428186e-05 0 0.00039590503710059403 -4.5660504610514181e-05 0 0.00039269592630457133 -7.1926424225576043e-05 0 0.0003835787174512426 -8.4627912147837732e-05 0 0.00040586259402593136 -8.9171951150364732e-05 0 0.00039676691868332191 -0.00010879378359685276 0 0.0003835787174512426 -8.4627912147837732e-05 0 0.00037801020498846242 -0.0001171799006187181 0 0.00039676691868332191 -0.00010879378359685276 0 0.0003835787174512426 -8.4627912147837732e-05 0 0.00040586259402593136 -8.9171951150364732e-05 0 0.0003835787174512426 -8.4627912147837732e-05 0 0.00039067532948722737 -8.0068025848399775e-05 0 0.00040586259402593136 -8.9171951150364732e-05 0 0.00039067532948722737 -8.0068025848399775e-05 0 0.00040275559603315618 -7.1289378260702181e-05 0 0.0003835787174512426 -8.4627912147837732e-05 0 0.00039067532948722737 -8.0068025848399775e-05 0 0.00038180969615589795 -8.6317995062116072e-05 0 0.00039067532948722737 -8.0068025848399775e-05 0 0.00038180969615589795 -8.6317995062116072e-05 0 0.00038969721894099927 -7.41468116830928e-05 0 0.00039067532948722737 -8.0068025848399775e-05 0 0.00038969721894099927 -7.41468116830928e-05 0 0.00040275559603315618 -7.1289378260702181e-05 0 0.00042526088475961486 -9.6644267596942806e-05 0 0.00038180969615589795 -8.6317995062116072e-05 0 0.0003909226329758456 -0.00011584155181704062 0 0.00038180969615589795 -8.6317995062116072e-05 0 0.0003909226329758456 -0.00011584155181704062 0 0.0003590120898397702 -0.00013591818437062687 0 0.00038180969615589795 -8.6317995062116072e-05 0 0.0003590120898397702 -0.00013591818437062687 0 0.00033950408375007645 -0.00013018415325745302 0 6.2491424018558609e-05 -5.1803510860208538e-05 0 0.00022841639607362426 -0.00010756142616098951 0 6.2491424018558609e-05 -5.1803510860208538e-05 0 0.00019743293032141898 -1.2998151101200574e-05 0 0.0003909226329758456 -0.00011584155181704062 0 0.0003590120898397702 -0.00013591818437062687 0 0.0003973788996752496 -0.00014403915003103097 0 0.00038649540598322668 -5.7441255889284569e-05 0 0.00038180969615589795 -8.6317995062116072e-05 0 0.00038969721894099927 -7.41468116830928e-05 0 0.00031028207796899784 -0.00015159570853346554 0 0.00038180969615589795 -8.6317995062116072e-05 0 0.00033950408375007645 -0.00013018415325745302 0 -0.00023712234971891608 -4.6181122188055617e-05 0 0.00054561553751301169 -5.5302961474945857e-05 0 -0.00023712234971891608 -4.6181122188055617e-05 0 8.8672369970991974e-05 -0.00016214744774903033 0 0.00038649540598322668 -5.7441255889284569e-05 0 0.00038969721894099927 -7.41468116830928e-05 0 0.00040275559603315618 -7.1289378260702181e-05 0 -0.00036984513729252885 1.7632151533754403e-05 0 -0.0004065556323117525 -3.6876824232855745e-05 0 -0.000266251499762068 -0.00017621607018512351 0 0.00031795043328564202 -0.00016317312485784649 0 0.00035371991709013615 -0.00013555457859394863 0 0.00033950408375007645 -0.00013018415325745302 0 -0.00057666746075322106 1.6562769563385061e-05 0 6.2491424018558609e-05 -5.1803510860208538e-05 0 0.00031028207796899784 -0.00015159570853346554 0 0.00031795043328564202 -0.00016317312485784649 0 0.00033950408375007645 -0.00013018415325745302 0 -0.00058891167858877709 -8.1126787796229858e-05 0 -0.00051454959682527464 -0.00011019275495941542 0 -0.00053768077390651148 -0.00020045973151200491 0 -0.0004065556323117525 -3.6876824232855745e-05 0 -0.000266251499762068 -0.00017621607018512351 0 -0.00028453801536237959 -0.00020320328049934367 0 -0.00098804073822164368 -0.0001544531668589748 0 -0.00038694539950710299 -0.00020313090523857978 0 -0.00051454959682527464 -0.00011019275495941542 0 -0.00053768077390651148 -0.00020045973151200491 0 -0.0004388158028683283 -0.00011807710318396608 0 -0.00037007988782028603 -0.00011908724980372285 0 -0.0004388158028683283 -0.00011807710318396608 0 -0.00039653588505865885 -0.00023563067540268871 0 -0.00053768077390651148 -0.00020045973151200491 0 -0.0004388158028683283 -0.00011807710318396608 0 -0.00039653588505865885 -0.00023563067540268871 0 -0.00047862624586214191 -0.00034185124896699367 0 -0.00053768077390651148 -0.00020045973151200491 0 -0.00039653588505865885 -0.00023563067540268871 0 -0.00035809988311671231 -0.0003977043056532311 0 -0.00047862624586214191 -0.00034185124896699367 0 -0.00039653588505865885 -0.00023563067540268871 0 4.0078992303918578e-05 -0.00019770975318347806 0 8.8672369970991974e-05 -0.00016214744774903033 0 -0.00016151942149962142 -0.00036460005684279352 0 -0.000266251499762068 -0.00017621607018512351 0 -0.00028453801536237959 -0.00020320328049934367 0 0.00040586259402593136 -8.9171951150364732e-05 0 0.00042644834037794605 -8.3706263936312369e-05 0 0.00040275559603315618 -7.1289378260702181e-05 0 4.0078992303918578e-05 -0.00019770975318347806 0 -0.00038694539950710299 -0.00020313090523857978 0 -0.0010236172351985985 -3.3980454548265906e-05 0 -0.0010740713044308792 -2.2902437428526728e-05 0 -0.00088268127390918566 6.6562249195046317e-07 0 -0.0010236172351985985 -3.3980454548265906e-05 0 -0.0010740713044308792 -2.2902437428526728e-05 0 -0.0011237375463394956 -3.9921130183850339e-05 0 -0.0010236172351985985 -3.3980454548265906e-05 0 -0.0011237375463394956 -3.9921130183850339e-05 0 -0.0010773068291942277 -4.2628131684666846e-05 0 -0.00094544716771449212 -5.2352284372484984e-08 0 -0.0010740713044308792 -2.2902437428526728e-05 0 -0.00088268127390918566 6.6562249195046317e-07 0 -0.00094544716771449212 -5.2352284372484984e-08 0 -0.0010740713044308792 -2.2902437428526728e-05 0 -0.0012425492427871176 -5.6720228070447354e-08 0 -0.0010740713044308792 -2.2902437428526728e-05 0 -0.0012425492427871176 -5.6720228070447354e-08 0 -0.0012193322489740725 -2.3637317806143761e-05 0 -0.0010740713044308792 -2.2902437428526728e-05 0 -0.0012193322489740725 -2.3637317806143761e-05 0 -0.0011237375463394956 -3.9921130183850339e-05 0 -0.0012193322489740725 -2.3637317806143761e-05 0 -0.0011237375463394956 -3.9921130183850339e-05 0 -0.0011887848993405324 -3.12987935128762e-05 0 -0.0011237375463394956 -3.9921130183850339e-05 0 -0.0011887848993405324 -3.12987935128762e-05 0 -0.0011332378743518852 -4.1754510938002587e-05 0 -0.0011887848993405324 -3.12987935128762e-05 0 -0.0011109568906966204 -4.1949673821203479e-05 0 -0.0011332378743518852 -4.1754510938002587e-05 0 -0.0011109568906966204 -4.1949673821203479e-05 0 -0.0011004533355177492 -4.4903345555659885e-05 0 -0.0010859047070999035 -3.9452089878430098e-05 0 -0.001818927929067681 -9.4846589565163229e-05 0 -0.0017995294066466161 -9.4189422982051297e-05 0 -0.0018436589819186805 -6.3484909658936126e-05 0 -0.0011237375463394956 -3.9921130183850339e-05 0 -0.0011004533355177492 -4.4903345555659885e-05 0 -0.0010773068291942277 -4.2628131684666846e-05 0 -0.0011109568906966204 -4.1949673821203479e-05 0 -0.0011332378743518852 -4.1754510938002587e-05 0 -0.0011004533355177492 -4.4903345555659885e-05 0 -0.0011237375463394956 -3.9921130183850339e-05 0 -0.0011332378743518852 -4.1754510938002587e-05 0 -0.0011004533355177492 -4.4903345555659885e-05 0 -0.0019438955208950141 -0.00013972035188706446 0 -0.001941095311822995 -8.6877898667540288e-05 0 -0.0019853869099576366 -0.00010517828922626021 0 -0.0019438955208950141 -0.00013972035188706446 0 -0.0018790332628443372 -0.00010802637442545585 0 -0.0018927953882705902 -0.00016018010059349642 0 -0.0019438955208950141 -0.00013972035188706446 0 -0.0018790332628443372 -0.00010802637442545585 0 -0.001941095311822995 -8.6877898667540288e-05 0 -0.001818927929067681 -9.4846589565163229e-05 0 -0.0018633907422187228 -0.00014648963998302038 0 -0.0018632969593301389 -0.00022281789932731205 0 -0.0018790332628443372 -0.00010802637442545585 0 -0.0018927953882705902 -0.00016018010059349642 0 -0.0018633907422187228 -0.00014648963998302038 0 -0.001818927929067681 -9.4846589565163229e-05 0 -0.0018790332628443372 -0.00010802637442545585 0 -0.0018633907422187228 -0.00014648963998302038 0 -0.0017995294066466161 -9.4189422982051297e-05 0 -0.0018436589819186805 -6.3484909658936126e-05 0 -0.0018513387754488372 -9.0836197906620957e-06 0 -0.001818927929067681 -9.4846589565163229e-05 0 -0.0018436589819186805 -6.3484909658936126e-05 0 -0.0018586058203010028 -8.2740561549359093e-05 0 -0.001818927929067681 -9.4846589565163229e-05 0 -0.0018790332628443372 -0.00010802637442545585 0 -0.0018586058203010028 -8.2740561549359093e-05 0 -0.0018904518349066102 -6.6099706402707398e-05 0 -0.0018706265848153134 -3.8645810290404395e-05 0 -0.0018971216590296996 -1.7625941773058442e-05 0 -0.0018436589819186805 -6.3484909658936126e-05 0 -0.0018904518349066102 -6.6099706402707398e-05 0 -0.0018706265848153134 -3.8645810290404395e-05 0 -0.0018436589819186805 -6.3484909658936126e-05 0 -0.0018904518349066102 -6.6099706402707398e-05 0 -0.0018586058203010028 -8.2740561549359093e-05 0 -0.0018790332628443372 -0.00010802637442545585 0 -0.0018904518349066102 -6.6099706402707398e-05 0 -0.0018586058203010028 -8.2740561549359093e-05 0 -0.0018790332628443372 -0.00010802637442545585 0 -0.0018904518349066102 -6.6099706402707398e-05 0 -0.001941095311822995 -8.6877898667540288e-05 0 -0.0018904518349066102 -6.6099706402707398e-05 0 -0.001941095311822995 -8.6877898667540288e-05 0 -0.0019493598508602697 -3.3789297314419142e-05 0 -0.0014806570325600801 -7.8102900674557294e-05 0 -0.0012756046485718512 8.5284660048766097e-05 0 -0.0011109568906966204 -4.1949673821203479e-05 0 -0.0010821785001350361 -3.348404578232048e-05 0 -0.0010797104761863393 -3.2699064027249018e-05 0 -0.0017995294066466161 -9.4189422982051297e-05 0 -0.0018513387754488372 -9.0836197906620957e-06 0 -0.0018664343505839045 7.0907308783388321e-05 0 -0.0019240280237851112 8.8594339101702399e-06 0 -0.0019493598508602697 -3.3789297314419142e-05 0 -0.0019601799174501491 1.0462605884727044e-05 0 -0.0019240280237851112 8.8594339101702399e-06 0 -0.0019493598508602697 -3.3789297314419142e-05 0 -0.0018971216590296996 -1.7625941773058442e-05 0 -0.0018904518349066102 -6.6099706402707398e-05 0 -0.0019493598508602697 -3.3789297314419142e-05 0 -0.0018971216590296996 -1.7625941773058442e-05 0 -0.0019240280237851112 8.8594339101702399e-06 0 -0.0018971216590296996 -1.7625941773058442e-05 0 -0.0018941242156369277 2.1824703157841984e-05 0 -0.0018513387754488372 -9.0836197906620957e-06 0 -0.0018764889000725466 3.4165477539962193e-05 0 -0.0018941242156369277 2.1824703157841984e-05 0 -0.0018971216590296996 -1.7625941773058442e-05 0 -0.0018513387754488372 -9.0836197906620957e-06 0 -0.0018941242156369277 2.1824703157841984e-05 0 -0.0018706265848153134 -3.8645810290404395e-05 0 -0.0018971216590296996 -1.7625941773058442e-05 0 -0.0018513387754488372 -9.0836197906620957e-06 0 -0.0018436589819186805 -6.3484909658936126e-05 0 -0.0018706265848153134 -3.8645810290404395e-05 0 -0.0018513387754488372 -9.0836197906620957e-06 0 -0.0018513387754488372 -9.0836197906620957e-06 0 -0.0018764889000725466 3.4165477539962193e-05 0 -0.0018664343505839045 7.0907308783388321e-05 0 -0.0010821785001350361 -3.348404578232048e-05 0 -0.0010782052972436182 -3.4105555942777165e-05 0 -0.0010718851008608076 -2.4769847891697455e-05 0 -0.0010821785001350361 -3.348404578232048e-05 0 -0.0010718851008608076 -2.4769847891697455e-05 0 -0.0010919156004649618 -2.5704197457960091e-05 0 -0.0018764889000725466 3.4165477539962193e-05 0 -0.0018946902505267394 5.3364896102723667e-05 0 -0.0018664343505839045 7.0907308783388321e-05 0 -0.0012469903203099534 5.6855226959723541e-05 0 -0.0012756046485718512 8.5284660048766097e-05 0 -0.0018764889000725466 3.4165477539962193e-05 0 -0.0018941242156369277 2.1824703157841984e-05 0 -0.0018946902505267394 5.3364896102723667e-05 0 -0.0019240280237851112 8.8594339101702399e-06 0 -0.0018941242156369277 2.1824703157841984e-05 0 -0.0019310273840971476 4.4408990302148125e-05 0 -0.0018941242156369277 2.1824703157841984e-05 0 -0.0018946902505267394 5.3364896102723667e-05 0 -0.0019310273840971476 4.4408990302148125e-05 0 -0.0018946902505267394 5.3364896102723667e-05 0 -0.0019310273840971476 4.4408990302148125e-05 0 -0.0019167717482527547 8.3600723859024329e-05 0 -0.0018946902505267394 5.3364896102723667e-05 0 -0.0019167717482527547 8.3600723859024329e-05 0 -0.0018664343505839045 7.0907308783388321e-05 0 -0.0019310273840971476 4.4408990302148125e-05 0 -0.0019471166783874881 7.3316518344872857e-05 0 -0.0019167717482527547 8.3600723859024329e-05 0 -0.0019240280237851112 8.8594339101702399e-06 0 -0.0019310273840971476 4.4408990302148125e-05 0 -0.0019601799174501491 1.0462605884727044e-05 0 -0.0011109568906966204 -4.1949673821203479e-05 0 -0.0010821785001350361 -3.348404578232048e-05 0 -0.0010859047070999035 -3.9452089878430098e-05 0 -0.0010236172351985985 -3.3980454548265906e-05 0 -0.0010773068291942277 -4.2628131684666846e-05 0 -0.0010570022941539677 -3.6626986165616614e-05 0 -0.0010773068291942277 -4.2628131684666846e-05 0 -0.0010787789109664304 -4.0233559423009326e-05 0 -0.0010570022941539677 -3.6626986165616614e-05 0 -0.0011004533355177492 -4.4903345555659885e-05 0 -0.0010773068291942277 -4.2628131684666846e-05 0 -0.0010787789109664304 -4.0233559423009326e-05 0 -0.0011004533355177492 -4.4903345555659885e-05 0 -0.0010787789109664304 -4.0233559423009326e-05 0 -0.0010859047070999035 -3.9452089878430098e-05 0 -0.0010787789109664304 -4.0233559423009326e-05 0 -0.0010859047070999035 -3.9452089878430098e-05 0 -0.001068198783591097 -3.5476914892633919e-05 0 -0.0010821785001350361 -3.348404578232048e-05 0 -0.0010859047070999035 -3.9452089878430098e-05 0 -0.0010782052972436182 -3.4105555942777165e-05 0 -0.001068198783591097 -3.5476914892633919e-05 0 -0.0010309802637516992 -2.5012911455725182e-05 0 -0.0010718851008608076 -2.4769847891697455e-05 0 -0.0010859047070999035 -3.9452089878430098e-05 0 -0.001068198783591097 -3.5476914892633919e-05 0 -0.0010782052972436182 -3.4105555942777165e-05 0 -0.001068198783591097 -3.5476914892633919e-05 0 -0.0010782052972436182 -3.4105555942777165e-05 0 -0.0010718851008608076 -2.4769847891697455e-05 0 -0.0010236172351985985 -3.3980454548265906e-05 0 -0.0010570022941539677 -3.6626986165616614e-05 0 -0.0010309802637516992 -2.5012911455725182e-05 0 -0.001068198783591097 -3.5476914892633919e-05 0 -0.0010570022941539677 -3.6626986165616614e-05 0 -0.0010309802637516992 -2.5012911455725182e-05 0 -0.0010787789109664304 -4.0233559423009326e-05 0 -0.001068198783591097 -3.5476914892633919e-05 0 -0.0010570022941539677 -3.6626986165616614e-05 0 -0.0010309802637516992 -2.5012911455725182e-05 0 -0.0010214545884767187 5.2431624063806708e-05 0 -0.00091519541919388343 -3.7509930145757724e-06 0 -0.00086851461326136945 4.7919908248141409e-05 0 -0.00086120947804299694 9.7326685145584198e-05 0 -0.0010309802637516992 -2.5012911455725182e-05 0 -0.0010718851008608076 -2.4769847891697455e-05 0 -0.0010545160999565208 -1.331260193146059e-06 0 -0.0010309802637516992 -2.5012911455725182e-05 0 -0.0010545160999565208 -1.331260193146059e-06 0 -0.0010214545884767187 5.2431624063806708e-05 0 -0.0010718851008608076 -2.4769847891697455e-05 0 -0.0010545160999565208 -1.331260193146059e-06 0 -0.0010817002356278765 -3.0678806453830953e-07 0 -0.0010545160999565208 -1.331260193146059e-06 0 -0.0010214545884767187 5.2431624063806708e-05 0 -0.0010817002356278765 -3.0678806453830953e-07 0 -0.0010214545884767187 5.2431624063806708e-05 0 -0.0010817002356278765 -3.0678806453830953e-07 0 -0.0011168358341890373 1.6212214069821456e-05 0 -0.00070936348095865622 6.6988334944317429e-05 0 -0.00069059050396538498 7.4979601435133333e-05 0 -0.00068871815243352354 7.077964382744361e-05 0 -0.0010207228210947219 -1.4743345803097428e-05 0 -0.0011606581254098175 0.00015304873896671494 0 -0.0010871899366158536 -3.7119945182144305e-05 0 -0.0019167717482527547 8.3600723859024329e-05 0 -0.001911941994334281 0.00013405612077247743 0 -0.0019570194878179934 0.00012057311265971062 0 -0.0008346197819903814 -4.4947629730955805e-05 0 -0.0015354562734163138 -0.0001175596808402795 0 -0.00092584423633269755 -3.4269935358765134e-06 0 -0.0010395503240037088 0.00013341494420553407 0 -0.0013343385851017641 -0.00014122150698348668 0 -0.0011308463272446448 5.9993968176287805e-05 0 -0.0015354562734163138 -0.0001175596808402795 0 -0.0019471166783874881 7.3316518344872857e-05 0 -0.0019167717482527547 8.3600723859024329e-05 0 -0.0019570194878179934 0.00012057311265971062 0 -0.0019167717482527547 8.3600723859024329e-05 0 -0.001911941994334281 0.00013405612077247743 0 -0.0018664343505839045 7.0907308783388321e-05 0 -0.0011308463272446448 5.9993968176287805e-05 0 -0.0012756046485718512 8.5284660048766097e-05 0 -0.0012756046485718512 8.5284660048766097e-05 0 -0.00086120947804299694 9.7326685145584198e-05 0 -0.0010919156004649618 -2.5704197457960091e-05 0 -0.0010817002356278765 -3.0678806453830953e-07 0 -0.0011168358341890373 1.6212214069821456e-05 0 -0.0010718851008608076 -2.4769847891697455e-05 0 -0.0010919156004649618 -2.5704197457960091e-05 0 -0.0010817002356278765 -3.0678806453830953e-07 0 -0.0011308463272446448 5.9993968176287805e-05 0 -0.00086120947804299694 9.7326685145584198e-05 0 -0.00079583406647291553 5.6026275234975682e-05 0 -0.00079800677783471523 4.9339978188701504e-05 0 -0.00079110750005490285 5.0400619171421022e-05 0 -0.00079583406647291553 5.6026275234975682e-05 0 -0.00080427785666304492 5.3284845439047919e-05 0 -0.00079800677783471523 4.9339978188701504e-05 0 -0.00079800677783471523 4.9339978188701504e-05 0 -0.00079949077761187423 4.2344554413131493e-05 0 -0.00079110750005490285 5.0400619171421022e-05 0 -0.00045729951342540981 0.00025096650536263567 0 -0.0008346197819903814 -4.4947629730955805e-05 0 -0.00086120947804299694 9.7326685145584198e-05 0 -0.00045729951342540981 0.00025096650536263567 0 -0.00080427785666304492 5.3284845439047919e-05 0 -0.00079800677783471523 4.9339978188701504e-05 0 -0.00079949077761187423 4.2344554413131493e-05 0 -0.0011308463272446448 5.9993968176287805e-05 0 -0.0008346197819903814 -4.4947629730955805e-05 0 0.00011487796649830744 0.00053782813750757386 0 8.2814865414930497e-05 0.00043055330244709566 0 -7.4344757047245535e-05 0.00039039640878542467 0 -0.00045729951342540981 0.00025096650536263567 0 -0.00035556489390859813 0.00022980665637885244 0 0.00011397812608660513 0.00050368041791865709 0 0.00013755794849731962 0.00052603768490191505 0 0.00016902580596615016 0.00038708599844785658 0 0.00011487796649830744 0.00053782813750757386 0 8.2814865414930497e-05 0.00043055330244709566 0 0.00016902580596615016 0.00038708599844785658 0 -0.00045729951342540981 0.00025096650536263567 0 0.00012409799379824852 0.00040675751049331369 0 7.2201479616771532e-05 0.00037431684425649758 0 8.2814865414930497e-05 0.00043055330244709566 0 -7.4344757047245535e-05 0.00039039640878542467 0 7.2201479616771532e-05 0.00037431684425649758 0 8.2814865414930497e-05 0.00043055330244709566 0 0.00016902580596615016 0.00038708599844785658 0 -0.00070936348095865622 6.6988334944317429e-05 0 -0.00070696198135860439 5.2292337180432812e-05 0 -0.000745625567795193 3.6735228418684358e-05 0 -0.00070936348095865622 6.6988334944317429e-05 0 -0.00068871815243352354 7.077964382744361e-05 0 -0.00070696198135860439 5.2292337180432812e-05 0 -0.00086851461326136945 4.7919908248141409e-05 0 -0.00076893641886351149 5.0014920362504381e-05 0 -0.0010214545884767187 5.2431624063806708e-05 0 -0.000745625567795193 3.6735228418684358e-05 0 -0.00091519541919388343 -3.7509930145757724e-06 0 -0.000745625567795193 3.6735228418684358e-05 0 -0.00091519541919388343 -3.7509930145757724e-06 0 -0.00088268127390918566 6.6562249195046317e-07 0 -0.0010236172351985985 -3.3980454548265906e-05 0 -0.00091519541919388343 -3.7509930145757724e-06 0 -0.00088268127390918566 6.6562249195046317e-07 0 -0.0010236172351985985 -3.3980454548265906e-05 0 -0.0010309802637516992 -2.5012911455725182e-05 0 -0.00091519541919388343 -3.7509930145757724e-06 0 -0.00094544716771449212 -5.2352284372484984e-08 0 -0.00088268127390918566 6.6562249195046317e-07 0 -0.0006482703653104961 1.443677773293816e-07 0 -0.000745625567795193 3.6735228418684358e-05 0 -0.00088268127390918566 6.6562249195046317e-07 0 -0.0006482703653104961 1.443677773293816e-07 0 -0.000745625567795193 3.6735228418684358e-05 0 -0.0006482703653104961 1.443677773293816e-07 0 -0.00040797859897122123 0.00010739179142820023 0 -0.0006482703653104961 1.443677773293816e-07 0 -0.00040797859897122123 0.00010739179142820023 0 -0.00035116587110308535 1.005350878038634e-07 0 -0.00035556489390859813 0.00022980665637885244 0 -0.00043537053074695818 0.00010605100925605131 0 -7.4344757047245535e-05 0.00039039640878542467 0 -0.00040797859897122123 0.00010739179142820023 0 -0.00010586206678883973 9.1837683431194146e-05 0 -0.00070696198135860439 5.2292337180432812e-05 0 -0.000745625567795193 3.6735228418684358e-05 0 -0.00040797859897122123 0.00010739179142820023 0 -0.00040797859897122123 0.00010739179142820023 0 -0.00021376062059604719 1.5497931625232438e-05 0 -0.00010586206678883973 9.1837683431194146e-05 0 -0.00040797859897122123 0.00010739179142820023 0 -0.00035116587110308535 1.005350878038634e-07 0 -0.00021376062059604719 1.5497931625232438e-05 0 -0.00035116587110308535 1.005350878038634e-07 0 -0.00021376062059604719 1.5497931625232438e-05 0 -5.4105328309086553e-05 -6.338656892120502e-08 0 -0.00021376062059604719 1.5497931625232438e-05 0 -1.9554613786594137e-05 -5.617591480772067e-06 0 -0.00010586206678883973 9.1837683431194146e-05 0 -0.00021376062059604719 1.5497931625232438e-05 0 -1.9554613786594137e-05 -5.617591480772067e-06 0 -5.4105328309086553e-05 -6.338656892120502e-08 0 0.00011909411600730616 -2.6285214283815078e-05 0 -1.9554613786594137e-05 -5.617591480772067e-06 0 -5.4105328309086553e-05 -6.338656892120502e-08 0 0.00021476873023705838 -1.2780544218086092e-05 0 0.00015510380769829103 1.9426617130517262e-05 0 0.00027198591370646453 2.0241629982766554e-05 0 0.00021476873023705838 -1.2780544218086092e-05 0 0.00015510380769829103 1.9426617130517262e-05 0 0.00012414860006829912 -1.8898231084678568e-05 0 -1.9554613786594137e-05 -5.617591480772067e-06 0 0.00015510380769829103 1.9426617130517262e-05 0 0.00012414860006829912 -1.8898231084678568e-05 0 0.00011909411600730616 -2.6285214283815078e-05 0 -1.9554613786594137e-05 -5.617591480772067e-06 0 0.00012414860006829912 -1.8898231084678568e-05 0 -1.9554613786594137e-05 -5.617591480772067e-06 0 0.00010499161587775526 8.8131919913671564e-05 0 -0.00010586206678883973 9.1837683431194146e-05 0 -1.9554613786594137e-05 -5.617591480772067e-06 0 0.00015510380769829103 1.9426617130517262e-05 0 0.00010499161587775526 8.8131919913671564e-05 0 0.00015510380769829103 1.9426617130517262e-05 0 0.00010499161587775526 8.8131919913671564e-05 0 0.0002675978315735237 9.4217581088762268e-05 0 0.00010499161587775526 8.8131919913671564e-05 0 7.6403101659766929e-05 0.0002683405666593175 0 0.00022097200950967999 0.00023053548688488649 0 0.00010499161587775526 8.8131919913671564e-05 0 -0.00010586206678883973 9.1837683431194146e-05 0 7.6403101659766929e-05 0.0002683405666593175 0 -7.4344757047245535e-05 0.00039039640878542467 0 -0.00010586206678883973 9.1837683431194146e-05 0 7.6403101659766929e-05 0.0002683405666593175 0 0.00016902580596615016 0.00038708599844785658 0 7.6403101659766929e-05 0.0002683405666593175 0 0.00022097200950967999 0.00023053548688488649 0 7.2201479616771532e-05 0.00037431684425649758 0 -7.4344757047245535e-05 0.00039039640878542467 0 7.6403101659766929e-05 0.0002683405666593175 0 7.2201479616771532e-05 0.00037431684425649758 0 0.00016902580596615016 0.00038708599844785658 0 7.6403101659766929e-05 0.0002683405666593175 0 0.00016902580596615016 0.00038708599844785658 0 0.00022097200950967999 0.00023053548688488649 0 0.00027800310567266937 0.00036726524015521974 0 0.00022097200950967999 0.00023053548688488649 0 0.00039421907461239646 0.00021168168790558291 0 0.00027800310567266937 0.00036726524015521974 0 -0.00041036889426196687 -0.00017779922574925045 0 -0.00043433413584282552 -8.5743539102316793e-05 0 -0.0011962414109732433 -0.00056935477605998385 0 -0.0011929998503982357 -0.00053660590887987317 0 -0.0012245301626374347 -0.00052941945340668193 0 0.00039421907461239646 0.00021168168790558291 0 0.0002675978315735237 9.4217581088762268e-05 0 0.00038046330209798068 0.00010370149693162869 0 0.00022097200950967999 0.00023053548688488649 0 0.00039421907461239646 0.00021168168790558291 0 0.0002675978315735237 9.4217581088762268e-05 0 0.00010499161587775526 8.8131919913671564e-05 0 0.00022097200950967999 0.00023053548688488649 0 0.0002675978315735237 9.4217581088762268e-05 0 0.00015510380769829103 1.9426617130517262e-05 0 0.0002675978315735237 9.4217581088762268e-05 0 0.00027198591370646453 2.0241629982766554e-05 0 0.0002675978315735237 9.4217581088762268e-05 0 0.00035458554998889577 4.925562809938119e-05 0 0.00027198591370646453 2.0241629982766554e-05 0 0.0002675978315735237 9.4217581088762268e-05 0 0.00038046330209798068 0.00010370149693162869 0 0.00035458554998889577 4.925562809938119e-05 0 0.00038046330209798068 0.00010370149693162869 0 0.00035458554998889577 4.925562809938119e-05 0 0.0004185933384351165 6.1841477755371092e-05 0 0.00035458554998889577 4.925562809938119e-05 0 0.00041748793059808185 2.5946683414653778e-05 0 0.0004185933384351165 6.1841477755371092e-05 0 0.00043295423959870312 -6.8726874273902244e-06 0 0.00041748793059808185 2.5946683414653778e-05 0 0.00036089792890401956 7.6277421638480566e-06 0 0.00035458554998889577 4.925562809938119e-05 0 0.00041748793059808185 2.5946683414653778e-05 0 0.00036089792890401956 7.6277421638480566e-06 0 0.00030915701394249143 -8.4339816383219781e-06 0 0.00036089792890401956 7.6277421638480566e-06 0 0.00027198591370646453 2.0241629982766554e-05 0 0.00030915701394249143 -8.4339816383219781e-06 0 0.00021476873023705838 -1.2780544218086092e-05 0 0.00027198591370646453 2.0241629982766554e-05 0 0.00035458554998889577 4.925562809938119e-05 0 0.00036089792890401956 7.6277421638480566e-06 0 0.00027198591370646453 2.0241629982766554e-05 0 0.00052687884140344761 7.7779629595110776e-06 0 0.00047194140792726182 3.2556751474234583e-05 0 0.00049740071307318085 6.4214917038447626e-05 0 0.00050426801891066838 3.0131754226618077e-07 0 0.00052687884140344761 7.7779629595110776e-06 0 0.00047194140792726182 3.2556751474234583e-05 0 0.00055430928374009436 -0.00013981757244151444 0 -0.00013487234619559345 -0.00021191464878367026 0 0.00046955025101249568 2.9913419078621857e-06 0 0.00050426801891066838 3.0131754226618077e-07 0 0.00047194140792726182 3.2556751474234583e-05 0 0.00046955025101249568 2.9913419078621857e-06 0 0.00041748793059808185 2.5946683414653778e-05 0 0.00047194140792726182 3.2556751474234583e-05 0 0.00041748793059808185 2.5946683414653778e-05 0 0.00047194140792726182 3.2556751474234583e-05 0 0.0004185933384351165 6.1841477755371092e-05 0 0.00047194140792726182 3.2556751474234583e-05 0 0.0004185933384351165 6.1841477755371092e-05 0 0.00047375218078202713 9.8857576864237861e-05 0 0.00038046330209798068 0.00010370149693162869 0 0.0004185933384351165 6.1841477755371092e-05 0 0.00047375218078202713 9.8857576864237861e-05 0 -0.0011605643744149784 -0.00061553854098112741 0 -0.001143990910243056 -0.00063286222751536981 0 -0.0011349937750301778 -0.00060413209924771851 0 0.00057406697114158482 -0.00018938380109516923 0 0.00064321881626782924 -0.00028212534266798387 0 0.00048877230167065629 -0.00033331338026695129 0 0.00047194140792726182 3.2556751474234583e-05 0 0.00047375218078202713 9.8857576864237861e-05 0 0.00049740071307318085 6.4214917038447626e-05 0 -0.001143990910243056 -0.00063286222751536981 0 -0.0011349937750301778 -0.00060413209924771851 0 -0.0011016973344083745 -0.00062718337628128013 0 -0.00013487234619559345 -0.00021191464878367026 0 -0.00032396577827719736 -0.00049788288866350102 0 -0.00031813658740846107 -0.00023526252832975708 0 -0.00013487234619559345 -0.00021191464878367026 0 -0.0011349937750301778 -0.00060413209924771851 0 -0.0011609287985661855 -0.00058097742999610805 0 -0.0011433278399855598 -0.00056753359597458517 0 -0.0011605643744149784 -0.00061553854098112741 0 -0.0011349937750301778 -0.00060413209924771851 0 -0.0011609287985661855 -0.00058097742999610805 0 -0.0011962414109732433 -0.00056935477605998385 0 -0.0011605643744149784 -0.00061553854098112741 0 -0.0011609287985661855 -0.00058097742999610805 0 -0.00041036889426196687 -0.00017779922574925045 0 -0.00031813658740846107 -0.00023526252832975708 0 0.00039421907461239646 0.00021168168790558291 0 0.00038046330209798068 0.00010370149693162869 0 0.00047375218078202713 9.8857576864237861e-05 0 -0.0011962414109732433 -0.00056935477605998385 0 -0.0011681021163651723 -0.00055038835380256685 0 -0.0011929998503982357 -0.00053660590887987317 0 -0.0011962414109732433 -0.00056935477605998385 0 -0.0011609287985661855 -0.00058097742999610805 0 -0.0011681021163651723 -0.00055038835380256685 0 -0.0011681021163651723 -0.00055038835380256685 0 -0.0011929998503982357 -0.00053660590887987317 0 -0.0011729211222606393 -0.00052613895216672415 0 -0.0011681021163651723 -0.00055038835380256685 0 -0.0011433278399855598 -0.00056753359597458517 0 -0.0011474611730171718 -0.00052430967365311271 0 -0.0011609287985661855 -0.00058097742999610805 0 -0.0011681021163651723 -0.00055038835380256685 0 -0.0011433278399855598 -0.00056753359597458517 0 -0.0011681021163651723 -0.00055038835380256685 0 -0.0011729211222606393 -0.00052613895216672415 0 -0.0011474611730171718 -0.00052430967365311271 0 -0.0011720468124116487 -0.00050730383020997582 0 -0.0011729211222606393 -0.00052613895216672415 0 -0.0011474611730171718 -0.00052430967365311271 0 -0.0012070342521301439 -0.00049248785962405619 0 -0.0011555339233805715 -0.00051065625119457953 0 -0.0011720468124116487 -0.00050730383020997582 0 -0.0011634386782048067 -0.00048861989448144619 0 -0.0011474611730171718 -0.00052430967365311271 0 -0.0011720468124116487 -0.00050730383020997582 0 -0.0011634386782048067 -0.00048861989448144619 0 -0.0011868137173989236 -0.00049227240365450726 0 -0.0011720468124116487 -0.00050730383020997582 0 -0.0011868137173989236 -0.00049227240365450726 0 -0.0011897339404135187 -0.00051255788809171092 0 -0.0011868137173989236 -0.00049227240365450726 0 -0.0011897339404135187 -0.00051255788809171092 0 -0.0012060056585785008 -0.00049948014762422118 0 -0.0011720468124116487 -0.00050730383020997582 0 -0.0011897339404135187 -0.00051255788809171092 0 -0.0011729211222606393 -0.00052613895216672415 0 -0.0011929998503982357 -0.00053660590887987317 0 -0.0011897339404135187 -0.00051255788809171092 0 -0.0011729211222606393 -0.00052613895216672415 0 -0.0011929998503982357 -0.00053660590887987317 0 -0.0012078447605680836 -0.00051654264179665363 0 -0.0012245301626374347 -0.00052941945340668193 0 -0.0012078447605680836 -0.00051654264179665363 0 -0.0012245301626374347 -0.00052941945340668193 0 -0.0012254514531768123 -0.00050357466308695298 0 -0.0011929998503982357 -0.00053660590887987317 0 -0.0011897339404135187 -0.00051255788809171092 0 -0.0012078447605680836 -0.00051654264179665363 0 -0.0011897339404135187 -0.00051255788809171092 0 -0.0012078447605680836 -0.00051654264179665363 0 -0.0012060056585785008 -0.00049948014762422118 0 0.00013755794849731962 0.00052603768490191505 0 0.00016902580596615016 0.00038708599844785658 0 0.00027800310567266937 0.00036726524015521974 0 -0.0008346197819903814 -4.4947629730955805e-05 0 -0.00043433413584282552 -8.5743539102316793e-05 0 -0.0012517862393072328 -0.00049378028330773435 0 -0.0012245301626374347 -0.00052941945340668193 0 -0.0012254514531768123 -0.00050357466308695298 0 -0.0015354562734163138 -0.0001175596808402795 0 -0.0017217044365453807 -0.00023484105371442799 0 -0.0012517862393072328 -0.00049378028330773435 0 -0.0012254514531768123 -0.00050357466308695298 0 -0.0012462805976339506 -0.00048872412754654055 0 -0.0012462805976339506 -0.00048872412754654055 0 -0.0012226840645443565 -0.00049288357210044368 0 -0.0012127140329686774 -0.00047985702183011832 0 -0.0012254514531768123 -0.00050357466308695298 0 -0.0012462805976339506 -0.00048872412754654055 0 -0.0012226840645443565 -0.00049288357210044368 0 -0.0019471166783874881 7.3316518344872857e-05 0 -0.0019570194878179934 0.00012057311265971062 0 -0.0019811171139610265 4.1172015715723846e-05 0 -0.0012078447605680836 -0.00051654264179665363 0 -0.0012254514531768123 -0.00050357466308695298 0 -0.0012060056585785008 -0.00049948014762422118 0 -0.0012254514531768123 -0.00050357466308695298 0 -0.0012060056585785008 -0.00049948014762422118 0 -0.0012226840645443565 -0.00049288357210044368 0 -0.0012060056585785008 -0.00049948014762422118 0 -0.0012226840645443565 -0.00049288357210044368 0 -0.0012127140329686774 -0.00047985702183011832 0 -0.0011868137173989236 -0.00049227240365450726 0 -0.0012060056585785008 -0.00049948014762422118 0 -0.0012127140329686774 -0.00047985702183011832 0 -0.0020635905844679715 -2.1904319900421043e-05 0 -0.0021819752597432222 -0.00010816388745532555 0 -0.002182982954167439 -4.8020539673739146e-05 0 -0.0021266562014455159 2.4750017968866763e-05 0 -0.0020635905844679715 -2.1904319900421043e-05 0 -0.002182982954167439 -4.8020539673739146e-05 0 -0.0020821106728039075 1.0164022261929463e-05 0 -0.0020695391879256356 -4.5938321385643243e-05 0 -0.0021129924875415962 -7.8465073319156249e-05 0 -0.0021087342664544264 -1.2478639658307741e-05 0 -0.0021608466757315589 -9.0794161420705048e-05 0 -0.0019382377304712126 8.6297821863401042e-05 0 -0.0021266562014455159 2.4750017968866763e-05 0 -0.0020635905844679715 -2.1904319900421043e-05 0 -0.0019570194878179934 0.00012057311265971062 0 -0.0019811171139610265 4.1172015715723846e-05 0 -0.0020821106728039075 1.0164022261929463e-05 0 -0.0019310273840971476 4.4408990302148125e-05 0 -0.0019811171139610265 4.1172015715723846e-05 0 -0.0019601799174501491 1.0462605884727044e-05 0 -0.0019811171139610265 4.1172015715723846e-05 0 -0.0020085164720210829 -1.136451696349831e-05 0 -0.0019601799174501491 1.0462605884727044e-05 0 -0.0019310273840971476 4.4408990302148125e-05 0 -0.0019471166783874881 7.3316518344872857e-05 0 -0.0019811171139610265 4.1172015715723846e-05 0 -0.0019811171139610265 4.1172015715723846e-05 0 -0.0020821106728039075 1.0164022261929463e-05 0 -0.0020085164720210829 -1.136451696349831e-05 0 -0.0015354562734163138 -0.0001175596808402795 0 -0.0021087342664544264 -1.2478639658307741e-05 0 -0.0020821106728039075 1.0164022261929463e-05 0 -0.0020695391879256356 -4.5938321385643243e-05 0 -0.0020085164720210829 -1.136451696349831e-05 0 -0.0020695391879256356 -4.5938321385643243e-05 0 -0.0020085164720210829 -1.136451696349831e-05 0 -0.0020339835641071608 -5.5914412089995015e-05 0 -0.0020085164720210829 -1.136451696349831e-05 0 -0.0019924708891199379 -6.512386815366947e-05 0 -0.0020339835641071608 -5.5914412089995015e-05 0 -0.0019493598508602697 -3.3789297314419142e-05 0 -0.0020085164720210829 -1.136451696349831e-05 0 -0.0019924708891199379 -6.512386815366947e-05 0 -0.0019493598508602697 -3.3789297314419142e-05 0 -0.0020085164720210829 -1.136451696349831e-05 0 -0.0019601799174501491 1.0462605884727044e-05 0 -0.001941095311822995 -8.6877898667540288e-05 0 -0.0019853869099576366 -0.00010517828922626021 0 -0.0019924708891199379 -6.512386815366947e-05 0 -0.001941095311822995 -8.6877898667540288e-05 0 -0.0019493598508602697 -3.3789297314419142e-05 0 -0.0019924708891199379 -6.512386815366947e-05 0 -0.0019924708891199379 -6.512386815366947e-05 0 -0.0020293804082856062 -0.00010054948921786919 0 -0.0020339835641071608 -5.5914412089995015e-05 0 -0.0019853869099576366 -0.00010517828922626021 0 -0.0019924708891199379 -6.512386815366947e-05 0 -0.0020293804082856062 -0.00010054948921786919 0 -0.0020293804082856062 -0.00010054948921786919 0 -0.0020339835641071608 -5.5914412089995015e-05 0 -0.0020851763558846596 -0.00010140771205400646 0 -0.0020695391879256356 -4.5938321385643243e-05 0 -0.0020339835641071608 -5.5914412089995015e-05 0 -0.0020851763558846596 -0.00010140771205400646 0 -0.0020541989122519503 -0.00013614973890935573 0 -0.0020851763558846596 -0.00010140771205400646 0 -0.0020895391313888395 -0.00015223483642639896 0 -0.0020293804082856062 -0.00010054948921786919 0 -0.0020541989122519503 -0.00013614973890935573 0 -0.0020851763558846596 -0.00010140771205400646 0 -0.0020541989122519503 -0.00013614973890935573 0 -0.0020895391313888395 -0.00015223483642639896 0 -0.0020558264278557046 -0.00018392530317520885 0 -0.0020541989122519503 -0.00013614973890935573 0 -0.002008200380947235 -0.00014768433897387884 0 -0.0020558264278557046 -0.00018392530317520885 0 -0.0020293804082856062 -0.00010054948921786919 0 -0.0020541989122519503 -0.00013614973890935573 0 -0.002008200380947235 -0.00014768433897387884 0 -0.0019438955208950141 -0.00013972035188706446 0 -0.0019853869099576366 -0.00010517828922626021 0 -0.002008200380947235 -0.00014768433897387884 0 -0.0019438955208950141 -0.00013972035188706446 0 -0.002008200380947235 -0.00014768433897387884 0 -0.0019691361359425391 -0.00018049753488491845 0 -0.0019853869099576366 -0.00010517828922626021 0 -0.0020293804082856062 -0.00010054948921786919 0 -0.002008200380947235 -0.00014768433897387884 0 -0.0021819752597432222 -0.00010816388745532555 0 -0.0021129924875415962 -7.8465073319156249e-05 0 -0.0021360232222267495 -0.00014699735273167891 0 -0.0021129924875415962 -7.8465073319156249e-05 0 -0.0020851763558846596 -0.00010140771205400646 0 -0.0021360232222267495 -0.00014699735273167891 0 -0.0020821106728039075 1.0164022261929463e-05 0 -0.0021819752597432222 -0.00010816388745532555 0 -0.0021129924875415962 -7.8465073319156249e-05 0 -0.0020695391879256356 -4.5938321385643243e-05 0 -0.0021129924875415962 -7.8465073319156249e-05 0 -0.0020851763558846596 -0.00010140771205400646 0 -0.0020851763558846596 -0.00010140771205400646 0 -0.0020895391313888395 -0.00015223483642639896 0 -0.0021360232222267495 -0.00014699735273167891 0 -0.0020895391313888395 -0.00015223483642639896 0 -0.0021360232222267495 -0.00014699735273167891 0 -0.0021142503059191423 -0.00019284521692307542 0 -0.0021819752597432222 -0.00010816388745532555 0 -0.0021360232222267495 -0.00014699735273167891 0 -0.0021821910107499005 -0.00016431096134049365 0 -0.0021821910107499005 -0.00016431096134049365 0 -0.0022470028380859744 -0.00010156297862558374 0 -0.0021818741737015235 -0.0002484989308172187 0 -0.0021819752597432222 -0.00010816388745532555 0 -0.0021821910107499005 -0.00016431096134049365 0 -0.0022470028380859744 -0.00010156297862558374 0 -0.0021819752597432222 -0.00010816388745532555 0 -0.0022470028380859744 -0.00010156297862558374 0 -0.002182982954167439 -4.8020539673739146e-05 0 -0.0013296859638726622 -0.00034627831158945681 0 -0.0012716933324628059 -0.00031479941258249702 0 -0.0013276216948725802 -0.00028657500214134191 0 -0.0012716933324628059 -0.00031479941258249702 0 -0.0012113716021587627 -0.00034280519472790411 0 -0.0012410728275428675 -0.00028320947515899243 0 -0.0012716933324628059 -0.00031479941258249702 0 -0.0012522379234672059 -0.00036915059997421918 0 -0.0012113716021587627 -0.00034280519472790411 0 -0.0013296859638726622 -0.00034627831158945681 0 -0.0012716933324628059 -0.00031479941258249702 0 -0.0012522379234672059 -0.00036915059997421918 0 -0.0013296859638726622 -0.00034627831158945681 0 -0.0012522379234672059 -0.00036915059997421918 0 -0.0012903427518554046 -0.0003952800763665946 0 -0.0012420082552424469 -0.00044664464133595711 0 -0.0012522379234672059 -0.00036915059997421918 0 -0.0011977932258656571 -0.00039532277871699966 0 -0.0012420082552424469 -0.00044664464133595711 0 -0.0012522379234672059 -0.00036915059997421918 0 -0.0012903427518554046 -0.0003952800763665946 0 -0.0012522379234672059 -0.00036915059997421918 0 -0.0011977932258656571 -0.00039532277871699966 0 -0.0012113716021587627 -0.00034280519472790411 0 -0.0012070342521301439 -0.00049248785962405619 0 -0.001513586710712582 -0.00034869846364468681 0 -0.0017217044365453807 -0.00023484105371442799 0 -0.001513586710712582 -0.00034869846364468681 0 -0.0011634386782048067 -0.00048861989448144619 0 -0.0011868137173989236 -0.00049227240365450726 0 -0.0011759052532692967 -0.00046768804255653193 0 -0.0021266562014455159 2.4750017968866763e-05 0 -0.002182982954167439 -4.8020539673739146e-05 0 -0.0022821955769274406 -3.4120722925577561e-05 0 -0.0011868137173989236 -0.00049227240365450726 0 -0.0012127140329686774 -0.00047985702183011832 0 -0.0011759052532692967 -0.00046768804255653193 0 -0.0017585727446533296 -0.0001807778621370046 0 -0.001513586710712582 -0.00034869846364468681 0 -0.0022470028380859744 -0.00010156297862558374 0 -0.002182982954167439 -4.8020539673739146e-05 0 -0.0022821955769274406 -3.4120722925577561e-05 0 -0.0010696246266865966 -0.0004226126069931066 0 -0.0011384153940061142 -0.00037026878902147022 0 -0.001080675683647036 -0.00035504590759363925 0 -0.0010696246266865966 -0.0004226126069931066 0 -0.0011384153940061142 -0.00037026878902147022 0 -0.0011477872446934944 -0.00044657844936432764 0 -0.0012420082552424469 -0.00044664464133595711 0 -0.0011977932258656571 -0.00039532277871699966 0 -0.0011477872446934944 -0.00044657844936432764 0 -0.0011384153940061142 -0.00037026878902147022 0 -0.0011977932258656571 -0.00039532277871699966 0 -0.0011477872446934944 -0.00044657844936432764 0 -0.0011384153940061142 -0.00037026878902147022 0 -0.0011977932258656571 -0.00039532277871699966 0 -0.0012113716021587627 -0.00034280519472790411 0 -0.0011384153940061142 -0.00037026878902147022 0 -0.0012113716021587627 -0.00034280519472790411 0 -0.0011712348961793759 -0.000311985735154369 0 -0.0012113716021587627 -0.00034280519472790411 0 -0.0011712348961793759 -0.000311985735154369 0 -0.0012410728275428675 -0.00028320947515899243 0 -0.0011712348961793759 -0.000311985735154369 0 -0.0011112311706756089 -0.0003142381348612495 0 -0.0011500952618112925 -0.00027523785001205424 0 -0.0011384153940061142 -0.00037026878902147022 0 -0.0011712348961793759 -0.000311985735154369 0 -0.0011112311706756089 -0.0003142381348612495 0 -0.0011384153940061142 -0.00037026878902147022 0 -0.001080675683647036 -0.00035504590759363925 0 -0.0011112311706756089 -0.0003142381348612495 0 -0.001080675683647036 -0.00035504590759363925 0 -0.0011112311706756089 -0.0003142381348612495 0 -0.0010563102090765215 -0.00030598420250511546 0 -0.0010563102090765215 -0.00030598420250511546 0 -0.0010195549689387331 -0.00036482762822447946 0 -0.00098805246535479583 -0.00030416036686883765 0 -0.001080675683647036 -0.00035504590759363925 0 -0.0010563102090765215 -0.00030598420250511546 0 -0.0010195549689387331 -0.00036482762822447946 0 -0.0010195549689387331 -0.00036482762822447946 0 -0.00093121251303925328 -0.00037025485596740268 0 -0.00098805246535479583 -0.00030416036686883765 0 -0.00093121251303925328 -0.00037025485596740268 0 -0.00098805246535479583 -0.00030416036686883765 0 -0.00088832856850644295 -0.00028064303773957754 0 -0.0010195549689387331 -0.00036482762822447946 0 -0.00093121251303925328 -0.00037025485596740268 0 -0.000980320215968708 -0.00042717994640966193 0 -0.00093121251303925328 -0.00037025485596740268 0 -0.000980320215968708 -0.00042717994640966193 0 -0.00088962473322433888 -0.0004634093532277478 0 -0.0010696246266865966 -0.0004226126069931066 0 -0.001080675683647036 -0.00035504590759363925 0 -0.0010195549689387331 -0.00036482762822447946 0 -0.0010696246266865966 -0.0004226126069931066 0 -0.0010195549689387331 -0.00036482762822447946 0 -0.000980320215968708 -0.00042717994640966193 0 -0.0010696246266865966 -0.0004226126069931066 0 -0.000980320215968708 -0.00042717994640966193 0 -0.0010050676938344119 -0.00049695043141934991 0 -0.0010696246266865966 -0.0004226126069931066 0 -0.0010050676938344119 -0.00049695043141934991 0 -0.0010933133568049023 -0.00050584995849879797 0 -0.000980320215968708 -0.00042717994640966193 0 -0.0010050676938344119 -0.00049695043141934991 0 -0.00088962473322433888 -0.0004634093532277478 0 -0.0010050676938344119 -0.00049695043141934991 0 -0.00094635844533223117 -0.00054478810205530099 0 -0.00088962473322433888 -0.0004634093532277478 0 -0.0010050676938344119 -0.00049695043141934991 0 -0.0010047573440729422 -0.00056044974551887068 0 -0.00094635844533223117 -0.00054478810205530099 0 -0.0010050676938344119 -0.00049695043141934991 0 -0.0010933133568049023 -0.00050584995849879797 0 -0.0010515438655449472 -0.00054687761362231765 0 -0.0010050676938344119 -0.00049695043141934991 0 -0.0010515438655449472 -0.00054687761362231765 0 -0.0010047573440729422 -0.00056044974551887068 0 -0.0010696246266865966 -0.0004226126069931066 0 -0.0010933133568049023 -0.00050584995849879797 0 -0.0011477872446934944 -0.00044657844936432764 0 -0.0012420082552424469 -0.00044664464133595711 0 -0.0011477872446934944 -0.00044657844936432764 0 -0.0011474611730171718 -0.00052430967365311271 0 -0.0010933133568049023 -0.00050584995849879797 0 -0.0011474611730171718 -0.00052430967365311271 0 -0.0010925157608244638 -0.00057978347518610352 0 -0.0010933133568049023 -0.00050584995849879797 0 -0.0011477872446934944 -0.00044657844936432764 0 -0.0011474611730171718 -0.00052430967365311271 0 -0.0011433278399855598 -0.00056753359597458517 0 -0.0011474611730171718 -0.00052430967365311271 0 -0.0010925157608244638 -0.00057978347518610352 0 -0.0010515438655449472 -0.00054687761362231765 0 -0.0010925157608244638 -0.00057978347518610352 0 -0.001036319308577929 -0.00058776695707773833 0 -0.0010933133568049023 -0.00050584995849879797 0 -0.0010515438655449472 -0.00054687761362231765 0 -0.0010925157608244638 -0.00057978347518610352 0 -0.0010925157608244638 -0.00057978347518610352 0 -0.0011016973344083745 -0.00062718337628128013 0 -0.0010508492897336806 -0.00062388923517734036 0 -0.0010925157608244638 -0.00057978347518610352 0 -0.0010508492897336806 -0.00062388923517734036 0 -0.001036319308577929 -0.00058776695707773833 0 -0.0011349937750301778 -0.00060413209924771851 0 -0.0011433278399855598 -0.00056753359597458517 0 -0.0010925157608244638 -0.00057978347518610352 0 -0.0011349937750301778 -0.00060413209924771851 0 -0.0010925157608244638 -0.00057978347518610352 0 -0.0011016973344083745 -0.00062718337628128013 0 -0.00032396577827719736 -0.00049788288866350102 0 -0.00042264365887884341 -0.00052152302312376904 0 0.00048877230167065629 -0.00033331338026695129 0 0.00032249335143020165 -0.00038594416261025582 0 0.00042992452234733036 -0.00017838669364843708 0 0.00032249335143020165 -0.00038594416261025582 0 0.00042992452234733036 -0.00017838669364843708 0 0.0002685479353502024 -0.00020600284961166932 0 0.00057406697114158482 -0.00018938380109516923 0 0.00048877230167065629 -0.00033331338026695129 0 0.00042992452234733036 -0.00017838669364843708 0 0.00025340189445962447 -0.00022443190716066818 0 0.00026298868417667253 -0.00022475066218306052 0 0.00026172071553170817 -0.00021291836066548951 0 0.00025340189445962447 -0.00022443190716066818 0 0.00026172071553170817 -0.00021291836066548951 0 0.00024779254907906432 -0.00021730861443017835 0 0.00029897950010817243 -0.00017862765675753895 0 -9.2701435731465251e-05 -0.00040280134311204317 0 0.00032249335143020165 -0.00038594416261025582 0 0.0002685479353502024 -0.00020600284961166932 0 0.00014746392419523729 -0.00043504954356547807 0 0.00026172071553170817 -0.00021291836066548951 0 0.00024779254907906432 -0.00021730861443017835 0 0.00025449384323380879 -0.00019987528020535116 0 0.00026172071553170817 -0.00021291836066548951 0 0.00026483732208021154 -0.00020274898102441648 0 0.00025449384323380879 -0.00019987528020535116 0 0.00026483732208021154 -0.00020274898102441648 0 0.00025449384323380879 -0.00019987528020535116 0 0.00026834130048255015 -0.000196016143439847 0 0.00028319448042716388 -0.00020511853452592318 0 0.00029110546024198097 -0.00020901471357748127 0 0.0002873084885305602 -0.00020319709219774809 0 -9.2701435731465251e-05 -0.00040280134311204317 0 0.00034299203467604933 -0.00018250509697156876 0 -0.0010508492897336806 -0.00062388923517734036 0 -0.00098936265495680378 -0.00061443258952458598 0 -0.001036319308577929 -0.00058776695707773833 0 -0.00042264365887884341 -0.00052152302312376904 0 -9.2701435731465251e-05 -0.00040280134311204317 0 -0.00098936265495680378 -0.00061443258952458598 0 -0.001036319308577929 -0.00058776695707773833 0 -0.0010047573440729422 -0.00056044974551887068 0 -0.0010515438655449472 -0.00054687761362231765 0 -0.001036319308577929 -0.00058776695707773833 0 -0.0010047573440729422 -0.00056044974551887068 0 -9.2701435731465251e-05 -0.00040280134311204317 0 -0.00036700433903097786 -0.00038831115906670812 0 -0.00098936265495680378 -0.00061443258952458598 0 -0.0010047573440729422 -0.00056044974551887068 0 -0.00094635844533223117 -0.00054478810205530099 0 0.00029110546024198097 -0.00020901471357748127 0 0.00028724848224414884 -0.0002056593037776355 0 0.0002873084885305602 -0.00020319709219774809 0 0.00028724848224414884 -0.0002056593037776355 0 0.0002809660957055089 -0.00020638042587070436 0 0.00028163435071319932 -0.00019681451959372627 0 0.0002809660957055089 -0.00020638042587070436 0 0.00028163435071319932 -0.00019681451959372627 0 0.00028105535203515672 -0.00019381010619091635 0 0.00028163435071319932 -0.00019681451959372627 0 0.00028316431774226607 -0.0001945559286162151 0 0.00028105535203515672 -0.00019381010619091635 0 0.00028163435071319932 -0.00019681451959372627 0 0.00027423740572240742 -0.00020222468145902081 0 0.00028316431774226607 -0.0001945559286162151 0 0.00028724848224414884 -0.0002056593037776355 0 0.00028163435071319932 -0.00019681451959372627 0 0.0002873084885305602 -0.00020319709219774809 0 0.00025931422732545286 -0.00020369242955841748 0 0.00034299203467604933 -0.00018250509697156876 0 0.00028163435071319932 -0.00019681451959372627 0 0.00026834130048255015 -0.000196016143439847 0 0.00027423740572240742 -0.00020222468145902081 0 0.00026483732208021154 -0.00020274898102441648 0 0.00026834130048255015 -0.000196016143439847 0 0.00027423740572240742 -0.00020222468145902081 0 0.00026172071553170817 -0.00021291836066548951 0 0.00027423740572240742 -0.00020222468145902081 0 0.00027701380516787681 -0.00021027476492018713 0 0.00026172071553170817 -0.00021291836066548951 0 0.00026483732208021154 -0.00020274898102441648 0 0.00027423740572240742 -0.00020222468145902081 0 0.00027423740572240742 -0.00020222468145902081 0 0.00027701380516787681 -0.00021027476492018713 0 0.00028316431774226607 -0.0001945559286162151 0 0.00027970976241989306 -0.00022573445029145783 0 0.00027701380516787681 -0.00021027476492018713 0 0.00029190003712126726 -0.0002104837581076223 0 0.00026298868417667253 -0.00022475066218306052 0 0.00026172071553170817 -0.00021291836066548951 0 0.00027701380516787681 -0.00021027476492018713 0 0.00027970976241989306 -0.00022573445029145783 0 0.00026298868417667253 -0.00022475066218306052 0 0.00027701380516787681 -0.00021027476492018713 0 0.00031855554170189806 -0.00021663829585711486 0 0.00031256915070545198 -0.00018169143739913912 0 0.00029190003712126726 -0.0002104837581076223 0 0.00027701380516787681 -0.00021027476492018713 0 0.00029190003712126726 -0.0002104837581076223 0 0.00028316431774226607 -0.0001945559286162151 0 0.00029190003712126726 -0.0002104837581076223 0 0.00028316431774226607 -0.0001945559286162151 0 0.00029150721846305395 -0.00018118432730794686 0 0.00031256915070545198 -0.00018169143739913912 0 0.00029190003712126726 -0.0002104837581076223 0 0.00029150721846305395 -0.00018118432730794686 0 0.00026977842812485797 -0.00018477314600487386 0 0.00029150721846305395 -0.00018118432730794686 0 0.00028236590491194537 -0.00018761764244544597 0 0.00028316431774226607 -0.0001945559286162151 0 0.00028236590491194537 -0.00018761764244544597 0 0.00028105535203515672 -0.00019381010619091635 0 0.00028316431774226607 -0.0001945559286162151 0 0.00029150721846305395 -0.00018118432730794686 0 0.00028236590491194537 -0.00018761764244544597 0 0.00028236590491194537 -0.00018761764244544597 0 0.00028105535203515672 -0.00019381010619091635 0 0.00027675894222800265 -0.00019572786117590113 0 0.0002809660957055089 -0.00020638042587070436 0 0.00027675894222800265 -0.00019572786117590113 0 0.00026720436813810626 -0.00021017614491285988 0 0.0002809660957055089 -0.00020638042587070436 0 0.00028105535203515672 -0.00019381010619091635 0 0.00027675894222800265 -0.00019572786117590113 0 0.00026977842812485797 -0.00018477314600487386 0 0.00028236590491194537 -0.00018761764244544597 0 0.00027675894222800265 -0.00019572786117590113 0 0.00026977842812485797 -0.00018477314600487386 0 0.00027675894222800265 -0.00019572786117590113 0 0.00026720436813810626 -0.00021017614491285988 0 0.00026977842812485797 -0.00018477314600487386 0 0.0002482917765153977 -0.00021417164511168156 0 0.00026720436813810626 -0.00021017614491285988 0 0.0002482917765153977 -0.00021417164511168156 0 0.00026720436813810626 -0.00021017614491285988 0 0.00024584275021882177 -0.00024311882685483413 0 0.00024584275021882177 -0.00024311882685483413 0 0.00027319215257035648 -0.00023163541051561377 0 0.00025016119651448431 -0.00028449895181244424 0 0.00026720436813810626 -0.00021017614491285988 0 0.00024584275021882177 -0.00024311882685483413 0 0.00027319215257035648 -0.00023163541051561377 0 0.0002809660957055089 -0.00020638042587070436 0 0.00026720436813810626 -0.00021017614491285988 0 0.00027319215257035648 -0.00023163541051561377 0 0.0002809660957055089 -0.00020638042587070436 0 0.00027319215257035648 -0.00023163541051561377 0 0.00029703153497577842 -0.00023579934487483832 0 0.00028724848224414884 -0.0002056593037776355 0 0.0002809660957055089 -0.00020638042587070436 0 0.00029703153497577842 -0.00023579934487483832 0 -0.00036700433903097786 -0.00038831115906670812 0 -0.00028986111034506488 -0.00034568814544032653 0 0.00029110546024198097 -0.00020901471357748127 0 0.00028724848224414884 -0.0002056593037776355 0 0.00029703153497577842 -0.00023579934487483832 0 0.00027319215257035648 -0.00023163541051561377 0 0.00029703153497577842 -0.00023579934487483832 0 0.00028767579796270897 -0.00028482606128842373 0 -0.00028986111034506488 -0.00034568814544032653 0 -0.00026804434542737046 -0.00032680365110864201 0 -0.00093121251303925328 -0.00037025485596740268 0 -0.00088962473322433888 -0.0004634093532277478 0 -0.00082137867676247971 -0.000366602968360915 0 -0.00093121251303925328 -0.00037025485596740268 0 -0.00082137867676247971 -0.000366602968360915 0 -0.00088832856850644295 -0.00028064303773957754 0 -0.00026804434542737046 -0.00032680365110864201 0 -0.00024178694779243977 -0.00029407234799455633 0 0.00028767579796270897 -0.00028482606128842373 0 0.00025016119651448431 -0.00028449895181244424 0 0.00026148826058979355 -0.00034074151805269534 0 0.00021266343078110508 -0.00028272220588999625 0 0.00025016119651448431 -0.00028449895181244424 0 0.00021471047315823781 -0.00033230319050475124 0 0.00021266343078110508 -0.00028272220588999625 0 0.00024584275021882177 -0.00024311882685483413 0 0.00025016119651448431 -0.00028449895181244424 0 0.00027319215257035648 -0.00023163541051561377 0 0.00028767579796270897 -0.00028482606128842373 0 0.00025016119651448431 -0.00028449895181244424 0 -0.00024178694779243977 -0.00029407234799455633 0 -0.00020339621036061356 -0.0002761159332691196 0 -0.00074464496390809769 -0.00025778821278603126 0 -0.00081732281574623694 -0.00017216700333151747 0 -0.00065719245453291512 -0.00013565893396523394 0 0.00021158642522165898 -0.00036418063137738204 0 0.00026148826058979355 -0.00034074151805269534 0 0.00022876534454920066 -0.00038374526181680332 0 0.00025016119651448431 -0.00028449895181244424 0 0.00021471047315823781 -0.00033230319050475124 0 0.00026148826058979355 -0.00034074151805269534 0 0.00021158642522165898 -0.00036418063137738204 0 0.00021471047315823781 -0.00033230319050475124 0 0.00026148826058979355 -0.00034074151805269534 0 -0.00082137867676247971 -0.000366602968360915 0 -0.00074464496390809769 -0.00025778821278603126 0 -0.00088832856850644295 -0.00028064303773957754 0 -0.00088832856850644295 -0.00028064303773957754 0 -0.00092467660907671488 -0.00020019186219571156 0 -0.00096575916869824402 -0.00024408206558672123 0 -0.00092467660907671488 -0.00020019186219571156 0 -0.00081732281574623694 -0.00017216700333151747 0 -0.00089051559627279756 -0.00013717587083832844 0 -0.00088832856850644295 -0.00028064303773957754 0 -0.00092467660907671488 -0.00020019186219571156 0 -0.00081732281574623694 -0.00017216700333151747 0 -0.00092467660907671488 -0.00020019186219571156 0 -0.00089051559627279756 -0.00013717587083832844 0 -0.00097055773581015384 -0.00013984498346194686 0 -0.00074464496390809769 -0.00025778821278603126 0 -0.00088832856850644295 -0.00028064303773957754 0 -0.00081732281574623694 -0.00017216700333151747 0 -0.00081732281574623694 -0.00017216700333151747 0 -0.000753723896133673 -9.6006672605873791e-05 0 -0.00085366401174504349 -7.4015791628474743e-05 0 -0.00089051559627279756 -0.00013717587083832844 0 -0.00085366401174504349 -7.4015791628474743e-05 0 -0.00094368673511553735 -8.4728684550728202e-05 0 -0.00081732281574623694 -0.00017216700333151747 0 -0.00089051559627279756 -0.00013717587083832844 0 -0.00085366401174504349 -7.4015791628474743e-05 0 -0.00085366401174504349 -7.4015791628474743e-05 0 -0.0008028018119650796 1.0691181728556238e-05 0 -0.00088968163050274704 1.6980876349460315e-05 0 -0.00093490301460961945 -2.810533285733482e-05 0 -0.00088968163050274704 1.6980876349460315e-05 0 -0.00099342131796048257 1.3502131288558691e-05 0 -0.00085366401174504349 -7.4015791628474743e-05 0 -0.00093490301460961945 -2.810533285733482e-05 0 -0.00094368673511553735 -8.4728684550728202e-05 0 -0.00085366401174504349 -7.4015791628474743e-05 0 -0.00093490301460961945 -2.810533285733482e-05 0 -0.00088968163050274704 1.6980876349460315e-05 0 -0.000753723896133673 -9.6006672605873791e-05 0 -0.00071777665291812142 -1.3422391800030797e-05 0 -0.0008028018119650796 1.0691181728556238e-05 0 -0.000753723896133673 -9.6006672605873791e-05 0 -0.00085366401174504349 -7.4015791628474743e-05 0 -0.0008028018119650796 1.0691181728556238e-05 0 -0.000753723896133673 -9.6006672605873791e-05 0 -0.00071777665291812142 -1.3422391800030797e-05 0 -0.00065719245453291512 -0.00013565893396523394 0 -0.00071777665291812142 -1.3422391800030797e-05 0 -0.00065719245453291512 -0.00013565893396523394 0 -0.00063850543154515252 8.2791196656542996e-06 0 -0.00081732281574623694 -0.00017216700333151747 0 -0.000753723896133673 -9.6006672605873791e-05 0 -0.00065719245453291512 -0.00013565893396523394 0 0.0001919122028406003 -0.00038833728444297844 0 0.00021158642522165898 -0.00036418063137738204 0 0.00022876534454920066 -0.00038374526181680332 0 -0.00020339621036061356 -0.0002761159332691196 0 -0.00026918443631900491 -0.00010082625800937369 0 -0.00065719245453291512 -0.00013565893396523394 0 -0.00056338732738022139 3.4468363360584782e-06 0 -0.00063850543154515252 8.2791196656542996e-06 0 0.0001919122028406003 -0.00038833728444297844 0 0.00022876534454920066 -0.00038374526181680332 0 0.00020441037026619371 -0.00041164786071013414 0 -0.00026918443631900491 -0.00010082625800937369 0 -0.0005788001157768617 0.0001125593413036454 0 -0.00056338732738022139 3.4468363360584782e-06 0 -0.00063850543154515252 8.2791196656542996e-06 0 -0.00058666719228107672 6.9486092793798895e-05 0 -0.00063850543154515252 8.2791196656542996e-06 0 -0.00058666719228107672 6.9486092793798895e-05 0 -0.00066713002654267316 6.8177854138868989e-05 0 -0.00043014638462979618 9.8820860192632136e-05 0 -0.00050949396112643676 -6.1485935075493081e-05 0 -0.00058666719228107672 6.9486092793798895e-05 0 -0.00071777665291812142 -1.3422391800030797e-05 0 -0.00066713002654267316 6.8177854138868989e-05 0 -0.00074296705533322366 5.8608702775739409e-05 0 -0.00071777665291812142 -1.3422391800030797e-05 0 -0.00063850543154515252 8.2791196656542996e-06 0 -0.00066713002654267316 6.8177854138868989e-05 0 -0.00066713002654267316 6.8177854138868989e-05 0 -0.00074296705533322366 5.8608702775739409e-05 0 -0.00071286656673206041 0.00015173223189549618 0 -0.00066713002654267316 6.8177854138868989e-05 0 -0.00071286656673206041 0.00015173223189549618 0 -0.0005931753579330887 0.00016480794760841632 0 -0.00071286656673206041 0.00015173223189549618 0 -0.0005931753579330887 0.00016480794760841632 0 -0.00064112148910308402 0.00024362864800631638 0 -0.00043014638462979618 9.8820860192632136e-05 0 -0.0005931753579330887 0.00016480794760841632 0 -0.00049987218127350939 0.00022108082958770167 0 -0.0005931753579330887 0.00016480794760841632 0 -0.00049987218127350939 0.00022108082958770167 0 -0.00064112148910308402 0.00024362864800631638 0 -0.00043014638462979618 9.8820860192632136e-05 0 -0.00058666719228107672 6.9486092793798895e-05 0 -0.0005931753579330887 0.00016480794760841632 0 -0.00058666719228107672 6.9486092793798895e-05 0 -0.00066713002654267316 6.8177854138868989e-05 0 -0.0005931753579330887 0.00016480794760841632 0 -0.00049987218127350939 0.00022108082958770167 0 -0.0005647153975880722 0.0003454028264151824 0 -0.00064112148910308402 0.00024362864800631638 0 -0.00043031321489813828 0.00033629194185383658 0 -0.00049987218127350939 0.00022108082958770167 0 -0.0005647153975880722 0.0003454028264151824 0 -0.00073106286389509022 0.00028344023221059736 0 -0.00064112148910308402 0.00024362864800631638 0 -0.00068669600635741794 0.00036556242634410742 0 -0.00064561011420338809 0.0002540662261062965 0 -0.00067972776809844182 0.00039007115479872118 0 -0.00071286656673206041 0.00015173223189549618 0 -0.00073106286389509022 0.00028344023221059736 0 -0.00064112148910308402 0.00024362864800631638 0 -0.0005647153975880722 0.0003454028264151824 0 -0.00064112148910308402 0.00024362864800631638 0 -0.00068431766919014464 0.00040546896784377618 0 -0.00068669600635741794 0.00036556242634410742 0 -0.00077128676220569845 0.00041559540776028555 0 -0.00072757565408429145 0.00050621770187632778 0 -0.00073106286389509022 0.00028344023221059736 0 -0.00068669600635741794 0.00036556242634410742 0 -0.00082784555418784374 0.00033787441903218216 0 -0.00043031321489813828 0.00033629194185383658 0 -0.0005647153975880722 0.0003454028264151824 0 -0.00057013226316382384 0.00052103330468503996 0 -0.0005647153975880722 0.0003454028264151824 0 -0.00068431766919014464 0.00040546896784377618 0 -0.00057013226316382384 0.00052103330468503996 0 -0.00037495311695532832 0.00028309961826915135 0 -0.00062053331969890953 0.00027891596407240147 0 -0.00082784555418784374 0.00033787441903218216 0 -0.00097781383657901994 0.00029963178552890762 0 -0.00094330363295545936 0.00042848547140585282 0 -0.0010311438483659389 0.00023199272948360895 0 -0.00094892429937585112 0.00041091136696643345 0 -0.0010921852769773469 0.00014551949000224132 0 -0.0011233263333882146 0.00034513938029639464 0 -0.00094330363295545936 0.00042848547140585282 0 -0.00082784555418784374 0.00033787441903218216 0 -0.0008424775791520049 0.00043776414465012661 0 -0.00094330363295545936 0.00042848547140585282 0 -0.00068669600635741794 0.00036556242634410742 0 -0.00077128676220569845 0.00041559540776028555 0 -0.00082784555418784374 0.00033787441903218216 0 -0.00077128676220569845 0.00041559540776028555 0 -0.00082784555418784374 0.00033787441903218216 0 -0.0008424775791520049 0.00043776414465012661 0 -0.00071286656673206041 0.00015173223189549618 0 -0.00073106286389509022 0.00028344023221059736 0 -0.00080735606689318941 0.00021662261641008094 0 -0.00073106286389509022 0.00028344023221059736 0 -0.00082784555418784374 0.00033787441903218216 0 -0.00080735606689318941 0.00021662261641008094 0 -0.00082784555418784374 0.00033787441903218216 0 -0.00080735606689318941 0.00021662261641008094 0 -0.00088096726070517758 0.00025665087135095475 0 -0.00080735606689318941 0.00021662261641008094 0 -0.00088096726070517758 0.00025665087135095475 0 -0.00091042848192012156 0.00017304903824801447 0 -0.00088096726070517758 0.00025665087135095475 0 -0.00091042848192012156 0.00017304903824801447 0 -0.00097781383657901994 0.00029963178552890762 0 -0.00082784555418784374 0.00033787441903218216 0 -0.00088096726070517758 0.00025665087135095475 0 -0.00097781383657901994 0.00029963178552890762 0 -0.00091042848192012156 0.00017304903824801447 0 -0.00081681167368070353 9.6001643087455579e-05 0 -0.0009516505041938354 8.6678348156900796e-05 0 -0.00071286656673206041 0.00015173223189549618 0 -0.00080735606689318941 0.00021662261641008094 0 -0.00081681167368070353 9.6001643087455579e-05 0 -0.00080735606689318941 0.00021662261641008094 0 -0.00091042848192012156 0.00017304903824801447 0 -0.00081681167368070353 9.6001643087455579e-05 0 -0.00074296705533322366 5.8608702775739409e-05 0 -0.00071286656673206041 0.00015173223189549618 0 -0.00081681167368070353 9.6001643087455579e-05 0 -0.00074296705533322366 5.8608702775739409e-05 0 -0.00081681167368070353 9.6001643087455579e-05 0 -0.0008028018119650796 1.0691181728556238e-05 0 -0.00081681167368070353 9.6001643087455579e-05 0 -0.0008028018119650796 1.0691181728556238e-05 0 -0.00088968163050274704 1.6980876349460315e-05 0 -0.00071777665291812142 -1.3422391800030797e-05 0 -0.00074296705533322366 5.8608702775739409e-05 0 -0.0008028018119650796 1.0691181728556238e-05 0 -0.00081681167368070353 9.6001643087455579e-05 0 -0.00088968163050274704 1.6980876349460315e-05 0 -0.0009516505041938354 8.6678348156900796e-05 0 -0.00088968163050274704 1.6980876349460315e-05 0 -0.0009516505041938354 8.6678348156900796e-05 0 -0.00099342131796048257 1.3502131288558691e-05 0 -0.0009516505041938354 8.6678348156900796e-05 0 -0.0010770017950104635 4.9724838496602514e-05 0 -0.0010242087102355143 0.00017223349166816101 0 -0.0009516505041938354 8.6678348156900796e-05 0 -0.00099342131796048257 1.3502131288558691e-05 0 -0.0010770017950104635 4.9724838496602514e-05 0 -0.0010106592136406287 -7.9049949996113349e-06 0 -0.0011554963029227975 -8.6392396501808338e-05 0 -0.0013819547064157299 -0.00040613650115068522 0 -0.0014368263800279535 -0.00014627416472590013 0 -0.0015943173782786404 -0.00030915695176342544 0 -0.0010889379632898427 -2.2601877382038668e-05 0 -0.0011236542519760583 -8.1713103953735074e-06 0 -0.0011177551065282047 -4.1582512533171722e-05 0 -0.00099342131796048257 1.3502131288558691e-05 0 -0.0010529740794435701 4.0775151721213523e-05 0 -0.0010399569592099798 -3.9055663738358883e-05 0 -0.0011554963029227975 -8.6392396501808338e-05 0 -0.0016586133307494085 -0.00014360334828272792 0 -0.0011554963029227975 -8.6392396501808338e-05 0 -0.0011441419683570126 1.8595685193813686e-07 0 -0.0013819547064157299 -0.00040613650115068522 0 -0.0014368263800279535 -0.00014627416472590013 0 -0.0012400516537438466 -0.00013284832194703124 0 -0.00091042848192012156 0.00017304903824801447 0 -0.0009516505041938354 8.6678348156900796e-05 0 -0.0010242087102355143 0.00017223349166816101 0 -0.0012400516537438466 -0.00013284832194703124 0 -0.0010921852769773469 0.00014551949000224132 0 -0.0013480921261786146 0.00012488612841212316 0 -0.00091042848192012156 0.00017304903824801447 0 -0.0010242087102355143 0.00017223349166816101 0 -0.00097781383657901994 0.00029963178552890762 0 -0.0011441419683570126 1.8595685193813686e-07 0 -0.0010311438483659389 0.00023199272948360895 0 -0.0014368263800279535 -0.00014627416472590013 0 -0.0013480921261786146 0.00012488612841212316 0 -0.0016191372651451924 -3.3590607813481882e-06 0 -0.0014368263800279535 -0.00014627416472590013 0 -0.0012400516537438466 -0.00013284832194703124 0 -0.0013480921261786146 0.00012488612841212316 0 -0.0013480921261786146 0.00012488612841212316 0 -0.0016452643367852924 0.00030801866274843368 0 -0.0012933139467102947 0.0004434210296640839 0 -0.0023575898501196498 6.5398020284273325e-05 0 -0.001873452966324046 0.00016119078108216877 0 -0.0013480921261786146 0.00012488612841212316 0 -0.0011233263333882146 0.00034513938029639464 0 -0.0012933139467102947 0.0004434210296640839 0 -0.0010921852769773469 0.00014551949000224132 0 -0.0013480921261786146 0.00012488612841212316 0 -0.0011233263333882146 0.00034513938029639464 0 -0.0026576629787768849 -7.0430218168315866e-05 0 -0.0026840020829615374 -5.9935701714617797e-05 0 -0.0026842102978129048 -9.496818041220208e-05 0 -0.0026576629787768849 -7.0430218168315866e-05 0 -0.0026840020829615374 -5.9935701714617797e-05 0 -0.0026672281305824531 -4.8486092422481692e-05 0 -0.0026576629787768849 -7.0430218168315866e-05 0 -0.0026109255955776324 -5.0933456281349782e-05 0 -0.0026005220995636261 -0.00011760230970101249 0 -0.0026576629787768849 -7.0430218168315866e-05 0 -0.0026465522321138736 -6.2601860100314436e-05 0 -0.0026672281305824531 -4.8486092422481692e-05 0 -0.002721734001514829 -9.1443712101066209e-05 0 -0.0023575898501196498 6.5398020284273325e-05 0 -0.0013480921261786146 0.00012488612841212316 0 -0.0016452643367852924 0.00030801866274843368 0 -0.0016191372651451924 -3.3590607813481882e-06 0 -0.0023575898501196498 6.5398020284273325e-05 0 -0.002122609630414747 -6.682199311937633e-05 0 -0.0026576629787768849 -7.0430218168315866e-05 0 -0.0026005220995636261 -0.00011760230970101249 0 -0.0026474688400020276 -0.00011537861152189716 0 -0.0026005220995636261 -0.00011760230970101249 0 -0.0026474688400020276 -0.00011537861152189716 0 -0.0026263433440491587 -0.00014117429674690338 0 -0.0026474688400020276 -0.00011537861152189716 0 -0.0026697903660147198 -0.00014566411175209301 0 -0.0026842102978129048 -9.496818041220208e-05 0 -0.0026576629787768849 -7.0430218168315866e-05 0 -0.0026474688400020276 -0.00011537861152189716 0 -0.0026842102978129048 -9.496818041220208e-05 0 -0.0020816595191281823 8.5749230899928702e-05 0 -0.0016586133307494085 -0.00014360334828272792 0 -0.0014111479176174765 0.00027703836930516632 0 -0.0013149682774530769 0.00015152337636362216 0 -0.0010934352777560818 0.00011883900024998544 0 -0.0026697903660147198 -0.00014566411175209301 0 -0.0026263433440491587 -0.00014117429674690338 0 -0.0025865433861217042 -0.00018642039163901451 0 -0.0026474688400020276 -0.00011537861152189716 0 -0.0026697903660147198 -0.00014566411175209301 0 -0.0026263433440491587 -0.00014117429674690338 0 -0.0014111479176174765 0.00027703836930516632 0 -0.0013149682774530769 0.00015152337636362216 0 -0.0015594224427034019 8.2568000753839373e-05 0 -0.002122609630414747 -6.682199311937633e-05 0 -0.0016586133307494085 -0.00014360334828272792 0 -0.0026005220995636261 -0.00011760230970101249 0 -0.0026263433440491587 -0.00014117429674690338 0 -0.0025865433861217042 -0.00018642039163901451 0 -0.0014368263800279535 -0.00014627416472590013 0 -0.0016191372651451924 -3.3590607813481882e-06 0 -0.0015943173782786404 -0.00030915695176342544 0 -0.0013149682774530769 0.00015152337636362216 0 -0.0010934352777560818 0.00011883900024998544 0 -0.0011832670323113077 6.3219865793969483e-05 0 -0.0011832670323113077 6.3219865793969483e-05 0 -0.0012309915444075614 1.2082775742689388e-05 0 -0.0011154752550710965 -9.4204231834390462e-07 0 -0.0016586133307494085 -0.00014360334828272792 0 -0.0011400611111672863 3.8668306576123715e-06 0 -0.0010934352777560818 0.00011883900024998544 0 -0.0011832670323113077 6.3219865793969483e-05 0 -0.0011154752550710965 -9.4204231834390462e-07 0 -0.0013149682774530769 0.00015152337636362216 0 -0.0011832670323113077 6.3219865793969483e-05 0 -0.0012309915444075614 1.2082775742689388e-05 0 -0.0013144140442879098 0.00013452032986359941 0 -0.0014665898293488859 -0.00014574208353300679 0 -0.0013149682774530769 0.00015152337636362216 0 -0.0012309915444075614 1.2082775742689388e-05 0 -0.0013094770764996539 -3.2014675048529623e-05 0 -0.0012193335705208456 -7.5034928652126538e-05 0 -0.0012620979517790241 -0.00012281961012985401 0 -0.0013094770764996539 -3.2014675048529623e-05 0 -0.0012309915444075614 1.2082775742689388e-05 0 -0.0012193335705208456 -7.5034928652126538e-05 0 -0.0013094770764996539 -3.2014675048529623e-05 0 -0.0012309915444075614 1.2082775742689388e-05 0 -0.0012193335705208456 -7.5034928652126538e-05 0 -0.0011597005179750793 -6.1184125445763087e-05 0 -0.0012193335705208456 -7.5034928652126538e-05 0 -0.0011966338913711164 -0.00013605406331854429 0 -0.0012620979517790241 -0.00012281961012985401 0 -0.0012193335705208456 -7.5034928652126538e-05 0 -0.0011966338913711164 -0.00013605406331854429 0 -0.0011608223289607442 -0.00010667182711948709 0 -0.0011966338913711164 -0.00013605406331854429 0 -0.0012219633916366235 -0.00017959922126070969 0 -0.0012620979517790241 -0.00012281961012985401 0 -0.0011178339461483922 -0.00012705650250622062 0 -0.0011430199039482785 -0.00015044518101072973 0 -0.0011013953292743769 -0.00016052071430336002 0 -0.0011178339461483922 -0.00012705650250622062 0 -0.0010987934429969406 -0.00010459385289990166 0 -0.0010800930906223194 -0.0001311992232208647 0 -0.0011178339461483922 -0.00012705650250622062 0 -0.0010800930906223194 -0.0001311992232208647 0 -0.0011013953292743769 -0.00016052071430336002 0 -0.0011966338913711164 -0.00013605406331854429 0 -0.0011430199039482785 -0.00015044518101072973 0 -0.0011608223289607442 -0.00010667182711948709 0 -0.0011178339461483922 -0.00012705650250622062 0 -0.0011430199039482785 -0.00015044518101072973 0 -0.0011608223289607442 -0.00010667182711948709 0 -0.0011608223289607442 -0.00010667182711948709 0 -0.0011295955045730467 -9.6372189487189873e-05 0 -0.0011597005179750793 -6.1184125445763087e-05 0 -0.0012193335705208456 -7.5034928652126538e-05 0 -0.0011608223289607442 -0.00010667182711948709 0 -0.0011597005179750793 -6.1184125445763087e-05 0 -0.0011295955045730467 -9.6372189487189873e-05 0 -0.0011123542357808474 -8.1738409053700806e-05 0 -0.0011597005179750793 -6.1184125445763087e-05 0 -0.0011178339461483922 -0.00012705650250622062 0 -0.0011608223289607442 -0.00010667182711948709 0 -0.0011295955045730467 -9.6372189487189873e-05 0 -0.0011178339461483922 -0.00012705650250622062 0 -0.0011295955045730467 -9.6372189487189873e-05 0 -0.0010987934429969406 -0.00010459385289990166 0 -0.0011123542357808474 -8.1738409053700806e-05 0 -0.0010987934429969406 -0.00010459385289990166 0 -0.0010916188837212918 -8.8767197720955154e-05 0 -0.0011123542357808474 -8.1738409053700806e-05 0 -0.0011061406687121751 -7.2713483134152036e-05 0 -0.0010916188837212918 -8.8767197720955154e-05 0 -0.0011295955045730467 -9.6372189487189873e-05 0 -0.0011123542357808474 -8.1738409053700806e-05 0 -0.0010987934429969406 -0.00010459385289990166 0 -0.0011123542357808474 -8.1738409053700806e-05 0 -0.0011061406687121751 -7.2713483134152036e-05 0 -0.0011177551065282047 -4.1582512533171722e-05 0 -0.001114391059093503 -8.0757738819420803e-05 0 -0.0011400611111672863 3.8668306576123715e-06 0 -0.0011123542357808474 -8.1738409053700806e-05 0 -0.0011597005179750793 -6.1184125445763087e-05 0 -0.0011154752550710965 -9.4204231834390462e-07 0 -0.0012309915444075614 1.2082775742689388e-05 0 -0.0011597005179750793 -6.1184125445763087e-05 0 -0.0011154752550710965 -9.4204231834390462e-07 0 -0.0011554963029227975 -8.6392396501808338e-05 0 -0.0010769411769825225 -2.5433050634628392e-05 0 -0.0010889379632898427 -2.2601877382038668e-05 0 -0.0011061406687121751 -7.2713483134152036e-05 0 -0.0011177551065282047 -4.1582512533171722e-05 0 -0.0010529740794435701 4.0775151721213523e-05 0 -0.0011061406687121751 -7.2713483134152036e-05 0 -0.0010399569592099798 -3.9055663738358883e-05 0 -0.0010399569592099798 -3.9055663738358883e-05 0 -0.0010669870917600702 -6.7175104922077299e-05 0 -0.0010202914971633986 -8.5216696413227479e-05 0 -0.0011061406687121751 -7.2713483134152036e-05 0 -0.0010399569592099798 -3.9055663738358883e-05 0 -0.0010669870917600702 -6.7175104922077299e-05 0 -0.0011061406687121751 -7.2713483134152036e-05 0 -0.0010669870917600702 -6.7175104922077299e-05 0 -0.0010833987966114376 -8.1906827743952033e-05 0 -0.00093490301460961945 -2.810533285733482e-05 0 -0.00099342131796048257 1.3502131288558691e-05 0 -0.00098731074838295492 -4.4186811262467225e-05 0 -0.00099342131796048257 1.3502131288558691e-05 0 -0.0010399569592099798 -3.9055663738358883e-05 0 -0.00098731074838295492 -4.4186811262467225e-05 0 -0.0010399569592099798 -3.9055663738358883e-05 0 -0.00098731074838295492 -4.4186811262467225e-05 0 -0.0010202914971633986 -8.5216696413227479e-05 0 -0.00098731074838295492 -4.4186811262467225e-05 0 -0.00094368673511553735 -8.4728684550728202e-05 0 -0.0010202914971633986 -8.5216696413227479e-05 0 -0.00093490301460961945 -2.810533285733482e-05 0 -0.00098731074838295492 -4.4186811262467225e-05 0 -0.00094368673511553735 -8.4728684550728202e-05 0 -0.00094368673511553735 -8.4728684550728202e-05 0 -0.00097055773581015384 -0.00013984498346194686 0 -0.0010202914971633986 -8.5216696413227479e-05 0 -0.00097055773581015384 -0.00013984498346194686 0 -0.0010202914971633986 -8.5216696413227479e-05 0 -0.0010301800589970075 -0.00013381101331790896 0 -0.00097055773581015384 -0.00013984498346194686 0 -0.0010301800589970075 -0.00013381101331790896 0 -0.001011475865015967 -0.000194529383285981 0 -0.00089051559627279756 -0.00013717587083832844 0 -0.00094368673511553735 -8.4728684550728202e-05 0 -0.00097055773581015384 -0.00013984498346194686 0 -0.0010683529100779794 -9.9680832929041881e-05 0 -0.0010987934429969406 -0.00010459385289990166 0 -0.0010800930906223194 -0.0001311992232208647 0 -0.0010683529100779794 -9.9680832929041881e-05 0 -0.0010987934429969406 -0.00010459385289990166 0 -0.0010916188837212918 -8.8767197720955154e-05 0 -0.0011061406687121751 -7.2713483134152036e-05 0 -0.0010916188837212918 -8.8767197720955154e-05 0 -0.0010833987966114376 -8.1906827743952033e-05 0 -0.0010683529100779794 -9.9680832929041881e-05 0 -0.0010916188837212918 -8.8767197720955154e-05 0 -0.0010833987966114376 -8.1906827743952033e-05 0 -0.0010669870917600702 -6.7175104922077299e-05 0 -0.0010683529100779794 -9.9680832929041881e-05 0 -0.0010833987966114376 -8.1906827743952033e-05 0 -0.0010683529100779794 -9.9680832929041881e-05 0 -0.0010202914971633986 -8.5216696413227479e-05 0 -0.0010301800589970075 -0.00013381101331790896 0 -0.0010669870917600702 -6.7175104922077299e-05 0 -0.0010683529100779794 -9.9680832929041881e-05 0 -0.0010202914971633986 -8.5216696413227479e-05 0 -0.0010683529100779794 -9.9680832929041881e-05 0 -0.0010301800589970075 -0.00013381101331790896 0 -0.0010800930906223194 -0.0001311992232208647 0 -0.0010301800589970075 -0.00013381101331790896 0 -0.0010800930906223194 -0.0001311992232208647 0 -0.001064089827544794 -0.00016140034628260886 0 -0.0010800930906223194 -0.0001311992232208647 0 -0.001064089827544794 -0.00016140034628260886 0 -0.0011013953292743769 -0.00016052071430336002 0 -0.001064089827544794 -0.00016140034628260886 0 -0.0010815993212895433 -0.00019928694530298342 0 -0.0011013953292743769 -0.00016052071430336002 0 -0.0010301800589970075 -0.00013381101331790896 0 -0.001064089827544794 -0.00016140034628260886 0 -0.001011475865015967 -0.000194529383285981 0 -0.001064089827544794 -0.00016140034628260886 0 -0.0010815993212895433 -0.00019928694530298342 0 -0.001011475865015967 -0.000194529383285981 0 -0.0010815993212895433 -0.00019928694530298342 0 -0.001011475865015967 -0.000194529383285981 0 -0.0010444484109702328 -0.00023526077173516708 0 -0.0010815993212895433 -0.00019928694530298342 0 -0.0010444484109702328 -0.00023526077173516708 0 -0.0011052162909805821 -0.0002248429817285328 0 -0.001011475865015967 -0.000194529383285981 0 -0.00096575916869824402 -0.00024408206558672123 0 -0.0010444484109702328 -0.00023526077173516708 0 -0.00092467660907671488 -0.00020019186219571156 0 -0.00097055773581015384 -0.00013984498346194686 0 -0.001011475865015967 -0.000194529383285981 0 -0.00092467660907671488 -0.00020019186219571156 0 -0.001011475865015967 -0.000194529383285981 0 -0.00096575916869824402 -0.00024408206558672123 0 -0.00098805246535479583 -0.00030416036686883765 0 -0.00088832856850644295 -0.00028064303773957754 0 -0.00096575916869824402 -0.00024408206558672123 0 -0.00098805246535479583 -0.00030416036686883765 0 -0.00096575916869824402 -0.00024408206558672123 0 -0.0010444484109702328 -0.00023526077173516708 0 -0.0010444484109702328 -0.00023526077173516708 0 -0.00108919826898256 -0.00026021212610865532 0 -0.0011052162909805821 -0.0002248429817285328 0 -0.0010563102090765215 -0.00030598420250511546 0 -0.00098805246535479583 -0.00030416036686883765 0 -0.0010444484109702328 -0.00023526077173516708 0 -0.0010563102090765215 -0.00030598420250511546 0 -0.0010444484109702328 -0.00023526077173516708 0 -0.00108919826898256 -0.00026021212610865532 0 -0.0011112311706756089 -0.0003142381348612495 0 -0.00108919826898256 -0.00026021212610865532 0 -0.0011500952618112925 -0.00027523785001205424 0 -0.0011112311706756089 -0.0003142381348612495 0 -0.0010563102090765215 -0.00030598420250511546 0 -0.00108919826898256 -0.00026021212610865532 0 -0.00108919826898256 -0.00026021212610865532 0 -0.0011433050678514504 -0.00023340171903957923 0 -0.0011052162909805821 -0.0002248429817285328 0 -0.0011433050678514504 -0.00023340171903957923 0 -0.0011500952618112925 -0.00027523785001205424 0 -0.0011877839524483608 -0.00022887246701609146 0 -0.00108919826898256 -0.00026021212610865532 0 -0.0011433050678514504 -0.00023340171903957923 0 -0.0011500952618112925 -0.00027523785001205424 0 -0.0011712348961793759 -0.000311985735154369 0 -0.0011500952618112925 -0.00027523785001205424 0 -0.0011966208271917496 -0.00026716834473257097 0 -0.0011712348961793759 -0.000311985735154369 0 -0.0011966208271917496 -0.00026716834473257097 0 -0.0012410728275428675 -0.00028320947515899243 0 -0.0011966208271917496 -0.00026716834473257097 0 -0.0012442684060256961 -0.00022918296466465602 0 -0.0012410728275428675 -0.00028320947515899243 0 -0.0011966208271917496 -0.00026716834473257097 0 -0.0011877839524483608 -0.00022887246701609146 0 -0.0012442684060256961 -0.00022918296466465602 0 -0.0011500952618112925 -0.00027523785001205424 0 -0.0011966208271917496 -0.00026716834473257097 0 -0.0011877839524483608 -0.00022887246701609146 0 -0.0011433050678514504 -0.00023340171903957923 0 -0.0011877839524483608 -0.00022887246701609146 0 -0.0011701474760985652 -0.0001872912911072577 0 -0.0011877839524483608 -0.00022887246701609146 0 -0.0012219633916366235 -0.00017959922126070969 0 -0.0011701474760985652 -0.0001872912911072577 0 -0.0011877839524483608 -0.00022887246701609146 0 -0.0012219633916366235 -0.00017959922126070969 0 -0.0012442684060256961 -0.00022918296466465602 0 -0.0012219633916366235 -0.00017959922126070969 0 -0.0012729591597176462 -0.00017813673107804342 0 -0.0012620979517790241 -0.00012281961012985401 0 -0.0011966338913711164 -0.00013605406331854429 0 -0.0012219633916366235 -0.00017959922126070969 0 -0.0011701474760985652 -0.0001872912911072577 0 -0.0011966338913711164 -0.00013605406331854429 0 -0.0011430199039482785 -0.00015044518101072973 0 -0.0011701474760985652 -0.0001872912911072577 0 -0.0011430199039482785 -0.00015044518101072973 0 -0.0011701474760985652 -0.0001872912911072577 0 -0.0011257493421968337 -0.00019223354796587321 0 -0.0011430199039482785 -0.00015044518101072973 0 -0.0011257493421968337 -0.00019223354796587321 0 -0.0011013953292743769 -0.00016052071430336002 0 -0.0010815993212895433 -0.00019928694530298342 0 -0.0011257493421968337 -0.00019223354796587321 0 -0.0011013953292743769 -0.00016052071430336002 0 -0.0011433050678514504 -0.00023340171903957923 0 -0.0011257493421968337 -0.00019223354796587321 0 -0.0011052162909805821 -0.0002248429817285328 0 -0.0010815993212895433 -0.00019928694530298342 0 -0.0011257493421968337 -0.00019223354796587321 0 -0.0011052162909805821 -0.0002248429817285328 0 -0.0011433050678514504 -0.00023340171903957923 0 -0.0011701474760985652 -0.0001872912911072577 0 -0.0011257493421968337 -0.00019223354796587321 0 -0.0019652202042731897 -0.00036833752498494754 0 -0.0016032524450848419 -0.00040198518031025354 0 -0.0013423026542840686 -0.00020800876248602327 0 -0.0013978073472925808 -0.00024408688956139551 0 -0.0013408201488563779 -0.00014230398214795155 0 -0.0020985874554687945 -0.00080905597294199242 0 -0.0020876654400682907 -0.00062094606770255302 0 -0.0019238222131943157 -0.00062880463930193144 0 -0.0013423026542840686 -0.00020800876248602327 0 -0.001302992306493358 -0.00020995642191639949 0 -0.0013298567925784683 -0.00025342764414230858 0 -0.0013423026542840686 -0.00020800876248602327 0 -0.001302992306493358 -0.00020995642191639949 0 -0.0013408201488563779 -0.00014230398214795155 0 -0.0012729591597176462 -0.00017813673107804342 0 -0.001302992306493358 -0.00020995642191639949 0 -0.0013408201488563779 -0.00014230398214795155 0 -0.0012729591597176462 -0.00017813673107804342 0 -0.001302992306493358 -0.00020995642191639949 0 -0.0012442684060256961 -0.00022918296466465602 0 -0.0012219633916366235 -0.00017959922126070969 0 -0.0012729591597176462 -0.00017813673107804342 0 -0.0012442684060256961 -0.00022918296466465602 0 -0.001302992306493358 -0.00020995642191639949 0 -0.0012848735629817818 -0.00025244813520128133 0 -0.0012442684060256961 -0.00022918296466465602 0 -0.001302992306493358 -0.00020995642191639949 0 -0.0012848735629817818 -0.00025244813520128133 0 -0.0013298567925784683 -0.00025342764414230858 0 -0.0012848735629817818 -0.00025244813520128133 0 -0.0012442684060256961 -0.00022918296466465602 0 -0.0012410728275428675 -0.00028320947515899243 0 -0.0012848735629817818 -0.00025244813520128133 0 -0.0012410728275428675 -0.00028320947515899243 0 -0.0012910182066231477 -0.00027794891373802467 0 -0.0012848735629817818 -0.00025244813520128133 0 -0.0012910182066231477 -0.00027794891373802467 0 -0.0013298567925784683 -0.00025342764414230858 0 -0.0012716933324628059 -0.00031479941258249702 0 -0.0012410728275428675 -0.00028320947515899243 0 -0.0012910182066231477 -0.00027794891373802467 0 -0.0012716933324628059 -0.00031479941258249702 0 -0.0012910182066231477 -0.00027794891373802467 0 -0.0013276216948725802 -0.00028657500214134191 0 -0.0017585727446533296 -0.0001807778621370046 0 -0.0019652202042731897 -0.00036833752498494754 0 -0.0013296859638726622 -0.00034627831158945681 0 -0.0013276216948725802 -0.00028657500214134191 0 -0.0013978073472925808 -0.00024408688956139551 0 -0.0012910182066231477 -0.00027794891373802467 0 -0.0013276216948725802 -0.00028657500214134191 0 -0.0013298567925784683 -0.00025342764414230858 0 -0.0013423026542840686 -0.00020800876248602327 0 -0.0013298567925784683 -0.00025342764414230858 0 -0.0013978073472925808 -0.00024408688956139551 0 -0.0013276216948725802 -0.00028657500214134191 0 -0.0013298567925784683 -0.00025342764414230858 0 -0.0013978073472925808 -0.00024408688956139551 0 -0.0021821910107499005 -0.00016431096134049365 0 -0.0021617415002755875 -0.0002141057903528207 0 -0.0021818741737015235 -0.0002484989308172187 0 -0.0021360232222267495 -0.00014699735273167891 0 -0.0021821910107499005 -0.00016431096134049365 0 -0.0021617415002755875 -0.0002141057903528207 0 -0.0021617415002755875 -0.0002141057903528207 0 -0.0021142503059191423 -0.00019284521692307542 0 -0.0021157988626321483 -0.00026845706976306907 0 -0.0021360232222267495 -0.00014699735273167891 0 -0.0021617415002755875 -0.0002141057903528207 0 -0.0021142503059191423 -0.00019284521692307542 0 -0.0021142503059191423 -0.00019284521692307542 0 -0.0021157988626321483 -0.00026845706976306907 0 -0.00207772730098145 -0.00023005070600860562 0 -0.0021617415002755875 -0.0002141057903528207 0 -0.0021157988626321483 -0.00026845706976306907 0 -0.0021945312904464781 -0.0002597523249504366 0 -0.0020323872603964428 -0.00031720224120109137 0 -0.0019652202042731897 -0.00036833752498494754 0 -0.0019691361359425391 -0.00018049753488491845 0 -0.0020092692834916045 -0.0001912107831679437 0 -0.0019855527570114126 -0.00024287009826099785 0 -0.002008200380947235 -0.00014768433897387884 0 -0.0019691361359425391 -0.00018049753488491845 0 -0.0020092692834916045 -0.0001912107831679437 0 -0.002008200380947235 -0.00014768433897387884 0 -0.0020092692834916045 -0.0001912107831679437 0 -0.0020558264278557046 -0.00018392530317520885 0 -0.0020092692834916045 -0.0001912107831679437 0 -0.0020332067961473647 -0.00022618309618865275 0 -0.0019855527570114126 -0.00024287009826099785 0 -0.0020332067961473647 -0.00022618309618865275 0 -0.0020558264278557046 -0.00018392530317520885 0 -0.00207772730098145 -0.00023005070600860562 0 -0.0020092692834916045 -0.0001912107831679437 0 -0.0020332067961473647 -0.00022618309618865275 0 -0.0020558264278557046 -0.00018392530317520885 0 -0.0020895391313888395 -0.00015223483642639896 0 -0.0021142503059191423 -0.00019284521692307542 0 -0.0020558264278557046 -0.00018392530317520885 0 -0.0021142503059191423 -0.00019284521692307542 0 -0.0020558264278557046 -0.00018392530317520885 0 -0.00207772730098145 -0.00023005070600860562 0 -0.0021157988626321483 -0.00026845706976306907 0 -0.00207772730098145 -0.00023005070600860562 0 -0.0020476375641215487 -0.00026987179441400212 0 -0.0021157988626321483 -0.00026845706976306907 0 -0.0020476375641215487 -0.00026987179441400212 0 -0.0020754532203056566 -0.00033319192404583848 0 -0.0020332067961473647 -0.00022618309618865275 0 -0.00207772730098145 -0.00023005070600860562 0 -0.0020476375641215487 -0.00026987179441400212 0 -0.0020476375641215487 -0.00026987179441400212 0 -0.0019855527570114126 -0.00024287009826099785 0 -0.0019945628506857875 -0.00031911022184507459 0 -0.0020332067961473647 -0.00022618309618865275 0 -0.0020476375641215487 -0.00026987179441400212 0 -0.0019855527570114126 -0.00024287009826099785 0 -0.0020476375641215487 -0.00026987179441400212 0 -0.0019945628506857875 -0.00031911022184507459 0 -0.0020754532203056566 -0.00033319192404583848 0 -0.0019945628506857875 -0.00031911022184507459 0 -0.0020754532203056566 -0.00033319192404583848 0 -0.0020500418561098951 -0.00040874585072177332 0 -0.0020754532203056566 -0.00033319192404583848 0 -0.0020500418561098951 -0.00040874585072177332 0 -0.0021479160192908681 -0.00038922568848801951 0 -0.0019945628506857875 -0.00031911022184507459 0 -0.0020500418561098951 -0.00040874585072177332 0 -0.0019695273917148324 -0.0003997866600291449 0 -0.0019652202042731897 -0.00036833752498494754 0 -0.0021467846397760179 -0.00053496119415869544 0 -0.0020985874554687945 -0.00080905597294199242 0 -0.0021692212516795941 -0.00064465586112348843 0 -0.0020876654400682907 -0.00062094606770255302 0 -0.0021157988626321483 -0.00026845706976306907 0 -0.0021945312904464781 -0.0002597523249504366 0 -0.0021479160192908681 -0.00038922568848801951 0 -0.0021157988626321483 -0.00026845706976306907 0 -0.0020754532203056566 -0.00033319192404583848 0 -0.0021479160192908681 -0.00038922568848801951 0 -0.0021467846397760179 -0.00053496119415869544 0 -0.0021193512764930336 -0.00054270548996675552 0 -0.0021692212516795941 -0.00064465586112348843 0 -0.0020876654400682907 -0.00062094606770255302 0 -0.0021693834047957208 -0.00053860261230221469 0 -0.0021692212516795941 -0.00064465586112348843 0 -0.0021693834047957208 -0.00053860261230221469 0 -0.0021110503678116298 -0.00053658206916166724 0 -0.0020876654400682907 -0.00062094606770255302 0 -0.0021113438891991331 -0.00049295381560812387 0 -0.0021693834047957208 -0.00053860261230221469 0 -0.0021693834047957208 -0.00053860261230221469 0 -0.0021110503678116298 -0.00053658206916166724 0 -0.0020666645099240055 -0.00060201818041566435 0 -0.0020500418561098951 -0.00040874585072177332 0 -0.0021479160192908681 -0.00038922568848801951 0 -0.0021110503678116298 -0.00053658206916166724 0 -0.0020500418561098951 -0.00040874585072177332 0 -0.0021110503678116298 -0.00053658206916166724 0 -0.0020114550203168889 -0.00049345694158449416 0 -0.0020500418561098951 -0.00040874585072177332 0 -0.0020114550203168889 -0.00049345694158449416 0 -0.0019695273917148324 -0.0003997866600291449 0 -0.0021110503678116298 -0.00053658206916166724 0 -0.0020114550203168889 -0.00049345694158449416 0 -0.002008073421612468 -0.00055843730201342551 0 -0.0021850016238680009 -0.00053894434493632741 0 -0.0022719078466692591 -0.00050167226854112899 0 -0.0021110503678116298 -0.00053658206916166724 0 -0.0020666645099240055 -0.00060201818041566435 0 -0.002008073421612468 -0.00055843730201342551 0 -0.0024824319513545045 -0.00041490025113726138 0 -0.0022613708922686166 -0.00039756588235929891 0 -0.0024027251408468529 -0.00031411344569554718 0 -0.0024824319513545045 -0.00041490025113726138 0 -0.0024027251408468529 -0.00031411344569554718 0 -0.0025119615209463473 -0.00030341869711338846 0 -0.0021113438891991331 -0.00049295381560812387 0 -0.0022613708922686166 -0.00039756588235929891 0 -0.0022700063187176627 -0.00027667517119490584 0 -0.0021693834047957208 -0.00053860261230221469 0 -0.0024824319513545045 -0.00041490025113726138 0 -0.0022613708922686166 -0.00039756588235929891 0 -0.0021304691003054153 -0.00047453863397263095 0 -0.002224302568077579 -0.00020986336503491898 0 -0.0021113438891991331 -0.00049295381560812387 0 -0.0021693834047957208 -0.00053860261230221469 0 -0.0022613708922686166 -0.00039756588235929891 0 -0.0022613708922686166 -0.00039756588235929891 0 -0.0022700063187176627 -0.00027667517119490584 0 -0.0024027251408468529 -0.00031411344569554718 0 -0.0019270295873837153 -0.00030560094497636452 0 -0.0019238222131943157 -0.00062880463930193144 0 -0.0016185561599795712 -0.00029146323250877384 0 -0.0021113438891991331 -0.00049295381560812387 0 -0.0019270295873837153 -0.00030560094497636452 0 -0.0021899403220273783 -0.00010868409305272314 0 -0.0021113438891991331 -0.00049295381560812387 0 -0.0019270295873837153 -0.00030560094497636452 0 -0.0019238222131943157 -0.00062880463930193144 0 -0.0020876654400682907 -0.00062094606770255302 0 -0.0021113438891991331 -0.00049295381560812387 0 -0.0019238222131943157 -0.00062880463930193144 0 -0.0012729591597176462 -0.00017813673107804342 0 -0.0013408201488563779 -0.00014230398214795155 0 -0.0012620979517790241 -0.00012281961012985401 0 -0.0013408201488563779 -0.00014230398214795155 0 -0.0012620979517790241 -0.00012281961012985401 0 -0.0013094770764996539 -3.2014675048529623e-05 0 -0.0016032524450848419 -0.00040198518031025354 0 -0.0014665898293488859 -0.00014574208353300679 0 -0.0013149682774530769 0.00015152337636362216 0 -0.0016185561599795712 -0.00029146323250877384 0 -0.0015594224427034019 8.2568000753839373e-05 0 -0.0019270295873837153 -0.00030560094497636452 0 -0.0016185561599795712 -0.00029146323250877384 0 -0.0018117716577386409 7.5613567335100552e-05 0 -0.0016185561599795712 -0.00029146323250877384 0 -0.0015594224427034019 8.2568000753839373e-05 0 -0.0018117716577386409 7.5613567335100552e-05 0 -0.0018117716577386409 7.5613567335100552e-05 0 -0.0022651787030617027 0.00029387018591242993 0 -0.0021899403220273783 -0.00010868409305272314 0 -0.0019270295873837153 -0.00030560094497636452 0 -0.0018117716577386409 7.5613567335100552e-05 0 -0.0021899403220273783 -0.00010868409305272314 0 -0.0018117716577386409 7.5613567335100552e-05 0 -0.0018936145950721049 0.00049225318273717902 0 -0.0022651787030617027 0.00029387018591242993 0 -0.0020816595191281823 8.5749230899928702e-05 0 -0.0023066497383734492 0.00020402081660787896 0 -0.0014111479176174765 0.00027703836930516632 0 -0.0018117716577386409 7.5613567335100552e-05 0 -0.0018936145950721049 0.00049225318273717902 0 -0.0014111479176174765 0.00027703836930516632 0 -0.0015594224427034019 8.2568000753839373e-05 0 -0.0018117716577386409 7.5613567335100552e-05 0 -0.0026697903660147198 -0.00014566411175209301 0 -0.0026842102978129048 -9.496818041220208e-05 0 -0.0027279443542259814 -0.00010747845093295701 0 -0.0026842102978129048 -9.496818041220208e-05 0 -0.0027279443542259814 -0.00010747845093295701 0 -0.0027100904018127698 -7.0423990707414597e-05 0 -0.0027279443542259814 -0.00010747845093295701 0 -0.0027384344855168356 -7.7924230513152994e-05 0 -0.0027100904018127698 -7.0423990707414597e-05 0 -0.0027279443542259814 -0.00010747845093295701 0 -0.0027384344855168356 -7.7924230513152994e-05 0 -0.0027693471878680325 -8.0861744634961558e-05 0 -0.0027384344855168356 -7.7924230513152994e-05 0 -0.0027100904018127698 -7.0423990707414597e-05 0 -0.0027436797785263894 -5.3151195866590626e-05 0 -0.0027100904018127698 -7.0423990707414597e-05 0 -0.0027091816681187688 -4.5885393965121429e-05 0 -0.0027436797785263894 -5.3151195866590626e-05 0 -0.0026840020829615374 -5.9935701714617797e-05 0 -0.0026842102978129048 -9.496818041220208e-05 0 -0.0027100904018127698 -7.0423990707414597e-05 0 -0.0026840020829615374 -5.9935701714617797e-05 0 -0.0027100904018127698 -7.0423990707414597e-05 0 -0.0027091816681187688 -4.5885393965121429e-05 0 -0.0027628542935291774 9.0054841862498077e-05 0 -0.0026770204608699655 4.5664174458818582e-05 0 -0.0027532431239433962 4.7823143635124351e-06 0 -0.0024721919531988882 4.0837614306836515e-05 0 -0.0025913193424933309 9.1091482693127079e-06 0 -0.0026770204608699655 4.5664174458818582e-05 0 -0.0025452458652758256 0.00017967381993612126 0 -0.002675418916242964 4.0640487754054435e-05 0 -0.0027384344855168356 -7.7924230513152994e-05 0 -0.0027693471878680325 -8.0861744634961558e-05 0 -0.0027436797785263894 -5.3151195866590626e-05 0 -0.0027693471878680325 -8.0861744634961558e-05 0 -0.0027740366989287609 -4.5705513915200899e-05 0 -0.0027436797785263894 -5.3151195866590626e-05 0 -0.0025452458652758256 0.00017967381993612126 0 -0.0027743250900926588 -5.0144362608720834e-05 0 -0.0023066497383734492 0.00020402081660787896 0 -0.0025452458652758256 0.00017967381993612126 0 -0.0018936145950721049 0.00049225318273717902 0 -0.0023390577825437879 0.00068924825376061555 0 -0.0022651787030617027 0.00029387018591242993 0 -0.0025452458652758256 0.00017967381993612126 0 -0.0023181312421057219 0.00012429426232329053 0 -0.0024721919531988882 4.0837614306836515e-05 0 -0.0025599725362754552 -7.1780115166305265e-05 0 -0.0023873482735771402 -0.00010511789703637399 0 -0.0024721919531988882 4.0837614306836515e-05 0 -0.0025913193424933309 9.1091482693127079e-06 0 -0.0025599725362754552 -7.1780115166305265e-05 0 -0.0025913193424933309 9.1091482693127079e-06 0 -0.0025599725362754552 -7.1780115166305265e-05 0 -0.0026749174993789147 1.9967881481860568e-05 0 -0.0025599725362754552 -7.1780115166305265e-05 0 -0.0023873482735771402 -0.00010511789703637399 0 -0.0024883779680083197 -0.00020760494845617345 0 -0.0025599725362754552 -7.1780115166305265e-05 0 -0.0024883779680083197 -0.00020760494845617345 0 -0.002610919249974631 -0.00015558675497748045 0 -0.0023181312421057219 0.00012429426232329053 0 -0.002224302568077579 -0.00020986336503491898 0 -0.0023873482735771402 -0.00010511789703637399 0 -0.0022700063187176627 -0.00027667517119490584 0 -0.0024883779680083197 -0.00020760494845617345 0 -0.0022700063187176627 -0.00027667517119490584 0 -0.0024883779680083197 -0.00020760494845617345 0 -0.0024027251408468529 -0.00031411344569554718 0 -0.0024883779680083197 -0.00020760494845617345 0 -0.0024027251408468529 -0.00031411344569554718 0 -0.0025119615209463473 -0.00030341869711338846 0 -0.0026616627083846595 -0.00028484454676910604 0 -0.0027003776990186454 -0.00016701279288594835 0 -0.002610919249974631 -0.00015558675497748045 0 -0.0024883779680083197 -0.00020760494845617345 0 -0.0026616627083846595 -0.00028484454676910604 0 -0.002610919249974631 -0.00015558675497748045 0 -0.0024883779680083197 -0.00020760494845617345 0 -0.0025119615209463473 -0.00030341869711338846 0 -0.0026616627083846595 -0.00028484454676910604 0 -0.0019158534930244372 -0.00067905446019498304 0 -0.0017987117319666491 -0.00075030218958066388 0 -0.0018162389090461539 -0.00056065983072733927 0 -0.0017364987961521329 2.0923667143162511e-05 0 -0.0017429255837765323 -2.0923779897172463e-05 0 -0.0016969953823702747 -3.1612148672820896e-05 0 -0.0022790503301844366 -0.00050345527546647568 0 -0.0022765858428565565 -0.00026363904745908931 0 -0.0022765858428565565 -0.00026363904745908931 0 -0.0016845208559690625 -0.00032584941818919282 0 -0.0026616627083846595 -0.00028484454676910604 0 -0.002787055911251439 -0.00018196588368453711 0 -0.0027003776990186454 -0.00016701279288594835 0 -0.0022765858428565565 -0.00026363904745908931 0 -0.002734367106203128 -3.7278088041358842e-05 0 -0.002787055911251439 -0.00018196588368453711 0 -0.0027438688129258091 -0.00011971347468286055 0 -0.0027859948118353962 -8.3452734797991509e-05 0 -0.002787055911251439 -0.00018196588368453711 0 -0.0027003776990186454 -0.00016701279288594835 0 -0.0027438688129258091 -0.00011971347468286055 0 -0.0027003776990186454 -0.00016701279288594835 0 -0.0027438688129258091 -0.00011971347468286055 0 -0.0026753274354586578 -9.4868076700151534e-05 0 -0.0027438688129258091 -0.00011971347468286055 0 -0.0026753274354586578 -9.4868076700151534e-05 0 -0.0027354439215055508 -6.6872613865256973e-05 0 -0.0027438688129258091 -0.00011971347468286055 0 -0.0027354439215055508 -6.6872613865256973e-05 0 -0.0027859948118353962 -8.3452734797991509e-05 0 -0.0025599725362754552 -7.1780115166305265e-05 0 -0.002610919249974631 -0.00015558675497748045 0 -0.0026753274354586578 -9.4868076700151534e-05 0 -0.0027003776990186454 -0.00016701279288594835 0 -0.002610919249974631 -0.00015558675497748045 0 -0.0026753274354586578 -9.4868076700151534e-05 0 -0.0025599725362754552 -7.1780115166305265e-05 0 -0.0026753274354586578 -9.4868076700151534e-05 0 -0.0026749174993789147 1.9967881481860568e-05 0 -0.0026753274354586578 -9.4868076700151534e-05 0 -0.0026749174993789147 1.9967881481860568e-05 0 -0.0027354439215055508 -6.6872613865256973e-05 0 -0.0026538697787173719 2.6886693217926872e-05 0 -0.0027647032336861328 1.9403523501089147e-06 0 -0.0026749174993789147 1.9967881481860568e-05 0 -0.0027354439215055508 -6.6872613865256973e-05 0 -0.0027772489379018469 -4.7721878478053938e-05 0 -0.0026749174993789147 1.9967881481860568e-05 0 -0.0026535080520765563 6.7819847224904296e-05 0 -0.0026743703837818211 1.7495027764013786e-05 0 -0.0027354439215055508 -6.6872613865256973e-05 0 -0.0027772489379018469 -4.7721878478053938e-05 0 -0.0027859948118353962 -8.3452734797991509e-05 0 -0.0026743703837818211 1.7495027764013786e-05 0 -0.0026973455687816991 1.7050627553199975e-05 0 -0.0026900031478512406 -1.3500467617795988e-05 0 -0.0026535080520765563 6.7819847224904296e-05 0 -0.0026743703837818211 1.7495027764013786e-05 0 -0.0026213793312132418 5.0862073320432872e-06 0 -0.0026743703837818211 1.7495027764013786e-05 0 -0.0026213793312132418 5.0862073320432872e-06 0 -0.0026900031478512406 -1.3500467617795988e-05 0 -0.0026749174993789147 1.9967881481860568e-05 0 -0.0026973455687816991 1.7050627553199975e-05 0 -0.0026770204608699655 4.5664174458818582e-05 0 -0.0026749174993789147 1.9967881481860568e-05 0 -0.0026743703837818211 1.7495027764013786e-05 0 -0.0026973455687816991 1.7050627553199975e-05 0 -0.0026973455687816991 1.7050627553199975e-05 0 -0.0026770204608699655 4.5664174458818582e-05 0 -0.0027238982334740025 4.5261656938301574e-06 0 -0.0025913193424933309 9.1091482693127079e-06 0 -0.0026749174993789147 1.9967881481860568e-05 0 -0.0026770204608699655 4.5664174458818582e-05 0 -0.0024869310489697713 -1.4228317411818577e-07 0 -0.0024327412025536054 2.563688437495607e-06 0 -0.0022419288563207632 3.5054697360182141e-07 0 -0.0024869310489697713 -1.4228317411818577e-07 0 -0.0025330156022016371 1.7673829560942357e-07 0 -0.0024327412025536054 2.563688437495607e-06 0 -0.0024869310489697713 -1.4228317411818577e-07 0 -0.0025330156022016371 1.7673829560942357e-07 0 -0.0026228414500039927 -2.0100510916597404e-05 0 -0.0026213793312132418 5.0862073320432872e-06 0 -0.0026228414500039927 -2.0100510916597404e-05 0 -0.0026900031478512406 -1.3500467617795988e-05 0 -0.0025330156022016371 1.7673829560942357e-07 0 -0.0026213793312132418 5.0862073320432872e-06 0 -0.0026228414500039927 -2.0100510916597404e-05 0 -0.0025330156022016371 1.7673829560942357e-07 0 -0.0026213793312132418 5.0862073320432872e-06 0 -0.0025451713654704717 4.1244410647149911e-05 0 -0.0027772489379018469 -4.7721878478053938e-05 0 -0.002850408750221042 -8.3377878674991231e-05 0 -0.0027859948118353962 -8.3452734797991509e-05 0 -0.0027647032336861328 1.9403523501089147e-06 0 -0.0023720030894993607 1.4743378914173087e-05 0 -0.0026535080520765563 6.7819847224904296e-05 0 -0.0025451713654704717 4.1244410647149911e-05 0 -0.002448093350336431 0.00014825137442503773 0 -0.0026535080520765563 6.7819847224904296e-05 0 -0.0026213793312132418 5.0862073320432872e-06 0 -0.0025451713654704717 4.1244410647149911e-05 0 -0.0025451713654704717 4.1244410647149911e-05 0 -0.0024327412025536054 2.563688437495607e-06 0 -0.002448093350336431 0.00014825137442503773 0 -0.0025330156022016371 1.7673829560942357e-07 0 -0.0025451713654704717 4.1244410647149911e-05 0 -0.0024327412025536054 2.563688437495607e-06 0 -0.0022415546361776481 4.0154249202484199e-09 0 -0.0023720030894993607 1.4743378914173087e-05 0 -0.0024327412025536054 2.563688437495607e-06 0 -0.0022419288563207632 3.5054697360182141e-07 0 -0.002448093350336431 0.00014825137442503773 0 -0.0022412111157546137 -2.3319208918026515e-09 0 -0.0021342213664499337 2.2897486960891073e-09 0 -0.0021743923360887604 7.9971473335849914e-09 0 -0.0021334548598247699 3.173819951844133e-07 0 -0.0019423202153233431 9.4460516216232412e-05 0 -0.001884393800748869 -8.7561584928399991e-06 0 -0.0021337934110289072 9.8181546988296556e-08 0 -0.0023720030894993607 1.4743378914173087e-05 0 -0.0019423202153233431 9.4460516216232412e-05 0 -0.0018251691386476393 1.3713837955687297e-05 0 -0.001884393800748869 -8.7561584928399991e-06 0 -0.0027744644324347524 -0.00013258793193964208 0 -0.002850408750221042 -8.3377878674991231e-05 0 -0.0027859948118353962 -8.3452734797991509e-05 0 -0.0017364987961521329 2.0923667143162511e-05 0 -0.0019423202153233431 9.4460516216232412e-05 0 -0.0018251691386476393 1.3713837955687297e-05 0 -0.0022765858428565565 -0.00026363904745908931 0 -0.0023720030894993607 1.4743378914173087e-05 0 -0.0017364987961521329 2.0923667143162511e-05 0 -0.0018251691386476393 1.3713837955687297e-05 0 -0.0017429255837765323 -2.0923779897172463e-05 0 -0.001884393800748869 -8.7561584928399991e-06 0 -0.0017430934376113988 -1.5570870467303769e-05 0 -0.0017429255837765323 -2.0923779897172463e-05 0 -0.0018251691386476393 1.3713837955687297e-05 0 -0.001884393800748869 -8.7561584928399991e-06 0 -0.0017429255837765323 -2.0923779897172463e-05 0 -0.0021334548598247699 3.173819951844133e-07 0 -0.001884393800748869 -8.7561584928399991e-06 0 -0.0018367844625421395 -1.5541493313359532e-07 0 -0.001884393800748869 -8.7561584928399991e-06 0 -0.0018367844625421395 -1.5541493313359532e-07 0 -0.0017430934376113988 -1.5570870467303769e-05 0 -0.0018367844625421395 -1.5541493313359532e-07 0 -0.0017430934376113988 -1.5570870467303769e-05 0 -0.001539608864706829 3.2618570208821909e-08 0 -0.0016503796277306188 -1.2249553450288083e-05 0 -0.001539608864706829 3.2618570208821909e-08 0 -0.0014748098457942923 -1.1548983734420871e-06 0 -0.0017430934376113988 -1.5570870467303769e-05 0 -0.0016503796277306188 -1.2249553450288083e-05 0 -0.001539608864706829 3.2618570208821909e-08 0 -0.0016228306045824937 -2.3490012438719024e-05 0 -0.0015207402171007701 -3.109950769678329e-05 0 -0.0016503796277306188 -1.2249553450288083e-05 0 -0.0016984689473910329 -2.2516162905993202e-05 0 -0.0017262510981570917 -2.8677442693198411e-05 0 -0.0017430934376113988 -1.5570870467303769e-05 0 -0.0016503796277306188 -1.2249553450288083e-05 0 -0.0017429255837765323 -2.0923779897172463e-05 0 -0.0016503796277306188 -1.2249553450288083e-05 0 -0.0017429255837765323 -2.0923779897172463e-05 0 -0.0016969953823702747 -3.1612148672820896e-05 0 -0.0024824319513545045 -0.00041490025113726138 0 -0.0025119615209463473 -0.00030341869711338846 0 -0.0026616627083846595 -0.00028484454676910604 0 -0.0022719078466692591 -0.00050167226854112899 0 -0.0022790503301844366 -0.00050345527546647568 0 -0.0019158534930244372 -0.00067905446019498304 0 -0.0019248210635708929 -0.00054616573708588672 0 -0.002008073421612468 -0.00055843730201342551 0 -0.0020666645099240055 -0.00060201818041566435 0 -0.0019158534930244372 -0.00067905446019498304 0 -0.002008073421612468 -0.00055843730201342551 0 -0.0019158534930244372 -0.00067905446019498304 0 -0.0018162389090461539 -0.00056065983072733927 0 -0.0019248210635708929 -0.00054616573708588672 0 -0.0020114550203168889 -0.00049345694158449416 0 -0.0019248210635708929 -0.00054616573708588672 0 -0.0019328509183321118 -0.00046492831774330398 0 -0.0020114550203168889 -0.00049345694158449416 0 -0.0019248210635708929 -0.00054616573708588672 0 -0.002008073421612468 -0.00055843730201342551 0 -0.0019248210635708929 -0.00054616573708588672 0 -0.0018844980290692261 -0.0005059581578118694 0 -0.0019328509183321118 -0.00046492831774330398 0 -0.0018844980290692261 -0.0005059581578118694 0 -0.0019328509183321118 -0.00046492831774330398 0 -0.0018656480934056772 -0.00045127329827584096 0 -0.0019328509183321118 -0.00046492831774330398 0 -0.0018656480934056772 -0.00045127329827584096 0 -0.0018856085375673498 -0.00037484353024599417 0 -0.0020114550203168889 -0.00049345694158449416 0 -0.0019328509183321118 -0.00046492831774330398 0 -0.0019695273917148324 -0.0003997866600291449 0 -0.0016845208559690625 -0.00032584941818919282 0 -0.0017860283535526514 -0.00017163301872137672 0 -0.0018162389090461539 -0.00056065983072733927 0 -0.0018656480934056772 -0.00045127329827584096 0 -0.0018237821368775947 -0.00034106517056081047 0 -0.0016503796277306188 -1.2249553450288083e-05 0 -0.0016969953823702747 -3.1612148672820896e-05 0 -0.0016984689473910329 -2.2516162905993202e-05 0 -0.0016969953823702747 -3.1612148672820896e-05 0 -0.0016984689473910329 -2.2516162905993202e-05 0 -0.0017177254805513997 -2.7856633233698793e-05 0 -0.0018162389090461539 -0.00056065983072733927 0 -0.0019248210635708929 -0.00054616573708588672 0 -0.0018844980290692261 -0.0005059581578118694 0 -0.0018162389090461539 -0.00056065983072733927 0 -0.0018844980290692261 -0.0005059581578118694 0 -0.0018656480934056772 -0.00045127329827584096 0 -0.0016984689473910329 -2.2516162905993202e-05 0 -0.0017177254805513997 -2.7856633233698793e-05 0 -0.0017262510981570917 -2.8677442693198411e-05 0 -0.0018656480934056772 -0.00045127329827584096 0 -0.0018237821368775947 -0.00034106517056081047 0 -0.0018856085375673498 -0.00037484353024599417 0 -0.0019695273917148324 -0.0003997866600291449 0 -0.0018856085375673498 -0.00037484353024599417 0 -0.0019236237942961969 -0.00032412103324351262 0 -0.0019328509183321118 -0.00046492831774330398 0 -0.0019695273917148324 -0.0003997866600291449 0 -0.0018856085375673498 -0.00037484353024599417 0 -0.0018237821368775947 -0.00034106517056081047 0 -0.0018856085375673498 -0.00037484353024599417 0 -0.001884726667994258 -0.00030637050455931174 0 -0.0018856085375673498 -0.00037484353024599417 0 -0.001884726667994258 -0.00030637050455931174 0 -0.0019236237942961969 -0.00032412103324351262 0 -0.001884726667994258 -0.00030637050455931174 0 -0.0019236237942961969 -0.00032412103324351262 0 -0.0019275297018191383 -0.00026601567487733282 0 -0.0019945628506857875 -0.00031911022184507459 0 -0.0019695273917148324 -0.0003997866600291449 0 -0.0019236237942961969 -0.00032412103324351262 0 -0.0019945628506857875 -0.00031911022184507459 0 -0.0019236237942961969 -0.00032412103324351262 0 -0.0019275297018191383 -0.00026601567487733282 0 -0.0019855527570114126 -0.00024287009826099785 0 -0.0019275297018191383 -0.00026601567487733282 0 -0.0019281510598115476 -0.0002005056873040396 0 -0.0019855527570114126 -0.00024287009826099785 0 -0.0019945628506857875 -0.00031911022184507459 0 -0.0019275297018191383 -0.00026601567487733282 0 -0.001884726667994258 -0.00030637050455931174 0 -0.0019275297018191383 -0.00026601567487733282 0 -0.0018632969593301389 -0.00022281789932731205 0 -0.0018237821368775947 -0.00034106517056081047 0 -0.001884726667994258 -0.00030637050455931174 0 -0.0018632969593301389 -0.00022281789932731205 0 -0.0019275297018191383 -0.00026601567487733282 0 -0.0018632969593301389 -0.00022281789932731205 0 -0.0019281510598115476 -0.0002005056873040396 0 -0.0018927953882705902 -0.00016018010059349642 0 -0.0018632969593301389 -0.00022281789932731205 0 -0.0019281510598115476 -0.0002005056873040396 0 -0.0018927953882705902 -0.00016018010059349642 0 -0.0018633907422187228 -0.00014648963998302038 0 -0.0018632969593301389 -0.00022281789932731205 0 -0.0019438955208950141 -0.00013972035188706446 0 -0.0018927953882705902 -0.00016018010059349642 0 -0.0019281510598115476 -0.0002005056873040396 0 -0.0019438955208950141 -0.00013972035188706446 0 -0.0019691361359425391 -0.00018049753488491845 0 -0.0019281510598115476 -0.0002005056873040396 0 -0.0019691361359425391 -0.00018049753488491845 0 -0.0019855527570114126 -0.00024287009826099785 0 -0.0019281510598115476 -0.0002005056873040396 0 -0.0017995294066466161 -9.4189422982051297e-05 0 -0.0017177254805513997 -2.7856633233698793e-05 0 -0.0017262510981570917 -2.8677442693198411e-05 0 -0.0011887848993405324 -3.12987935128762e-05 0 -0.0011109568906966204 -4.1949673821203479e-05 0 -0.0013171059096599015 4.334058556840707e-06 0 -0.0018103117935594037 -9.4517616182153387e-05 0 -0.0017860283535526514 -0.00017163301872137672 0 -0.0014806570325600801 -7.8102900674557294e-05 0 -0.0015207402171007701 -3.109950769678329e-05 0 -0.001818927929067681 -9.4846589565163229e-05 0 -0.0017995294066466161 -9.4189422982051297e-05 0 -0.0017177254805513997 -2.7856633233698793e-05 0 -0.001818927929067681 -9.4846589565163229e-05 0 -0.0018237821368775947 -0.00034106517056081047 0 -0.0018632969593301389 -0.00022281789932731205 0 -0.0012193322489740725 -2.3637317806143761e-05 0 -0.0011887848993405324 -3.12987935128762e-05 0 -0.0012744202591709972 -1.8394377573161596e-05 0 -0.0011887848993405324 -3.12987935128762e-05 0 -0.0013171059096599015 4.334058556840707e-06 0 -0.0012744202591709972 -1.8394377573161596e-05 0 -0.0013171059096599015 4.334058556840707e-06 0 -0.0012744202591709972 -1.8394377573161596e-05 0 -0.001368937903251963 -9.9316652805176925e-06 0 -0.0012193322489740725 -2.3637317806143761e-05 0 -0.0012744202591709972 -1.8394377573161596e-05 0 -0.001368937903251963 -9.9316652805176925e-06 0 -0.0012425492427871176 -5.6720228070447354e-08 0 -0.001368937903251963 -9.9316652805176925e-06 0 -0.001539608864706829 3.2618570208821909e-08 0 -0.0012425492427871176 -5.6720228070447354e-08 0 -0.0012193322489740725 -2.3637317806143761e-05 0 -0.001368937903251963 -9.9316652805176925e-06 0 -0.001368937903251963 -9.9316652805176925e-06 0 -0.001539608864706829 3.2618570208821909e-08 0 -0.0014748098457942923 -1.1548983734420871e-06 0 -0.0016503796277306188 -1.2249553450288083e-05 0 -0.0013171059096599015 4.334058556840707e-06 0 -0.0014748098457942923 -1.1548983734420871e-06 0 -0.0013171059096599015 4.334058556840707e-06 0 -0.001368937903251963 -9.9316652805176925e-06 0 -0.0014748098457942923 -1.1548983734420871e-06 0 -0.0029687390818954589 0.00015190162914578928 0 -0.0029368999051590039 0.00010373988221189541 0 -0.0030147111313443263 0.00014190088794018536 0 -0.0035495707071540759 -2.624482846959843e-05 0 -0.0033644292074614646 -6.5494953332201721e-05 0 -0.0034767429819133585 -3.5541165466500748e-05 0 -0.0031612698139357955 5.8832133917164774e-05 0 -0.003241803686631772 3.8878103361903119e-05 0 -0.0035060986393319949 -3.2150115714046292e-07 0 -0.0035495707071540759 -2.624482846959843e-05 0 -0.0034767429819133585 -3.5541165466500748e-05 0 -0.0035060986393319949 -3.2150115714046292e-07 0 -0.0035495707071540759 -2.624482846959843e-05 0 -0.0037887832404199617 5.0800598935133239e-07 0 -0.0035495707071540759 -2.624482846959843e-05 0 -0.0034104900206552071 0.00013288151718812965 0 -0.0037887832404199617 5.0800598935133239e-07 0 -0.0035495707071540759 -2.624482846959843e-05 0 -0.0033644292074614646 -6.5494953332201721e-05 0 -0.0034104900206552071 0.00013288151718812965 0 -0.0033644292074614646 -6.5494953332201721e-05 0 -0.0030357088333165909 0.00017359152682900201 0 -0.0034104900206552071 0.00013288151718812965 0 -0.0029687390818954589 0.00015190162914578928 0 -0.0029503367865607805 0.00014357312391815157 0 -0.0030357088333165909 0.00017359152682900201 0 -0.0031612698139357955 5.8832133917164774e-05 0 -0.0030406275064521664 0.00017098044933417685 0 -0.0029503367865607805 0.00014357312391815157 0 -0.0028887109445760767 0.00016834191921544412 0 -0.0029307325837119344 0.00019954383172954916 0 -0.0029503367865607805 0.00014357312391815157 0 -0.0030357088333165909 0.00017359152682900201 0 -0.0029307325837119344 0.00019954383172954916 0 -0.0029503367865607805 0.00014357312391815157 0 -0.0029063486728954906 0.00010872950334789263 0 -0.0028799308519813533 0.00012594036500754335 0 -0.0029687390818954589 0.00015190162914578928 0 -0.0029063486728954906 0.00010872950334789263 0 -0.0029368999051590039 0.00010373988221189541 0 -0.0029687390818954589 0.00015190162914578928 0 -0.0029503367865607805 0.00014357312391815157 0 -0.0029063486728954906 0.00010872950334789263 0 -0.0029063486728954906 0.00010872950334789263 0 -0.0029368999051590039 0.00010373988221189541 0 -0.0028878779125261593 6.2497103417068334e-05 0 -0.0029063486728954906 0.00010872950334789263 0 -0.0028456813602423655 4.8208454011521049e-05 0 -0.0028878779125261593 6.2497103417068334e-05 0 -0.0029063486728954906 0.00010872950334789263 0 -0.0028456813602423655 4.8208454011521049e-05 0 -0.0028446511830364958 8.4539501564080401e-05 0 -0.0028456813602423655 4.8208454011521049e-05 0 -0.0028878779125261593 6.2497103417068334e-05 0 -0.0028503536715193067 1.3899702816119718e-05 0 -0.0029368999051590039 0.00010373988221189541 0 -0.0028878779125261593 6.2497103417068334e-05 0 -0.002914514675839054 3.3889672256591947e-05 0 -0.0028878779125261593 6.2497103417068334e-05 0 -0.002914514675839054 3.3889672256591947e-05 0 -0.0028503536715193067 1.3899702816119718e-05 0 -0.0029368999051590039 0.00010373988221189541 0 -0.002914514675839054 3.3889672256591947e-05 0 -0.0029930431278505473 5.2832353857621954e-05 0 -0.002914514675839054 3.3889672256591947e-05 0 -0.0029930431278505473 5.2832353857621954e-05 0 -0.0029123798641923658 -9.6216106477663646e-06 0 -0.0029368999051590039 0.00010373988221189541 0 -0.0029930431278505473 5.2832353857621954e-05 0 -0.0030147111313443263 0.00014190088794018536 0 -0.0035060986393319949 -3.2150115714046292e-07 0 -0.0034767429819133585 -3.5541165466500748e-05 0 -0.0032232461570401321 1.7725591679194033e-07 0 -0.0029930431278505473 5.2832353857621954e-05 0 -0.0030147111313443263 0.00014190088794018536 0 -0.0032223885201239427 2.4297519017243578e-07 0 -0.003241803686631772 3.8878103361903119e-05 0 -0.0032230334892470601 -1.5622085022415976e-08 0 -0.0029930431278505473 5.2832353857621954e-05 0 -0.0032223885201239427 2.4297519017243578e-07 0 -0.0029123798641923658 -9.6216106477663646e-06 0 -0.0032223885201239427 2.4297519017243578e-07 0 -0.0029776901480766896 -1.3223233364680236e-07 0 -0.0029123798641923658 -9.6216106477663646e-06 0 -0.0029123798641923658 -9.6216106477663646e-06 0 -0.0027639449516660176 -2.9655366270420077e-05 0 -0.0028092087243535412 -2.0884893670730915e-05 0 -0.0029776901480766896 -1.3223233364680236e-07 0 -0.0029123798641923658 -9.6216106477663646e-06 0 -0.0027639449516660176 -2.9655366270420077e-05 0 -0.0029776901480766896 -1.3223233364680236e-07 0 -0.002732260133660997 -1.230262657430214e-08 0 -0.0027639449516660176 -2.9655366270420077e-05 0 -0.002732260133660997 -1.230262657430214e-08 0 -0.0027639449516660176 -2.9655366270420077e-05 0 -0.0026228414500039927 -2.0100510916597404e-05 0 -0.0027639449516660176 -2.9655366270420077e-05 0 -0.0026228414500039927 -2.0100510916597404e-05 0 -0.0026900031478512406 -1.3500467617795988e-05 0 -0.0024869310489697713 -1.4228317411818577e-07 0 -0.002732260133660997 -1.230262657430214e-08 0 -0.0026228414500039927 -2.0100510916597404e-05 0 -0.0026973455687816991 1.7050627553199975e-05 0 -0.002736574714027815 -1.1020303374858305e-05 0 -0.0027238982334740025 4.5261656938301574e-06 0 -0.0026973455687816991 1.7050627553199975e-05 0 -0.002736574714027815 -1.1020303374858305e-05 0 -0.0026900031478512406 -1.3500467617795988e-05 0 -0.002736574714027815 -1.1020303374858305e-05 0 -0.0026900031478512406 -1.3500467617795988e-05 0 -0.0027477851530889933 -2.1077484392642898e-05 0 -0.0027639449516660176 -2.9655366270420077e-05 0 -0.0027477851530889933 -2.1077484392642898e-05 0 -0.0028092087243535412 -2.0884893670730915e-05 0 -0.0027639449516660176 -2.9655366270420077e-05 0 -0.0026900031478512406 -1.3500467617795988e-05 0 -0.0027477851530889933 -2.1077484392642898e-05 0 -0.002736574714027815 -1.1020303374858305e-05 0 -0.0027477851530889933 -2.1077484392642898e-05 0 -0.0027786463526034344 -1.9086883477564557e-05 0 -0.002736574714027815 -1.1020303374858305e-05 0 -0.0027786463526034344 -1.9086883477564557e-05 0 -0.0027727697424819232 -1.9456933538729933e-05 0 -0.0027786463526034344 -1.9086883477564557e-05 0 -0.0028092087243535412 -2.0884893670730915e-05 0 -0.0028030924527575863 2.2759383561488947e-06 0 -0.0027477851530889933 -2.1077484392642898e-05 0 -0.0027786463526034344 -1.9086883477564557e-05 0 -0.0028092087243535412 -2.0884893670730915e-05 0 -0.0029123798641923658 -9.6216106477663646e-06 0 -0.0028092087243535412 -2.0884893670730915e-05 0 -0.0028503536715193067 1.3899702816119718e-05 0 -0.002914514675839054 3.3889672256591947e-05 0 -0.0029123798641923658 -9.6216106477663646e-06 0 -0.0028503536715193067 1.3899702816119718e-05 0 -0.0028456813602423655 4.8208454011521049e-05 0 -0.0028503536715193067 1.3899702816119718e-05 0 -0.0028030924527575863 2.2759383561488947e-06 0 -0.0028092087243535412 -2.0884893670730915e-05 0 -0.0028503536715193067 1.3899702816119718e-05 0 -0.0028030924527575863 2.2759383561488947e-06 0 -0.0028030924527575863 2.2759383561488947e-06 0 -0.0027827780061350526 2.7813826907547596e-05 0 -0.0028119586864160076 4.4519301973213198e-05 0 -0.0028030924527575863 2.2759383561488947e-06 0 -0.0027827780061350526 2.7813826907547596e-05 0 -0.002777260669588623 2.0002963788069645e-07 0 -0.0027827780061350526 2.7813826907547596e-05 0 -0.002777260669588623 2.0002963788069645e-07 0 -0.0027563283279594441 1.6151878550231031e-05 0 -0.002777260669588623 2.0002963788069645e-07 0 -0.0027727697424819232 -1.9456933538729933e-05 0 -0.0027553100574513058 -9.6346197393806445e-06 0 -0.002777260669588623 2.0002963788069645e-07 0 -0.0027553100574513058 -9.6346197393806445e-06 0 -0.0027563283279594441 1.6151878550231031e-05 0 -0.0028030924527575863 2.2759383561488947e-06 0 -0.002777260669588623 2.0002963788069645e-07 0 -0.0027727697424819232 -1.9456933538729933e-05 0 -0.0027786463526034344 -1.9086883477564557e-05 0 -0.0028030924527575863 2.2759383561488947e-06 0 -0.0027727697424819232 -1.9456933538729933e-05 0 -0.002736574714027815 -1.1020303374858305e-05 0 -0.0027727697424819232 -1.9456933538729933e-05 0 -0.0027238982334740025 4.5261656938301574e-06 0 -0.0027727697424819232 -1.9456933538729933e-05 0 -0.0027569581673446111 -2.9746287243198309e-05 0 -0.0027740366989287609 -4.5705513915200899e-05 0 -0.0027727697424819232 -1.9456933538729933e-05 0 -0.0027569581673446111 -2.9746287243198309e-05 0 -0.0027553100574513058 -9.6346197393806445e-06 0 -0.0027569581673446111 -2.9746287243198309e-05 0 -0.0027740366989287609 -4.5705513915200899e-05 0 -0.0027436797785263894 -5.3151195866590626e-05 0 -0.0027701160516811515 -1.1052130155460967e-05 0 -0.0027743250900926588 -5.0144362608720834e-05 0 -0.0027727697424819232 -1.9456933538729933e-05 0 -0.0027532431239433962 4.7823143635124351e-06 0 -0.0027238982334740025 4.5261656938301574e-06 0 -0.0026770204608699655 4.5664174458818582e-05 0 -0.0027532431239433962 4.7823143635124351e-06 0 -0.0027238982334740025 4.5261656938301574e-06 0 -0.0027091816681187688 -4.5885393965121429e-05 0 -0.0027312721210153166 -2.7670902071318455e-05 0 -0.0026993129180780963 -2.5915458347431263e-05 0 -0.0027091816681187688 -4.5885393965121429e-05 0 -0.0026993129180780963 -2.5915458347431263e-05 0 -0.0026845545250379133 -4.1053079624600019e-05 0 -0.0026840020829615374 -5.9935701714617797e-05 0 -0.0027091816681187688 -4.5885393965121429e-05 0 -0.0026845545250379133 -4.1053079624600019e-05 0 -0.0027569581673446111 -2.9746287243198309e-05 0 -0.0027436797785263894 -5.3151195866590626e-05 0 -0.0027312721210153166 -2.7670902071318455e-05 0 -0.0027091816681187688 -4.5885393965121429e-05 0 -0.0027436797785263894 -5.3151195866590626e-05 0 -0.0027312721210153166 -2.7670902071318455e-05 0 -0.0027569581673446111 -2.9746287243198309e-05 0 -0.0027312721210153166 -2.7670902071318455e-05 0 -0.0027553100574513058 -9.6346197393806445e-06 0 -0.0027312721210153166 -2.7670902071318455e-05 0 -0.0027229642088216354 -5.3043746891074186e-06 0 -0.0027553100574513058 -9.6346197393806445e-06 0 -0.0027312721210153166 -2.7670902071318455e-05 0 -0.0026993129180780963 -2.5915458347431263e-05 0 -0.0027229642088216354 -5.3043746891074186e-06 0 -0.0026993129180780963 -2.5915458347431263e-05 0 -0.0027229642088216354 -5.3043746891074186e-06 0 -0.0026872339458314299 -7.7987920703561494e-06 0 -0.0027229642088216354 -5.3043746891074186e-06 0 -0.0027288281607628995 2.096776092453513e-05 0 -0.0026989031044108514 2.1722024926089062e-05 0 -0.0027229642088216354 -5.3043746891074186e-06 0 -0.0027563283279594441 1.6151878550231031e-05 0 -0.0027288281607628995 2.096776092453513e-05 0 -0.0027229642088216354 -5.3043746891074186e-06 0 -0.0027553100574513058 -9.6346197393806445e-06 0 -0.0027563283279594441 1.6151878550231031e-05 0 -0.0027827780061350526 2.7813826907547596e-05 0 -0.0027563283279594441 1.6151878550231031e-05 0 -0.0027715577324219807 5.2543660118007621e-05 0 -0.0027563283279594441 1.6151878550231031e-05 0 -0.0027435742990907573 4.5422806538428973e-05 0 -0.0027715577324219807 5.2543660118007621e-05 0 -0.0027563283279594441 1.6151878550231031e-05 0 -0.0027288281607628995 2.096776092453513e-05 0 -0.0027435742990907573 4.5422806538428973e-05 0 -0.0027288281607628995 2.096776092453513e-05 0 -0.0027192121578465231 4.0086227982028027e-05 0 -0.0026989031044108514 2.1722024926089062e-05 0 -0.0027288281607628995 2.096776092453513e-05 0 -0.0027192121578465231 4.0086227982028027e-05 0 -0.0027435742990907573 4.5422806538428973e-05 0 -0.0027192121578465231 4.0086227982028027e-05 0 -0.0027435742990907573 4.5422806538428973e-05 0 -0.0027260402800757793 6.9000669767489581e-05 0 -0.0027435742990907573 4.5422806538428973e-05 0 -0.0027260402800757793 6.9000669767489581e-05 0 -0.002760355792883867 7.8179995239890308e-05 0 -0.0027260402800757793 6.9000669767489581e-05 0 -0.0027400755050944392 0.0001005577635403193 0 -0.002760355792883867 7.8179995239890308e-05 0 -0.0027260402800757793 6.9000669767489581e-05 0 -0.0027400755050944392 0.0001005577635403193 0 -0.0027162860257288262 9.5150018470728347e-05 0 -0.0027400755050944392 0.0001005577635403193 0 -0.002760355792883867 7.8179995239890308e-05 0 -0.0027616531322696026 0.00010944427007694527 0 -0.0027400755050944392 0.0001005577635403193 0 -0.0027286966272512831 0.00012095274576706659 0 -0.0027162860257288262 9.5150018470728347e-05 0 -0.002760355792883867 7.8179995239890308e-05 0 -0.0028001997126335236 6.9830836773556614e-05 0 -0.0027882846921818416 0.00010821954337766436 0 -0.002760355792883867 7.8179995239890308e-05 0 -0.0027616531322696026 0.00010944427007694527 0 -0.0027882846921818416 0.00010821954337766436 0 -0.0027435742990907573 4.5422806538428973e-05 0 -0.002760355792883867 7.8179995239890308e-05 0 -0.0027715577324219807 5.2543660118007621e-05 0 -0.002760355792883867 7.8179995239890308e-05 0 -0.0027715577324219807 5.2543660118007621e-05 0 -0.0028001997126335236 6.9830836773556614e-05 0 -0.0027827780061350526 2.7813826907547596e-05 0 -0.0027715577324219807 5.2543660118007621e-05 0 -0.0028001997126335236 6.9830836773556614e-05 0 -0.0027827780061350526 2.7813826907547596e-05 0 -0.0028119586864160076 4.4519301973213198e-05 0 -0.0028001997126335236 6.9830836773556614e-05 0 -0.0028456813602423655 4.8208454011521049e-05 0 -0.0028119586864160076 4.4519301973213198e-05 0 -0.0028446511830364958 8.4539501564080401e-05 0 -0.0028456813602423655 4.8208454011521049e-05 0 -0.0028030924527575863 2.2759383561488947e-06 0 -0.0028119586864160076 4.4519301973213198e-05 0 -0.0028119586864160076 4.4519301973213198e-05 0 -0.0028446511830364958 8.4539501564080401e-05 0 -0.0028001997126335236 6.9830836773556614e-05 0 -0.0028446511830364958 8.4539501564080401e-05 0 -0.0028001997126335236 6.9830836773556614e-05 0 -0.0028264904700449696 0.00011335851870955765 0 -0.0028001997126335236 6.9830836773556614e-05 0 -0.0028264904700449696 0.00011335851870955765 0 -0.0027882846921818416 0.00010821954337766436 0 -0.0028264904700449696 0.00011335851870955765 0 -0.0028027220222617312 0.00015126567340063518 0 -0.0027882846921818416 0.00010821954337766436 0 -0.0028264904700449696 0.00011335851870955765 0 -0.0028027220222617312 0.00015126567340063518 0 -0.0028428939481060607 0.00015001472328970994 0 -0.0029063486728954906 0.00010872950334789263 0 -0.0028446511830364958 8.4539501564080401e-05 0 -0.0028799308519813533 0.00012594036500754335 0 -0.0028446511830364958 8.4539501564080401e-05 0 -0.0028264904700449696 0.00011335851870955765 0 -0.0028799308519813533 0.00012594036500754335 0 -0.0028264904700449696 0.00011335851870955765 0 -0.0028799308519813533 0.00012594036500754335 0 -0.0028428939481060607 0.00015001472328970994 0 -0.0028887109445760767 0.00016834191921544412 0 -0.0028428939481060607 0.00015001472328970994 0 -0.002826956800027263 0.00022703611667952546 0 -0.0029503367865607805 0.00014357312391815157 0 -0.0028799308519813533 0.00012594036500754335 0 -0.0028887109445760767 0.00016834191921544412 0 -0.0028799308519813533 0.00012594036500754335 0 -0.0028887109445760767 0.00016834191921544412 0 -0.0028428939481060607 0.00015001472328970994 0 -0.0028027220222617312 0.00015126567340063518 0 -0.0027917642694621778 0.00018272452772408974 0 -0.002826956800027263 0.00022703611667952546 0 -0.0028027220222617312 0.00015126567340063518 0 -0.0028428939481060607 0.00015001472328970994 0 -0.002826956800027263 0.00022703611667952546 0 -0.0028027220222617312 0.00015126567340063518 0 -0.0027917642694621778 0.00018272452772408974 0 -0.00277101350705985 0.00016009103051497947 0 -0.0028027220222617312 0.00015126567340063518 0 -0.00277101350705985 0.00016009103051497947 0 -0.0027764212011868071 0.00013300961298934024 0 -0.0027917642694621778 0.00018272452772408974 0 -0.00277101350705985 0.00016009103051497947 0 -0.0027694602357664663 0.00019319658926886829 0 -0.00277101350705985 0.00016009103051497947 0 -0.0027366121436660095 0.0001504590453052769 0 -0.0027694602357664663 0.00019319658926886829 0 -0.00277101350705985 0.00016009103051497947 0 -0.0027366121436660095 0.0001504590453052769 0 -0.002754046621590235 0.00013164251401746077 0 -0.0027366121436660095 0.0001504590453052769 0 -0.0027207576582648748 0.00017077661101354348 0 -0.0027694602357664663 0.00019319658926886829 0 -0.0027366121436660095 0.0001504590453052769 0 -0.002754046621590235 0.00013164251401746077 0 -0.0027286966272512831 0.00012095274576706659 0 -0.0027400755050944392 0.0001005577635403193 0 -0.002754046621590235 0.00013164251401746077 0 -0.0027286966272512831 0.00012095274576706659 0 -0.0027400755050944392 0.0001005577635403193 0 -0.002754046621590235 0.00013164251401746077 0 -0.0027616531322696026 0.00010944427007694527 0 -0.0027616531322696026 0.00010944427007694527 0 -0.0027882846921818416 0.00010821954337766436 0 -0.0027764212011868071 0.00013300961298934024 0 -0.0028027220222617312 0.00015126567340063518 0 -0.0027882846921818416 0.00010821954337766436 0 -0.0027764212011868071 0.00013300961298934024 0 -0.00277101350705985 0.00016009103051497947 0 -0.002754046621590235 0.00013164251401746077 0 -0.0027764212011868071 0.00013300961298934024 0 -0.002754046621590235 0.00013164251401746077 0 -0.0027616531322696026 0.00010944427007694527 0 -0.0027764212011868071 0.00013300961298934024 0 -0.0026798255230814235 0.00011976841629884871 0 -0.0026693222105168141 0.00014373062737889792 0 -0.0026617182969143872 8.6106038943026733e-05 0 -0.0026869342988904798 0.00013795990776414949 0 -0.0026949210372818767 0.0001253929245913228 0 -0.0027047643514080881 0.0001465554843537015 0 -0.0026869342988904798 0.00013795990776414949 0 -0.0026798255230814235 0.00011976841629884871 0 -0.0026949210372818767 0.0001253929245913228 0 -0.0026869342988904798 0.00013795990776414949 0 -0.0026798255230814235 0.00011976841629884871 0 -0.0026693222105168141 0.00014373062737889792 0 -0.0027081283527559358 0.00019465496394286856 0 -0.0029199210668511993 0.00017783319104527787 0 -0.0026949210372818767 0.0001253929245913228 0 -0.0027054622879777238 0.00011153643431095517 0 -0.0026860900502747751 0.00010692479522011568 0 -0.0026798255230814235 0.00011976841629884871 0 -0.0026949210372818767 0.0001253929245913228 0 -0.0026860900502747751 0.00010692479522011568 0 -0.0026949210372818767 0.0001253929245913228 0 -0.0027054622879777238 0.00011153643431095517 0 -0.0027113341571661734 0.00012884309567092698 0 -0.0027366121436660095 0.0001504590453052769 0 -0.0027113341571661734 0.00012884309567092698 0 -0.0027047643514080881 0.0001465554843537015 0 -0.0027286966272512831 0.00012095274576706659 0 -0.0027054622879777238 0.00011153643431095517 0 -0.0027162860257288262 9.5150018470728347e-05 0 -0.0027286966272512831 0.00012095274576706659 0 -0.0027054622879777238 0.00011153643431095517 0 -0.0027113341571661734 0.00012884309567092698 0 -0.0027366121436660095 0.0001504590453052769 0 -0.0027286966272512831 0.00012095274576706659 0 -0.0027113341571661734 0.00012884309567092698 0 -0.0026949210372818767 0.0001253929245913228 0 -0.0027113341571661734 0.00012884309567092698 0 -0.0027047643514080881 0.0001465554843537015 0 -0.0027366121436660095 0.0001504590453052769 0 -0.0027207576582648748 0.00017077661101354348 0 -0.0027047643514080881 0.0001465554843537015 0 -0.0026869342988904798 0.00013795990776414949 0 -0.0027047643514080881 0.0001465554843537015 0 -0.0026803523705562324 0.0001549190785832576 0 -0.0038432154896208106 3.4362591631899796e-05 0 -0.0037437051757288971 -9.2132290985489659e-06 0 -0.0027207576582648748 0.00017077661101354348 0 -0.0027047643514080881 0.0001465554843537015 0 -0.0026803523705562324 0.0001549190785832576 0 -0.0049452303914494199 -0.0001107931720079335 0 -0.0049041588957513486 -0.0001414988692403002 0 -0.0049166052309542211 -0.00011923698189613292 0 -0.0026869342988904798 0.00013795990776414949 0 -0.0026803523705562324 0.0001549190785832576 0 -0.0026791000000442283 0.00014316069140454994 0 -0.0049041588957513486 -0.0001414988692403002 0 -0.0048882893516599499 -0.00014008874994872697 0 -0.0048774005921749268 -0.00015350417675933189 0 -0.0049041588957513486 -0.0001414988692403002 0 -0.0048882893516599499 -0.00014008874994872697 0 -0.0048958201342349256 -0.00012841273983895974 0 -0.0049041588957513486 -0.0001414988692403002 0 -0.0048958201342349256 -0.00012841273983895974 0 -0.0049166052309542211 -0.00011923698189613292 0 -0.0048882893516599499 -0.00014008874994872697 0 -0.0048774005921749268 -0.00015350417675933189 0 -0.0048762105676556349 -0.00013682017986275781 0 -0.0048882893516599499 -0.00014008874994872697 0 -0.0048762105676556349 -0.00013682017986275781 0 -0.0048958201342349256 -0.00012841273983895974 0 -0.0037437051757288971 -9.2132290985489659e-06 0 -0.0035469793199477896 4.0433769657349047e-05 0 -0.0026785445242267125 0.0001143150878399239 0 -0.0026153218478714682 0.00013528027849875652 0 -0.0026574085182068893 0.00015752748512854001 0 -0.0035469793199477896 4.0433769657349047e-05 0 -0.0029199210668511993 0.00017783319104527787 0 -0.0033633773314736973 -2.2737690659100612e-05 0 -0.0035015840629076794 1.4377865125373196e-05 0 -0.0033619674077429097 6.3898435244901362e-05 0 -0.0037437051757288971 -9.2132290985489659e-06 0 -0.0029199210668511993 0.00017783319104527787 0 -0.0035469793199477896 4.0433769657349047e-05 0 -0.0037994664886787251 -0.00015898050579391185 0 -0.0048774005921749268 -0.00015350417675933189 0 -0.004847558692262559 -0.00015054980084413944 0 -0.0048628672291282865 -0.00014439226652431523 0 -0.0027532510912632734 9.45781259536728e-05 0 -0.0027221515921312879 0.00012668751495119947 0 -0.0027849523639412854 0.00017923544446037085 0 -0.0026943418839784341 0.00011924977331843725 0 -0.0027532510912632734 9.45781259536728e-05 0 -0.0027221515921312879 0.00012668751495119947 0 -0.0048479150830325751 -0.00015362708768906446 0 -0.0048509186665743036 -0.00014755295032563848 0 -0.0048481933388315104 -0.00013659999569754904 0 -0.0037994664886787251 -0.00015898050579391185 0 -0.0039100981966026628 -8.4208297453246608e-05 0 -0.0048509186665743036 -0.00014755295032563848 0 -0.0048628672291282865 -0.00014439226652431523 0 -0.004863187875409793 -0.00013350597594185518 0 -0.004847558692262559 -0.00015054980084413944 0 -0.0048509186665743036 -0.00014755295032563848 0 -0.0048628672291282865 -0.00014439226652431523 0 -0.0048774005921749268 -0.00015350417675933189 0 -0.0048628672291282865 -0.00014439226652431523 0 -0.0048762105676556349 -0.00013682017986275781 0 -0.0048628672291282865 -0.00014439226652431523 0 -0.0048762105676556349 -0.00013682017986275781 0 -0.004863187875409793 -0.00013350597594185518 0 -0.0035469793199477896 4.0433769657349047e-05 0 -0.0026975394889969186 -1.2272769587545301e-05 0 -0.0026785445242267125 0.0001143150878399239 0 -0.0027221515921312879 0.00012668751495119947 0 -0.0026981312732776916 0.00016390299697042069 0 -0.0027221515921312879 0.00012668751495119947 0 -0.0027283430749613273 0.0001840796794383235 0 -0.0027849523639412854 0.00017923544446037085 0 -0.0027221515921312879 0.00012668751495119947 0 -0.0026981312732776916 0.00016390299697042069 0 -0.0027283430749613273 0.0001840796794383235 0 -0.0027283430749613273 0.0001840796794383235 0 -0.0026724170630042735 0.00020089889177355661 0 -0.0027109751805037769 0.00022894864378908186 0 -0.0026981312732776916 0.00016390299697042069 0 -0.0027283430749613273 0.0001840796794383235 0 -0.0026724170630042735 0.00020089889177355661 0 -0.0026153218478714682 0.00013528027849875652 0 -0.0026434877430982578 0.00019885797992244311 0 -0.0026245768026968127 0.00027070904880578417 0 -0.0029199210668511993 0.00017783319104527787 0 -0.002607994184442383 0.00016674691710415158 0 -0.0026153218478714682 0.00013528027849875652 0 -0.0026574085182068893 0.00015752748512854001 0 -0.0026434877430982578 0.00019885797992244311 0 -0.0026785445242267125 0.0001143150878399239 0 -0.0026981312732776916 0.00016390299697042069 0 -0.0026574085182068893 0.00015752748512854001 0 -0.0026981312732776916 0.00016390299697042069 0 -0.0026574085182068893 0.00015752748512854001 0 -0.0026724170630042735 0.00020089889177355661 0 -0.0026574085182068893 0.00015752748512854001 0 -0.0026724170630042735 0.00020089889177355661 0 -0.0026434877430982578 0.00019885797992244311 0 -0.0026724170630042735 0.00020089889177355661 0 -0.0026434877430982578 0.00019885797992244311 0 -0.0026478164836131993 0.00022803012180874161 0 -0.0026434877430982578 0.00019885797992244311 0 -0.0026478164836131993 0.00022803012180874161 0 -0.0026245768026968127 0.00027070904880578417 0 -0.0026724170630042735 0.00020089889177355661 0 -0.0026478164836131993 0.00022803012180874161 0 -0.0026571460130641413 0.00024541901297206204 0 -0.0026478164836131993 0.00022803012180874161 0 -0.0026571460130641413 0.00024541901297206204 0 -0.0026245768026968127 0.00027070904880578417 0 -0.0026571460130641413 0.00024541901297206204 0 -0.0026245768026968127 0.00027070904880578417 0 -0.0026190844385826327 0.00026137692327118765 0 -0.0027283430749613273 0.0001840796794383235 0 -0.0027109751805037769 0.00022894864378908186 0 -0.0027545235310527461 0.00022806466222412443 0 -0.0026724170630042735 0.00020089889177355661 0 -0.0026571460130641413 0.00024541901297206204 0 -0.0027109751805037769 0.00022894864378908186 0 -0.0026571460130641413 0.00024541901297206204 0 -0.0027109751805037769 0.00022894864378908186 0 -0.0027264500260009749 0.00028119929700793272 0 -0.0027109751805037769 0.00022894864378908186 0 -0.0027264500260009749 0.00028119929700793272 0 -0.0027545235310527461 0.00022806466222412443 0 -0.0024744856221027992 0.000308315460149519 0 -0.002535742299041392 0.00023806317844401729 0 -0.0026190844385826327 0.00026137692327118765 0 -0.0025709166784071121 0.0002946060053784898 0 -0.0026299573855318166 0.00026812441328373233 0 -0.0024744856221027992 0.000308315460149519 0 -0.0024721646800102636 0.00022930121646210934 0 -0.0024009341332929014 0.00025607304875120587 0 -0.0024744856221027992 0.000308315460149519 0 -0.002535742299041392 0.00023806317844401729 0 -0.0024721646800102636 0.00022930121646210934 0 -0.002607994184442383 0.00016674691710415158 0 -0.0026494171872187091 0.0001111560038732428 0 -0.0026571460130641413 0.00024541901297206204 0 -0.0027264500260009749 0.00028119929700793272 0 -0.0026190844385826327 0.00026137692327118765 0 -0.0026190844385826327 0.00026137692327118765 0 -0.0026389700812864576 0.00018561846390830622 0 -0.0025791286495840762 0.00020545385118838922 0 -0.0026245768026968127 0.00027070904880578417 0 -0.0026190844385826327 0.00026137692327118765 0 -0.0026389700812864576 0.00018561846390830622 0 -0.002535742299041392 0.00023806317844401729 0 -0.0026190844385826327 0.00026137692327118765 0 -0.0025791286495840762 0.00020545385118838922 0 -0.0026777385280793405 5.4781859797936721e-05 0 -0.0026718877267592842 6.7656268632735201e-05 0 -0.0026541135292405095 3.887080142088009e-05 0 -0.0026617182969143872 8.6106038943026733e-05 0 -0.0026718877267592842 6.7656268632735201e-05 0 -0.0026541135292405095 3.887080142088009e-05 0 -0.0026868458790457058 7.3610690953766284e-05 0 -0.0026718877267592842 6.7656268632735201e-05 0 -0.0026802348088793525 8.6489379765537273e-05 0 -0.0026777385280793405 5.4781859797936721e-05 0 -0.0026868458790457058 7.3610690953766284e-05 0 -0.0026718877267592842 6.7656268632735201e-05 0 -0.0026617182969143872 8.6106038943026733e-05 0 -0.0026718877267592842 6.7656268632735201e-05 0 -0.0026802348088793525 8.6489379765537273e-05 0 -0.0026617182969143872 8.6106038943026733e-05 0 -0.0026802348088793525 8.6489379765537273e-05 0 -0.0026860900502747751 0.00010692479522011568 0 -0.0026798255230814235 0.00011976841629884871 0 -0.0026617182969143872 8.6106038943026733e-05 0 -0.0026860900502747751 0.00010692479522011568 0 -0.0026868458790457058 7.3610690953766284e-05 0 -0.0026802348088793525 8.6489379765537273e-05 0 -0.0026958733920024549 9.193965963833926e-05 0 -0.0026802348088793525 8.6489379765537273e-05 0 -0.0026860900502747751 0.00010692479522011568 0 -0.0026958733920024549 9.193965963833926e-05 0 -0.0027054622879777238 0.00011153643431095517 0 -0.0026860900502747751 0.00010692479522011568 0 -0.0026958733920024549 9.193965963833926e-05 0 -0.0027054622879777238 0.00011153643431095517 0 -0.0027162860257288262 9.5150018470728347e-05 0 -0.0026958733920024549 9.193965963833926e-05 0 -0.0026868458790457058 7.3610690953766284e-05 0 -0.0026958733920024549 9.193965963833926e-05 0 -0.0027056545440848662 7.6199498850139155e-05 0 -0.0027162860257288262 9.5150018470728347e-05 0 -0.0026958733920024549 9.193965963833926e-05 0 -0.0027056545440848662 7.6199498850139155e-05 0 -0.0027260402800757793 6.9000669767489581e-05 0 -0.0027162860257288262 9.5150018470728347e-05 0 -0.0027056545440848662 7.6199498850139155e-05 0 -0.0027192121578465231 4.0086227982028027e-05 0 -0.0027260402800757793 6.9000669767489581e-05 0 -0.0026981286035440144 5.2934020595991179e-05 0 -0.0027260402800757793 6.9000669767489581e-05 0 -0.0027056545440848662 7.6199498850139155e-05 0 -0.0026981286035440144 5.2934020595991179e-05 0 -0.0026868458790457058 7.3610690953766284e-05 0 -0.0027056545440848662 7.6199498850139155e-05 0 -0.0026981286035440144 5.2934020595991179e-05 0 -0.0026777385280793405 5.4781859797936721e-05 0 -0.0026868458790457058 7.3610690953766284e-05 0 -0.0026981286035440144 5.2934020595991179e-05 0 -0.0026796966178882996 3.4903005360711042e-05 0 -0.0026668214486990512 1.7001188469242422e-05 0 -0.0026989031044108514 2.1722024926089062e-05 0 -0.0026981286035440144 5.2934020595991179e-05 0 -0.0026796966178882996 3.4903005360711042e-05 0 -0.0026989031044108514 2.1722024926089062e-05 0 -0.0027192121578465231 4.0086227982028027e-05 0 -0.0026981286035440144 5.2934020595991179e-05 0 -0.0026989031044108514 2.1722024926089062e-05 0 -0.0026777385280793405 5.4781859797936721e-05 0 -0.0026981286035440144 5.2934020595991179e-05 0 -0.0026796966178882996 3.4903005360711042e-05 0 -0.0026777385280793405 5.4781859797936721e-05 0 -0.0026796966178882996 3.4903005360711042e-05 0 -0.0026541135292405095 3.887080142088009e-05 0 -0.0026796966178882996 3.4903005360711042e-05 0 -0.0026668214486990512 1.7001188469242422e-05 0 -0.0026541135292405095 3.887080142088009e-05 0 -0.0026668214486990512 1.7001188469242422e-05 0 -0.0026334757838164364 -8.0918435700169394e-06 0 -0.0026541135292405095 3.887080142088009e-05 0 -0.0027229642088216354 -5.3043746891074186e-06 0 -0.0026989031044108514 2.1722024926089062e-05 0 -0.0026872339458314299 -7.7987920703561494e-06 0 -0.0026668214486990512 1.7001188469242422e-05 0 -0.0026989031044108514 2.1722024926089062e-05 0 -0.0026872339458314299 -7.7987920703561494e-06 0 -0.0026993129180780963 -2.5915458347431263e-05 0 -0.0026872339458314299 -7.7987920703561494e-06 0 -0.0026788031777711971 -3.0338467854096098e-05 0 -0.0026872339458314299 -7.7987920703561494e-06 0 -0.0026562940985581335 -2.762882275341261e-05 0 -0.0026788031777711971 -3.0338467854096098e-05 0 -0.0026658487820040138 -4.5323427715109803e-05 0 -0.0026334757838164364 -8.0918435700169394e-06 0 -0.0025820717022839749 -4.635132380495126e-05 0 -0.0026668214486990512 1.7001188469242422e-05 0 -0.0026872339458314299 -7.7987920703561494e-06 0 -0.0026562940985581335 -2.762882275341261e-05 0 -0.0026621017426553669 2.7877007527664396e-05 0 -0.0026862315261811077 -7.469962658106489e-05 0 -0.0026668214486990512 1.7001188469242422e-05 0 -0.0026658487820040138 -4.5323427715109803e-05 0 -0.0026334757838164364 -8.0918435700169394e-06 0 -0.0023575898501196498 6.5398020284273325e-05 0 -0.0026862315261811077 -7.469962658106489e-05 0 -0.0026465522321138736 -6.2601860100314436e-05 0 -0.0026562940985581335 -2.762882275341261e-05 0 -0.0026672281305824531 -4.8486092422481692e-05 0 -0.0026559394866026756 -0.00017119350577970006 0 -0.0026658487820040138 -4.5323427715109803e-05 0 -0.0026079925051455139 -9.9127076422754845e-05 0 -0.0026840020829615374 -5.9935701714617797e-05 0 -0.0026672281305824531 -4.8486092422481692e-05 0 -0.0026845545250379133 -4.1053079624600019e-05 0 -0.0026993129180780963 -2.5915458347431263e-05 0 -0.0026845545250379133 -4.1053079624600019e-05 0 -0.0026788031777711971 -3.0338467854096098e-05 0 -0.0026672281305824531 -4.8486092422481692e-05 0 -0.0026845545250379133 -4.1053079624600019e-05 0 -0.0026788031777711971 -3.0338467854096098e-05 0 -0.0026562940985581335 -2.762882275341261e-05 0 -0.0026672281305824531 -4.8486092422481692e-05 0 -0.0026788031777711971 -3.0338467854096098e-05 0 -0.001873452966324046 0.00016119078108216877 0 -0.0016551472440125997 0.00024876062077182375 0 -0.0011233263333882146 0.00034513938029639464 0 -0.0012933139467102947 0.0004434210296640839 0 -0.00094649786588588765 0.00054992053261821393 0 -0.0024915428305729232 -6.3311932479820807e-05 0 -0.0025296102826669136 -0.00012887470490599486 0 -0.0023841373401920921 -8.2897617970867338e-05 0 -0.0026658487820040138 -4.5323427715109803e-05 0 -0.0026079925051455139 -9.9127076422754845e-05 0 -0.0025820717022839749 -4.635132380495126e-05 0 -0.0026559394866026756 -0.00017119350577970006 0 -0.0025296102826669136 -0.00012887470490599486 0 -0.0026079925051455139 -9.9127076422754845e-05 0 -0.0025296102826669136 -0.00012887470490599486 0 -0.0026079925051455139 -9.9127076422754845e-05 0 -0.0025820717022839749 -4.635132380495126e-05 0 -0.0024915428305729232 -6.3311932479820807e-05 0 -0.0025296102826669136 -0.00012887470490599486 0 -0.0025820717022839749 -4.635132380495126e-05 0 -0.0026334757838164364 -8.0918435700169394e-06 0 -0.0025820717022839749 -4.635132380495126e-05 0 -0.0025773370290531937 5.0199749544772358e-05 0 -0.0025820717022839749 -4.635132380495126e-05 0 -0.0025319098427090281 1.7624622520520637e-06 0 -0.0025773370290531937 5.0199749544772358e-05 0 -0.0024915428305729232 -6.3311932479820807e-05 0 -0.0025319098427090281 1.7624622520520637e-06 0 -0.0024810692290470138 2.5618535191165342e-05 0 -0.0024915428305729232 -6.3311932479820807e-05 0 -0.0025820717022839749 -4.635132380495126e-05 0 -0.0025319098427090281 1.7624622520520637e-06 0 -0.0024915428305729232 -6.3311932479820807e-05 0 -0.0024336986341626657 -5.1746436224419653e-06 0 -0.0024229942019179723 -4.2433694056624793e-05 0 -0.0024810692290470138 2.5618535191165342e-05 0 -0.0024085911852729253 4.7314270192997148e-05 0 -0.0024336986341626657 -5.1746436224419653e-06 0 -0.0024915428305729232 -6.3311932479820807e-05 0 -0.0024810692290470138 2.5618535191165342e-05 0 -0.0024336986341626657 -5.1746436224419653e-06 0 -0.0024810692290470138 2.5618535191165342e-05 0 -0.0025190655128178225 6.7578939131594657e-05 0 -0.0024681879888843474 7.8960667589540523e-05 0 -0.0024810692290470138 2.5618535191165342e-05 0 -0.0024681879888843474 7.8960667589540523e-05 0 -0.0024085911852729253 4.7314270192997148e-05 0 -0.0025319098427090281 1.7624622520520637e-06 0 -0.0024810692290470138 2.5618535191165342e-05 0 -0.0025190655128178225 6.7578939131594657e-05 0 -0.0025190655128178225 6.7578939131594657e-05 0 -0.0024950238507276349 0.00012459916760792979 0 -0.0025630335390054606 0.00012922180516673597 0 -0.0025190655128178225 6.7578939131594657e-05 0 -0.0024950238507276349 0.00012459916760792979 0 -0.0024681879888843474 7.8960667589540523e-05 0 -0.0024950238507276349 0.00012459916760792979 0 -0.0024681879888843474 7.8960667589540523e-05 0 -0.0024252066345933575 0.00011622809498248611 0 -0.0026334757838164364 -8.0918435700169394e-06 0 -0.0025773370290531937 5.0199749544772358e-05 0 -0.0026389700812864576 0.00018561846390830622 0 -0.002634962450443997 -2.8921411180535953e-06 0 -0.0026494171872187091 0.0001111560038732428 0 -0.0025773370290531937 5.0199749544772358e-05 0 -0.0026389700812864576 0.00018561846390830622 0 -0.0025630335390054606 0.00012922180516673597 0 -0.0025319098427090281 1.7624622520520637e-06 0 -0.0025190655128178225 6.7578939131594657e-05 0 -0.0025773370290531937 5.0199749544772358e-05 0 -0.0025190655128178225 6.7578939131594657e-05 0 -0.0025773370290531937 5.0199749544772358e-05 0 -0.0025630335390054606 0.00012922180516673597 0 -0.0026389700812864576 0.00018561846390830622 0 -0.0025630335390054606 0.00012922180516673597 0 -0.0025791286495840762 0.00020545385118838922 0 -0.0025630335390054606 0.00012922180516673597 0 -0.0025791286495840762 0.00020545385118838922 0 -0.0025235652805867519 0.00018930298666644275 0 -0.0024950238507276349 0.00012459916760792979 0 -0.0024665826570242004 0.00016776155494021425 0 -0.0025235652805867519 0.00018930298666644275 0 -0.0024950238507276349 0.00012459916760792979 0 -0.0024665826570242004 0.00016776155494021425 0 -0.0024252066345933575 0.00011622809498248611 0 -0.0024950238507276349 0.00012459916760792979 0 -0.0025630335390054606 0.00012922180516673597 0 -0.0025235652805867519 0.00018930298666644275 0 -0.002535742299041392 0.00023806317844401729 0 -0.0024721646800102636 0.00022930121646210934 0 -0.0025235652805867519 0.00018930298666644275 0 -0.002535742299041392 0.00023806317844401729 0 -0.0025791286495840762 0.00020545385118838922 0 -0.0025235652805867519 0.00018930298666644275 0 -0.0024721646800102636 0.00022930121646210934 0 -0.0024665826570242004 0.00016776155494021425 0 -0.0025235652805867519 0.00018930298666644275 0 -0.0024721646800102636 0.00022930121646210934 0 -0.0024665826570242004 0.00016776155494021425 0 -0.0024012148806242437 0.000175867332077205 0 -0.0024721646800102636 0.00022930121646210934 0 -0.0024012148806242437 0.000175867332077205 0 -0.0024009341332929014 0.00025607304875120587 0 -0.0024012148806242437 0.000175867332077205 0 -0.0023526420027245305 0.00019423200008779898 0 -0.0024009341332929014 0.00025607304875120587 0 -0.0024012148806242437 0.000175867332077205 0 -0.0023526420027245305 0.00019423200008779898 0 -0.002343309360869308 0.00014215673303251362 0 -0.0024012148806242437 0.000175867332077205 0 -0.002343309360869308 0.00014215673303251362 0 -0.0023622351806300542 9.8226269538333023e-05 0 -0.0024665826570242004 0.00016776155494021425 0 -0.0024012148806242437 0.000175867332077205 0 -0.0024252066345933575 0.00011622809498248611 0 -0.0024012148806242437 0.000175867332077205 0 -0.0024252066345933575 0.00011622809498248611 0 -0.0023622351806300542 9.8226269538333023e-05 0 -0.0023399791610911754 8.7106751099330643e-05 0 -0.0023088139786779007 0.00027399541839061905 0 -0.0022550082307723025 0.00022658499561911157 0 -0.0022035015846851515 0.00012795224805155914 0 -0.0023526420027245305 0.00019423200008779898 0 -0.0022853196795231917 0.00011936403714559203 0 -0.0023268543459367872 0.00027444078965859229 0 -0.0022635154316826014 0.0002217820528330997 0 -0.0022575857851560113 0.00010662973211594106 0 -0.0023268543459367872 0.00027444078965859229 0 -0.0022635154316826014 0.0002217820528330997 0 -0.0022575857851560113 0.00010662973211594106 0 -0.0021906131027228143 0.000110763350903696 0 -0.0023526420027245305 0.00019423200008779898 0 -0.002343309360869308 0.00014215673303251362 0 -0.0022853196795231917 0.00011936403714559203 0 -0.0022575857851560113 0.00010662973211594106 0 -0.0021883820247292755 -9.675550034173723e-05 0 -0.0021803276422841657 -4.9740496151200293e-07 0 -0.0022853196795231917 0.00011936403714559203 0 -0.0023002862608328032 3.2451917382100527e-05 0 -0.0022355319244510628 -2.7376231566869114e-05 0 -0.0023399791610911754 8.7106751099330643e-05 0 -0.0015820814160920854 0.00015751330887064675 0 -0.0022575857851560113 0.00010662973211594106 0 -0.0021803276422841657 -4.9740496151200293e-07 0 -0.0021906131027228143 0.000110763350903696 0 -0.002343309360869308 0.00014215673303251362 0 -0.0022853196795231917 0.00011936403714559203 0 -0.0023273346333638326 0.00010807130352017311 0 -0.0022853196795231917 0.00011936403714559203 0 -0.0023273346333638326 0.00010807130352017311 0 -0.0023189359215816871 7.2572608562405773e-05 0 -0.0023273346333638326 0.00010807130352017311 0 -0.0023189359215816871 7.2572608562405773e-05 0 -0.0023622351806300542 9.8226269538333023e-05 0 -0.0023189359215816871 7.2572608562405773e-05 0 -0.0023002862608328032 3.2451917382100527e-05 0 -0.0023436645522006191 2.4525722076566664e-05 0 -0.0022853196795231917 0.00011936403714559203 0 -0.0023189359215816871 7.2572608562405773e-05 0 -0.0023002862608328032 3.2451917382100527e-05 0 -0.0024252066345933575 0.00011622809498248611 0 -0.0023622351806300542 9.8226269538333023e-05 0 -0.0024085911852729253 4.7314270192997148e-05 0 -0.0024681879888843474 7.8960667589540523e-05 0 -0.0024252066345933575 0.00011622809498248611 0 -0.0024085911852729253 4.7314270192997148e-05 0 -0.002343309360869308 0.00014215673303251362 0 -0.0023273346333638326 0.00010807130352017311 0 -0.0023622351806300542 9.8226269538333023e-05 0 -0.0023189359215816871 7.2572608562405773e-05 0 -0.0023622351806300542 9.8226269538333023e-05 0 -0.0023436645522006191 2.4525722076566664e-05 0 -0.0023622351806300542 9.8226269538333023e-05 0 -0.0024085911852729253 4.7314270192997148e-05 0 -0.0023436645522006191 2.4525722076566664e-05 0 -0.0024085911852729253 4.7314270192997148e-05 0 -0.0024336986341626657 -5.1746436224419653e-06 0 -0.0023820951158374849 -1.8188525522468339e-05 0 -0.0024229942019179723 -4.2433694056624793e-05 0 -0.0023820951158374849 -1.8188525522468339e-05 0 -0.0023841373401920921 -8.2897617970867338e-05 0 -0.0024336986341626657 -5.1746436224419653e-06 0 -0.0024229942019179723 -4.2433694056624793e-05 0 -0.0023820951158374849 -1.8188525522468339e-05 0 -0.0023820951158374849 -1.8188525522468339e-05 0 -0.0023291576486148919 -1.4273945272954365e-05 0 -0.0023841373401920921 -8.2897617970867338e-05 0 -0.0024085911852729253 4.7314270192997148e-05 0 -0.0023820951158374849 -1.8188525522468339e-05 0 -0.0023436645522006191 2.4525722076566664e-05 0 -0.0023820951158374849 -1.8188525522468339e-05 0 -0.0023436645522006191 2.4525722076566664e-05 0 -0.0023291576486148919 -1.4273945272954365e-05 0 -0.0016551472440125997 0.00024876062077182375 0 -0.0015820814160920854 0.00015751330887064675 0 -0.0023291576486148919 -1.4273945272954365e-05 0 -0.0023841373401920921 -8.2897617970867338e-05 0 -0.0022355319244510628 -2.7376231566869114e-05 0 -0.0023002862608328032 3.2451917382100527e-05 0 -0.0023436645522006191 2.4525722076566664e-05 0 -0.0023291576486148919 -1.4273945272954365e-05 0 -0.0023002862608328032 3.2451917382100527e-05 0 -0.0023291576486148919 -1.4273945272954365e-05 0 -0.0022355319244510628 -2.7376231566869114e-05 0 -0.00076218351763546069 0.00053084645509932679 0 -0.00080177108491395256 0.00053200428110371158 0 -0.00075443534867926008 0.00059491860559159277 0 -0.00080177108491395256 0.00053200428110371158 0 -0.00094649786588588765 0.00054992053261821393 0 -0.00075443534867926008 0.00059491860559159277 0 -0.00080177108491395256 0.00053200428110371158 0 -0.00084117274059981601 0.00048860562942311945 0 -0.00094649786588588765 0.00054992053261821393 0 -0.00076218351763546069 0.00053084645509932679 0 -0.00080177108491395256 0.00053200428110371158 0 -0.00078250148710471313 0.00050752586588887491 0 -0.00080177108491395256 0.00053200428110371158 0 -0.00078250148710471313 0.00050752586588887491 0 -0.00084117274059981601 0.00048860562942311945 0 -0.00078250148710471313 0.00050752586588887491 0 -0.00078097433533623397 0.00047610367426700553 0 -0.00074528671219153617 0.00051182823153060684 0 -0.00076218351763546069 0.00053084645509932679 0 -0.00078250148710471313 0.00050752586588887491 0 -0.00074528671219153617 0.00051182823153060684 0 -0.00077128676220569845 0.00041559540776028555 0 -0.00078097433533623397 0.00047610367426700553 0 -0.0008424775791520049 0.00043776414465012661 0 -0.00077128676220569845 0.00041559540776028555 0 -0.00078097433533623397 0.00047610367426700553 0 -0.00072757565408429145 0.00050621770187632778 0 -0.00078250148710471313 0.00050752586588887491 0 -0.00078097433533623397 0.00047610367426700553 0 -0.00084117274059981601 0.00048860562942311945 0 -0.00078097433533623397 0.00047610367426700553 0 -0.00084117274059981601 0.00048860562942311945 0 -0.0008424775791520049 0.00043776414465012661 0 -0.00084117274059981601 0.00048860562942311945 0 -0.0008424775791520049 0.00043776414465012661 0 -0.00089185578668198105 0.00047450495236410272 0 -0.0024915428305729232 -6.3311932479820807e-05 0 -0.0024229942019179723 -4.2433694056624793e-05 0 -0.0023841373401920921 -8.2897617970867338e-05 0 -0.00094330363295545936 0.00042848547140585282 0 -0.00089185578668198105 0.00047450495236410272 0 -0.00094649786588588765 0.00054992053261821393 0 -0.0011233263333882146 0.00034513938029639464 0 -0.00094330363295545936 0.00042848547140585282 0 -0.00094649786588588765 0.00054992053261821393 0 -0.0008424775791520049 0.00043776414465012661 0 -0.00094330363295545936 0.00042848547140585282 0 -0.00089185578668198105 0.00047450495236410272 0 -0.00084117274059981601 0.00048860562942311945 0 -0.00089185578668198105 0.00047450495236410272 0 -0.00094649786588588765 0.00054992053261821393 0 -0.00065453118070874091 0.00023631084961286573 0 -0.00065192402313909103 0.00029967341000002419 0 -0.00060542133443684766 0.00027442992071849426 0 -0.00068431766919014464 0.00040546896784377618 0 -0.00057013226316382384 0.00052103330468503996 0 -0.00073100477991057378 0.00056317633595589969 0 -0.00062053331969890953 0.00027891596407240147 0 -0.0014602107700434643 0.00015254280966325376 0 -0.00090015270543223214 0.0001157087748688646 0 -0.0011625796351563285 0.00018485309433704326 0 -0.0011045935400670274 0.00038796509969506664 0 -0.00062053331969890953 0.00027891596407240147 0 -0.00089036238330334676 0.000459158674412377 0 -0.00067972776809844182 0.00039007115479872118 0 -0.00089036238330334676 0.000459158674412377 0 -0.00076218351763546069 0.00053084645509932679 0 -0.00072853742928360142 0.00050735991616784643 0 -0.00075443534867926008 0.00059491860559159277 0 -0.00078097433533623397 0.00047610367426700553 0 -0.00074528671219153617 0.00051182823153060684 0 -0.00072757565408429145 0.00050621770187632778 0 -0.00076218351763546069 0.00053084645509932679 0 -0.00074528671219153617 0.00051182823153060684 0 -0.00072853742928360142 0.00050735991616784643 0 -0.00086483454218583722 0.0004571162176400055 0 -0.00089036238330334676 0.000459158674412377 0 -0.00089036238330334676 0.000459158674412377 0 -0.0015820814160920854 0.00015751330887064675 0 -0.0011625796351563285 0.00018485309433704326 0 -0.0012115159723892056 0.00034626678944809166 0 -0.0011045935400670274 0.00038796509969506664 0 -0.0015820814160920854 0.00015751330887064675 0 -0.0014602107700434643 0.00015254280966325376 0 -0.0014602107700434643 0.00015254280966325376 0 -0.0019828254176421241 0.00014421928031011996 0 -0.0021883820247292755 -9.675550034173723e-05 0 -0.0021221223554941169 -7.1237314909950773e-05 0 -0.0021803276422841657 -4.9740496151200293e-07 0 -0.00065453118070874091 0.00023631084961286573 0 -0.00073006000418021535 0.00031821662007028246 0 -0.00065192402313909103 0.00029967341000002419 0 -0.00073006000418021535 0.00031821662007028246 0 -0.00065192402313909103 0.00029967341000002419 0 -0.00061231452858805547 0.00036274412916724268 0 -0.0014602107700434643 0.00015254280966325376 0 -0.0013599579794605617 0.00017676937353980766 0 -0.00065192402313909103 0.00029967341000002419 0 -0.00060542133443684766 0.00027442992071849426 0 -0.00061231452858805547 0.00036274412916724268 0 -0.0020405014072706995 5.8543437199822242e-05 0 -0.0020242564650051332 0.00021861727190830755 0 -0.0018887825022776345 1.1686883042358107e-05 0 -0.0022570715942784618 0.00016762521437788333 0 -0.0013599579794605617 0.00017676937353980766 0 -0.0021238248205415712 -7.7162341260307072e-05 0 -0.0020405014072706995 5.8543437199822242e-05 0 -0.0018887825022776345 1.1686883042358107e-05 0 -0.0021238248205415712 -7.7162341260307072e-05 0 -0.0021803276422841657 -4.9740496151200293e-07 0 -0.0021277913930305083 4.6066642362770962e-05 0 -0.0021238248205415712 -7.7162341260307072e-05 0 -0.0020405014072706995 5.8543437199822242e-05 0 -0.0021277913930305083 4.6066642362770962e-05 0 -0.0020405014072706995 5.8543437199822242e-05 0 -0.0021277913930305083 4.6066642362770962e-05 0 -0.0021022890299434421 0.00013902539637650262 0 -0.0021803276422841657 -4.9740496151200293e-07 0 -0.0021277913930305083 4.6066642362770962e-05 0 -0.0021906131027228143 0.000110763350903696 0 -0.0021277913930305083 4.6066642362770962e-05 0 -0.0021906131027228143 0.000110763350903696 0 -0.0021022890299434421 0.00013902539637650262 0 -0.0022693562840063741 0.00026051823850614279 0 -0.0021906131027228143 0.000110763350903696 0 -0.0021648619167798562 0.00025413571304175488 0 -0.0021906131027228143 0.000110763350903696 0 -0.0021022890299434421 0.00013902539637650262 0 -0.0021648619167798562 0.00025413571304175488 0 -0.0021022890299434421 0.00013902539637650262 0 -0.0021648619167798562 0.00025413571304175488 0 -0.0020242564650051332 0.00021861727190830755 0 -0.0020405014072706995 5.8543437199822242e-05 0 -0.0021022890299434421 0.00013902539637650262 0 -0.0020242564650051332 0.00021861727190830755 0 -0.0024286628909290717 8.620691473735793e-05 0 -0.0023505592300009271 7.0722149363019381e-05 0 -0.0023649111427218976 2.8422227584035424e-06 0 -0.0024286628909290717 8.620691473735793e-05 0 -0.0024006342189324755 0.0001823821201388852 0 -0.002491472726411828 0.00017280131469300157 0 -0.0024286628909290717 8.620691473735793e-05 0 -0.0024006342189324755 0.0001823821201388852 0 -0.0023593186355123641 0.00012887688040752574 0 -0.0029676676392906246 8.198608258714361e-05 0 -0.0028975682799431452 9.6549775423626513e-05 0 -0.0035433082953204549 -3.8122190549560002e-05 0 -0.0034595860259154722 -2.7470030979424293e-05 0 -0.0034739895269496114 -8.9934059568086923e-05 0 -0.0021648619167798562 0.00025413571304175488 0 -0.0020242564650051332 0.00021861727190830755 0 -0.0021646297782585799 0.00043249637559596718 0 -0.0021648619167798562 0.00025413571304175488 0 -0.0021646297782585799 0.00043249637559596718 0 -0.0022423746784553588 0.0003554494191313295 0 -0.0022570715942784618 0.00016762521437788333 0 -0.0028975682799431452 9.6549775423626513e-05 0 -0.0022693562840063741 0.00026051823850614279 0 -0.0021648619167798562 0.00025413571304175488 0 -0.0022423746784553588 0.0003554494191313295 0 -0.0021646297782585799 0.00043249637559596718 0 -0.0022423746784553588 0.0003554494191313295 0 -0.0023449822490685143 0.00041121563869360911 0 -0.0022550082307723025 0.00022658499561911157 0 -0.0027149855409990451 0.00028219656452307886 0 -0.0022635154316826014 0.0002217820528330997 0 -0.0023268543459367872 0.00027444078965859229 0 -0.0023282694946827865 0.00033260908629302171 0 -0.0022693562840063741 0.00026051823850614279 0 -0.0022423746784553588 0.0003554494191313295 0 -0.0023449822490685143 0.00041121563869360911 0 -0.0024744856221027992 0.000308315460149519 0 -0.0024009341332929014 0.00025607304875120587 0 -0.0023282694946827865 0.00033260908629302171 0 -0.0025709166784071121 0.0002946060053784898 0 -0.0027149855409990451 0.00028219656452307886 0 -0.0023526420027245305 0.00019423200008779898 0 -0.0023268543459367872 0.00027444078965859229 0 -0.0024009341332929014 0.00025607304875120587 0 -0.0023268543459367872 0.00027444078965859229 0 -0.0024009341332929014 0.00025607304875120587 0 -0.0023282694946827865 0.00033260908629302171 0 -0.0027545235310527461 0.00022806466222412443 0 -0.0028246966822062514 0.00027010724585752217 0 -0.0027849523639412854 0.00017923544446037085 0 -0.0027149855409990451 0.00028219656452307886 0 -0.0030352837335542704 1.7375010067971676e-05 0 -0.0027264500260009749 0.00028119929700793272 0 -0.0027545235310527461 0.00022806466222412443 0 -0.0028246966822062514 0.00027010724585752217 0 -0.0028975682799431452 9.6549775423626513e-05 0 -0.0027149855409990451 0.00028219656452307886 0 -0.0033878944936057004 -3.2509424349882758e-05 0 -0.0034127265342365392 -0.00011096087230543293 0 -0.0033646348349503784 -9.7395036561158992e-05 0 -0.0034420848822053038 -3.9671847340455769e-05 0 -0.0033878944936057004 -3.2509424349882758e-05 0 -0.0034127265342365392 -0.00011096087230543293 0 -0.0028975682799431452 9.6549775423626513e-05 0 -0.0035642983114874648 -0.0001103012541614731 0 -0.0027283430749613273 0.0001840796794383235 0 -0.0027545235310527461 0.00022806466222412443 0 -0.0027849523639412854 0.00017923544446037085 0 -0.0034127265342365392 -0.00011096087230543293 0 -0.0033646348349503784 -9.7395036561158992e-05 0 -0.0033875820123074455 -0.00014573778202674504 0 -0.0037994664886787251 -0.00015898050579391185 0 -0.0041664743886514789 -0.00018917665272149517 0 -0.0033373794498364252 -0.00016761078132195633 0 -0.0033646348349503784 -9.7395036561158992e-05 0 -0.0033875820123074455 -0.00014573778202674504 0 -0.0033373794498364252 -0.00016761078132195633 0 -0.0033875820123074455 -0.00014573778202674504 0 -0.0034143585366523533 -0.00019789795057102309 0 -0.0037994664886787251 -0.00015898050579391185 0 -0.0030352837335542704 1.7375010067971676e-05 0 -0.0034127265342365392 -0.00011096087230543293 0 -0.0033875820123074455 -0.00014573778202674504 0 -0.0034503495223627153 -0.00015391848916209959 0 -0.0033875820123074455 -0.00014573778202674504 0 -0.0034503495223627153 -0.00015391848916209959 0 -0.0034143585366523533 -0.00019789795057102309 0 -0.0034503495223627153 -0.00015391848916209959 0 -0.003511452311398041 -0.00013707825639943779 0 -0.0034964923126351304 -0.00022914871627836787 0 -0.003561226809647901 -0.00018280130026406195 0 -0.003511452311398041 -0.00013707825639943779 0 -0.0034964923126351304 -0.00022914871627836787 0 -0.003561226809647901 -0.00018280130026406195 0 -0.003511452311398041 -0.00013707825639943779 0 -0.0035571681899448562 -0.00010342022922538652 0 -0.0035433082953204549 -3.8122190549560002e-05 0 -0.0034739895269496114 -8.9934059568086923e-05 0 -0.0035571681899448562 -0.00010342022922538652 0 -0.003511452311398041 -0.00013707825639943779 0 -0.0034739895269496114 -8.9934059568086923e-05 0 -0.0035571681899448562 -0.00010342022922538652 0 -0.0034127265342365392 -0.00011096087230543293 0 -0.0034503495223627153 -0.00015391848916209959 0 -0.0034739895269496114 -8.9934059568086923e-05 0 -0.0034595860259154722 -2.7470030979424293e-05 0 -0.0034127265342365392 -0.00011096087230543293 0 -0.0034739895269496114 -8.9934059568086923e-05 0 -0.0034503495223627153 -0.00015391848916209959 0 -0.003511452311398041 -0.00013707825639943779 0 -0.0034739895269496114 -8.9934059568086923e-05 0 -0.0047500899231872357 -9.5856503672469521e-05 0 -0.0047156551018188164 -0.00014708504472271515 0 -0.0047911885791495027 -0.00011634733092205413 0 -0.0047500899231872357 -9.5856503672469521e-05 0 -0.0047007896260134593 -0.00011033759760640704 0 -0.0047074924440963931 -5.9232267601779364e-05 0 -0.0047500899231872357 -9.5856503672469521e-05 0 -0.0046873567319070646 -0.00010037260900064021 0 -0.0047156551018188164 -0.00014708504472271515 0 -0.0047350100282347839 -9.8142291741623355e-05 0 -0.0047150971407816543 -0.00010217197534943904 0 -0.0047471861849653161 -4.5106587007610778e-05 0 -0.0045181374950238416 -0.00017602995567512751 0 -0.0046873567319070646 -0.00010037260900064021 0 -0.0047156551018188164 -0.00014708504472271515 0 -0.0046167989458188279 -0.00011781652075501754 0 -0.0047074924440963931 -5.9232267601779364e-05 0 -0.0046094915811781051 -0.00013785483637580905 0 -0.0046161370209942881 -0.00018291001148709908 0 -0.0047007896260134593 -0.00011033759760640704 0 -0.0047074924440963931 -5.9232267601779364e-05 0 -0.004659105449242495 -0.00012020775285499233 0 -0.0047156551018188164 -0.00014708504472271515 0 -0.0046070744725773098 -0.00012078669891314079 0 -0.0046167989458188279 -0.00011781652075501754 0 -0.0047150971407816543 -0.00010217197534943904 0 -0.0045181374950238416 -0.00017602995567512751 0 -0.0040668406143260765 -0.00016950206813366619 0 -0.0042098138793446429 -0.0002770993439694258 0 -0.003561226809647901 -0.00018280130026406195 0 -0.0034964923126351304 -0.00022914871627836787 0 -0.0035856086184648272 -0.00026062194416436323 0 -0.0034503495223627153 -0.00015391848916209959 0 -0.0034964923126351304 -0.00022914871627836787 0 -0.0034143585366523533 -0.00019789795057102309 0 -0.0040668406143260765 -0.00016950206813366619 0 -0.0041664743886514789 -0.00018917665272149517 0 -0.0047156551018188164 -0.00014708504472271515 0 -0.0047922007685179541 -0.00015451096209784945 0 -0.0047911885791495027 -0.00011634733092205413 0 -0.0047922007685179541 -0.00015451096209784945 0 -0.0048293970662010091 -0.00013605768075172349 0 -0.0047911885791495027 -0.00011634733092205413 0 -0.0048479150830325751 -0.00015362708768906446 0 -0.0047922007685179541 -0.00015451096209784945 0 -0.0048293970662010091 -0.00013605768075172349 0 -0.0048293970662010091 -0.00013605768075172349 0 -0.0048478364757904005 -9.6460835377507018e-05 0 -0.0048629263582879566 -0.00011782072265138636 0 -0.0048293970662010091 -0.00013605768075172349 0 -0.0048629263582879566 -0.00011782072265138636 0 -0.0048481933388315104 -0.00013659999569754904 0 -0.0048479150830325751 -0.00015362708768906446 0 -0.0048293970662010091 -0.00013605768075172349 0 -0.0048481933388315104 -0.00013659999569754904 0 -0.0048478364757904005 -9.6460835377507018e-05 0 -0.0047911885791495027 -0.00011634733092205413 0 -0.004808515965709274 -7.7248482258553231e-05 0 -0.0048293970662010091 -0.00013605768075172349 0 -0.0048478364757904005 -9.6460835377507018e-05 0 -0.0047911885791495027 -0.00011634733092205413 0 -0.0047500899231872357 -9.5856503672469521e-05 0 -0.0047911885791495027 -0.00011634733092205413 0 -0.004808515965709274 -7.7248482258553231e-05 0 -0.004808515965709274 -7.7248482258553231e-05 0 -0.0048207831241188449 -3.2468451377058467e-05 0 -0.0047650558383600158 -5.2176586860772993e-05 0 -0.0047500899231872357 -9.5856503672469521e-05 0 -0.004808515965709274 -7.7248482258553231e-05 0 -0.0047650558383600158 -5.2176586860772993e-05 0 -0.004808515965709274 -7.7248482258553231e-05 0 -0.0048207831241188449 -3.2468451377058467e-05 0 -0.0048803235196596953 -4.5358327965564383e-05 0 -0.0048478364757904005 -9.6460835377507018e-05 0 -0.004808515965709274 -7.7248482258553231e-05 0 -0.0048803235196596953 -4.5358327965564383e-05 0 -0.0048207831241188449 -3.2468451377058467e-05 0 -0.004850044061647304 8.3521669191368841e-06 0 -0.0048803235196596953 -4.5358327965564383e-05 0 -0.004850044061647304 8.3521669191368841e-06 0 -0.004930580345795966 1.7136542944041631e-05 0 -0.0048803235196596953 -4.5358327965564383e-05 0 -0.0047801225169651273 9.0535850552291484e-06 0 -0.0048207831241188449 -3.2468451377058467e-05 0 -0.004850044061647304 8.3521669191368841e-06 0 -0.0047801225169651273 9.0535850552291484e-06 0 -0.0048207831241188449 -3.2468451377058467e-05 0 -0.0047650558383600158 -5.2176586860772993e-05 0 -0.004711359036817948 7.6734759080645816e-07 0 -0.0047650558383600158 -5.2176586860772993e-05 0 -0.0047074924440963931 -5.9232267601779364e-05 0 -0.0047801225169651273 9.0535850552291484e-06 0 -0.004711359036817948 7.6734759080645816e-07 0 -0.0047650558383600158 -5.2176586860772993e-05 0 -0.0047500899231872357 -9.5856503672469521e-05 0 -0.0047650558383600158 -5.2176586860772993e-05 0 -0.0047074924440963931 -5.9232267601779364e-05 0 -0.0047074924440963931 -5.9232267601779364e-05 0 -0.00459826633342259 -1.8380009338260698e-05 0 -0.0046061629752776412 -8.146198518637318e-05 0 -0.0047074924440963931 -5.9232267601779364e-05 0 -0.0046094915811781051 -0.00013785483637580905 0 -0.0046061629752776412 -8.146198518637318e-05 0 -0.004711359036817948 7.6734759080645816e-07 0 -0.0047074924440963931 -5.9232267601779364e-05 0 -0.00459826633342259 -1.8380009338260698e-05 0 -0.004711359036817948 7.6734759080645816e-07 0 -0.0046742408705527684 6.0543128105157883e-05 0 -0.00459826633342259 -1.8380009338260698e-05 0 -0.004671728411797969 6.0494911067688347e-05 0 -0.0046051834831809819 -4.8603043449404246e-06 0 -0.0047801225169651273 9.0535850552291484e-06 0 -0.004711359036817948 7.6734759080645816e-07 0 -0.0047262235001806702 6.68483162929082e-05 0 -0.004711359036817948 7.6734759080645816e-07 0 -0.0046742408705527684 6.0543128105157883e-05 0 -0.0047262235001806702 6.68483162929082e-05 0 -0.0048521975091484915 5.1424477980965213e-05 0 -0.0048937390629293599 4.7629022961174046e-05 0 -0.0047262235001806702 6.68483162929082e-05 0 -0.004698249445527501 0.00011611449428280114 0 -0.0048072952558447617 8.0690980870810371e-05 0 -0.0049937959188464161 7.1545871387231372e-06 0 -0.0049996786812078033 9.7036536539067567e-06 0 -0.0049835230986025368 1.5062531780061772e-05 0 -0.0047190355981724169 0.00011012559791524862 0 -0.0048521975091484915 5.1424477980965213e-05 0 -0.0046742408705527684 6.0543128105157883e-05 0 -0.0047262235001806702 6.68483162929082e-05 0 -0.0046931140790466529 0.00010789689550773796 0 -0.0046742408705527684 6.0543128105157883e-05 0 -0.0046465691969457762 9.1029419394968907e-05 0 -0.0046138465734154831 7.9220588901324167e-05 0 -0.0048521975091484915 5.1424477980965213e-05 0 -0.0048002136399679625 6.0068418606974321e-05 0 -0.0046465691969457762 9.1029419394968907e-05 0 -0.0046931140790466529 0.00010789689550773796 0 -0.0046084336863419324 0.00011349850654317865 0 -0.0046742408705527684 6.0543128105157883e-05 0 -0.0046465691969457762 9.1029419394968907e-05 0 -0.0046931140790466529 0.00010789689550773796 0 -0.0049996786812078033 9.7036536539067567e-06 0 -0.005000855982518186 2.0799517272745114e-06 0 -0.004997806831082547 3.4865196976369406e-06 0 -0.0048521975091484915 5.1424477980965213e-05 0 -0.0050126864033400026 -1.1199331010318585e-05 0 -0.0049852511512617041 1.116610919769331e-05 0 -0.0049921762574352026 2.8561780803578722e-06 0 -0.004995982902314111 6.3208903803448451e-06 0 -0.0049937959188464161 7.1545871387231372e-06 0 -0.004997806831082547 3.4865196976369406e-06 0 -0.0049933640256767352 2.4128792920945721e-06 0 -0.0049937959188464161 7.1545871387231372e-06 0 -0.0049996786812078033 9.7036536539067567e-06 0 -0.004997806831082547 3.4865196976369406e-06 0 -0.004997806831082547 3.4865196976369406e-06 0 -0.0049999987146649239 9.443643148767465e-10 0 -0.0049933640256767352 2.4128792920945721e-06 0 -0.005000855982518186 2.0799517272745114e-06 0 -0.004997806831082547 3.4865196976369406e-06 0 -0.0049999987146649239 9.443643148767465e-10 0 -0.005000855982518186 2.0799517272745114e-06 0 -0.0049999987146649239 9.443643148767465e-10 0 -0.0050000033832753709 8.3761767136265982e-10 0 -0.0049999825481878259 -5.0131453268520553e-09 0 -0.0049933640256767352 2.4128792920945721e-06 0 -0.0049753116281849082 1.4043642002001511e-06 0 -0.0049999825481878259 -5.0131453268520553e-09 0 -0.0049753116281849082 1.4043642002001511e-06 0 -0.004999969803399975 2.4902127508861274e-09 0 -0.0049999987146649239 9.443643148767465e-10 0 -0.0049999825481878259 -5.0131453268520553e-09 0 -0.0049933640256767352 2.4128792920945721e-06 0 -0.0049933640256767352 2.4128792920945721e-06 0 -0.0049835230986025368 1.5062531780061772e-05 0 -0.0049753116281849082 1.4043642002001511e-06 0 -0.0049835230986025368 1.5062531780061772e-05 0 -0.004930580345795966 1.7136542944041631e-05 0 -0.0049753116281849082 1.4043642002001511e-06 0 -0.0049937959188464161 7.1545871387231372e-06 0 -0.0049933640256767352 2.4128792920945721e-06 0 -0.0049835230986025368 1.5062531780061772e-05 0 -0.0047801225169651273 9.0535850552291484e-06 0 -0.0047262235001806702 6.68483162929082e-05 0 -0.0048072952558447617 8.0690980870810371e-05 0 -0.0047801225169651273 9.0535850552291484e-06 0 -0.0048072952558447617 8.0690980870810371e-05 0 -0.004850044061647304 8.3521669191368841e-06 0 -0.0048937390629293599 4.7629022961174046e-05 0 -0.0049295115545119434 2.1026032527230578e-05 0 -0.0048072952558447617 8.0690980870810371e-05 0 -0.004850044061647304 8.3521669191368841e-06 0 -0.004930580345795966 1.7136542944041631e-05 0 -0.0049607697056174623 4.9019003338516474e-06 0 -0.0049602706836824485 -1.5253525885834147e-05 0 -0.0049350685068247106 -1.7540787554563585e-05 0 -0.004930580345795966 1.7136542944041631e-05 0 -0.0049607697056174623 4.9019003338516474e-06 0 -0.0049350685068247106 -1.7540787554563585e-05 0 -0.004930580345795966 1.7136542944041631e-05 0 -0.0049607697056174623 4.9019003338516474e-06 0 -0.0049753116281849082 1.4043642002001511e-06 0 -0.0049607697056174623 4.9019003338516474e-06 0 -0.0049753116281849082 1.4043642002001511e-06 0 -0.0049836410844280405 2.2023622334190615e-06 0 -0.0049836410844280405 2.2023622334190615e-06 0 -0.004999969803399975 2.4902127508861274e-09 0 -0.0049999772124156338 5.0263013626020866e-09 0 -0.0049753116281849082 1.4043642002001511e-06 0 -0.0049836410844280405 2.2023622334190615e-06 0 -0.004999969803399975 2.4902127508861274e-09 0 -0.0049999772124156338 5.0263013626020866e-09 0 -0.0049851970538225534 2.0147937418361535e-06 0 -0.0049999929554214477 -9.5315917800138431e-10 0 -0.0049836410844280405 2.2023622334190615e-06 0 -0.0049999772124156338 5.0263013626020866e-09 0 -0.0049851970538225534 2.0147937418361535e-06 0 -0.0049607697056174623 4.9019003338516474e-06 0 -0.0049836410844280405 2.2023622334190615e-06 0 -0.0049851970538225534 2.0147937418361535e-06 0 -0.0049851970538225534 2.0147937418361535e-06 0 -0.0049602706836824485 -1.5253525885834147e-05 0 -0.0049810321670311439 -1.1566062457831222e-05 0 -0.0049607697056174623 4.9019003338516474e-06 0 -0.0049851970538225534 2.0147937418361535e-06 0 -0.0049602706836824485 -1.5253525885834147e-05 0 -0.0049602706836824485 -1.5253525885834147e-05 0 -0.0049696588867972364 -3.7528612273684509e-05 0 -0.0049810321670311439 -1.1566062457831222e-05 0 -0.0049602706836824485 -1.5253525885834147e-05 0 -0.0049696588867972364 -3.7528612273684509e-05 0 -0.0049472529434663008 -4.2775283435785302e-05 0 -0.0049696588867972364 -3.7528612273684509e-05 0 -0.0049535398760473647 -6.5661950991397766e-05 0 -0.0049472529434663008 -4.2775283435785302e-05 0 -0.0049696588867972364 -3.7528612273684509e-05 0 -0.0049535398760473647 -6.5661950991397766e-05 0 -0.0049653840512495781 -6.8403472138416066e-05 0 -0.0049365751031063537 -6.7528523907238022e-05 0 -0.0049472529434663008 -4.2775283435785302e-05 0 -0.0049204042895321844 -5.942710561237516e-05 0 -0.0049535398760473647 -6.5661950991397766e-05 0 -0.0049365751031063537 -6.7528523907238022e-05 0 -0.0049472529434663008 -4.2775283435785302e-05 0 -0.0049602706836824485 -1.5253525885834147e-05 0 -0.0049472529434663008 -4.2775283435785302e-05 0 -0.0049350685068247106 -1.7540787554563585e-05 0 -0.0049350685068247106 -1.7540787554563585e-05 0 -0.0048803235196596953 -4.5358327965564383e-05 0 -0.0049204042895321844 -5.942710561237516e-05 0 -0.0049472529434663008 -4.2775283435785302e-05 0 -0.0049350685068247106 -1.7540787554563585e-05 0 -0.0049204042895321844 -5.942710561237516e-05 0 -0.004930580345795966 1.7136542944041631e-05 0 -0.0049350685068247106 -1.7540787554563585e-05 0 -0.0048803235196596953 -4.5358327965564383e-05 0 -0.0048803235196596953 -4.5358327965564383e-05 0 -0.0049204042895321844 -5.942710561237516e-05 0 -0.0048876547588881493 -8.806869431908737e-05 0 -0.0049204042895321844 -5.942710561237516e-05 0 -0.00491429135092085 -9.157051182680779e-05 0 -0.0048876547588881493 -8.806869431908737e-05 0 -0.0049365751031063537 -6.7528523907238022e-05 0 -0.0049204042895321844 -5.942710561237516e-05 0 -0.00491429135092085 -9.157051182680779e-05 0 -0.00491429135092085 -9.157051182680779e-05 0 -0.0048876547588881493 -8.806869431908737e-05 0 -0.0048836742607102305 -0.00010735251047037082 0 -0.0048478364757904005 -9.6460835377507018e-05 0 -0.0048876547588881493 -8.806869431908737e-05 0 -0.0048629263582879566 -0.00011782072265138636 0 -0.0048478364757904005 -9.6460835377507018e-05 0 -0.0048803235196596953 -4.5358327965564383e-05 0 -0.0048876547588881493 -8.806869431908737e-05 0 -0.0048876547588881493 -8.806869431908737e-05 0 -0.0048629263582879566 -0.00011782072265138636 0 -0.0048836742607102305 -0.00010735251047037082 0 -0.0048629263582879566 -0.00011782072265138636 0 -0.0048836742607102305 -0.00010735251047037082 0 -0.0048797678793508562 -0.00012287409160888785 0 -0.0048629263582879566 -0.00011782072265138636 0 -0.0048797678793508562 -0.00012287409160888785 0 -0.004863187875409793 -0.00013350597594185518 0 -0.0048762105676556349 -0.00013682017986275781 0 -0.0048797678793508562 -0.00012287409160888785 0 -0.004863187875409793 -0.00013350597594185518 0 -0.0048629263582879566 -0.00011782072265138636 0 -0.004863187875409793 -0.00013350597594185518 0 -0.0048481933388315104 -0.00013659999569754904 0 -0.0048509186665743036 -0.00014755295032563848 0 -0.004863187875409793 -0.00013350597594185518 0 -0.0048481933388315104 -0.00013659999569754904 0 -0.00491429135092085 -9.157051182680779e-05 0 -0.0049095292953983153 -0.00011078807483865384 0 -0.0048963078187739479 -0.00011187420560664488 0 -0.00491429135092085 -9.157051182680779e-05 0 -0.0048836742607102305 -0.00010735251047037082 0 -0.0048963078187739479 -0.00011187420560664488 0 -0.0048836742607102305 -0.00010735251047037082 0 -0.0048797678793508562 -0.00012287409160888785 0 -0.0048963078187739479 -0.00011187420560664488 0 -0.0048797678793508562 -0.00012287409160888785 0 -0.0048963078187739479 -0.00011187420560664488 0 -0.0048958201342349256 -0.00012841273983895974 0 -0.0048762105676556349 -0.00013682017986275781 0 -0.0048797678793508562 -0.00012287409160888785 0 -0.0048958201342349256 -0.00012841273983895974 0 -0.0049095292953983153 -0.00011078807483865384 0 -0.0048963078187739479 -0.00011187420560664488 0 -0.0048958201342349256 -0.00012841273983895974 0 -0.0049095292953983153 -0.00011078807483865384 0 -0.0048958201342349256 -0.00012841273983895974 0 -0.0049166052309542211 -0.00011923698189613292 0 -0.0049452303914494199 -0.0001107931720079335 0 -0.0049166052309542211 -0.00011923698189613292 0 -0.0049260946139109635 -0.00010334090440267802 0 -0.0049095292953983153 -0.00011078807483865384 0 -0.0049166052309542211 -0.00011923698189613292 0 -0.0049260946139109635 -0.00010334090440267802 0 -0.00491429135092085 -9.157051182680779e-05 0 -0.0049095292953983153 -0.00011078807483865384 0 -0.0049260946139109635 -0.00010334090440267802 0 -0.0049452303914494199 -0.0001107931720079335 0 -0.0049260946139109635 -0.00010334090440267802 0 -0.0049428824804114702 -8.505017687476846e-05 0 -0.0049452303914494199 -0.0001107931720079335 0 -0.0049547154648210299 -8.6330540701892367e-05 0 -0.0049563055315421743 -8.6135897348919009e-05 0 -0.0049452303914494199 -0.0001107931720079335 0 -0.0049547154648210299 -8.6330540701892367e-05 0 -0.0049428824804114702 -8.505017687476846e-05 0 -0.0049535398760473647 -6.5661950991397766e-05 0 -0.0049547154648210299 -8.6330540701892367e-05 0 -0.0049428824804114702 -8.505017687476846e-05 0 -0.0049535398760473647 -6.5661950991397766e-05 0 -0.0049547154648210299 -8.6330540701892367e-05 0 -0.0049653840512495781 -6.8403472138416066e-05 0 -0.0049365751031063537 -6.7528523907238022e-05 0 -0.00491429135092085 -9.157051182680779e-05 0 -0.0049428824804114702 -8.505017687476846e-05 0 -0.00491429135092085 -9.157051182680779e-05 0 -0.0049260946139109635 -0.00010334090440267802 0 -0.0049428824804114702 -8.505017687476846e-05 0 -0.0049535398760473647 -6.5661950991397766e-05 0 -0.0049365751031063537 -6.7528523907238022e-05 0 -0.0049428824804114702 -8.505017687476846e-05 0 -0.0049601977221678311 -8.728438518485855e-05 0 -0.0049269709621201233 -0.00013710584092964682 0 -0.0049339587799984283 -0.000129349869509256 0 -0.0049235041436515069 -8.1743902497302172e-05 0 -0.0049601977221678311 -8.728438518485855e-05 0 -0.0049269709621201233 -0.00013710584092964682 0 -0.0049601977221678311 -8.728438518485855e-05 0 -0.004985986970156518 -5.2537045386068e-05 0 -0.0049653840512495781 -6.8403472138416066e-05 0 -0.004960241766991961 -8.5397316001961857e-05 0 -0.0049605088991676698 -8.8217583794479365e-05 0 -0.0049547154648210299 -8.6330540701892367e-05 0 -0.0049601977221678311 -8.728438518485855e-05 0 -0.0049653840512495781 -6.8403472138416066e-05 0 -0.0049601977221678311 -8.728438518485855e-05 0 -0.0049563055315421743 -8.6135897348919009e-05 0 -0.0049562847336964821 -7.0229818343804906e-05 0 -0.0049547154648210299 -8.6330540701892367e-05 0 -0.0049601977221678311 -8.728438518485855e-05 0 -0.0049563055315421743 -8.6135897348919009e-05 0 -0.0049452303914494199 -0.0001107931720079335 0 -0.0049563055315421743 -8.6135897348919009e-05 0 -0.0049562847336964821 -7.0229818343804906e-05 0 -0.0038432154896208106 3.4362591631899796e-05 0 -0.0038552743930151813 6.0968404279938292e-05 0 -0.0038552743930151813 6.0968404279938292e-05 0 -0.003851455323686327 9.6763834088346603e-05 0 -0.0049235041436515069 -8.1743902497302172e-05 0 -0.0049562847336964821 -7.0229818343804906e-05 0 -0.0048616838971727323 -3.5275375776006784e-05 0 -0.0027917642694621778 0.00018272452772408974 0 -0.0027694602357664663 0.00019319658926886829 0 -0.002826956800027263 0.00022703611667952546 0 -0.0049235041436515069 -8.1743902497302172e-05 0 -0.0049601977221678311 -8.728438518485855e-05 0 -0.0049562847336964821 -7.0229818343804906e-05 0 -0.002826956800027263 0.00022703611667952546 0 -0.0029251810308494088 0.00028953160460602002 0 -0.0029307325837119344 0.00019954383172954916 0 -0.003851455323686327 9.6763834088346603e-05 0 -0.003747213902637356 0.00011621144684671705 0 -0.0028887109445760767 0.00016834191921544412 0 -0.002826956800027263 0.00022703611667952546 0 -0.0029307325837119344 0.00019954383172954916 0 -0.0048616838971727323 -3.5275375776006784e-05 0 -0.0047023278280179191 -0.0001013757230977443 0 -0.0046505075701367493 -5.0664814263606656e-05 0 -0.0047023278280179191 -0.0001013757230977443 0 -0.0046998977230129331 -0.00014121641378465706 0 -0.0049269709621201233 -0.00013710584092964682 0 -0.0047023278280179191 -0.0001013757230977443 0 -0.0047016148344378459 -0.00016958889987335116 0 -0.0046505075701367493 -5.0664814263606656e-05 0 -0.004787524552473975 -0.00010224827767394956 0 -0.0048174309099915319 -5.9284965910551768e-05 0 -0.0048174309099915319 -5.9284965910551768e-05 0 -0.0049362012250005957 -0.00016283015017920068 0 -0.0048616838971727323 -3.5275375776006784e-05 0 -0.0047023278280179191 -0.0001013757230977443 0 -0.0049269709621201233 -0.00013710584092964682 0 -0.0049235041436515069 -8.1743902497302172e-05 0 -0.0048616838971727323 -3.5275375776006784e-05 0 -0.0049269709621201233 -0.00013710584092964682 0 -0.0049269709621201233 -0.00013710584092964682 0 -0.0049703715024930362 -0.00012121105021715365 0 -0.0049605618080868713 -0.00010300565855933126 0 -0.004995491017383712 -0.0001503880996387305 0 -0.0049269709621201233 -0.00013710584092964682 0 -0.0049703715024930362 -0.00012121105021715365 0 -0.004995491017383712 -0.0001503880996387305 0 -0.0049703715024930362 -0.00012121105021715365 0 -0.0050010717368937935 -9.628654977250773e-05 0 -0.0048174309099915319 -5.9284965910551768e-05 0 -0.0048068634794831387 -0.00010119468264866269 0 -0.0049703715024930362 -0.00012121105021715365 0 -0.0050010717368937935 -9.628654977250773e-05 0 -0.0049605618080868713 -0.00010300565855933126 0 -0.0050010717368937935 -9.628654977250773e-05 0 -0.0049605618080868713 -0.00010300565855933126 0 -0.0049787693663275109 -6.3477877339524925e-05 0 -0.0049605618080868713 -0.00010300565855933126 0 -0.0049339587799984283 -0.000129349869509256 0 -0.0049401672135825506 -7.9380603000771429e-05 0 -0.0049605088991676698 -8.8217583794479365e-05 0 -0.0049670607367097224 -5.0662840084554117e-05 0 -0.0049269709621201233 -0.00013710584092964682 0 -0.0049605618080868713 -0.00010300565855933126 0 -0.0049339587799984283 -0.000129349869509256 0 -0.0049696588867972364 -3.7528612273684509e-05 0 -0.004985986970156518 -5.2537045386068e-05 0 -0.0049653840512495781 -6.8403472138416066e-05 0 -0.0049696588867972364 -3.7528612273684509e-05 0 -0.004985986970156518 -5.2537045386068e-05 0 -0.0049934925834403633 -1.9705716590189353e-05 0 -0.0049696588867972364 -3.7528612273684509e-05 0 -0.0049810321670311439 -1.1566062457831222e-05 0 -0.0049934925834403633 -1.9705716590189353e-05 0 -0.0049401672135825506 -7.9380603000771429e-05 0 -0.00496090593599485 -3.5512530495049339e-05 0 -0.0049787693663275109 -6.3477877339524925e-05 0 -0.0049670607367097224 -5.0662840084554117e-05 0 -0.0049786458495456702 -1.9811221098525011e-05 0 -0.0049851970538225534 2.0147937418361535e-06 0 -0.0049810321670311439 -1.1566062457831222e-05 0 -0.0049947542631671839 -1.3827222222499019e-06 0 -0.0049810321670311439 -1.1566062457831222e-05 0 -0.0049934925834403633 -1.9705716590189353e-05 0 -0.0049947542631671839 -1.3827222222499019e-06 0 -0.0049851970538225534 2.0147937418361535e-06 0 -0.0049947542631671839 -1.3827222222499019e-06 0 -0.0049934883825230331 7.3324105099632236e-07 0 -0.0049947542631671839 -1.3827222222499019e-06 0 -0.0049934883825230331 7.3324105099632236e-07 0 -0.0049943598292947339 -1.8285920629023378e-06 0 -0.00496090593599485 -3.5512530495049339e-05 0 -0.0049943598292947339 -1.8285920629023378e-06 0 -0.0049892628547432557 -1.4077472298113931e-05 0 -0.0049786458495456702 -1.9811221098525011e-05 0 -0.0049911505599643689 -4.2008584942662405e-06 0 -0.0049943598292947339 -1.8285920629023378e-06 0 -0.0049999929554214477 -9.5315917800138431e-10 0 -0.0049999576886013523 -5.2810824955847449e-09 0 -0.0049943598292947339 -1.8285920629023378e-06 0 -0.0049999576886013523 -5.2810824955847449e-09 0 -0.0049892628547432557 -1.4077472298113931e-05 0 -0.0049851970538225534 2.0147937418361535e-06 0 -0.0049934883825230331 7.3324105099632236e-07 0 -0.0049999929554214477 -9.5315917800138431e-10 0 -0.0049934883825230331 7.3324105099632236e-07 0 -0.0049943598292947339 -1.8285920629023378e-06 0 -0.0049999929554214477 -9.5315917800138431e-10 0 -0.0049997277742803896 -6.7906869038810321e-07 0 -0.0049999988178539871 -8.1719405670179137e-10 0 -0.0050000010863249797 -5.6114329802254053e-11 0 -0.0049997277742803896 -6.7906869038810321e-07 0 -0.0049999988178539871 -8.1719405670179137e-10 0 -0.0049989539646698705 -1.3681769407258298e-06 0 -0.0049999988178539871 -8.1719405670179137e-10 0 -0.0049999995454565937 2.9553421080339131e-10 0 -0.0049989539646698705 -1.3681769407258298e-06 0 -0.0049999576886013523 -5.2810824955847449e-09 0 -0.0049892628547432557 -1.4077472298113931e-05 0 -0.0049983794583607832 -2.1858864776061412e-05 0 -0.004999981141100081 4.5887837168114057e-09 0 -0.0050184628712733352 -7.3043927081107895e-06 0 -0.00496090593599485 -3.5512530495049339e-05 0 -0.0049892628547432557 -1.4077472298113931e-05 0 -0.0049983794583607832 -2.1858864776061412e-05 0 -0.0050184628712733352 -7.3043927081107895e-06 0 -0.0048546133138493005 -9.0491668625952143e-05 0 -0.0049997277742803896 -6.7906869038810321e-07 0 -0.0049989539646698705 -1.3681769407258298e-06 0 -0.0049999589762755011 -1.6461351161043023e-06 0 -0.0049989539646698705 -1.3681769407258298e-06 0 -0.0049985763557275709 -4.714999277895194e-06 0 -0.0049999589762755011 -1.6461351161043023e-06 0 -0.0049983794583607832 -2.1858864776061412e-05 0 -0.0049787693663275109 -6.3477877339524925e-05 0 -0.0050111582844808494 -5.337547081339597e-05 0 -0.00496090593599485 -3.5512530495049339e-05 0 -0.0049983794583607832 -2.1858864776061412e-05 0 -0.0049787693663275109 -6.3477877339524925e-05 0 -0.0049605618080868713 -0.00010300565855933126 0 -0.0049401672135825506 -7.9380603000771429e-05 0 -0.0049787693663275109 -6.3477877339524925e-05 0 -0.0050010717368937935 -9.628654977250773e-05 0 -0.0049787693663275109 -6.3477877339524925e-05 0 -0.0050111582844808494 -5.337547081339597e-05 0 -0.0046239872659474676 -8.9153560459478515e-05 0 -0.0045190039487092619 -0.0001525607788680576 0 -0.0046127888313138186 -0.00026767738003293049 0 -0.0048068634794831387 -0.00010119468264866269 0 -0.0048546133138493005 -9.0491668625952143e-05 0 -0.00462204868169211 -7.5763625350332118e-05 0 -0.0048546133138493005 -9.0491668625952143e-05 0 -0.0047547887231867226 8.618076272373572e-06 0 -0.0048166039796324863 -3.8757188910705935e-05 0 -0.0046200932988918657 -1.1527920292564374e-05 0 -0.0047547887231867226 8.618076272373572e-06 0 -0.0048490539216984718 -1.5597045325516527e-05 0 -0.0048166039796324863 -3.8757188910705935e-05 0 -0.0048166039796324863 -3.8757188910705935e-05 0 -0.0049996340969448733 -8.8847159485464542e-08 0 -0.0049997144304847908 1.6906927170931997e-08 0 -0.0048976315450921168 -2.7018603373163056e-05 0 -0.0048166039796324863 -3.8757188910705935e-05 0 -0.0049996340969448733 -8.8847159485464542e-08 0 -0.0048546133138493005 -9.0491668625952143e-05 0 -0.0049563384567257703 -3.9703652748924019e-06 0 -0.0048490539216984718 -1.5597045325516527e-05 0 -0.0048976315450921168 -2.7018603373163056e-05 0 -0.0048166039796324863 -3.8757188910705935e-05 0 -0.0049563384567257703 -3.9703652748924019e-06 0 -0.004999971274769803 -3.9979130672422027e-08 0 -0.0049997277742803896 -6.7906869038810321e-07 0 -0.0049999589762755011 -1.6461351161043023e-06 0 -0.0050000010863249797 -5.6114329802254053e-11 0 -0.0048166039796324863 -3.8757188910705935e-05 0 -0.0049997144304847908 1.6906927170931997e-08 0 -0.0046201845721173876 -2.326488511384055e-07 0 -0.0046201845721173876 -2.326488511384055e-07 0 -0.0046200932988918657 -1.1527920292564374e-05 0 -0.0044377794451863203 -9.0710835720051048e-07 0 -0.0048166039796324863 -3.8757188910705935e-05 0 -0.0046201845721173876 -2.326488511384055e-07 0 -0.0046200932988918657 -1.1527920292564374e-05 0 -0.0046201845721173876 -2.326488511384055e-07 0 -0.0044377794451863203 -9.0710835720051048e-07 0 -0.0040852427271788928 5.1660136789056837e-07 0 -0.0044377794451863203 -9.0710835720051048e-07 0 -0.0040852427271788928 5.1660136789056837e-07 0 -0.0044048779453798297 0.00016141746969930334 0 -0.0044218191193367935 -3.4246869176596931e-05 0 -0.004448963212942446 0.00012005122234804551 0 -0.0043237128696936742 8.7804513210073927e-05 0 -0.0044377794451863203 -9.0710835720051048e-07 0 -0.0046008750971744299 6.1613567821417633e-05 0 -0.0044048779453798297 0.00016141746969930334 0 -0.0045331511739241425 9.7849536570908725e-06 0 -0.0042079154398510753 6.4352418561848494e-05 0 -0.0046200932988918657 -1.1527920292564374e-05 0 -0.0044377794451863203 -9.0710835720051048e-07 0 -0.0046008750971744299 6.1613567821417633e-05 0 -0.0047547887231867226 8.618076272373572e-06 0 -0.0046200932988918657 -1.1527920292564374e-05 0 -0.0046008750971744299 6.1613567821417633e-05 0 -0.0045190039487092619 -0.0001525607788680576 0 -0.004542930218281436 9.1603686643968386e-06 0 -0.0044218191193367935 -3.4246869176596931e-05 0 -0.00462204868169211 -7.5763625350332118e-05 0 -0.0045331511739241425 9.7849536570908725e-06 0 -0.0046239872659474676 -8.9153560459478515e-05 0 -0.0045190039487092619 -0.0001525607788680576 0 -0.004542930218281436 9.1603686643968386e-06 0 -0.0046378316073656676 9.4829948448612233e-05 0 -0.0046239872659474676 -8.9153560459478515e-05 0 -0.004542930218281436 9.1603686643968386e-06 0 -0.004542930218281436 9.1603686643968386e-06 0 -0.0044218191193367935 -3.4246869176596931e-05 0 -0.004448963212942446 0.00012005122234804551 0 -0.0048174309099915319 -5.9284965910551768e-05 0 -0.0039779946531499416 0.00011281703608948184 0 -0.0039779946531499416 0.00011281703608948184 0 -0.003747213902637356 0.00011621144684671705 0 -0.0046378316073656676 9.4829948448612233e-05 0 -0.004542930218281436 9.1603686643968386e-06 0 -0.004448963212942446 0.00012005122234804551 0 -0.0047016148344378459 -0.00016958889987335116 0 -0.0043332204357449918 -0.00012524156732331599 0 -0.0046505075701367493 -5.0664814263606656e-05 0 -0.0031992514275402954 0.00040707020207278883 0 -0.0029251810308494088 0.00028953160460602002 0 -0.0030357088333165909 0.00017359152682900201 0 -0.0029251810308494088 0.00028953160460602002 0 -0.0030357088333165909 0.00017359152682900201 0 -0.0029307325837119344 0.00019954383172954916 0 -0.0031992514275402954 0.00040707020207278883 0 -0.0030357088333165909 0.00017359152682900201 0 -0.0034104900206552071 0.00013288151718812965 0 -0.0037891931529716099 6.810157994778322e-08 0 -0.003788340315763332 0.00014774052132677504 0 -0.0034104900206552071 0.00013288151718812965 0 -0.0037887832404199617 5.0800598935133239e-07 0 -0.0035931195853045128 0.00034497320985997639 0 -0.0037895713383194855 -3.8102588059720799e-09 0 -0.0039518355892455195 9.3086440186573871e-07 0 -0.0039381922363609387 5.3863851746680567e-09 0 -0.0040845920913162633 3.7639027562251652e-08 0 -0.0042079154398510753 6.4352418561848494e-05 0 -0.0040842140459304071 -3.7927522895618953e-10 0 -0.0040149910019008517 -1.2169367749829752e-05 0 -0.0039742876857816276 6.4468036032794195e-06 0 -0.003788340315763332 0.00014774052132677504 0 -0.003938698315863764 3.0722812809146702e-08 0 -0.0040151202361856974 -6.782280971044415e-06 0 -0.0039389349001515131 2.2167530513652988e-09 0 -0.0040149910019008517 -1.2169367749829752e-05 0 -0.0040842140459304071 -3.7927522895618953e-10 0 -0.0039389349001515131 2.2167530513652988e-09 0 -0.0040149910019008517 -1.2169367749829752e-05 0 -0.0040151202361856974 -6.782280971044415e-06 0 -0.0040149910019008517 -1.2169367749829752e-05 0 -0.0039742876857816276 6.4468036032794195e-06 0 -0.0040194866359310891 0.0001050171443057955 0 -0.0039598115478394515 0.00011336478860826096 0 -0.0039751438646995763 9.3850470082724527e-05 0 -0.003788340315763332 0.00014774052132677504 0 -0.0042079154398510753 6.4352418561848494e-05 0 -0.0031992514275402954 0.00040707020207278883 0 -0.0034104900206552071 0.00013288151718812965 0 -0.0035931195853045128 0.00034497320985997639 0 -0.0039779946531499416 0.00011281703608948184 0 -0.0042079154398510753 6.4352418561848494e-05 0 -0.0039779946531499416 0.00011281703608948184 0 -0.003788340315763332 0.00014774052132677504 0 -0.0032669139904644511 -0.00024420582231544891 0 -0.0032097258971380618 -0.00023121997323728442 0 -0.0032100595864755395 -0.0003243277769825876 0 -0.0033266585753776571 -0.00022484086150539322 0 -0.0033787254889750561 -0.00029268771985152553 0 -0.0033657604043164997 -0.00025734841145163808 0 -0.0033787254889750561 -0.00029268771985152553 0 -0.003318788512573871 -0.00027515546129756532 0 -0.0032669139904644511 -0.00024420582231544891 0 -0.0032100595864755395 -0.0003243277769825876 0 -0.0034373356190974536 -0.00024153627256096071 0 -0.0034400255383379048 -0.00023428729662596231 0 -0.0034404506471849877 -0.00023597782568049412 0 -0.003435896701195402 -0.00023511693679508565 0 -0.0034373356190974536 -0.00024153627256096071 0 -0.0034404506471849877 -0.00023597782568049412 0 -0.0032669139904644511 -0.00024420582231544891 0 -0.0033220833709981597 -0.00022030836193183542 0 -0.0032708350535945777 -0.00016690441757195469 0 -0.003318788512573871 -0.00027515546129756532 0 -0.0032669139904644511 -0.00024420582231544891 0 -0.0033220833709981597 -0.00022030836193183542 0 -0.0032669139904644511 -0.00024420582231544891 0 -0.0032097258971380618 -0.00023121997323728442 0 -0.0032708350535945777 -0.00016690441757195469 0 -0.0034549270662887106 -0.00021268534053509443 0 -0.0033776333042130858 -0.00017342653451624465 0 -0.0034278675689324435 -8.5486460340696092e-05 0 -0.0033776333042130858 -0.00017342653451624465 0 -0.0033230283591271685 -0.00021287664981396989 0 -0.0034048686080351059 -0.00025174669665356254 0 -0.0034549270662887106 -0.00021268534053509443 0 -0.0033776333042130858 -0.00017342653451624465 0 -0.0034048686080351059 -0.00025174669665356254 0 -0.0033776333042130858 -0.00017342653451624465 0 -0.0033230283591271685 -0.00021287664981396989 0 -0.0033186854144104101 -0.00010087943003532298 0 -0.0033230283591271685 -0.00021287664981396989 0 -0.003319936388378165 -0.00029455180860291194 0 -0.0032245405075893106 -0.00023252990521349163 0 -0.0033230283591271685 -0.00021287664981396989 0 -0.003319936388378165 -0.00029455180860291194 0 -0.0033975379294205986 -0.00029683954707694323 0 -0.003319936388378165 -0.00029455180860291194 0 -0.0033975379294205986 -0.00029683954707694323 0 -0.0034331904022332797 -0.00035713288284351294 0 -0.0034549270662887106 -0.00021268534053509443 0 -0.0034048686080351059 -0.00025174669665356254 0 -0.0034572939900926413 -0.00032126125713387754 0 -0.0034048686080351059 -0.00025174669665356254 0 -0.0033975379294205986 -0.00029683954707694323 0 -0.0034572939900926413 -0.00032126125713387754 0 -0.0033230283591271685 -0.00021287664981396989 0 -0.0034048686080351059 -0.00025174669665356254 0 -0.0033975379294205986 -0.00029683954707694323 0 -0.0034611028741106434 -0.00035145023335642024 0 -0.0033787254889750561 -0.00029268771985152553 0 -0.0034331904022332797 -0.00035713288284351294 0 -0.0034459031008317567 -0.00034996344105150864 0 -0.0034572939900926413 -0.00032126125713387754 0 -0.0034459031008317567 -0.00034996344105150864 0 -0.0034669923277994823 -0.0002832152643546879 0 -0.0034154504782891479 -0.00035106974572745832 0 -0.0033975379294205986 -0.00029683954707694323 0 -0.0034331904022332797 -0.00035713288284351294 0 -0.0034572939900926413 -0.00032126125713387754 0 -0.0034313706619035745 -0.00037016108712836624 0 -0.0034272441049594919 -0.0004006837125977417 0 -0.003319936388378165 -0.00029455180860291194 0 -0.0034331904022332797 -0.00035713288284351294 0 -0.003226276957609939 -0.00036993559305786459 0 -0.0034331904022332797 -0.00035713288284351294 0 -0.0035154212090391795 -0.00034942410948336365 0 -0.0036171474593890175 -0.00044219892798995103 0 -0.0034459031008317567 -0.00034996344105150864 0 -0.0035154212090391795 -0.00034942410948336365 0 -0.0035022678257074879 -0.00030467545136714041 0 -0.0034331904022332797 -0.00035713288284351294 0 -0.0034459031008317567 -0.00034996344105150864 0 -0.0035154212090391795 -0.00034942410948336365 0 -0.0035154212090391795 -0.00034942410948336365 0 -0.0035022678257074879 -0.00030467545136714041 0 -0.0035895827082455998 -0.00030315787414859663 0 -0.0034459031008317567 -0.00034996344105150864 0 -0.0035022678257074879 -0.00030467545136714041 0 -0.0034669923277994823 -0.0002832152643546879 0 -0.0035022678257074879 -0.00030467545136714041 0 -0.0034669923277994823 -0.0002832152643546879 0 -0.003519290942250378 -0.00023552300662503723 0 -0.0035022678257074879 -0.00030467545136714041 0 -0.0035895827082455998 -0.00030315787414859663 0 -0.003519290942250378 -0.00023552300662503723 0 -0.0034669923277994823 -0.0002832152643546879 0 -0.0034413934476711277 -0.00025816405835369564 0 -0.0034841650178140415 -0.00020606957268671966 0 -0.0034669923277994823 -0.0002832152643546879 0 -0.0034413934476711277 -0.00025816405835369564 0 -0.0034154504782891479 -0.00035106974572745832 0 -0.0034413934476711277 -0.00025816405835369564 0 -0.0034440012924964068 -0.00023907407526195198 0 -0.0034437062508662357 -0.00023332013752979297 0 -0.0034413934476711277 -0.00025816405835369564 0 -0.0034400255383379048 -0.00023428729662596231 0 -0.0034440012924964068 -0.00023907407526195198 0 -0.0034484527137877358 -0.00026133099480282816 0 -0.0033787254889750561 -0.00029268771985152553 0 -0.0034400255383379048 -0.00023428729662596231 0 -0.0034440012924964068 -0.00023907407526195198 0 -0.0034404506471849877 -0.00023597782568049412 0 -0.003435896701195402 -0.00023511693679508565 0 -0.0034404506471849877 -0.00023597782568049412 0 -0.0034378691064825607 -0.00023146191387453713 0 -0.0034440012924964068 -0.00023907407526195198 0 -0.0034404506471849877 -0.00023597782568049412 0 -0.0034378691064825607 -0.00023146191387453713 0 -0.0034440012924964068 -0.00023907407526195198 0 -0.0034378691064825607 -0.00023146191387453713 0 -0.0034403485378402265 -0.00022608651892014805 0 -0.0034440012924964068 -0.00023907407526195198 0 -0.0034403485378402265 -0.00022608651892014805 0 -0.0034437062508662357 -0.00023332013752979297 0 -0.0034403485378402265 -0.00022608651892014805 0 -0.0034437062508662357 -0.00023332013752979297 0 -0.0034413628653580286 -0.00021904063323254189 0 -0.0034387066521436023 -0.00021516305609787132 0 -0.0034490981598815358 -0.00020838987506047592 0 -0.0034399322882925749 -0.00021511227494249688 0 -0.0034403485378402265 -0.00022608651892014805 0 -0.0034387066521436023 -0.00021516305609787132 0 -0.0034413628653580286 -0.00021904063323254189 0 -0.0034403485378402265 -0.00022608651892014805 0 -0.0034351141282116205 -0.0002250195716693956 0 -0.0034387066521436023 -0.00021516305609787132 0 -0.0034378691064825607 -0.00023146191387453713 0 -0.0034403485378402265 -0.00022608651892014805 0 -0.0034351141282116205 -0.0002250195716693956 0 -0.0034351141282116205 -0.0002250195716693956 0 -0.0034318549270223511 -0.00022017331848264734 0 -0.0034387066521436023 -0.00021516305609787132 0 -0.0034351141282116205 -0.0002250195716693956 0 -0.0034318549270223511 -0.00022017331848264734 0 -0.0034264209781330176 -0.00022286090321339209 0 -0.0034318549270223511 -0.00022017331848264734 0 -0.0034387066521436023 -0.00021516305609787132 0 -0.003427079112047877 -0.00021665320256882497 0 -0.0033907886820818472 -0.00022682870302040712 0 -0.0038562049655863047 -0.00010468030289126348 0 -0.0034259618503313279 -0.00021275947011136184 0 -0.0034139374846816175 -0.00022538974553211271 0 -0.0034025837915334541 -0.00021602409373669174 0 -0.0034318549270223511 -0.00022017331848264734 0 -0.003427079112047877 -0.00021665320256882497 0 -0.0034264209781330176 -0.00022286090321339209 0 -0.0034259618503313279 -0.00021275947011136184 0 -0.0034264209781330176 -0.00022286090321339209 0 -0.0034139374846816175 -0.00022538974553211271 0 -0.0038562049655863047 -0.00010468030289126348 0 -0.0036127293972765635 -0.00017604377331787176 0 -0.0034264209781330176 -0.00022286090321339209 0 -0.0034139374846816175 -0.00022538974553211271 0 -0.0034218778203174731 -0.00022943999545409067 0 -0.0034139374846816175 -0.00022538974553211271 0 -0.0034081896352232237 -0.00023369461037811754 0 -0.00341463692864306 -0.00023366521472710755 0 -0.0034139374846816175 -0.00022538974553211271 0 -0.0034218778203174731 -0.00022943999545409067 0 -0.00341463692864306 -0.00023366521472710755 0 -0.0034218778203174731 -0.00022943999545409067 0 -0.0034196033464673993 -0.00023400522252150214 0 -0.00341463692864306 -0.00023366521472710755 0 -0.0034218778203174731 -0.00022943999545409067 0 -0.0034276173193143068 -0.00023235836119106217 0 -0.0034196033464673993 -0.00023400522252150214 0 -0.0034218778203174731 -0.00022943999545409067 0 -0.0034276173193143068 -0.00023235836119106217 0 -0.0034300411389840938 -0.00022824099555102576 0 -0.0034378691064825607 -0.00023146191387453713 0 -0.0034276173193143068 -0.00023235836119106217 0 -0.0034300411389840938 -0.00022824099555102576 0 -0.003435896701195402 -0.00023511693679508565 0 -0.0034378691064825607 -0.00023146191387453713 0 -0.0034276173193143068 -0.00023235836119106217 0 -0.0034378691064825607 -0.00023146191387453713 0 -0.0034351141282116205 -0.0002250195716693956 0 -0.0034300411389840938 -0.00022824099555102576 0 -0.0034264209781330176 -0.00022286090321339209 0 -0.0034218778203174731 -0.00022943999545409067 0 -0.0034300411389840938 -0.00022824099555102576 0 -0.0034351141282116205 -0.0002250195716693956 0 -0.0034264209781330176 -0.00022286090321339209 0 -0.0034300411389840938 -0.00022824099555102576 0 -0.0048054890987524633 -0.00015908064599393887 0 -0.004774079556613315 -3.9033461427373148e-05 0 -0.0046994668575552206 -7.5941389302578249e-05 0 -0.0048054890987524633 -0.00015908064599393887 0 -0.0046994668575552206 -7.5941389302578249e-05 0 -0.0046399062203687476 -0.00024319413882014883 0 -0.0048991266471933755 -0.00011717822833675832 0 -0.0048054890987524633 -0.00015908064599393887 0 -0.004841249985989074 -7.657223548400824e-05 0 -0.0048054890987524633 -0.00015908064599393887 0 -0.004774079556613315 -3.9033461427373148e-05 0 -0.004841249985989074 -7.657223548400824e-05 0 -0.0038562049655863047 -0.00010468030289126348 0 -0.0041692587088671068 -0.0001885914023957024 0 -0.0034025837915334541 -0.00021602409373669174 0 -0.0034042794459367013 -0.00022845955674343133 0 -0.0033943436435373672 -0.00023091522035561241 0 -0.0034139374846816175 -0.00022538974553211271 0 -0.0034025837915334541 -0.00021602409373669174 0 -0.0034042794459367013 -0.00022845955674343133 0 -0.0034139374846816175 -0.00022538974553211271 0 -0.0034042794459367013 -0.00022845955674343133 0 -0.0034081896352232237 -0.00023369461037811754 0 -0.0041692587088671068 -0.0001885914023957024 0 -0.0039802856459446173 -0.00023774544685067491 0 -0.0034025837915334541 -0.00021602409373669174 0 -0.0033840321048176744 -0.00022951568495987762 0 -0.0033772575675187575 -0.00022113695291932608 0 -0.0034025837915334541 -0.00021602409373669174 0 -0.0033840321048176744 -0.00022951568495987762 0 -0.0033943436435373672 -0.00023091522035561241 0 -0.0033840321048176744 -0.00022951568495987762 0 -0.0033851206450197509 -0.0002388381305061159 0 -0.0033943436435373672 -0.00023091522035561241 0 -0.0033840321048176744 -0.00022951568495987762 0 -0.0033851206450197509 -0.0002388381305061159 0 -0.0033743160724362497 -0.00023853380888497259 0 -0.0033851206450197509 -0.0002388381305061159 0 -0.0033943436435373672 -0.00023091522035561241 0 -0.0033937931169304015 -0.00023840202007262707 0 -0.0033851206450197509 -0.0002388381305061159 0 -0.0033937931169304015 -0.00023840202007262707 0 -0.0033898466319110306 -0.00024375450860629372 0 -0.0033937931169304015 -0.00023840202007262707 0 -0.0033980482966907166 -0.00024283619978853729 0 -0.0033898466319110306 -0.00024375450860629372 0 -0.0033937931169304015 -0.00023840202007262707 0 -0.003401453226157538 -0.00023525560930472524 0 -0.0033980482966907166 -0.00024283619978853729 0 -0.0034042794459367013 -0.00022845955674343133 0 -0.0033943436435373672 -0.00023091522035561241 0 -0.003401453226157538 -0.00023525560930472524 0 -0.0033943436435373672 -0.00023091522035561241 0 -0.0033937931169304015 -0.00023840202007262707 0 -0.003401453226157538 -0.00023525560930472524 0 -0.003401453226157538 -0.00023525560930472524 0 -0.0034081896352232237 -0.00023369461037811754 0 -0.0034056346497993582 -0.00023907207600720122 0 -0.0034042794459367013 -0.00022845955674343133 0 -0.003401453226157538 -0.00023525560930472524 0 -0.0034081896352232237 -0.00023369461037811754 0 -0.003401453226157538 -0.00023525560930472524 0 -0.0034056346497993582 -0.00023907207600720122 0 -0.0033980482966907166 -0.00024283619978853729 0 -0.0034056346497993582 -0.00023907207600720122 0 -0.0033980482966907166 -0.00024283619978853729 0 -0.0034092094610904526 -0.00024413185908788674 0 -0.0033978610176820952 -0.00025145306710959268 0 -0.0033980482966907166 -0.00024283619978853729 0 -0.0034092094610904526 -0.00024413185908788674 0 -0.0033978610176820952 -0.00025145306710959268 0 -0.0034092094610904526 -0.00024413185908788674 0 -0.0034037795489123678 -0.00025512917552725895 0 -0.0033978610176820952 -0.00025145306710959268 0 -0.0033894722504757176 -0.00024951421905525608 0 -0.0033857103751272918 -0.00025863388659040577 0 -0.0033894722504757176 -0.00024951421905525608 0 -0.0033980482966907166 -0.00024283619978853729 0 -0.0033898466319110306 -0.00024375450860629372 0 -0.0033978610176820952 -0.00025145306710959268 0 -0.0033894722504757176 -0.00024951421905525608 0 -0.0033980482966907166 -0.00024283619978853729 0 -0.0033851206450197509 -0.0002388381305061159 0 -0.0033898466319110306 -0.00024375450860629372 0 -0.0033826825468279073 -0.00024692510050314389 0 -0.0033894722504757176 -0.00024951421905525608 0 -0.0033898466319110306 -0.00024375450860629372 0 -0.0033826825468279073 -0.00024692510050314389 0 -0.0033894722504757176 -0.00024951421905525608 0 -0.0033811142865793017 -0.00025362409872634999 0 -0.0033857103751272918 -0.00025863388659040577 0 -0.0033894722504757176 -0.00024951421905525608 0 -0.0033811142865793017 -0.00025362409872634999 0 -0.0033826825468279073 -0.00024692510050314389 0 -0.0033811142865793017 -0.00025362409872634999 0 -0.0033738069873832546 -0.00024978201522354095 0 -0.0033697858037766183 -0.00025734085118382866 0 -0.0033811142865793017 -0.00025362409872634999 0 -0.0033826825468279073 -0.00024692510050314389 0 -0.0033738069873832546 -0.00024978201522354095 0 -0.0033826825468279073 -0.00024692510050314389 0 -0.0033738069873832546 -0.00024978201522354095 0 -0.0033769992833261498 -0.00024407549153906554 0 -0.0033851206450197509 -0.0002388381305061159 0 -0.0033826825468279073 -0.00024692510050314389 0 -0.0033769992833261498 -0.00024407549153906554 0 -0.0034373356190974536 -0.00024153627256096071 0 -0.0034210189761500697 -0.00023710003673554092 0 -0.0033983038552550544 -0.00023784138498668286 0 -0.003435896701195402 -0.00023511693679508565 0 -0.0034276173193143068 -0.00023235836119106217 0 -0.0034210189761500697 -0.00023710003673554092 0 -0.003435896701195402 -0.00023511693679508565 0 -0.0034373356190974536 -0.00024153627256096071 0 -0.0034210189761500697 -0.00023710003673554092 0 -0.0034276173193143068 -0.00023235836119106217 0 -0.0034210189761500697 -0.00023710003673554092 0 -0.0034196033464673993 -0.00023400522252150214 0 -0.0034210189761500697 -0.00023710003673554092 0 -0.0034196033464673993 -0.00023400522252150214 0 -0.003412818283027929 -0.00023741332985790064 0 -0.0034196033464673993 -0.00023400522252150214 0 -0.00341463692864306 -0.00023366521472710755 0 -0.003412818283027929 -0.00023741332985790064 0 -0.0034081896352232237 -0.00023369461037811754 0 -0.00341463692864306 -0.00023366521472710755 0 -0.0034091336421248736 -0.00023952911470910256 0 -0.00341463692864306 -0.00023366521472710755 0 -0.0034091336421248736 -0.00023952911470910256 0 -0.003412818283027929 -0.00023741332985790064 0 -0.0034091336421248736 -0.00023952911470910256 0 -0.003412818283027929 -0.00023741332985790064 0 -0.0033983038552550544 -0.00023784138498668286 0 -0.0034081896352232237 -0.00023369461037811754 0 -0.0034056346497993582 -0.00023907207600720122 0 -0.0034091336421248736 -0.00023952911470910256 0 -0.0034056346497993582 -0.00023907207600720122 0 -0.0034091336421248736 -0.00023952911470910256 0 -0.0034092094610904526 -0.00024413185908788674 0 -0.0034210189761500697 -0.00023710003673554092 0 -0.003412818283027929 -0.00023741332985790064 0 -0.0033983038552550544 -0.00023784138498668286 0 -0.0034092094610904526 -0.00024413185908788674 0 -0.0034116976922762784 -0.00025633911205779996 0 -0.0034037795489123678 -0.00025512917552725895 0 -0.0034092094610904526 -0.00024413185908788674 0 -0.0033983038552550544 -0.00023784138498668286 0 -0.0033630672871711839 -0.00019381867948140829 0 -0.0035028493662849079 -0.00030895065877439718 0 -0.0031524897976888027 -7.9257263594317913e-05 0 -0.0034091336421248736 -0.00023952911470910256 0 -0.0034092094610904526 -0.00024413185908788674 0 -0.0033983038552550544 -0.00023784138498668286 0 -0.0033657604043164997 -0.00025734841145163808 0 -0.0034037300059806181 -0.00023902867619059455 0 -0.0033983038552550544 -0.00023784138498668286 0 -0.003351147227254902 -0.00023040489701982571 0 -0.0033630672871711839 -0.00019381867948140829 0 -0.003318788512573871 -0.00027515546129756532 0 -0.0033983038552550544 -0.00023784138498668286 0 -0.003351147227254902 -0.00023040489701982571 0 -0.003318788512573871 -0.00027515546129756532 0 -0.0033220833709981597 -0.00022030836193183542 0 -0.003351147227254902 -0.00023040489701982571 0 -0.0033220833709981597 -0.00022030836193183542 0 -0.003351147227254902 -0.00023040489701982571 0 -0.0033630672871711839 -0.00019381867948140829 0 -0.00333734063595751 -0.00019057790138918526 0 -0.0031524897976888027 -7.9257263594317913e-05 0 -0.0033220833709981597 -0.00022030836193183542 0 -0.003375096653904743 -0.00016396477715218568 0 -0.0033148789114561443 -0.00016138160292194931 0 -0.0031524897976888027 -7.9257263594317913e-05 0 -0.0030330845541298623 0.00019563183939793257 0 -0.0034116976922762784 -0.00025633911205779996 0 -0.0034037795489123678 -0.00025512917552725895 0 -0.0033996605002384571 -0.00026969396369270143 0 -0.0031524897976888027 -7.9257263594317913e-05 0 -0.0030834935635628909 0.00011601706324324045 0 -0.0034037795489123678 -0.00025512917552725895 0 -0.0033996605002384571 -0.00026969396369270143 0 -0.0033946015050712874 -0.00025992295348993669 0 -0.0026772625456945587 0.00053586878927431463 0 -0.0025078126081093089 0.00037077612571835106 0 -0.002719608607209914 0.00028254133115923982 0 -0.0026772625456945587 0.00053586878927431463 0 -0.002719608607209914 0.00028254133115923982 0 -0.0028588314186830176 0.00039518593238570574 0 -0.0033752711904273987 -0.00026022106198521556 0 -0.0033754680633471677 -0.00026623181307401303 0 -0.0033651553132439103 -0.00026823182678671089 0 -0.0033811142865793017 -0.00025362409872634999 0 -0.0033752711904273987 -0.00026022106198521556 0 -0.0033697858037766183 -0.00025734085118382866 0 -0.0033811142865793017 -0.00025362409872634999 0 -0.0033752711904273987 -0.00026022106198521556 0 -0.0033857103751272918 -0.00025863388659040577 0 -0.0033754680633471677 -0.00026623181307401303 0 -0.0033857103751272918 -0.00025863388659040577 0 -0.0033815773810129735 -0.00026974718192381106 0 -0.0033752711904273987 -0.00026022106198521556 0 -0.0033754680633471677 -0.00026623181307401303 0 -0.0033857103751272918 -0.00025863388659040577 0 -0.0033857103751272918 -0.00025863388659040577 0 -0.0033946015050712874 -0.00025992295348993669 0 -0.0033815773810129735 -0.00026974718192381106 0 -0.0033978610176820952 -0.00025145306710959268 0 -0.0033857103751272918 -0.00025863388659040577 0 -0.0033946015050712874 -0.00025992295348993669 0 -0.0033978610176820952 -0.00025145306710959268 0 -0.0034037795489123678 -0.00025512917552725895 0 -0.0033946015050712874 -0.00025992295348993669 0 -0.0033996605002384571 -0.00026969396369270143 0 -0.003366158296431727 -0.00029043483329830417 0 -0.0033724614215821505 -0.00028322786202959006 0 -0.0033996605002384571 -0.00026969396369270143 0 -0.0033946015050712874 -0.00025992295348993669 0 -0.0033815773810129735 -0.00026974718192381106 0 -0.0030834935635628909 0.00011601706324324045 0 -0.0019484260927204527 5.0177002891163218e-05 0 -0.0033996605002384571 -0.00026969396369270143 0 -0.0033815773810129735 -0.00026974718192381106 0 -0.0033724614215821505 -0.00028322786202959006 0 -0.0033815773810129735 -0.00026974718192381106 0 -0.0033701123135166165 -0.00027935042864705382 0 -0.0033724614215821505 -0.00028322786202959006 0 -0.0033701123135166165 -0.00027935042864705382 0 -0.0033702879360669631 -0.00027378013657622358 0 -0.0033581821822881216 -0.00028324530210580771 0 -0.0033754680633471677 -0.00026623181307401303 0 -0.0033815773810129735 -0.00026974718192381106 0 -0.0033702879360669631 -0.00027378013657622358 0 -0.0033815773810129735 -0.00026974718192381106 0 -0.0033701123135166165 -0.00027935042864705382 0 -0.0033702879360669631 -0.00027378013657622358 0 -0.0033754680633471677 -0.00026623181307401303 0 -0.0033702879360669631 -0.00027378013657622358 0 -0.0033651553132439103 -0.00026823182678671089 0 -0.0021071677028237155 -0.00031690371266922409 0 -0.0020241831594116919 -0.00037051529993467245 0 -0.0021531034656803328 -0.00039123145950031488 0 -0.0022835822132802053 -0.00025788249932104146 0 -0.0028657893480329762 -0.00034544860734198773 0 -0.0033701123135166165 -0.00027935042864705382 0 -0.0033680153577861378 -0.00028418678195973732 0 -0.0033581821822881216 -0.00028324530210580771 0 -0.00070011252625903301 -0.00020411259697749681 0 -0.0006690505244471382 -0.00021605422354196616 0 -0.00066517446577250025 -0.00019289648738595195 0 -0.0013175306343151975 -0.00033654052862503738 0 -0.0022835822132802053 -0.00025788249932104146 0 -0.0033701123135166165 -0.00027935042864705382 0 -0.0033680153577861378 -0.00028418678195973732 0 -0.0033724614215821505 -0.00028322786202959006 0 -0.0019484260927204527 5.0177002891163218e-05 0 -0.00057753625323464259 -0.00049031676126702389 0 -0.0006690505244471382 -0.00021605422354196616 0 -0.00066527005579082273 -0.00021475487982831402 0 -0.00066517446577250025 -0.00019289648738595195 0 -0.0006122269434888656 -0.00026079963324261018 0 -0.00061748583720023869 -0.00020113042721557107 0 -0.00066517446577250025 -0.00019289648738595195 0 -0.00229617606012689 0.00021015865674315248 0 -0.0024252466836861609 0.00015025044528541135 0 -0.002505814392529991 1.9050828601531507e-05 0 -0.00229617606012689 0.00021015865674315248 0 -0.0024252466836861609 0.00015025044528541135 0 -0.0025777904836513732 0.00017222385924907285 0 -0.0019484260927204527 5.0177002891163218e-05 0 -0.002707942647834226 0.00019855494478518169 0 -0.0006122269434888656 -0.00026079963324261018 0 -0.00057769388751444963 -0.00017460337637592029 0 -0.00061748583720023869 -0.00020113042721557107 0 -0.0033513117004168565 -0.00028905337788124816 0 -0.003366158296431727 -0.00029043483329830417 0 -0.0033724614215821505 -0.00028322786202959006 0 -0.0022835822132802053 -0.00025788249932104146 0 -0.0031655908602232119 -2.8038735943986695e-05 0 -0.0022835822132802053 -0.00025788249932104146 0 -0.0019484260927204527 5.0177002891163218e-05 0 -0.0019484260927204527 5.0177002891163218e-05 0 -0.0014184175353617867 -4.6060767270501423e-05 0 -0.0006122269434888656 -0.00026079963324261018 0 -0.00057769388751444963 -0.00017460337637592029 0 -0.00049522888918374455 -0.00015355398589476436 0 -0.00055825960964047642 -0.00011203274070931116 0 -0.00057769388751444963 -0.00017460337637592029 0 -0.00049522888918374455 -0.00015355398589476436 0 -0.00055825960964047642 -0.00011203274070931116 0 -0.00057769388751444963 -0.00017460337637592029 0 -0.00062826278720777052 -0.00013998486120353259 0 -0.00057769388751444963 -0.00017460337637592029 0 -0.00061748583720023869 -0.00020113042721557107 0 -0.00062826278720777052 -0.00013998486120353259 0 -0.00061748583720023869 -0.00020113042721557107 0 -0.00066517446577250025 -0.00019289648738595195 0 -0.00062826278720777052 -0.00013998486120353259 0 -0.00066517446577250025 -0.00019289648738595195 0 -0.00062826278720777052 -0.00013998486120353259 0 -0.00070158756799536986 -0.00014821269014289124 0 -0.00067127013031115636 -9.7397787827033431e-05 0 -0.00062826278720777052 -0.00013998486120353259 0 -0.00070158756799536986 -0.00014821269014289124 0 -0.00070011252625903301 -0.00020411259697749681 0 -0.00066517446577250025 -0.00019289648738595195 0 -0.00070158756799536986 -0.00014821269014289124 0 -0.002719608607209914 0.00028254133115923982 0 -0.0026957259718032736 8.925373027445604e-05 0 -0.002818115920870925 0.00015922609021835695 0 -0.002719608607209914 0.00028254133115923982 0 -0.0025777904836513732 0.00017222385924907285 0 -0.0026957259718032736 8.925373027445604e-05 0 -0.0025078126081093089 0.00037077612571835106 0 -0.0023238955743181606 0.00020399030579498875 0 -0.0025777904836513732 0.00017222385924907285 0 -0.0025078126081093089 0.00037077612571835106 0 -0.002719608607209914 0.00028254133115923982 0 -0.0025777904836513732 0.00017222385924907285 0 -0.00267987385679487 -9.0222088710230016e-05 0 -0.002505814392529991 1.9050828601531507e-05 0 -0.0026328753026180888 1.597492804076128e-05 0 -0.0025777904836513732 0.00017222385924907285 0 -0.002505814392529991 1.9050828601531507e-05 0 -0.0026328753026180888 1.597492804076128e-05 0 -0.0024252466836861609 0.00015025044528541135 0 -0.0025777904836513732 0.00017222385924907285 0 -0.002505814392529991 1.9050828601531507e-05 0 -0.002708550297907121 -5.2534266962976108e-05 0 -0.0026328753026180888 1.597492804076128e-05 0 -0.0026957259718032736 8.925373027445604e-05 0 -0.0025777904836513732 0.00017222385924907285 0 -0.0026328753026180888 1.597492804076128e-05 0 -0.0026957259718032736 8.925373027445604e-05 0 -0.002708550297907121 -5.2534266962976108e-05 0 -0.0026957259718032736 8.925373027445604e-05 0 -0.0028436765316366117 2.9464030460445897e-05 0 -0.0028248774635694627 -6.3371554715001743e-05 0 -0.002708550297907121 -5.2534266962976108e-05 0 -0.0028436765316366117 2.9464030460445897e-05 0 -0.0029205959868300194 -9.5862765623942674e-05 0 -0.0028436765316366117 2.9464030460445897e-05 0 -0.0030589728991940895 2.2110553105817735e-05 0 -0.0029205959868300194 -9.5862765623942674e-05 0 -0.0028248774635694627 -6.3371554715001743e-05 0 -0.0028436765316366117 2.9464030460445897e-05 0 -0.0028436765316366117 2.9464030460445897e-05 0 -0.002818115920870925 0.00015922609021835695 0 -0.0029374206477661715 0.00014398900506798549 0 -0.0026957259718032736 8.925373027445604e-05 0 -0.0028436765316366117 2.9464030460445897e-05 0 -0.002818115920870925 0.00015922609021835695 0 -0.0028436765316366117 2.9464030460445897e-05 0 -0.0030589728991940895 2.2110553105817735e-05 0 -0.0029374206477661715 0.00014398900506798549 0 -0.0030477167586869464 9.1110023720435786e-05 0 -0.0031812746665889789 0.00010589009506918429 0 -0.0030589728991940895 2.2110553105817735e-05 0 -0.0030525194480205756 0.00025292229570536031 0 -0.0029374206477661715 0.00014398900506798549 0 -0.0030589728991940895 2.2110553105817735e-05 0 -0.0030869489061967725 0.00024639772852343009 0 -0.0032571391319503617 0.00010646084029126938 0 -0.0030525194480205756 0.00025292229570536031 0 -0.0029374206477661715 0.00014398900506798549 0 -0.0028881679073632371 0.00024830872843594192 0 -0.002719608607209914 0.00028254133115923982 0 -0.002818115920870925 0.00015922609021835695 0 -0.0028881679073632371 0.00024830872843594192 0 -0.002818115920870925 0.00015922609021835695 0 -0.0029374206477661715 0.00014398900506798549 0 -0.0028881679073632371 0.00024830872843594192 0 -0.0030525194480205756 0.00025292229570536031 0 -0.0028881679073632371 0.00024830872843594192 0 -0.0028588314186830176 0.00039518593238570574 0 -0.002719608607209914 0.00028254133115923982 0 -0.0028881679073632371 0.00024830872843594192 0 -0.0028588314186830176 0.00039518593238570574 0 -0.0031812746665889789 0.00010589009506918429 0 -0.0033267377414693817 -0.00012787380710320586 0 -0.0034038260130286168 4.5730622177209883e-05 0 -0.0034278675689324435 -8.5486460340696092e-05 0 -0.0033376828783586612 -1.8124785282455105e-05 0 -0.0032080218047932977 -2.5004933411832524e-05 0 -0.0032919513952652671 -9.4951564058789727e-05 0 -0.0032067709241622262 -0.00013131715917389801 0 -0.0031812746665889789 0.00010589009506918429 0 -0.0030330845541298623 0.00019563183939793257 0 -0.0033266585753776571 -0.00022484086150539322 0 -0.0033267377414693817 -0.00012787380710320586 0 -0.0032097258971380618 -0.00023121997323728442 0 -0.0032067709241622262 -0.00013131715917389801 0 -0.0032708350535945777 -0.00016690441757195469 0 -0.0032919513952652671 -9.4951564058789727e-05 0 -0.0032067709241622262 -0.00013131715917389801 0 -0.0032708350535945777 -0.00016690441757195469 0 -0.003375096653904743 -0.00016396477715218568 0 -0.0032919513952652671 -9.4951564058789727e-05 0 -0.0033148789114561443 -0.00016138160292194931 0 -0.0033220833709981597 -0.00022030836193183542 0 -0.0032708350535945777 -0.00016690441757195469 0 -0.0033148789114561443 -0.00016138160292194931 0 -0.0032919513952652671 -9.4951564058789727e-05 0 -0.0032708350535945777 -0.00016690441757195469 0 -0.0033148789114561443 -0.00016138160292194931 0 -0.0033186854144104101 -0.00010087943003532298 0 -0.0032464984130353078 -5.6465593783332659e-05 0 -0.0032248566465129273 -0.00011451180363078596 0 -0.0033230283591271685 -0.00021287664981396989 0 -0.0033186854144104101 -0.00010087943003532298 0 -0.0032248566465129273 -0.00011451180363078596 0 -0.0034278675689324435 -8.5486460340696092e-05 0 -0.0033186854144104101 -0.00010087943003532298 0 -0.0033376828783586612 -1.8124785282455105e-05 0 -0.0033776333042130858 -0.00017342653451624465 0 -0.0034278675689324435 -8.5486460340696092e-05 0 -0.0033186854144104101 -0.00010087943003532298 0 -0.0033186854144104101 -0.00010087943003532298 0 -0.0033376828783586612 -1.8124785282455105e-05 0 -0.0032787727942741422 -2.1904865197336324e-05 0 -0.0034038260130286168 4.5730622177209883e-05 0 -0.0033376828783586612 -1.8124785282455105e-05 0 -0.0033016622309845951 4.9030101727805538e-05 0 -0.0033376828783586612 -1.8124785282455105e-05 0 -0.0032911489288636187 2.1922608609351946e-05 0 -0.0033016622309845951 4.9030101727805538e-05 0 -0.0033376828783586612 -1.8124785282455105e-05 0 -0.0032911489288636187 2.1922608609351946e-05 0 -0.0032787727942741422 -2.1904865197336324e-05 0 -0.0032911489288636187 2.1922608609351946e-05 0 -0.0032787727942741422 -2.1904865197336324e-05 0 -0.0032512655833586059 2.896097695611959e-05 0 -0.0033186854144104101 -0.00010087943003532298 0 -0.0032787727942741422 -2.1904865197336324e-05 0 -0.0032464984130353078 -5.6465593783332659e-05 0 -0.0032787727942741422 -2.1904865197336324e-05 0 -0.0032464984130353078 -5.6465593783332659e-05 0 -0.0032309449807772545 -8.8547310530540593e-06 0 -0.0032309449807772545 -8.8547310530540593e-06 0 -0.0032512655833586059 2.896097695611959e-05 0 -0.0032004936271656371 3.085733636556176e-05 0 -0.0032787727942741422 -2.1904865197336324e-05 0 -0.0032309449807772545 -8.8547310530540593e-06 0 -0.0032512655833586059 2.896097695611959e-05 0 -0.0032512655833586059 2.896097695611959e-05 0 -0.0032352206135022816 6.2660969072378847e-05 0 -0.0032004936271656371 3.085733636556176e-05 0 -0.0032911489288636187 2.1922608609351946e-05 0 -0.0032512655833586059 2.896097695611959e-05 0 -0.0032677119213773177 7.4732217416801443e-05 0 -0.0032512655833586059 2.896097695611959e-05 0 -0.0032677119213773177 7.4732217416801443e-05 0 -0.0032352206135022816 6.2660969072378847e-05 0 -0.0032677119213773177 7.4732217416801443e-05 0 -0.0032461419573318606 8.0509141127909297e-05 0 -0.0032777782244145424 7.340682729423268e-05 0 -0.0032677119213773177 7.4732217416801443e-05 0 -0.0032352206135022816 6.2660969072378847e-05 0 -0.0032461419573318606 8.0509141127909297e-05 0 -0.0032352206135022816 6.2660969072378847e-05 0 -0.0032461419573318606 8.0509141127909297e-05 0 -0.0032146009291194651 9.2651838890407001e-05 0 -0.0034038260130286168 4.5730622177209883e-05 0 -0.0033016622309845951 4.9030101727805538e-05 0 -0.0032571391319503617 0.00010646084029126938 0 -0.0032911489288636187 2.1922608609351946e-05 0 -0.0032677119213773177 7.4732217416801443e-05 0 -0.0033016622309845951 4.9030101727805538e-05 0 -0.0032677119213773177 7.4732217416801443e-05 0 -0.0032571391319503617 0.00010646084029126938 0 -0.0032777782244145424 7.340682729423268e-05 0 -0.0032677119213773177 7.4732217416801443e-05 0 -0.0033016622309845951 4.9030101727805538e-05 0 -0.0032571391319503617 0.00010646084029126938 0 -0.0031812746665889789 0.00010589009506918429 0 -0.0032692747659936465 0.00010763641077490531 0 -0.0030589728991940895 2.2110553105817735e-05 0 -0.0032571391319503617 0.00010646084029126938 0 -0.0032194393904414228 2.3510962602231252e-05 0 -0.0032571391319503617 0.00010646084029126938 0 -0.0032194393904414228 2.3510962602231252e-05 0 -0.0032777782244145424 7.340682729423268e-05 0 -0.0032993030743092172 -4.1873474955554822e-05 0 -0.0032194393904414228 2.3510962602231252e-05 0 -0.0032777782244145424 7.340682729423268e-05 0 -0.0032993030743092172 -4.1873474955554822e-05 0 -0.00318281268064966 -8.1543374091440227e-05 0 -0.0032194393904414228 2.3510962602231252e-05 0 -0.00318281268064966 -8.1543374091440227e-05 0 -0.0030589728991940895 2.2110553105817735e-05 0 -0.0032194393904414228 2.3510962602231252e-05 0 -0.0034479642467012831 5.7714637916374323e-05 0 -0.0028057399190458574 -4.4879749658602747e-05 0 -0.0032461419573318606 8.0509141127909297e-05 0 -0.0032777782244145424 7.340682729423268e-05 0 -0.0031989805189964154 0.00012865058395620727 0 -0.0032993030743092172 -4.1873474955554822e-05 0 -0.0032777782244145424 7.340682729423268e-05 0 -0.0034498793439633113 3.8592258020824784e-05 0 -0.0032461419573318606 8.0509141127909297e-05 0 -0.0031989805189964154 0.00012865058395620727 0 -0.0032146009291194651 9.2651838890407001e-05 0 -0.0028057399190458574 -4.4879749658602747e-05 0 -0.0013711368202120628 0.0002570109959314307 0 -0.0016048270192227643 0.0001264860289362137 0 -0.0015976011201383727 0.00020006880301843267 0 -0.0016954504148783513 0.00018433525569418175 0 -0.0031989805189964154 0.00012865058395620727 0 -0.0031835305823205056 7.585111561298116e-05 0 -0.0030955025628682489 0.00015106142947257046 0 -0.0031989805189964154 0.00012865058395620727 0 -0.0032146009291194651 9.2651838890407001e-05 0 -0.0031835305823205056 7.585111561298116e-05 0 -0.0032352206135022816 6.2660969072378847e-05 0 -0.0032146009291194651 9.2651838890407001e-05 0 -0.0031835305823205056 7.585111561298116e-05 0 -0.0031835305823205056 7.585111561298116e-05 0 -0.0031254091123239483 4.4867906872006807e-05 0 -0.0030955025628682489 0.00015106142947257046 0 -0.0032352206135022816 6.2660969072378847e-05 0 -0.0031835305823205056 7.585111561298116e-05 0 -0.0032004936271656371 3.085733636556176e-05 0 -0.0031835305823205056 7.585111561298116e-05 0 -0.0032004936271656371 3.085733636556176e-05 0 -0.0031254091123239483 4.4867906872006807e-05 0 -0.0031254091123239483 4.4867906872006807e-05 0 -0.003013936252701555 3.8653313407687712e-05 0 -0.0030916657825611734 -1.6186624432337374e-05 0 -0.0031254091123239483 4.4867906872006807e-05 0 -0.0030955025628682489 0.00015106142947257046 0 -0.003013936252701555 3.8653313407687712e-05 0 -0.0013711368202120628 0.0002570109959314307 0 -0.0019923752993721107 0.00012098617062588495 0 -0.0013711368202120628 0.0002570109959314307 0 -0.00023168652523971583 0.00031165498879885147 0 -0.00080639579221048851 0.00030218388231208773 0 -0.00071312548070515884 0.00031438264591749406 0 -0.00073681762457144097 0.00021239895005096594 0 -0.00071312548070515884 0.00031438264591749406 0 -0.00067589391477623436 0.00026446761865394659 0 -0.00073681762457144097 0.00021239895005096594 0 -0.00061972063990228257 0.00032186224755632366 0 -0.00071312548070515884 0.00031438264591749406 0 -0.00067589391477623436 0.00026446761865394659 0 -0.00061972063990228257 0.00032186224755632366 0 -0.00067589391477623436 0.00026446761865394659 0 -0.00060702206512909366 0.00027283075946782652 0 -0.00067589391477623436 0.00026446761865394659 0 -0.00060702206512909366 0.00027283075946782652 0 -0.00061837749355722171 0.00024825369721049581 0 -0.00067589391477623436 0.00026446761865394659 0 -0.00073681762457144097 0.00021239895005096594 0 -0.00068062158700042045 0.00019420105951693903 0 -0.00067589391477623436 0.00026446761865394659 0 -0.00064234784260031659 0.0002224628042891558 0 -0.00068062158700042045 0.00019420105951693903 0 -0.00067589391477623436 0.00026446761865394659 0 -0.00064234784260031659 0.0002224628042891558 0 -0.00061837749355722171 0.00024825369721049581 0 -0.003013936252701555 3.8653313407687712e-05 0 -0.0029078305687220648 -7.8581093119251607e-05 0 -0.0030193481576500148 -9.0667514200650027e-05 0 -0.003013936252701555 3.8653313407687712e-05 0 -0.0030193481576500148 -9.0667514200650027e-05 0 -0.0030916657825611734 -1.6186624432337374e-05 0 -0.0019923752993721107 0.00012098617062588495 0 -0.0016437368131319021 0.00012671977474970053 0 -0.00073681762457144097 0.00021239895005096594 0 -0.00068062158700042045 0.00019420105951693903 0 -0.00068084626682685611 0.00014942121911850942 0 -0.00064977575194605892 0.00020011018237387038 0 -0.00068062158700042045 0.00019420105951693903 0 -0.00064965820882462795 0.00018096742953331254 0 -0.00064234784260031659 0.0002224628042891558 0 -0.00064977575194605892 0.00020011018237387038 0 -0.00068062158700042045 0.00019420105951693903 0 -0.00066586626498990956 0.00016990053632970001 0 -0.00064965820882462795 0.00018096742953331254 0 -0.00065292722300855366 0.00015554377322748157 0 -0.00068062158700042045 0.00019420105951693903 0 -0.00066586626498990956 0.00016990053632970001 0 -0.00064965820882462795 0.00018096742953331254 0 -0.00068062158700042045 0.00019420105951693903 0 -0.00066586626498990956 0.00016990053632970001 0 -0.00068084626682685611 0.00014942121911850942 0 -0.00065292722300855366 0.00015554377322748157 0 -0.00068084626682685611 0.00014942121911850942 0 -0.00069400995099327836 0.00010381119874926019 0 -0.00066586626498990956 0.00016990053632970001 0 -0.00065292722300855366 0.00015554377322748157 0 -0.00068084626682685611 0.00014942121911850942 0 -0.0029078305687220648 -7.8581093119251607e-05 0 -0.0029145611377480009 -0.00015124175419187799 0 -0.0029670388251360085 -0.00012173772888913506 0 -0.0016437368131319021 0.00012671977474970053 0 -0.0022654020957143103 -0.00013991454328740206 0 -0.0030193481576500148 -9.0667514200650027e-05 0 -0.0030927058134836514 -0.00014578889426340613 0 -0.0030207931578128404 -0.00018862446965776721 0 -0.0029145611377480009 -0.00015124175419187799 0 -0.0029670388251360085 -0.00012173772888913506 0 -0.0030207931578128404 -0.00018862446965776721 0 -0.0029078305687220648 -7.8581093119251607e-05 0 -0.0030193481576500148 -9.0667514200650027e-05 0 -0.0029670388251360085 -0.00012173772888913506 0 -0.0030193481576500148 -9.0667514200650027e-05 0 -0.0029670388251360085 -0.00012173772888913506 0 -0.0030207931578128404 -0.00018862446965776721 0 -0.0030193481576500148 -9.0667514200650027e-05 0 -0.0030927058134836514 -0.00014578889426340613 0 -0.0031230327511235787 -8.1659533068569956e-05 0 -0.0030927058134836514 -0.00014578889426340613 0 -0.0031230327511235787 -8.1659533068569956e-05 0 -0.0031597039684961789 -0.00015807733620976067 0 -0.0031230327511235787 -8.1659533068569956e-05 0 -0.0032248566465129273 -0.00011451180363078596 0 -0.0031597039684961789 -0.00015807733620976067 0 -0.0031230327511235787 -8.1659533068569956e-05 0 -0.0032248566465129273 -0.00011451180363078596 0 -0.0031776801250179873 -2.6253835703574096e-05 0 -0.0032464984130353078 -5.6465593783332659e-05 0 -0.0032248566465129273 -0.00011451180363078596 0 -0.0031776801250179873 -2.6253835703574096e-05 0 -0.0032464984130353078 -5.6465593783332659e-05 0 -0.0032309449807772545 -8.8547310530540593e-06 0 -0.0031776801250179873 -2.6253835703574096e-05 0 -0.0032309449807772545 -8.8547310530540593e-06 0 -0.0032004936271656371 3.085733636556176e-05 0 -0.0031776801250179873 -2.6253835703574096e-05 0 -0.0032004936271656371 3.085733636556176e-05 0 -0.0031254091123239483 4.4867906872006807e-05 0 -0.0031776801250179873 -2.6253835703574096e-05 0 -0.0031254091123239483 4.4867906872006807e-05 0 -0.0031776801250179873 -2.6253835703574096e-05 0 -0.0030916657825611734 -1.6186624432337374e-05 0 -0.0030193481576500148 -9.0667514200650027e-05 0 -0.0031230327511235787 -8.1659533068569956e-05 0 -0.0030916657825611734 -1.6186624432337374e-05 0 -0.0031230327511235787 -8.1659533068569956e-05 0 -0.0031776801250179873 -2.6253835703574096e-05 0 -0.0030916657825611734 -1.6186624432337374e-05 0 -0.00055158012245131057 0.0002648889060359101 0 -0.00054947332186026736 0.00022072017070741819 0 -0.00052566978622210032 0.00021994350291459322 0 -0.00060542133443684766 0.00027442992071849426 0 -0.00055158012245131057 0.0002648889060359101 0 -0.00061231452858805547 0.00036274412916724268 0 -0.00035439164717664351 0.00023420074458254056 0 -0.0013599579794605617 0.00017676937353980766 0 -0.00056550354727964583 0.0002374046858867299 0 -0.00065453118070874091 0.00023631084961286573 0 -0.00060542133443684766 0.00027442992071849426 0 -0.00043903626322651867 0.00023860781119406009 0 -0.00062053331969890953 0.00027891596407240147 0 -0.00056550354727964583 0.0002374046858867299 0 -0.00060542133443684766 0.00027442992071849426 0 -0.00055158012245131057 0.0002648889060359101 0 -0.00055158012245131057 0.0002648889060359101 0 -0.00055325403084116554 0.00025959219060805414 0 -0.0005507524292809689 0.00025816037165276922 0 -0.00056550354727964583 0.0002374046858867299 0 -0.00055158012245131057 0.0002648889060359101 0 -0.00055325403084116554 0.00025959219060805414 0 -0.00055325403084116554 0.00025959219060805414 0 -0.0005507524292809689 0.00025816037165276922 0 -0.00054227841375444595 0.00026702810481557228 0 -0.00055158012245131057 0.0002648889060359101 0 -0.00055375138659867094 0.00023961850007623962 0 -0.00054947332186026736 0.00022072017070741819 0 -0.0005507524292809689 0.00025816037165276922 0 -0.00055375138659867094 0.00023961850007623962 0 -0.00056299606729273049 0.00023086503013386903 0 -0.00055158012245131057 0.0002648889060359101 0 -0.0005507524292809689 0.00025816037165276922 0 -0.00055375138659867094 0.00023961850007623962 0 -0.00055375138659867094 0.00023961850007623962 0 -0.00055872706428489432 0.00021878768275908033 0 -0.00054947332186026736 0.00022072017070741819 0 -0.00055375138659867094 0.00023961850007623962 0 -0.00056299606729273049 0.00023086503013386903 0 -0.00055872706428489432 0.00021878768275908033 0 -0.00056299606729273049 0.00023086503013386903 0 -0.0005621249061639915 0.00024620018410556762 0 -0.00059206368459450867 0.00020623633501957333 0 -0.0005621249061639915 0.00024620018410556762 0 -0.00060012733933981861 0.0002292939963986903 0 -0.00059206368459450867 0.00020623633501957333 0 -0.0005507524292809689 0.00025816037165276922 0 -0.00056299606729273049 0.00023086503013386903 0 -0.0005621249061639915 0.00024620018410556762 0 -0.0005507524292809689 0.00025816037165276922 0 -0.0005621249061639915 0.00024620018410556762 0 -0.00054227841375444595 0.00026702810481557228 0 -0.00055325403084116554 0.00025959219060805414 0 -0.00054227841375444595 0.00026702810481557228 0 -0.00053675144154036907 0.00027510416316064399 0 -0.00054227841375444595 0.00026702810481557228 0 -0.00053675144154036907 0.00027510416316064399 0 -0.00052332879146380442 0.00027455804999286932 0 -0.00052332879146380442 0.00027455804999286932 0 -0.00054766530574097499 0.00026320989806565844 0 -0.00054874508132170795 0.00027384474128022831 0 -0.00054227841375444595 0.00026702810481557228 0 -0.00052332879146380442 0.00027455804999286932 0 -0.00054766530574097499 0.00026320989806565844 0 -0.00046135982791614211 0.00027835741721623136 0 -0.00052332879146380442 0.00027455804999286932 0 -0.00054874508132170795 0.00027384474128022831 0 -0.0005621249061639915 0.00024620018410556762 0 -0.00054227841375444595 0.00026702810481557228 0 -0.00054766530574097499 0.00026320989806565844 0 -0.0005621249061639915 0.00024620018410556762 0 -0.00054766530574097499 0.00026320989806565844 0 -0.00057610020558585256 0.00025405632435620775 0 -0.00057610020558585256 0.00025405632435620775 0 -0.00054874508132170795 0.00027384474128022831 0 -0.00060702206512909366 0.00027283075946782652 0 -0.00054766530574097499 0.00026320989806565844 0 -0.00057610020558585256 0.00025405632435620775 0 -0.00054874508132170795 0.00027384474128022831 0 -0.00061972063990228257 0.00032186224755632366 0 -0.00054874508132170795 0.00027384474128022831 0 -0.00060702206512909366 0.00027283075946782652 0 -0.00057610020558585256 0.00025405632435620775 0 -0.00060702206512909366 0.00027283075946782652 0 -0.00061837749355722171 0.00024825369721049581 0 -0.00064234784260031659 0.0002224628042891558 0 -0.00061837749355722171 0.00024825369721049581 0 -0.00060012733933981861 0.0002292939963986903 0 -0.0005621249061639915 0.00024620018410556762 0 -0.00057610020558585256 0.00025405632435620775 0 -0.00060012733933981861 0.0002292939963986903 0 -0.00057610020558585256 0.00025405632435620775 0 -0.00061837749355722171 0.00024825369721049581 0 -0.00060012733933981861 0.0002292939963986903 0 -0.00060012733933981861 0.0002292939963986903 0 -0.00062475288516904907 0.00020090676562469208 0 -0.00059206368459450867 0.00020623633501957333 0 -0.00064234784260031659 0.0002224628042891558 0 -0.00064977575194605892 0.00020011018237387038 0 -0.00062475288516904907 0.00020090676562469208 0 -0.00064234784260031659 0.0002224628042891558 0 -0.00060012733933981861 0.0002292939963986903 0 -0.00062475288516904907 0.00020090676562469208 0 -0.00062408583690285097 0.00017960214057428738 0 -0.00060345318671315112 0.00015081728512592699 0 -0.00059206368459450867 0.00020623633501957333 0 -0.00064965820882462795 0.00018096742953331254 0 -0.00062475288516904907 0.00020090676562469208 0 -0.00062408583690285097 0.00017960214057428738 0 -0.00064977575194605892 0.00020011018237387038 0 -0.00064965820882462795 0.00018096742953331254 0 -0.00062475288516904907 0.00020090676562469208 0 -0.00062475288516904907 0.00020090676562469208 0 -0.00062408583690285097 0.00017960214057428738 0 -0.00059206368459450867 0.00020623633501957333 0 -0.00064965820882462795 0.00018096742953331254 0 -0.00065292722300855366 0.00015554377322748157 0 -0.00062408583690285097 0.00017960214057428738 0 -0.00065292722300855366 0.00015554377322748157 0 -0.00062408583690285097 0.00017960214057428738 0 -0.00060345318671315112 0.00015081728512592699 0 -0.00065292722300855366 0.00015554377322748157 0 -0.00069400995099327836 0.00010381119874926019 0 -0.00060345318671315112 0.00015081728512592699 0 -0.0022654020957143103 -0.00013991454328740206 0 -0.0014374042654090168 0.00023745395642784645 0 -0.0028613009012553583 9.0481772372230385e-05 0 -0.0025796180860501602 0.00019971424110002211 0 -0.0026659145501995891 -2.1261487434038097e-05 0 -0.0014374042654090168 0.00023745395642784645 0 -0.0016851071182200472 0.00018790694842052744 0 -0.0025796180860501602 0.00019971424110002211 0 -0.0023015998119133253 0.00030671469244360607 0 -0.0022893315934491886 5.6114850517051737e-05 0 -0.00060345318671315112 0.00015081728512592699 0 -0.00059206368459450867 0.00020623633501957333 0 -0.00057113621227765257 0.00020167297607395654 0 -0.00060345318671315112 0.00015081728512592699 0 -0.00057113621227765257 0.00020167297607395654 0 -0.00055481494906067352 0.00019917695520501341 0 -0.00056299606729273049 0.00023086503013386903 0 -0.00057113621227765257 0.00020167297607395654 0 -0.00055872706428489432 0.00021878768275908033 0 -0.00056299606729273049 0.00023086503013386903 0 -0.00059206368459450867 0.00020623633501957333 0 -0.00057113621227765257 0.00020167297607395654 0 -0.00054947332186026736 0.00022072017070741819 0 -0.00055481494906067352 0.00019917695520501341 0 -0.00052566978622210032 0.00021994350291459322 0 -0.00057113621227765257 0.00020167297607395654 0 -0.00055872706428489432 0.00021878768275908033 0 -0.00055481494906067352 0.00019917695520501341 0 -0.00055872706428489432 0.00021878768275908033 0 -0.00054947332186026736 0.00022072017070741819 0 -0.00055481494906067352 0.00019917695520501341 0 -0.0022886560283627076 3.4346310716034011e-05 0 -0.0023505592300009271 7.0722149363019381e-05 0 -0.0023032034700689067 0.00011248849359478852 0 -0.0016851071182200472 0.00018790694842052744 0 -0.0022858282586235364 9.1446947591072183e-05 0 -0.0024286628909290717 8.620691473735793e-05 0 -0.0023505592300009271 7.0722149363019381e-05 0 -0.0023593186355123641 0.00012887688040752574 0 -0.0023505592300009271 7.0722149363019381e-05 0 -0.0023593186355123641 0.00012887688040752574 0 -0.0023032034700689067 0.00011248849359478852 0 -0.0022886560283627076 3.4346310716034011e-05 0 -0.0023505592300009271 7.0722149363019381e-05 0 -0.0023649111427218976 2.8422227584035424e-06 0 -0.0016851071182200472 0.00018790694842052744 0 -0.0013599579794605617 0.00017676937353980766 0 -0.0024006342189324755 0.0001823821201388852 0 -0.0023593186355123641 0.00012887688040752574 0 -0.002317505063873728 0.00018986759050124982 0 -0.0035433082953204549 -3.8122190549560002e-05 0 -0.0036264118534799598 -4.8991767464630013e-05 0 -0.0035571681899448562 -0.00010342022922538652 0 -0.0029676676392906246 8.198608258714361e-05 0 -0.0030649651333244194 -6.3852289213316393e-05 0 -0.0023593186355123641 0.00012887688040752574 0 -0.0023032034700689067 0.00011248849359478852 0 -0.002317505063873728 0.00018986759050124982 0 -0.0022858282586235364 9.1446947591072183e-05 0 -0.0030649651333244194 -6.3852289213316393e-05 0 -0.0022893315934491886 5.6114850517051737e-05 0 -0.002277632427457149 -0.00019287639958505035 0 -0.0024801582060219878 -3.8731449270333303e-05 0 -0.002277632427457149 -0.00019287639958505035 0 -0.0024801582060219878 -3.8731449270333303e-05 0 -0.0025904786876436506 -0.00023359916029569891 0 -0.0030649651333244194 -6.3852289213316393e-05 0 -0.0033891537548589056 -0.00027188712058865609 0 -0.0039886418902720794 -0.00025557961441583269 0 -0.0041356558582854473 -0.00028399756179176559 0 -0.0040784695770361033 -0.00035688890230689183 0 -0.0025796180860501602 0.00019971424110002211 0 -0.0022893315934491886 5.6114850517051737e-05 0 -0.0024801582060219878 -3.8731449270333303e-05 0 -0.0025796180860501602 0.00019971424110002211 0 -0.0024801582060219878 -3.8731449270333303e-05 0 -0.0026659145501995891 -2.1261487434038097e-05 0 -0.0024801582060219878 -3.8731449270333303e-05 0 -0.0026659145501995891 -2.1261487434038097e-05 0 -0.0025904786876436506 -0.00023359916029569891 0 -0.0026659145501995891 -2.1261487434038097e-05 0 -0.0025904786876436506 -0.00023359916029569891 0 -0.0028857575256168301 -9.1541583170406683e-05 0 -0.0033891537548589056 -0.00027188712058865609 0 -0.0035239017527777909 -0.00037446115113401988 0 -0.0041677927220639998 -0.0003499968263155366 0 -0.0041730909785303591 -0.00041396736079902678 0 -0.0042394629299066598 -0.00034980922772655389 0 -0.0041356558582854473 -0.00028399756179176559 0 -0.0041677927220639998 -0.0003499968263155366 0 -0.0042522027089502328 -0.00032964189547446686 0 -0.0041730909785303591 -0.00041396736079902678 0 -0.0041165005847377837 -0.00040687269095953906 0 -0.0041157097393147435 -0.00046718512720978216 0 -0.0041677927220639998 -0.0003499968263155366 0 -0.0041730909785303591 -0.00041396736079902678 0 -0.0041165005847377837 -0.00040687269095953906 0 -0.0041165005847377837 -0.00040687269095953906 0 -0.0040784695770361033 -0.00035688890230689183 0 -0.0040781635296563024 -0.00043106684081828828 0 -0.0041677927220639998 -0.0003499968263155366 0 -0.0041165005847377837 -0.00040687269095953906 0 -0.0040784695770361033 -0.00035688890230689183 0 -0.0041356558582854473 -0.00028399756179176559 0 -0.0041677927220639998 -0.0003499968263155366 0 -0.0040784695770361033 -0.00035688890230689183 0 -0.0039886418902720794 -0.00025557961441583269 0 -0.0040784695770361033 -0.00035688890230689183 0 -0.0039824207429547042 -0.0003678218064280694 0 -0.0030649651333244194 -6.3852289213316393e-05 0 -0.0038386896855915845 -0.00024320636401031832 0 -0.0040784695770361033 -0.00035688890230689183 0 -0.0039824207429547042 -0.0003678218064280694 0 -0.0039718756962916603 -0.00048440153748050663 0 -0.0038386896855915845 -0.00024320636401031832 0 -0.0039017529823848489 -0.0004097154100750083 0 -0.0040784695770361033 -0.00035688890230689183 0 -0.0040326034961775054 -0.000438863558055067 0 -0.0040781635296563024 -0.00043106684081828828 0 -0.0041061087518000474 -0.00037213997903300962 0 -0.0039017529823848489 -0.0004097154100750083 0 -0.003561226809647901 -0.00018280130026406195 0 -0.0036260338951160545 -0.00012403078341575579 0 -0.0035571681899448562 -0.00010342022922538652 0 -0.003561226809647901 -0.00018280130026406195 0 -0.0036260338951160545 -0.00012403078341575579 0 -0.0036251031413347683 -0.00019896306620039467 0 -0.0036264118534799598 -4.8991767464630013e-05 0 -0.0036260338951160545 -0.00012403078341575579 0 -0.0035571681899448562 -0.00010342022922538652 0 -0.0031581292643618206 -0.00029795019234616363 0 -0.0030852079145013002 -0.00035264440420022179 0 -0.003226276957609939 -0.00036993559305786459 0 -0.0031581292643618206 -0.00029795019234616363 0 -0.0031326261309399879 -0.00022079734227668655 0 -0.0030388920673338287 -0.00027535105428680662 0 -0.0031581292643618206 -0.00029795019234616363 0 -0.0030388920673338287 -0.00027535105428680662 0 -0.0030852079145013002 -0.00035264440420022179 0 -0.0031581292643618206 -0.00029795019234616363 0 -0.0032245405075893106 -0.00023252990521349163 0 -0.003226276957609939 -0.00036993559305786459 0 -0.003319936388378165 -0.00029455180860291194 0 -0.0032245405075893106 -0.00023252990521349163 0 -0.003226276957609939 -0.00036993559305786459 0 -0.0031581292643618206 -0.00029795019234616363 0 -0.0032245405075893106 -0.00023252990521349163 0 -0.0031326261309399879 -0.00022079734227668655 0 -0.0033230283591271685 -0.00021287664981396989 0 -0.0032248566465129273 -0.00011451180363078596 0 -0.0032245405075893106 -0.00023252990521349163 0 -0.0032248566465129273 -0.00011451180363078596 0 -0.0032245405075893106 -0.00023252990521349163 0 -0.0031597039684961789 -0.00015807733620976067 0 -0.0032245405075893106 -0.00023252990521349163 0 -0.0031597039684961789 -0.00015807733620976067 0 -0.0031326261309399879 -0.00022079734227668655 0 -0.003084829644575419 -0.00020398979965933765 0 -0.0031309832471368994 -0.00022386055193808217 0 -0.0031326261309399879 -0.00022079734227668655 0 -0.0030328871251308924 -0.00018157208386710102 0 -0.0030388920673338287 -0.00027535105428680662 0 -0.0030927058134836514 -0.00014578889426340613 0 -0.0031326261309399879 -0.00022079734227668655 0 -0.0030207931578128404 -0.00018862446965776721 0 -0.0030927058134836514 -0.00014578889426340613 0 -0.0031597039684961789 -0.00015807733620976067 0 -0.0031326261309399879 -0.00022079734227668655 0 -0.0022654020957143103 -0.00013991454328740206 0 -0.0031309832471368994 -0.00022386055193808217 0 -0.0030328871251308924 -0.00018157208386710102 0 -0.0029401934112224803 -0.00023894822703567539 0 -0.0030388920673338287 -0.00027535105428680662 0 -0.0029256378369151882 -0.00013980660188740685 0 -0.0030328871251308924 -0.00018157208386710102 0 -0.0029401934112224803 -0.00023894822703567539 0 -0.0028613009012553583 9.0481772372230385e-05 0 -0.0026659145501995891 -2.1261487434038097e-05 0 -0.0028857575256168301 -9.1541583170406683e-05 0 -0.0022654020957143103 -0.00013991454328740206 0 -0.0029082303887041092 -0.00013865259329582603 0 -0.0025904786876436506 -0.00023359916029569891 0 -0.0028857575256168301 -9.1541583170406683e-05 0 -0.0029098892977341851 -0.00027444452706853898 0 -0.0029082303887041092 -0.00013865259329582603 0 -0.0035239017527777909 -0.00037446115113401988 0 -0.0029540762343946711 -0.00033637692793650611 0 -0.0030388920673338287 -0.00027535105428680662 0 -0.0030852079145013002 -0.00035264440420022179 0 -0.0029401934112224803 -0.00023894822703567539 0 -0.0029540762343946711 -0.00033637692793650611 0 -0.0030388920673338287 -0.00027535105428680662 0 -0.0039749264527687324 -0.00050965001119082501 0 -0.0038899226382484923 -0.00042069200966638148 0 -0.0039696086675261215 -0.00033179133402268924 0 -0.0038899226382484923 -0.00042069200966638148 0 -0.0037818519496352738 -0.00032864310993115054 0 -0.0037975506356851775 -0.00048401305078892552 0 -0.0039749264527687324 -0.00050965001119082501 0 -0.0038899226382484923 -0.00042069200966638148 0 -0.0037975506356851775 -0.00048401305078892552 0 -0.0035239017527777909 -0.00037446115113401988 0 -0.0034310221542866344 -0.00042005096395265597 0 -0.0041677927220639998 -0.0003499968263155366 0 -0.0042522027089502328 -0.00032964189547446686 0 -0.0042394629299066598 -0.00034980922772655389 0 -0.0035239017527777909 -0.00037446115113401988 0 -0.0041431527517475008 -0.00034342337464859577 0 -0.0042522027089502328 -0.00032964189547446686 0 -0.0042394629299066598 -0.00034980922772655389 0 -0.0042286461774844681 -0.00032873300912829903 0 -0.0042394629299066598 -0.00034980922772655389 0 -0.0042286461774844681 -0.00032873300912829903 0 -0.0042840527100391716 -0.00027442679277276722 0 -0.0043615101131626146 -0.00029528193816118756 0 -0.0042394629299066598 -0.00034980922772655389 0 -0.0042840527100391716 -0.00027442679277276722 0 -0.0042530912967344578 -0.00036504572823538284 0 -0.0042530897587628033 -0.00034391111881735398 0 -0.0038899226382484923 -0.00042069200966638148 0 -0.0039696086675261215 -0.00033179133402268924 0 -0.0037818519496352738 -0.00032864310993115054 0 -0.0039696086675261215 -0.00033179133402268924 0 -0.0037818519496352738 -0.00032864310993115054 0 -0.0038270852290634232 -0.00017999891431775381 0 -0.0034310221542866344 -0.00042005096395265597 0 -0.0034272441049594919 -0.0004006837125977417 0 -0.0037818519496352738 -0.00032864310993115054 0 -0.0037975506356851775 -0.00048401305078892552 0 -0.0036171474593890175 -0.00044219892798995103 0 -0.0035154212090391795 -0.00034942410948336365 0 -0.0036171474593890175 -0.00044219892798995103 0 -0.0035895827082455998 -0.00030315787414859663 0 -0.0037818519496352738 -0.00032864310993115054 0 -0.0036171474593890175 -0.00044219892798995103 0 -0.0035895827082455998 -0.00030315787414859663 0 -0.0035895827082455998 -0.00030315787414859663 0 -0.0036566323368289826 -0.00021271948229428545 0 -0.003519290942250378 -0.00023552300662503723 0 -0.0037818519496352738 -0.00032864310993115054 0 -0.0035895827082455998 -0.00030315787414859663 0 -0.0036566323368289826 -0.00021271948229428545 0 -0.0036566323368289826 -0.00021271948229428545 0 -0.0036087407490426053 -0.00016979708296733961 0 -0.003519290942250378 -0.00023552300662503723 0 -0.0036566323368289826 -0.00021271948229428545 0 -0.0036087407490426053 -0.00016979708296733961 0 -0.0036720525576033397 -0.00016005150575936565 0 -0.0036087407490426053 -0.00016979708296733961 0 -0.0036720525576033397 -0.00016005150575936565 0 -0.0036193908083457134 -0.00011703550890086757 0 -0.0037808417211399941 2.7994208302032466e-06 0 -0.0038270852290634232 -0.00017999891431775381 0 -0.0039103017138423946 -6.0981082023452278e-05 0 -0.0036682377988782682 -0.00019437159184776 0 -0.0036990658357634225 -9.9511068236709729e-05 0 -0.0037818519496352738 -0.00032864310993115054 0 -0.0036566323368289826 -0.00021271948229428545 0 -0.0038270852290634232 -0.00017999891431775381 0 -0.0036566323368289826 -0.00021271948229428545 0 -0.0037808417211399941 2.7994208302032466e-06 0 -0.0038270852290634232 -0.00017999891431775381 0 -0.0041431527517475008 -0.00034342337464859577 0 -0.0040748468290639234 -0.00014908392590029542 0 -0.0039696086675261215 -0.00033179133402268924 0 -0.0038270852290634232 -0.00017999891431775381 0 -0.0039861130040245328 -0.00014655354789790384 0 -0.0038270852290634232 -0.00017999891431775381 0 -0.0039861130040245328 -0.00014655354789790384 0 -0.0039103017138423946 -6.0981082023452278e-05 0 -0.0042286461774844681 -0.00032873300912829903 0 -0.0042840527100391716 -0.00027442679277276722 0 -0.0041735584248703316 -0.0001914202005432817 0 -0.0042840527100391716 -0.00027442679277276722 0 -0.0043104539077504717 -0.00015656845730250071 0 -0.0043596596498191031 -0.00021629098794930643 0 -0.0042840527100391716 -0.00027442679277276722 0 -0.0041735584248703316 -0.0001914202005432817 0 -0.0043104539077504717 -0.00015656845730250071 0 -0.0043104539077504717 -0.00015656845730250071 0 -0.0042158345071540912 -5.4298312456467466e-05 0 -0.0043729580223943699 -3.9062317034217909e-05 0 -0.0041735584248703316 -0.0001914202005432817 0 -0.0043104539077504717 -0.00015656845730250071 0 -0.0042158345071540912 -5.4298312456467466e-05 0 -0.0042158345071540912 -5.4298312456467466e-05 0 -0.0040506499110121944 0.00010351167705212907 0 -0.0041375109854074497 8.110822545454934e-05 0 -0.0042158345071540912 -5.4298312456467466e-05 0 -0.0043729580223943699 -3.9062317034217909e-05 0 -0.0041375109854074497 8.110822545454934e-05 0 -0.0039861130040245328 -0.00014655354789790384 0 -0.0039103017138423946 -6.0981082023452278e-05 0 -0.0040506499110121944 0.00010351167705212907 0 -0.0037808417211399941 2.7994208302032466e-06 0 -0.0039103017138423946 -6.0981082023452278e-05 0 -0.0040506499110121944 0.00010351167705212907 0 -0.0041735584248703316 -0.0001914202005432817 0 -0.0042158345071540912 -5.4298312456467466e-05 0 -0.0040506499110121944 0.00010351167705212907 0 -0.0040748468290639234 -0.00014908392590029542 0 -0.004052665639861704 9.0321539876515405e-05 0 -0.0037808417211399941 2.7994208302032466e-06 0 -0.0040506499110121944 0.00010351167705212907 0 -0.0039430371067918019 0.00028636301400017351 0 -0.0039726445797796028 0.00029081549163492514 0 -0.0041375109854074497 8.110822545454934e-05 0 -0.0042208985204733353 0.00024768581579007258 0 -0.0040504254538557237 0.00012743292505210452 0 -0.0040791774312669204 0.00014840997055209608 0 -0.0040506499110121944 0.00010351167705212907 0 -0.0039430371067918019 0.00028636301400017351 0 -0.0041375109854074497 8.110822545454934e-05 0 -0.0043799823762504971 -3.0444653372150852e-05 0 -0.0043145231581641569 0.00013336721764791384 0 -0.0043729580223943699 -3.9062317034217909e-05 0 -0.0044333936000391016 6.4872788508741633e-06 0 -0.0044344595947347857 -6.3769819970897515e-06 0 -0.0043729580223943699 -3.9062317034217909e-05 0 -0.0041375109854074497 8.110822545454934e-05 0 -0.0042208985204733353 0.00024768581579007258 0 -0.0044333936000391016 6.4872788508741633e-06 0 -0.0044558459659148368 1.4920787588790771e-05 0 -0.0044344595947347857 -6.3769819970897515e-06 0 -0.0044558459659148368 1.4920787588790771e-05 0 -0.0044382423916905561 4.229232851029537e-05 0 -0.0044811897019855357 3.9784857033073094e-05 0 -0.0044333936000391016 6.4872788508741633e-06 0 -0.0044558459659148368 1.4920787588790771e-05 0 -0.0044382423916905561 4.229232851029537e-05 0 -0.0043145231581641569 0.00013336721764791384 0 -0.0044675330037742111 0.00026236847694331277 0 -0.0044382423916905561 4.229232851029537e-05 0 -0.0044811897019855357 3.9784857033073094e-05 0 -0.0044862255102207493 5.9463603623233493e-05 0 -0.0039726445797796028 0.00029081549163492514 0 -0.0042208985204733353 0.00024768581579007258 0 -0.0040943874647240723 0.00050096010474747399 0 -0.004373698886315453 0.0001960042506269893 0 -0.0043693633176825376 0.00018475125406804894 0 -0.0043794108620229472 0.00018078660246432547 0 -0.0040504254538557237 0.00012743292505210452 0 -0.0044675330037742111 0.00026236847694331277 0 -0.0040504254538557237 0.00012743292505210452 0 -0.0039671780647689767 6.4765347662319215e-05 0 -0.0036193908083457134 -0.00011703550890086757 0 -0.0036640772177037955 -0.00010736407574930968 0 -0.0036591614064610343 -4.8159548895663023e-05 0 -0.004373698886315453 0.0001960042506269893 0 -0.0043894989672695704 0.00017993863395274301 0 -0.0043794108620229472 0.00018078660246432547 0 -0.0037055623128256858 -0.00010323854150007627 0 -0.0036640772177037955 -0.00010736407574930968 0 -0.0036591614064610343 -4.8159548895663023e-05 0 -0.0036193908083457134 -0.00011703550890086757 0 -0.0036591614064610343 -4.8159548895663023e-05 0 -0.0035886665796121524 -7.0655694099987088e-05 0 -0.0036193908083457134 -0.00011703550890086757 0 -0.0035886665796121524 -7.0655694099987088e-05 0 -0.0035726889623861613 -0.00010952983257665785 0 -0.0036087407490426053 -0.00016979708296733961 0 -0.0036193908083457134 -0.00011703550890086757 0 -0.0035492325368194251 -0.00014647661763495963 0 -0.0036990658357634225 -9.9511068236709729e-05 0 -0.0040504254538557237 0.00012743292505210452 0 -0.0036720525576033397 -0.00016005150575936565 0 -0.0037055623128256858 -0.00010323854150007627 0 -0.0036640772177037955 -0.00010736407574930968 0 -0.0036720525576033397 -0.00016005150575936565 0 -0.0036193908083457134 -0.00011703550890086757 0 -0.0036640772177037955 -0.00010736407574930968 0 -0.0045778755057549808 -0.00017742832109417925 0 -0.0046035987996725734 -0.00018633105258193 0 -0.0045031344310121997 -0.00021271979067802535 0 -0.0040100142599890634 -0.00048076632373456084 0 -0.0040351403327577523 -0.00047316623302966421 0 -0.0040537282024206049 -0.0004746001043383537 0 -0.0042098138793446429 -0.0002770993439694258 0 -0.0042735925423684987 -0.00034987637351772499 0 -0.0046094915811781051 -0.00013785483637580905 0 -0.0045778755057549808 -0.00017742832109417925 0 -0.0046019357479616654 -0.00017101771711588906 0 -0.0046094915811781051 -0.00013785483637580905 0 -0.0045649074653476727 -0.00013766423270696637 0 -0.0045778755057549808 -0.00017742832109417925 0 -0.0045649074653476727 -0.00013766423270696637 0 -0.0045778755057549808 -0.00017742832109417925 0 -0.0045362102856753113 -0.00016207464152085703 0 -0.0046094915811781051 -0.00013785483637580905 0 -0.0046019357479616654 -0.00017101771711588906 0 -0.0046161370209942881 -0.00018291001148709908 0 -0.0042098138793446429 -0.0002770993439694258 0 -0.0045181374950238416 -0.00017602995567512751 0 -0.0044182273192130486 -0.00029779332089350976 0 -0.0042098138793446429 -0.0002770993439694258 0 -0.0045778755057549808 -0.00017742832109417925 0 -0.0046043362027268541 -0.00018598575878411443 0 -0.0046019357479616654 -0.00017101771711588906 0 -0.0046043362027268541 -0.00018598575878411443 0 -0.0046019357479616654 -0.00017101771711588906 0 -0.0046161370209942881 -0.00018291001148709908 0 -0.0042098138793446429 -0.0002770993439694258 0 -0.0039017529823848489 -0.0004097154100750083 0 -0.003561226809647901 -0.00018280130026406195 0 -0.0035856086184648272 -0.00026062194416436323 0 -0.0036251031413347683 -0.00019896306620039467 0 -0.0040100142599890634 -0.00048076632373456084 0 -0.0040351403327577523 -0.00047316623302966421 0 -0.0040369574728054136 -0.00044369514811375539 0 -0.0040351403327577523 -0.00047316623302966421 0 -0.0040326034961775054 -0.000438863558055067 0 -0.0040537282024206049 -0.0004746001043383537 0 -0.0040054296723668753 -0.00046895743200653692 0 -0.0039017529823848489 -0.0004097154100750083 0 -0.0040326034961775054 -0.000438863558055067 0 -0.0040537282024206049 -0.0004746001043383537 0 -0.0040781635296563024 -0.00043106684081828828 0 -0.0045031344310121997 -0.00021271979067802535 0 -0.0045362102856753113 -0.00016207464152085703 0 -0.0044981846972673911 -0.00012025927531596114 0 -0.0045031344310121997 -0.00021271979067802535 0 -0.0043966263963386397 -0.0002378858001786854 0 -0.0044981846972673911 -0.00012025927531596114 0 -0.0045778755057549808 -0.00017742832109417925 0 -0.0045031344310121997 -0.00021271979067802535 0 -0.0045362102856753113 -0.00016207464152085703 0 -0.0045649074653476727 -0.00013766423270696637 0 -0.0045362102856753113 -0.00016207464152085703 0 -0.0044981846972673911 -0.00012025927531596114 0 -0.004508439102895211 -5.1753328457064407e-05 0 -0.0045132333090520784 -0.00015823253368339491 0 -0.0044339706938035838 -0.00010458679583683502 0 -0.0043571572795649124 -0.0002624271814251668 0 -0.0045576732770203823 -6.3820314920911623e-05 0 -0.004508439102895211 -5.1753328457064407e-05 0 -0.0045132333090520784 -0.00015823253368339491 0 -0.0045795905453974205 -3.4836421554238575e-05 0 -0.0041165005847377837 -0.00040687269095953906 0 -0.0041157097393147435 -0.00046718512720978216 0 -0.0040781635296563024 -0.00043106684081828828 0 -0.0042735925423684987 -0.00034987637351772499 0 -0.0043571572795649124 -0.0002624271814251668 0 -0.0040537282024206049 -0.0004746001043383537 0 -0.0041157097393147435 -0.00046718512720978216 0 -0.0040781635296563024 -0.00043106684081828828 0 -0.0042530912967344578 -0.00036504572823538284 0 -0.0043571572795649124 -0.0002624271814251668 0 -0.0045132333090520784 -0.00015823253368339491 0 -0.0043596596498191031 -0.00021629098794930643 0 -0.0044339706938035838 -0.00010458679583683502 0 -0.0043571572795649124 -0.0002624271814251668 0 -0.0044177575321427253 -0.00019925560558118477 0 -0.0043615101131626146 -0.00029528193816118756 0 -0.0044570505475441027 -0.00019423865294153028 0 -0.0043596596498191031 -0.00021629098794930643 0 -0.0043615101131626146 -0.00029528193816118756 0 -0.0042840527100391716 -0.00027442679277276722 0 -0.0043596596498191031 -0.00021629098794930643 0 -0.0043104539077504717 -0.00015656845730250071 0 -0.0043596596498191031 -0.00021629098794930643 0 -0.0044339706938035838 -0.00010458679583683502 0 -0.0043104539077504717 -0.00015656845730250071 0 -0.0043729580223943699 -3.9062317034217909e-05 0 -0.0044339706938035838 -0.00010458679583683502 0 -0.004508439102895211 -5.1753328457064407e-05 0 -0.0044339706938035838 -0.00010458679583683502 0 -0.0044461116137051596 -3.2708635525367384e-05 0 -0.0043729580223943699 -3.9062317034217909e-05 0 -0.0044339706938035838 -0.00010458679583683502 0 -0.0044461116137051596 -3.2708635525367384e-05 0 -0.0043729580223943699 -3.9062317034217909e-05 0 -0.0044461116137051596 -3.2708635525367384e-05 0 -0.0044344595947347857 -6.3769819970897515e-06 0 -0.0044461116137051596 -3.2708635525367384e-05 0 -0.0044344595947347857 -6.3769819970897515e-06 0 -0.0044784968336148596 6.5196853606846676e-06 0 -0.004508439102895211 -5.1753328457064407e-05 0 -0.0044461116137051596 -3.2708635525367384e-05 0 -0.0044784968336148596 6.5196853606846676e-06 0 -0.0044558459659148368 1.4920787588790771e-05 0 -0.0044344595947347857 -6.3769819970897515e-06 0 -0.0044784968336148596 6.5196853606846676e-06 0 -0.0044558459659148368 1.4920787588790771e-05 0 -0.0044784968336148596 6.5196853606846676e-06 0 -0.0044811897019855357 3.9784857033073094e-05 0 -0.0044811897019855357 3.9784857033073094e-05 0 -0.0045199796086345416 4.0003455769603857e-05 0 -0.004516373202915527 6.7720819122065392e-05 0 -0.0044784968336148596 6.5196853606846676e-06 0 -0.0044811897019855357 3.9784857033073094e-05 0 -0.0045199796086345416 4.0003455769603857e-05 0 -0.0045199796086345416 4.0003455769603857e-05 0 -0.0045323414078526645 3.5490498456508382e-06 0 -0.0045685321156695513 3.5182823109656134e-05 0 -0.0044784968336148596 6.5196853606846676e-06 0 -0.0045199796086345416 4.0003455769603857e-05 0 -0.0045323414078526645 3.5490498456508382e-06 0 -0.004508439102895211 -5.1753328457064407e-05 0 -0.0045323414078526645 3.5490498456508382e-06 0 -0.0045795905453974205 -3.4836421554238575e-05 0 -0.004508439102895211 -5.1753328457064407e-05 0 -0.0044784968336148596 6.5196853606846676e-06 0 -0.0045323414078526645 3.5490498456508382e-06 0 -0.0045323414078526645 3.5490498456508382e-06 0 -0.0045795905453974205 -3.4836421554238575e-05 0 -0.0045685321156695513 3.5182823109656134e-05 0 -0.0045576732770203823 -6.3820314920911623e-05 0 -0.0046051834831809819 -4.8603043449404246e-06 0 -0.0045795905453974205 -3.4836421554238575e-05 0 -0.0045685321156695513 3.5182823109656134e-05 0 -0.0046184048198131909 1.6595360983068832e-05 0 -0.0045685321156695513 3.5182823109656134e-05 0 -0.0046184048198131909 1.6595360983068832e-05 0 -0.004608462896304376 5.1243124937998854e-05 0 -0.0044981846972673911 -0.00012025927531596114 0 -0.00459826633342259 -1.8380009338260698e-05 0 -0.0046061629752776412 -8.146198518637318e-05 0 -0.0045649074653476727 -0.00013766423270696637 0 -0.0044981846972673911 -0.00012025927531596114 0 -0.0046061629752776412 -8.146198518637318e-05 0 -0.0046094915811781051 -0.00013785483637580905 0 -0.0045649074653476727 -0.00013766423270696637 0 -0.0046061629752776412 -8.146198518637318e-05 0 -0.0046465691969457762 9.1029419394968907e-05 0 -0.0046138465734154831 7.9220588901324167e-05 0 -0.0046084336863419324 0.00011349850654317865 0 -0.0046742408705527684 6.0543128105157883e-05 0 -0.0046184048198131909 1.6595360983068832e-05 0 -0.004608462896304376 5.1243124937998854e-05 0 -0.0046742408705527684 6.0543128105157883e-05 0 -0.0046138465734154831 7.9220588901324167e-05 0 -0.004608462896304376 5.1243124937998854e-05 0 -0.0046138465734154831 7.9220588901324167e-05 0 -0.004608462896304376 5.1243124937998854e-05 0 -0.0045791693314926702 6.667418681763236e-05 0 -0.0045685321156695513 3.5182823109656134e-05 0 -0.0045791693314926702 6.667418681763236e-05 0 -0.0045486391804674224 6.9967714123884378e-05 0 -0.0045685321156695513 3.5182823109656134e-05 0 -0.004608462896304376 5.1243124937998854e-05 0 -0.0045791693314926702 6.667418681763236e-05 0 -0.0045791693314926702 6.667418681763236e-05 0 -0.004562936518014901 8.8172675093012385e-05 0 -0.0045486391804674224 6.9967714123884378e-05 0 -0.0046138465734154831 7.9220588901324167e-05 0 -0.0045791693314926702 6.667418681763236e-05 0 -0.004562936518014901 8.8172675093012385e-05 0 -0.0046138465734154831 7.9220588901324167e-05 0 -0.004562936518014901 8.8172675093012385e-05 0 -0.0046084336863419324 0.00011349850654317865 0 -0.004562936518014901 8.8172675093012385e-05 0 -0.0045486391804674224 6.9967714123884378e-05 0 -0.0045510902964603882 8.8609612171379254e-05 0 -0.004562936518014901 8.8172675093012385e-05 0 -0.0045510902964603882 8.8609612171379254e-05 0 -0.0045615578039807656 8.8241505158614386e-05 0 -0.0045199796086345416 4.0003455769603857e-05 0 -0.0045685321156695513 3.5182823109656134e-05 0 -0.0045486391804674224 6.9967714123884378e-05 0 -0.0045486391804674224 6.9967714123884378e-05 0 -0.004516373202915527 6.7720819122065392e-05 0 -0.0045510902964603882 8.8609612171379254e-05 0 -0.0045199796086345416 4.0003455769603857e-05 0 -0.0045486391804674224 6.9967714123884378e-05 0 -0.004516373202915527 6.7720819122065392e-05 0 -0.0044811897019855357 3.9784857033073094e-05 0 -0.004516373202915527 6.7720819122065392e-05 0 -0.0044862255102207493 5.9463603623233493e-05 0 -0.0045510902964603882 8.8609612171379254e-05 0 -0.0046149164966911389 6.0825532190851834e-05 0 -0.0045086239153891349 8.7361848129664243e-05 0 -0.004516373202915527 6.7720819122065392e-05 0 -0.0045510902964603882 8.8609612171379254e-05 0 -0.0045086239153891349 8.7361848129664243e-05 0 -0.0046004491057233133 5.9417345798588816e-05 0 -0.0046605425915314533 0.00016736353929275519 0 -0.0046149164966911389 6.0825532190851834e-05 0 -0.0046477308767672995 1.9491595723006491e-05 0 -0.0045466876849180257 9.2108984464417246e-05 0 -0.0045510902964603882 8.8609612171379254e-05 0 -0.0046149164966911389 6.0825532190851834e-05 0 -0.0045615578039807656 8.8241505158614386e-05 0 -0.0048285739676858005 1.1601523906535669e-05 0 -0.0047770088923880481 4.4852131503067323e-05 0 -0.0046149164966911389 6.0825532190851834e-05 0 -0.0046843960087584059 6.3766906048169433e-05 0 -0.0047429987596774104 0.0001239157523081208 0 -0.0046149164966911389 6.0825532190851834e-05 0 -0.0046843960087584059 6.3766906048169433e-05 0 -0.0046477308767672995 1.9491595723006491e-05 0 -0.0050004527695634744 -1.0756549902413725e-06 0 -0.0050000083112498482 -9.8647600531960602e-10 0 -0.0049999853202905512 -1.814647719382552e-09 0 -0.0050007056040926685 -4.4146161452611424e-06 0 -0.0050004527695634744 -1.0756549902413725e-06 0 -0.0049999853202905512 -1.814647719382552e-09 0 -0.0050004527695634744 -1.0756549902413725e-06 0 -0.0050000083112498482 -9.8647600531960602e-10 0 -0.0049993904895695856 1.441300453855384e-06 0 -0.0050007056040926685 -4.4146161452611424e-06 0 -0.0050004527695634744 -1.0756549902413725e-06 0 -0.0049993904895695856 1.441300453855384e-06 0 -0.0046149164966911389 6.0825532190851834e-05 0 -0.0045615578039807656 8.8241505158614386e-05 0 -0.0045466876849180257 9.2108984464417246e-05 0 -0.004562936518014901 8.8172675093012385e-05 0 -0.0045615578039807656 8.8241505158614386e-05 0 -0.0045466876849180257 9.2108984464417246e-05 0 -0.0049993904895695856 1.441300453855384e-06 0 -0.0049989367433159433 1.4091543765813218e-06 0 -0.004995982902314111 6.3208903803448451e-06 0 -0.004562936518014901 8.8172675093012385e-05 0 -0.0045466876849180257 9.2108984464417246e-05 0 -0.0046084336863419324 0.00011349850654317865 0 -0.0047770088923880481 4.4852131503067323e-05 0 -0.0048002136399679625 6.0068418606974321e-05 0 -0.0050000083112498482 -9.8647600531960602e-10 0 -0.0049993904895695856 1.441300453855384e-06 0 -0.0049989367433159433 1.4091543765813218e-06 0 -0.0050000083112498482 -9.8647600531960602e-10 0 -0.0049989367433159433 1.4091543765813218e-06 0 -0.0049999835578020627 -2.595084008001536e-10 0 -0.0050126864033400026 -1.1199331010318585e-05 0 -0.0049999842435057154 2.1770945962811217e-08 0 -0.0049921762574352026 2.8561780803578722e-06 0 -0.0049989367433159433 1.4091543765813218e-06 0 -0.0049999835578020627 -2.595084008001536e-10 0 -0.0049921762574352026 2.8561780803578722e-06 0 -0.0049989367433159433 1.4091543765813218e-06 0 -0.004995982902314111 6.3208903803448451e-06 0 -0.0049841411509358238 8.6683419750998604e-05 0 -0.005000385954197252 7.0737266559818188e-05 0 -0.0049962553809080471 6.4568285639883988e-05 0 -0.0048193047029505163 0.00018422936709387516 0 -0.0044307761056190552 0.00014455962081919929 0 -0.0043849219537092062 0.00016058940949041509 0 -0.0044046664721048377 0.00016361747359693824 0 -0.0043874158322678124 0.00017047525898644666 0 -0.0049841411509358238 8.6683419750998604e-05 0 -0.0049885305511988059 8.8464929533347279e-05 0 -0.0049962553809080471 6.4568285639883988e-05 0 -0.0043849219537092062 0.00016058940949041509 0 -0.0043874158322678124 0.00017047525898644666 0 -0.0043770662445739659 0.00017259118114552999 0 -0.0049770760743846352 0.00014833229282263652 0 -0.0049418255811243816 0.00010440522658459168 0 -0.0049885305511988059 8.8464929533347279e-05 0 -0.0048193047029505163 0.00018422936709387516 0 -0.0049159338164163581 8.730090812461455e-05 0 -0.0046939544191286564 6.3702914434520978e-05 0 -0.0050394591053781112 0.00012182460543199084 0 -0.0050009514951158572 6.971932264857046e-05 0 -0.005000385954197252 7.0737266559818188e-05 0 -0.0049962553809080471 6.4568285639883988e-05 0 -0.0050058952723800523 6.1412140037009035e-05 0 -0.0050056419377868299 4.5035920589630343e-05 0 -0.0049962553809080471 6.4568285639883988e-05 0 -0.0036133377524226579 1.2418788180022835e-05 0 -0.0036074277636757982 -2.6485679550104374e-05 0 -0.0035949997822570475 1.0150605877586577e-05 0 -0.0044307761056190552 0.00014455962081919929 0 -0.0042713852858063395 5.0301205969958176e-05 0 -0.00455347796360698 0.00015997592496900175 0 -0.0046219770510416694 7.791791544299801e-05 0 -0.0043947796213583638 4.0387459859548151e-05 0 -0.0046939544191286564 6.3702914434520978e-05 0 -0.0042713852858063395 5.0301205969958176e-05 0 -0.0046939544191286564 6.3702914434520978e-05 0 -0.0044307761056190552 0.00014455962081919929 0 -0.0036133377524226579 1.2418788180022835e-05 0 -0.0036074277636757982 -2.6485679550104374e-05 0 -0.0036591614064610343 -4.8159548895663023e-05 0 -0.0036074277636757982 -2.6485679550104374e-05 0 -0.0036591614064610343 -4.8159548895663023e-05 0 -0.0035886665796121524 -7.0655694099987088e-05 0 -0.0044307761056190552 0.00014455962081919929 0 -0.0039671780647689767 6.4765347662319215e-05 0 -0.0044046664721048377 0.00016361747359693824 0 -0.0043894989672695704 0.00017993863395274301 0 -0.0043874158322678124 0.00017047525898644666 0 -0.0043894989672695704 0.00017993863395274301 0 -0.0043874158322678124 0.00017047525898644666 0 -0.0043794108620229472 0.00018078660246432547 0 -0.0048692915525406482 0.00043796417461542487 0 -0.0049294884094959026 0.00032137450619356892 0 -0.0048681069825345698 0.00027622935227829715 0 -0.0043693633176825376 0.00018475125406804894 0 -0.0043794108620229472 0.00018078660246432547 0 -0.0043770662445739659 0.00017259118114552999 0 -0.0044675330037742111 0.00026236847694331277 0 -0.004650325788091437 0.00025077147107722015 0 -0.0043874158322678124 0.00017047525898644666 0 -0.0043794108620229472 0.00018078660246432547 0 -0.0043770662445739659 0.00017259118114552999 0 -0.0044675330037742111 0.00026236847694331277 0 -0.0046605425915314533 0.00016736353929275519 0 -0.0048692915525406482 0.00043796417461542487 0 -0.0047611957922018633 0.00025318395263147585 0 -0.0048681069825345698 0.00027622935227829715 0 -0.0044382423916905561 4.229232851029537e-05 0 -0.0044862255102207493 5.9463603623233493e-05 0 -0.0045086239153891349 8.7361848129664243e-05 0 -0.004516373202915527 6.7720819122065392e-05 0 -0.0044862255102207493 5.9463603623233493e-05 0 -0.0045086239153891349 8.7361848129664243e-05 0 -0.0047611957922018633 0.00025318395263147585 0 -0.0048597032757897495 0.00017536737683208713 0 -0.0047429987596774104 0.0001239157523081208 0 -0.0047611957922018633 0.00025318395263147585 0 -0.0048681069825345698 0.00027622935227829715 0 -0.0048597032757897495 0.00017536737683208713 0 -0.0048193047029505163 0.00018422936709387516 0 -0.0049209967157257698 0.00017906828430182603 0 -0.0049911819568444239 0.0002002796329922231 0 -0.0048681069825345698 0.00027622935227829715 0 -0.0048597032757897495 0.00017536737683208713 0 -0.0049770760743846352 0.00014833229282263652 0 -0.0048597032757897495 0.00017536737683208713 0 -0.0049418255811243816 0.00010440522658459168 0 -0.0048193047029505163 0.00018422936709387516 0 -0.004650325788091437 0.00025077147107722015 0 -0.0049911819568444239 0.0002002796329922231 0 -0.0049294884094959026 0.00032137450619356892 0 -0.0048681069825345698 0.00027622935227829715 0 -0.0048597032757897495 0.00017536737683208713 0 -0.0049418255811243816 0.00010440522658459168 0 -0.0048589116149572505 8.8271137565713103e-05 0 -0.0049418255811243816 0.00010440522658459168 0 -0.0049448165634621843 5.7992334813031605e-05 0 -0.0048589116149572505 8.8271137565713103e-05 0 -0.0049448165634621843 5.7992334813031605e-05 0 -0.0048589116149572505 8.8271137565713103e-05 0 -0.004927458017030698 3.7050180583295265e-05 0 -0.0049418255811243816 0.00010440522658459168 0 -0.0049448165634621843 5.7992334813031605e-05 0 -0.0049829255193174745 5.1946011036492385e-05 0 -0.0049448165634621843 5.7992334813031605e-05 0 -0.0049820333505779133 1.6879411380287852e-05 0 -0.0049829255193174745 5.1946011036492385e-05 0 -0.0049448165634621843 5.7992334813031605e-05 0 -0.0049820333505779133 1.6879411380287852e-05 0 -0.004927458017030698 3.7050180583295265e-05 0 -0.0046149164966911389 6.0825532190851834e-05 0 -0.0047611957922018633 0.00025318395263147585 0 -0.0047429987596774104 0.0001239157523081208 0 -0.0048597032757897495 0.00017536737683208713 0 -0.0047429987596774104 0.0001239157523081208 0 -0.0048589116149572505 8.8271137565713103e-05 0 -0.0048589116149572505 8.8271137565713103e-05 0 -0.0047565348590644764 7.0012178713166559e-05 0 -0.0048254794613707599 3.7124258546418947e-05 0 -0.0047429987596774104 0.0001239157523081208 0 -0.0048589116149572505 8.8271137565713103e-05 0 -0.0047565348590644764 7.0012178713166559e-05 0 -0.0048589116149572505 8.8271137565713103e-05 0 -0.0048254794613707599 3.7124258546418947e-05 0 -0.004927458017030698 3.7050180583295265e-05 0 -0.0046843960087584059 6.3766906048169433e-05 0 -0.0046477308767672995 1.9491595723006491e-05 0 -0.0047565348590644764 7.0012178713166559e-05 0 -0.0046477308767672995 1.9491595723006491e-05 0 -0.0047565348590644764 7.0012178713166559e-05 0 -0.0048254794613707599 3.7124258546418947e-05 0 -0.0046843960087584059 6.3766906048169433e-05 0 -0.0047429987596774104 0.0001239157523081208 0 -0.0047565348590644764 7.0012178713166559e-05 0 -0.0048285739676858005 1.1601523906535669e-05 0 -0.0049605575763775646 -1.2821145520212416e-05 0 -0.0046477308767672995 1.9491595723006491e-05 0 -0.0048254794613707599 3.7124258546418947e-05 0 -0.0049762238508526428 -1.1425014553974709e-05 0 -0.0050007056040926685 -4.4146161452611424e-06 0 -0.0049999853202905512 -1.814647719382552e-09 0 -0.0049762238508526428 -1.1425014553974709e-05 0 -0.0049999853202905512 -1.814647719382552e-09 0 -0.0049762238508526428 -1.1425014553974709e-05 0 -0.0049999152142832905 -1.3496947100662719e-08 0 -0.0049820333505779133 1.6879411380287852e-05 0 -0.004927458017030698 3.7050180583295265e-05 0 -0.0049762238508526428 -1.1425014553974709e-05 0 -0.0048254794613707599 3.7124258546418947e-05 0 -0.004927458017030698 3.7050180583295265e-05 0 -0.0049762238508526428 -1.1425014553974709e-05 0 -0.0049820333505779133 1.6879411380287852e-05 0 -0.0049762238508526428 -1.1425014553974709e-05 0 -0.0049999152142832905 -1.3496947100662719e-08 0 -0.0049999152142832905 -1.3496947100662719e-08 0 -0.0049972601619001104 2.4295584245280753e-05 0 -0.0050000344522763435 3.3755817982489595e-08 0 -0.0049820333505779133 1.6879411380287852e-05 0 -0.0049999152142832905 -1.3496947100662719e-08 0 -0.0049972601619001104 2.4295584245280753e-05 0 -0.0049820333505779133 1.6879411380287852e-05 0 -0.0049972601619001104 2.4295584245280753e-05 0 -0.0049829255193174745 5.1946011036492385e-05 0 -0.0049972601619001104 2.4295584245280753e-05 0 -0.0049829255193174745 5.1946011036492385e-05 0 -0.0049961770678577308 5.1197885088407768e-05 0 -0.0049961770678577308 5.1197885088407768e-05 0 -0.0049885305511988059 8.8464929533347279e-05 0 -0.0049962553809080471 6.4568285639883988e-05 0 -0.0049418255811243816 0.00010440522658459168 0 -0.0049829255193174745 5.1946011036492385e-05 0 -0.0049885305511988059 8.8464929533347279e-05 0 -0.0049829255193174745 5.1946011036492385e-05 0 -0.0049961770678577308 5.1197885088407768e-05 0 -0.0049885305511988059 8.8464929533347279e-05 0 -0.0050056419377868299 4.5035920589630343e-05 0 -0.0049962553809080471 6.4568285639883988e-05 0 -0.0050032087410659077 3.0520532644220125e-05 0 -0.0049961770678577308 5.1197885088407768e-05 0 -0.0049962553809080471 6.4568285639883988e-05 0 -0.0050032087410659077 3.0520532644220125e-05 0 -0.0049972601619001104 2.4295584245280753e-05 0 -0.0049961770678577308 5.1197885088407768e-05 0 -0.0050032087410659077 3.0520532644220125e-05 0 -0.0049972601619001104 2.4295584245280753e-05 0 -0.0050032087410659077 3.0520532644220125e-05 0 -0.0050000344522763435 3.3755817982489595e-08 0 -0.0050032087410659077 3.0520532644220125e-05 0 -0.0050000344522763435 3.3755817982489595e-08 0 -0.0050124550485685258 2.4643395392155009e-05 0 -0.0050000344522763435 3.3755817982489595e-08 0 -0.0050000138971562497 -4.5523508533372364e-09 0 -0.0050124550485685258 2.4643395392155009e-05 0 -0.0049999459224119042 5.0033627946740412e-08 0 -0.0050339821429138789 -9.729269323714969e-07 0 -0.0049999618647664614 -8.6375666792300624e-09 0 -0.0049711043996453546 3.9767884780883393e-06 0 -0.004993737030663927 2.484374849395212e-06 0 -0.0049711043996453546 3.9767884780883393e-06 0 -0.004993737030663927 2.484374849395212e-06 0 -0.0049880830386732885 9.5509746478962089e-06 0 -0.0049711043996453546 3.9767884780883393e-06 0 -0.0049880830386732885 9.5509746478962089e-06 0 -0.0049664390125767266 1.5226486202020935e-05 0 -0.0046939544191286564 6.3702914434520978e-05 0 -0.0050339821429138789 -9.729269323714969e-07 0 -0.0050056419377868299 4.5035920589630343e-05 0 -0.0050032087410659077 3.0520532644220125e-05 0 -0.0050124550485685258 2.4643395392155009e-05 0 -0.0050058952723800523 6.1412140037009035e-05 0 -0.0050056419377868299 4.5035920589630343e-05 0 -0.0050124550485685258 2.4643395392155009e-05 0 -0.0049963676876199972 3.5494604993765024e-06 0 -0.0049964289879081032 9.0668879328872012e-06 0 -0.0049999999136051982 -5.429720813618196e-10 0 -0.0049999997215350719 4.4416468399787798e-09 0 -0.0049963676876199972 3.5494604993765024e-06 0 -0.0049999999136051982 -5.429720813618196e-10 0 -0.0049999618647664614 -8.6375666792300624e-09 0 -0.0049999997215350719 4.4416468399787798e-09 0 -0.004993737030663927 2.484374849395212e-06 0 -0.0049999997215350719 4.4416468399787798e-09 0 -0.0049963676876199972 3.5494604993765024e-06 0 -0.004993737030663927 2.484374849395212e-06 0 -0.0049963676876199972 3.5494604993765024e-06 0 -0.004993737030663927 2.484374849395212e-06 0 -0.0049880830386732885 9.5509746478962089e-06 0 -0.0049963676876199972 3.5494604993765024e-06 0 -0.0049880830386732885 9.5509746478962089e-06 0 -0.0049964289879081032 9.0668879328872012e-06 0 -0.0049880830386732885 9.5509746478962089e-06 0 -0.0049837527356441065 1.9568728055419839e-05 0 -0.0049964289879081032 9.0668879328872012e-06 0 -0.0049837527356441065 1.9568728055419839e-05 0 -0.0049879748508782733 1.9166063356247361e-05 0 -0.0049964289879081032 9.0668879328872012e-06 0 -0.0049880830386732885 9.5509746478962089e-06 0 -0.0049837527356441065 1.9568728055419839e-05 0 -0.004972663651845859 2.2625157477913984e-05 0 -0.0043003180412714108 7.1555170471440487e-05 0 -0.004465389087694129 0.00010269446511407776 0 -0.0036563086244539868 0.00012614905368318262 0 -0.00385650009208052 4.8563433927164914e-05 0 -0.0036564730208435239 -8.1538489576611514e-05 0 -0.0043003180412714108 7.1555170471440487e-05 0 -0.0042876156269814093 3.6449030940324409e-05 0 -0.0036563086244539868 0.00012614905368318262 0 -0.0035160495361889893 -2.6589442103314765e-05 0 -0.0034808478936182836 8.7386093111384346e-05 0 -0.0049664390125767266 1.5226486202020935e-05 0 -0.0049504198494226869 2.2939131873360297e-05 0 -0.004972663651845859 2.2625157477913984e-05 0 -0.0049462303426986778 1.9634566796537614e-05 0 -0.0049711043996453546 3.9767884780883393e-06 0 -0.0049664390125767266 1.5226486202020935e-05 0 -0.0049462303426986778 1.9634566796537614e-05 0 -0.0049664390125767266 1.5226486202020935e-05 0 -0.0049504198494226869 2.2939131873360297e-05 0 -0.0042713852858063395 5.0301205969958176e-05 0 -0.004465389087694129 0.00010269446511407776 0 -0.0049880830386732885 9.5509746478962089e-06 0 -0.0049664390125767266 1.5226486202020935e-05 0 -0.004972663651845859 2.2625157477913984e-05 0 -0.0036563086244539868 0.00012614905368318262 0 -0.0038552844491112083 0.00016392075181413809 0 -0.00385650009208052 4.8563433927164914e-05 0 -0.0040673841231290541 0.00019638443584338753 0 -0.0038552844491112083 0.00016392075181413809 0 -0.00385650009208052 4.8563433927164914e-05 0 -0.0036074277636757982 -2.6485679550104374e-05 0 -0.0035949997822570475 1.0150605877586577e-05 0 -0.0035192159970494179 -4.895407004524618e-05 0 -0.0042713852858063395 5.0301205969958176e-05 0 -0.0036082902460553507 -1.223206832529618e-05 0 -0.0036074277636757982 -2.6485679550104374e-05 0 -0.0035192159970494179 -4.895407004524618e-05 0 -0.0035886665796121524 -7.0655694099987088e-05 0 -0.0035192159970494179 -4.895407004524618e-05 0 -0.0035886665796121524 -7.0655694099987088e-05 0 -0.003535621851421309 -0.00010334274777269819 0 -0.0035886665796121524 -7.0655694099987088e-05 0 -0.0035726889623861613 -0.00010952983257665785 0 -0.003535621851421309 -0.00010334274777269819 0 -0.0036193908083457134 -0.00011703550890086757 0 -0.0035492325368194251 -0.00014647661763495963 0 -0.0035726889623861613 -0.00010952983257665785 0 -0.0035492325368194251 -0.00014647661763495963 0 -0.0035726889623861613 -0.00010952983257665785 0 -0.003535621851421309 -0.00010334274777269819 0 -0.003535621851421309 -0.00010334274777269819 0 -0.0034577833029010565 -0.00012113832617786268 0 -0.0034864044333641603 -0.00015683425341726984 0 -0.0035492325368194251 -0.00014647661763495963 0 -0.003535621851421309 -0.00010334274777269819 0 -0.0034864044333641603 -0.00015683425341726984 0 -0.0035192159970494179 -4.895407004524618e-05 0 -0.003535621851421309 -0.00010334274777269819 0 -0.0034577833029010565 -0.00012113832617786268 0 -0.0036082902460553507 -1.223206832529618e-05 0 -0.0035753246053664991 -9.3047877813031497e-05 0 -0.0036563086244539868 0.00012614905368318262 0 -0.0036564730208435239 -8.1538489576611514e-05 0 -0.0035160495361889893 -2.6589442103314765e-05 0 -0.0034577833029010565 -0.00012113832617786268 0 -0.0034572726538649881 -0.00017079008541168874 0 -0.0034559084711444752 -0.00017295210439491375 0 -0.0035753246053664991 -9.3047877813031497e-05 0 -0.0034582908303124765 -0.0001705874490115859 0 -0.0036564730208435239 -8.1538489576611514e-05 0 -0.0035160495361889893 -2.6589442103314765e-05 0 -0.0034559084711444752 -0.00017295210439491375 0 -0.0034577833029010565 -0.00012113832617786268 0 -0.0034864044333641603 -0.00015683425341726984 0 -0.0034572726538649881 -0.00017079008541168874 0 -0.0034864044333641603 -0.00015683425341726984 0 -0.0034535066351180531 -0.00020623303968561257 0 -0.0034841650178140415 -0.00020606957268671966 0 -0.0034864044333641603 -0.00015683425341726984 0 -0.0034572726538649881 -0.00017079008541168874 0 -0.0034535066351180531 -0.00020623303968561257 0 -0.0034572726538649881 -0.00017079008541168874 0 -0.0034500320758627753 -0.00019573049712807395 0 -0.0034559084711444752 -0.00017295210439491375 0 -0.0034572726538649881 -0.00017079008541168874 0 -0.0034500320758627753 -0.00019573049712807395 0 -0.0034535066351180531 -0.00020623303968561257 0 -0.0034437062508662357 -0.00023332013752979297 0 -0.0034413628653580286 -0.00021904063323254189 0 -0.0034535066351180531 -0.00020623303968561257 0 -0.0034500320758627753 -0.00019573049712807395 0 -0.0034413628653580286 -0.00021904063323254189 0 -0.0034535066351180531 -0.00020623303968561257 0 -0.0034413934476711277 -0.00025816405835369564 0 -0.0034535066351180531 -0.00020623303968561257 0 -0.0034841650178140415 -0.00020606957268671966 0 -0.0034413934476711277 -0.00025816405835369564 0 -0.0034437062508662357 -0.00023332013752979297 0 -0.0034535066351180531 -0.00020623303968561257 0 -0.0034669923277994823 -0.0002832152643546879 0 -0.0034841650178140415 -0.00020606957268671966 0 -0.003519290942250378 -0.00023552300662503723 0 -0.0035492325368194251 -0.00014647661763495963 0 -0.0034841650178140415 -0.00020606957268671966 0 -0.003519290942250378 -0.00023552300662503723 0 -0.0036087407490426053 -0.00016979708296733961 0 -0.0035492325368194251 -0.00014647661763495963 0 -0.003519290942250378 -0.00023552300662503723 0 -0.0035492325368194251 -0.00014647661763495963 0 -0.0034864044333641603 -0.00015683425341726984 0 -0.0034841650178140415 -0.00020606957268671966 0 -0.0048231686285876924 -2.5223548627253094e-06 0 -0.0048782969778558135 -1.776192240698955e-05 0 -0.0048409275132495098 3.1057057839616164e-05 0 -0.0048782969778558135 -1.776192240698955e-05 0 -0.0048588945772914558 5.2270206261348109e-05 0 -0.0048409275132495098 3.1057057839616164e-05 0 -0.0047463824434999012 3.762047434498405e-05 0 -0.004774079556613315 -3.9033461427373148e-05 0 -0.0047162821733360283 -1.7820223682092168e-05 0 -0.0048231686285876924 -2.5223548627253094e-06 0 -0.0047463824434999012 3.762047434498405e-05 0 -0.004774079556613315 -3.9033461427373148e-05 0 -0.0048231686285876924 -2.5223548627253094e-06 0 -0.0047463824434999012 3.762047434498405e-05 0 -0.0048409275132495098 3.1057057839616164e-05 0 -0.004774079556613315 -3.9033461427373148e-05 0 -0.0047162821733360283 -1.7820223682092168e-05 0 -0.0046994668575552206 -7.5941389302578249e-05 0 -0.0048231686285876924 -2.5223548627253094e-06 0 -0.004841249985989074 -7.657223548400824e-05 0 -0.0048782969778558135 -1.776192240698955e-05 0 -0.0048231686285876924 -2.5223548627253094e-06 0 -0.004774079556613315 -3.9033461427373148e-05 0 -0.004841249985989074 -7.657223548400824e-05 0 -0.0034490981598815358 -0.00020838987506047592 0 -0.0034399322882925749 -0.00021511227494249688 0 -0.0034722626709261552 -0.00022065452030294928 0 -0.0048991266471933755 -0.00011717822833675832 0 -0.004841249985989074 -7.657223548400824e-05 0 -0.0048782969778558135 -1.776192240698955e-05 0 -0.0038562049655863047 -0.00010468030289126348 0 -0.0042187044621988566 -0.00014355560545738818 0 -0.0034500320758627753 -0.00019573049712807395 0 -0.0034413628653580286 -0.00021904063323254189 0 -0.0034399322882925749 -0.00021511227494249688 0 -0.0034387066521436023 -0.00021516305609787132 0 -0.0034413628653580286 -0.00021904063323254189 0 -0.0034399322882925749 -0.00021511227494249688 0 -0.0034388849355827186 -0.00021080116943539458 0 -0.0034453385218522867 -0.00021556529981853659 0 -0.0034500320758627753 -0.00019573049712807395 0 -0.0034195089718591521 -0.00018102549639007777 0 -0.0034559084711444752 -0.00017295210439491375 0 -0.0034500320758627753 -0.00019573049712807395 0 -0.0034399322882925749 -0.00021511227494249688 0 -0.0034195089718591521 -0.00018102549639007777 0 -0.0042187044621988566 -0.00014355560545738818 0 -0.0041358391926068277 -9.2439519858127941e-05 0 -0.0034628371629912905 -0.00023930548405822494 0 -0.0034722626709261552 -0.00022065452030294928 0 -0.0035054927840813079 -0.00025684587137796123 0 -0.0034399322882925749 -0.00021511227494249688 0 -0.0034628371629912905 -0.00023930548405822494 0 -0.0034722626709261552 -0.00022065452030294928 0 -0.0034195089718591521 -0.00018102549639007777 0 -0.0034260600328974355 -0.00012061232430201256 0 -0.0033718734737584323 -7.7952878519381498e-05 0 -0.0034453385218522867 -0.00021556529981853659 0 -0.00337949597587512 -0.00014430736394118013 0 -0.0034628371629912905 -0.00023930548405822494 0 -0.0034902991115544602 -0.00027067343547864254 0 -0.0035054927840813079 -0.00025684587137796123 0 -0.0035160495361889893 -2.6589442103314765e-05 0 -0.0034559084711444752 -0.00017295210439491375 0 -0.0034567307704813856 -8.9064294301542568e-05 0 -0.0034195089718591521 -0.00018102549639007777 0 -0.0034559084711444752 -0.00017295210439491375 0 -0.0034260600328974355 -0.00012061232430201256 0 -0.0034260600328974355 -0.00012061232430201256 0 -0.0034567307704813856 -8.9064294301542568e-05 0 -0.0034208941916378703 -6.7425938905350805e-05 0 -0.0034559084711444752 -0.00017295210439491375 0 -0.0034260600328974355 -0.00012061232430201256 0 -0.0034567307704813856 -8.9064294301542568e-05 0 -0.0035160495361889893 -2.6589442103314765e-05 0 -0.0034567307704813856 -8.9064294301542568e-05 0 -0.0034493944692373497 -3.3198935501816308e-05 0 -0.0034567307704813856 -8.9064294301542568e-05 0 -0.0034208941916378703 -6.7425938905350805e-05 0 -0.0034493944692373497 -3.3198935501816308e-05 0 -0.0034493944692373497 -3.3198935501816308e-05 0 -0.0034100070723119946 -3.5870392042702675e-06 0 -0.0034755682189823015 2.0596968392375719e-05 0 -0.0034208941916378703 -6.7425938905350805e-05 0 -0.0034493944692373497 -3.3198935501816308e-05 0 -0.0034100070723119946 -3.5870392042702675e-06 0 -0.0035160495361889893 -2.6589442103314765e-05 0 -0.0034493944692373497 -3.3198935501816308e-05 0 -0.0034755682189823015 2.0596968392375719e-05 0 -0.00337949597587512 -0.00014430736394118013 0 -0.0042379140197810394 -7.0154049588199926e-05 0 -0.0033718734737584323 -7.7952878519381498e-05 0 -0.0034100070723119946 -3.5870392042702675e-06 0 -0.0033347835892671104 3.851437478879576e-05 0 -0.0034902991115544602 -0.00027067343547864254 0 -0.0035365512867412091 -0.00030617365194465622 0 -0.0035200882757667439 -0.00030901250962051745 0 -0.0034902991115544602 -0.00027067343547864254 0 -0.0035054927840813079 -0.00025684587137796123 0 -0.0035365512867412091 -0.00030617365194465622 0 -0.0034260600328974355 -0.00012061232430201256 0 -0.0034208941916378703 -6.7425938905350805e-05 0 -0.0033718734737584323 -7.7952878519381498e-05 0 -0.0034208941916378703 -6.7425938905350805e-05 0 -0.0033718734737584323 -7.7952878519381498e-05 0 -0.0034100070723119946 -3.5870392042702675e-06 0 -0.0041358391926068277 -9.2439519858127941e-05 0 -0.004578485014539513 -0.00012711587239716023 0 -0.0048588945772914558 5.2270206261348109e-05 0 -0.004861934007746857 5.1973994016554044e-05 0 -0.0048777701546155626 3.0663310834548023e-05 0 -0.0048827881843048196 3.8791864819105748e-05 0 -0.004861934007746857 5.1973994016554044e-05 0 -0.0048777701546155626 3.0663310834548023e-05 0 -0.0048827881843048196 3.8791864819105748e-05 0 -0.0048870666338813344 3.1030607574074567e-05 0 -0.0048777701546155626 3.0663310834548023e-05 0 -0.0048588945772914558 5.2270206261348109e-05 0 -0.004861934007746857 5.1973994016554044e-05 0 -0.0048409275132495098 3.1057057839616164e-05 0 -0.0047463824434999012 3.762047434498405e-05 0 -0.004861934007746857 5.1973994016554044e-05 0 -0.0048409275132495098 3.1057057839616164e-05 0 -0.0049000138278548601 1.9186300901652938e-05 0 -0.004861934007746857 5.1973994016554044e-05 0 -0.0048904457165611587 3.6015074272248562e-05 0 -0.0049000138278548601 1.9186300901652938e-05 0 -0.0048904457165611587 3.6015074272248562e-05 0 -0.0048883163637145361 3.2213486611254192e-05 0 -0.0048203154725817059 2.492440923663473e-05 0 -0.0048545486922127144 4.7790271711181842e-05 0 -0.0048904457165611587 3.6015074272248562e-05 0 -0.0048952850534807217 3.578197090657902e-05 0 -0.0048883163637145361 3.2213486611254192e-05 0 -0.0048827881843048196 3.8791864819105748e-05 0 -0.004861934007746857 5.1973994016554044e-05 0 -0.0048904457165611587 3.6015074272248562e-05 0 -0.0048827881843048196 3.8791864819105748e-05 0 -0.0048904457165611587 3.6015074272248562e-05 0 -0.0048952850534807217 3.578197090657902e-05 0 -0.0048827881843048196 3.8791864819105748e-05 0 -0.0048952850534807217 3.578197090657902e-05 0 -0.0048966029855781355 3.3481049379956585e-05 0 -0.0048827881843048196 3.8791864819105748e-05 0 -0.0048966029855781355 3.3481049379956585e-05 0 -0.0048870666338813344 3.1030607574074567e-05 0 -0.0048952850534807217 3.578197090657902e-05 0 -0.0048966029855781355 3.3481049379956585e-05 0 -0.0049024054061558792 3.5429457190134406e-05 0 -0.0048966029855781355 3.3481049379956585e-05 0 -0.0049141714532949391 3.08178311460454e-05 0 -0.0049024054061558792 3.5429457190134406e-05 0 -0.0049026893196036708 2.9206994359526218e-05 0 -0.0048966029855781355 3.3481049379956585e-05 0 -0.0049141714532949391 3.08178311460454e-05 0 -0.0049026893196036708 2.9206994359526218e-05 0 -0.0048966029855781355 3.3481049379956585e-05 0 -0.0048870666338813344 3.1030607574074567e-05 0 -0.0049705050375226526 3.7466537240195338e-06 0 -0.0049876863282244804 -1.5727988301734895e-06 0 -0.004966796660490322 3.27477289878579e-06 0 -0.0049026893196036708 2.9206994359526218e-05 0 -0.0048870666338813344 3.1030607574074567e-05 0 -0.004885399033536398 3.1107580580092789e-05 0 -0.0047670487857083502 -7.3587198557417956e-05 0 -0.004578485014539513 -0.00012711587239716023 0 -0.004578485014539513 -0.00012711587239716023 0 -0.0042379140197810394 -7.0154049588199926e-05 0 -0.0051759007801523036 -2.0290605513315328e-05 0 -0.0042379140197810394 -7.0154049588199926e-05 0 -0.0049705050375226526 3.7466537240195338e-06 0 -0.0049876863282244804 -1.5727988301734895e-06 0 -0.0049907611694123503 -1.9893541690130325e-06 0 -0.004578485014539513 -0.00012711587239716023 0 -0.005008886887342366 3.6647047717232973e-05 0 -0.0049026893196036708 2.9206994359526218e-05 0 -0.004885399033536398 3.1107580580092789e-05 0 -0.0049289798344984183 2.0516737175502131e-05 0 -0.0049026893196036708 2.9206994359526218e-05 0 -0.0049141714532949391 3.08178311460454e-05 0 -0.0049289798344984183 2.0516737175502131e-05 0 -0.0049141714532949391 3.08178311460454e-05 0 -0.0049289798344984183 2.0516737175502131e-05 0 -0.0049397333371182933 2.6504370424298666e-05 0 -0.0042876156269814093 3.6449030940324409e-05 0 -0.0038992453353904918 1.9379057268136619e-05 0 -0.0035160495361889893 -2.6589442103314765e-05 0 -0.0034808478936182836 8.7386093111384346e-05 0 -0.0034755682189823015 2.0596968392375719e-05 0 -0.0034100070723119946 -3.5870392042702675e-06 0 -0.0034820447367899855 6.775311436856956e-05 0 -0.0034755682189823015 2.0596968392375719e-05 0 -0.0034100070723119946 -3.5870392042702675e-06 0 -0.0034820447367899855 6.775311436856956e-05 0 -0.0033347835892671104 3.851437478879576e-05 0 -0.0042876156269814093 3.6449030940324409e-05 0 -0.0042379140197810394 -7.0154049588199926e-05 0 -0.0049831905808956261 -3.2789506184558906e-06 0 -0.0049813773090561847 -3.8175877938998545e-06 0 -0.0049874312659612336 -2.3571669455147495e-06 0 -0.0049876863282244804 -1.5727988301734895e-06 0 -0.0049813773090561847 -3.8175877938998545e-06 0 -0.0049874312659612336 -2.3571669455147495e-06 0 -0.0049876863282244804 -1.5727988301734895e-06 0 -0.0049874312659612336 -2.3571669455147495e-06 0 -0.0049902069153867339 -1.4481280713638081e-06 0 -0.0049831905808956261 -3.2789506184558906e-06 0 -0.0049874312659612336 -2.3571669455147495e-06 0 -0.0049922596004236203 -1.3980132400565864e-06 0 -0.0042876156269814093 3.6449030940324409e-05 0 -0.0050774915848480215 1.2040342123133588e-06 0 -0.0049874312659612336 -2.3571669455147495e-06 0 -0.0049922596004236203 -1.3980132400565864e-06 0 -0.004993587259391548 -9.6036344384602413e-07 0 -0.0049874312659612336 -2.3571669455147495e-06 0 -0.004993587259391548 -9.6036344384602413e-07 0 -0.0049902069153867339 -1.4481280713638081e-06 0 -0.004993587259391548 -9.6036344384602413e-07 0 -0.0049902069153867339 -1.4481280713638081e-06 0 -0.0049929814219403989 -1.2791236807968506e-06 0 -0.004993587259391548 -9.6036344384602413e-07 0 -0.0049999906064507301 -7.5666389901184627e-10 0 -0.004999995471514895 2.9388175697772395e-11 0 -0.004993587259391548 -9.6036344384602413e-07 0 -0.0049999906064507301 -7.5666389901184627e-10 0 -0.0049929814219403989 -1.2791236807968506e-06 0 -0.0049922596004236203 -1.3980132400565864e-06 0 -0.004993587259391548 -9.6036344384602413e-07 0 -0.004999995471514895 2.9388175697772395e-11 0 -0.0050774915848480215 1.2040342123133588e-06 0 -0.0049999551223572124 1.3330555496307832e-09 0 -0.0049289798344984183 2.0516737175502131e-05 0 -0.0049706625726037151 1.0487784452276831e-05 0 -0.0049397333371182933 2.6504370424298666e-05 0 -0.0049876863282244804 -1.5727988301734895e-06 0 -0.0049907611694123503 -1.9893541690130325e-06 0 -0.0049929814219403989 -1.2791236807968506e-06 0 -0.0049907611694123503 -1.9893541690130325e-06 0 -0.0049929814219403989 -1.2791236807968506e-06 0 -0.0049999946950564913 -4.0126223862889475e-10 0 -0.0049876863282244804 -1.5727988301734895e-06 0 -0.0049902069153867339 -1.4481280713638081e-06 0 -0.0049929814219403989 -1.2791236807968506e-06 0 -0.0049999906064507301 -7.5666389901184627e-10 0 -0.0049929814219403989 -1.2791236807968506e-06 0 -0.0049999946950564913 -4.0126223862889475e-10 0 -0.005008886887342366 3.6647047717232973e-05 0 -0.004999955464592162 -2.1976905336153097e-08 0 -0.0049289798344984183 2.0516737175502131e-05 0 -0.0049998995426974941 7.8180607601935763e-09 0 -0.0049706625726037151 1.0487784452276831e-05 0 -0.0049998995426974941 7.8180607601935763e-09 0 -0.0049999565073095041 1.2352145959815494e-08 0 -0.0049706625726037151 1.0487784452276831e-05 0 -0.0049999565073095041 1.2352145959815494e-08 0 -0.0049706625726037151 1.0487784452276831e-05 0 -0.0049653428279971554 1.6293663532643907e-05 0 -0.0049706625726037151 1.0487784452276831e-05 0 -0.0049653428279971554 1.6293663532643907e-05 0 -0.0049397333371182933 2.6504370424298666e-05 0 -0.0049653428279971554 1.6293663532643907e-05 0 -0.0049146050116152303 3.4222097668410237e-05 0 -0.0049397333371182933 2.6504370424298666e-05 0 -0.0049999565073095041 1.2352145959815494e-08 0 -0.0049653428279971554 1.6293663532643907e-05 0 -0.0049999318861358782 1.7287876814871268e-08 0 -0.0049653428279971554 1.6293663532643907e-05 0 -0.0049999318861358782 1.7287876814871268e-08 0 -0.0049607610132957778 1.5838415457237321e-05 0 -0.0049999318861358782 1.7287876814871268e-08 0 -0.0049607610132957778 1.5838415457237321e-05 0 -0.0049999406993681888 5.9956758371632774e-09 0 -0.0049607610132957778 1.5838415457237321e-05 0 -0.0049999406993681888 5.9956758371632774e-09 0 -0.0049363480316425368 2.8655948452291212e-05 0 -0.0049607610132957778 1.5838415457237321e-05 0 -0.0049146050116152303 3.4222097668410237e-05 0 -0.0049363480316425368 2.8655948452291212e-05 0 -0.0049653428279971554 1.6293663532643907e-05 0 -0.0049607610132957778 1.5838415457237321e-05 0 -0.0049146050116152303 3.4222097668410237e-05 0 -0.0049146050116152303 3.4222097668410237e-05 0 -0.0048480684828616167 4.8822424029846596e-05 0 -0.0049009546387936238 3.8414682434426787e-05 0 -0.0049011400701081589 4.1735524671435976e-05 0 -0.0048321897203598384 8.3110442681808062e-05 0 -0.0049146050116152303 3.4222097668410237e-05 0 -0.0049363480316425368 2.8655948452291212e-05 0 -0.0048706906201879778 7.258687594750561e-05 0 -0.0049146050116152303 3.4222097668410237e-05 0 -0.0048099200319746335 0.00011658329247114408 0 -0.0048706906201879778 7.258687594750561e-05 0 -0.0048099200319746335 0.00011658329247114408 0 -0.0048706906201879778 7.258687594750561e-05 0 -0.0047534084026204411 0.0001702616360874652 0 -0.0048480684828616167 4.8822424029846596e-05 0 -0.0049009546387936238 3.8414682434426787e-05 0 -0.0048607448809635289 4.1128234036026361e-05 0 -0.0049009546387936238 3.8414682434426787e-05 0 -0.0048910341656667276 3.8165822474702769e-05 0 -0.0048607448809635289 4.1128234036026361e-05 0 -0.0049009546387936238 3.8414682434426787e-05 0 -0.0049100306189837767 3.523509855333636e-05 0 -0.0048910341656667276 3.8165822474702769e-05 0 -0.0049024054061558792 3.5429457190134406e-05 0 -0.0049100306189837767 3.523509855333636e-05 0 -0.0048910341656667276 3.8165822474702769e-05 0 -0.0049141714532949391 3.08178311460454e-05 0 -0.0049024054061558792 3.5429457190134406e-05 0 -0.0049100306189837767 3.523509855333636e-05 0 -0.0049141714532949391 3.08178311460454e-05 0 -0.0049100306189837767 3.523509855333636e-05 0 -0.0049397333371182933 2.6504370424298666e-05 0 -0.0049146050116152303 3.4222097668410237e-05 0 -0.0049009546387936238 3.8414682434426787e-05 0 -0.0049397333371182933 2.6504370424298666e-05 0 -0.0049009546387936238 3.8414682434426787e-05 0 -0.0049100306189837767 3.523509855333636e-05 0 -0.0049397333371182933 2.6504370424298666e-05 0 -0.0049829692589154354 9.4738413705305897e-06 0 -0.0049605081539722045 2.7340046007472696e-05 0 -0.0049831590197109751 1.1997641627345473e-05 0 -0.0049999756832114928 8.1316818060169506e-09 0 -0.0049829692589154354 9.4738413705305897e-06 0 -0.0049831590197109751 1.1997641627345473e-05 0 -0.0049999756832114928 8.1316818060169506e-09 0 -0.0049829692589154354 9.4738413705305897e-06 0 -0.0049999861111504436 1.2328777525581198e-09 0 -0.0049726938901574818 1.6754970292420476e-05 0 -0.0049999859407774535 1.7685717106935345e-09 0 -0.0049664772728988012 1.777584432826583e-05 0 -0.0049363480316425368 2.8655948452291212e-05 0 -0.0049360116352688502 4.4469748007815834e-05 0 -0.0049619724128071039 2.5931645973615435e-05 0 -0.0049664772728988012 1.777584432826583e-05 0 -0.0049360116352688502 4.4469748007815834e-05 0 -0.0049619724128071039 2.5931645973615435e-05 0 -0.0049664772728988012 1.777584432826583e-05 0 -0.004999941786169658 2.1441757714554727e-08 0 -0.0049664772728988012 1.777584432826583e-05 0 -0.004999941786169658 2.1441757714554727e-08 0 -0.0049999406993681888 5.9956758371632774e-09 0 -0.0049664772728988012 1.777584432826583e-05 0 -0.0049999406993681888 5.9956758371632774e-09 0 -0.0049363480316425368 2.8655948452291212e-05 0 -0.0049363480316425368 2.8655948452291212e-05 0 -0.0048706906201879778 7.258687594750561e-05 0 -0.0049360116352688502 4.4469748007815834e-05 0 -0.0048706906201879778 7.258687594750561e-05 0 -0.0049178080465214994 7.8855048477203971e-05 0 -0.0049360116352688502 4.4469748007815834e-05 0 -0.0048706906201879778 7.258687594750561e-05 0 -0.0049178080465214994 7.8855048477203971e-05 0 -0.0048707943757295112 0.00011681996652983155 0 -0.0049619724128071039 2.5931645973615435e-05 0 -0.0049360116352688502 4.4469748007815834e-05 0 -0.0049509249696795933 5.9882303079892997e-05 0 -0.0049726938901574818 1.6754970292420476e-05 0 -0.0049556906653118321 4.5046046231780213e-05 0 -0.0049178080465214994 7.8855048477203971e-05 0 -0.0049360116352688502 4.4469748007815834e-05 0 -0.0049509249696795933 5.9882303079892997e-05 0 -0.0049178080465214994 7.8855048477203971e-05 0 -0.004935356410432053 8.1537291159247769e-05 0 -0.0049509249696795933 5.9882303079892997e-05 0 -0.0049605081539722045 2.7340046007472696e-05 0 -0.0049412795295500685 7.5042150083384852e-05 0 -0.0049680278640576924 3.0677244151353029e-05 0 -0.004935356410432053 8.1537291159247769e-05 0 -0.0049509249696795933 5.9882303079892997e-05 0 -0.0049412795295500685 7.5042150083384852e-05 0 -0.0049556906653118321 4.5046046231780213e-05 0 -0.0049460403237548819 7.2511966060900029e-05 0 -0.0049605081539722045 2.7340046007472696e-05 0 -0.0049680278640576924 3.0677244151353029e-05 0 -0.0049831590197109751 1.1997641627345473e-05 0 -0.0049288811421492338 9.9166791319928318e-05 0 -0.0049272927108249829 0.00010717144792489072 0 -0.0049263910451137986 0.00010514046002273655 0 -0.0049288811421492338 9.9166791319928318e-05 0 -0.0049263910451137986 0.00010514046002273655 0 -0.0049226665012137311 9.7620324475423896e-05 0 -0.0049288811421492338 9.9166791319928318e-05 0 -0.0049412795295500685 7.5042150083384852e-05 0 -0.0049272927108249829 0.00010717144792489072 0 -0.004935356410432053 8.1537291159247769e-05 0 -0.0049412795295500685 7.5042150083384852e-05 0 -0.0049272927108249829 0.00010717144792489072 0 -0.004935356410432053 8.1537291159247769e-05 0 -0.0049272927108249829 0.00010717144792489072 0 -0.0049147211943831948 0.0001106537342785715 0 -0.0049272927108249829 0.00010717144792489072 0 -0.0049147211943831948 0.0001106537342785715 0 -0.0049097572071058289 0.00014441140567354624 0 -0.0049178080465214994 7.8855048477203971e-05 0 -0.004935356410432053 8.1537291159247769e-05 0 -0.0049147211943831948 0.0001106537342785715 0 -0.0047355214773211682 0.00017420943760728126 0 -0.0047967743144687299 0.00012599411391647742 0 -0.004567040213714956 0.00022878259746167512 0 -0.0043307934721744214 0.00019352828453274277 0 -0.0049272927108249829 0.00010717144792489072 0 -0.0049097572071058289 0.00014441140567354624 0 -0.0049263910451137986 0.00010514046002273655 0 -0.0045580176465622986 0.00022424475691997127 0 -0.0045903933433712914 0.00017140494764183737 0 -0.0046538728638843094 0.00013225139015226095 0 -0.0045952155993320715 0.00021808186650444062 0 -0.0045580176465622986 0.00022424475691997127 0 -0.0047534084026204411 0.0001702616360874652 0 -0.0045952155993320715 0.00021808186650444062 0 -0.0044069574409640539 0.00015361767354189355 0 -0.0041182455511190319 0.00026017906564490778 0 -0.0047355214773211682 0.00017420943760728126 0 -0.0047388345387485726 0.0001706805053526737 0 -0.0045952155993320715 0.00021808186650444062 0 -0.0045580176465622986 0.00022424475691997127 0 -0.0045903933433712914 0.00017140494764183737 0 -0.004553891576429935 0.00014895018444928678 0 -0.0045952155993320715 0.00021808186650444062 0 -0.0044069574409640539 0.00015361767354189355 0 -0.0049147211943831948 0.0001106537342785715 0 -0.0049097572071058289 0.00014441140567354624 0 -0.0048707943757295112 0.00011681996652983155 0 -0.0049097572071058289 0.00014441140567354624 0 -0.0048707943757295112 0.00011681996652983155 0 -0.0047534084026204411 0.0001702616360874652 0 -0.0049178080465214994 7.8855048477203971e-05 0 -0.0049147211943831948 0.0001106537342785715 0 -0.0048707943757295112 0.00011681996652983155 0 -0.0048706906201879778 7.258687594750561e-05 0 -0.0048707943757295112 0.00011681996652983155 0 -0.0047534084026204411 0.0001702616360874652 0 -0.0045952155993320715 0.00021808186650444062 0 -0.0047534084026204411 0.0001702616360874652 0 -0.0046623376994401637 0.00017053008194266441 0 -0.0047534084026204411 0.0001702616360874652 0 -0.0046623376994401637 0.00017053008194266441 0 -0.0047451067338236076 0.00016595969096187759 0 -0.004553891576429935 0.00014895018444928678 0 -0.0045952155993320715 0.00021808186650444062 0 -0.0046623376994401637 0.00017053008194266441 0 -0.004553891576429935 0.00014895018444928678 0 -0.0046623376994401637 0.00017053008194266441 0 -0.0046135311138495484 9.9092332822115482e-05 0 -0.0046623376994401637 0.00017053008194266441 0 -0.0046135311138495484 9.9092332822115482e-05 0 -0.0047451067338236076 0.00016595969096187759 0 -0.0046135311138495484 9.9092332822115482e-05 0 -0.0046152132498949389 -7.980299168047597e-05 0 -0.0044767813487597381 3.7133068964439098e-05 0 -0.0046135311138495484 9.9092332822115482e-05 0 -0.0046152132498949389 -7.980299168047597e-05 0 -0.0047451067338236076 0.00016595969096187759 0 -0.004553891576429935 0.00014895018444928678 0 -0.0046135311138495484 9.9092332822115482e-05 0 -0.0044767813487597381 3.7133068964439098e-05 0 -0.0046152132498949389 -7.980299168047597e-05 0 -0.0044984202652102404 -0.00011186912859538955 0 -0.0044767813487597381 3.7133068964439098e-05 0 -0.0046152132498949389 -7.980299168047597e-05 0 -0.0044984202652102404 -0.00011186912859538955 0 -0.0045523520225748335 -0.00015542729275620532 0 -0.0044984202652102404 -0.00011186912859538955 0 -0.0042423691623513842 -9.0856725298220042e-05 0 -0.0044460365353575651 -0.00025674313192494068 0 -0.0044984202652102404 -0.00011186912859538955 0 -0.0044767813487597381 3.7133068964439098e-05 0 -0.0042423691623513842 -9.0856725298220042e-05 0 -0.0044767813487597381 3.7133068964439098e-05 0 -0.0042552842920150317 8.3140295971858994e-05 0 -0.0042423691623513842 -9.0856725298220042e-05 0 -0.0044767813487597381 3.7133068964439098e-05 0 -0.0044069574409640539 0.00015361767354189355 0 -0.0042552842920150317 8.3140295971858994e-05 0 -0.004553891576429935 0.00014895018444928678 0 -0.0044767813487597381 3.7133068964439098e-05 0 -0.0044069574409640539 0.00015361767354189355 0 -0.0044069574409640539 0.00015361767354189355 0 -0.0041182455511190319 0.00026017906564490778 0 -0.0042552842920150317 8.3140295971858994e-05 0 -0.0041182455511190319 0.00026017906564490778 0 -0.0042552842920150317 8.3140295971858994e-05 0 -0.0039400428536683196 5.5423124011090067e-05 0 -0.0042423691623513842 -9.0856725298220042e-05 0 -0.0038948991228819384 -9.8082364026641337e-05 0 -0.0039948819063994161 -0.00031250174537599462 0 -0.0042423691623513842 -9.0856725298220042e-05 0 -0.0039400428536683196 5.5423124011090067e-05 0 -0.0038948991228819384 -9.8082364026641337e-05 0 -0.0042552842920150317 8.3140295971858994e-05 0 -0.0042423691623513842 -9.0856725298220042e-05 0 -0.0039400428536683196 5.5423124011090067e-05 0 -0.0039400428536683196 5.5423124011090067e-05 0 -0.0038948991228819384 -9.8082364026641337e-05 0 -0.0036192092244050462 -5.748217448088188e-05 0 -0.0036192092244050462 -5.748217448088188e-05 0 -0.0039948819063994161 -0.00031250174537599462 0 -0.0032524107854223438 -0.00013107121801318578 0 -0.0039400428536683196 5.5423124011090067e-05 0 -0.0036192092244050462 -5.748217448088188e-05 0 -0.0035839202582277005 0.00011272269683584067 0 -0.0038948991228819384 -9.8082364026641337e-05 0 -0.0036192092244050462 -5.748217448088188e-05 0 -0.0039948819063994161 -0.00031250174537599462 0 -0.0041182455511190319 0.00026017906564490778 0 -0.0039400428536683196 5.5423124011090067e-05 0 -0.0035839202582277005 0.00011272269683584067 0 -0.0043307934721744214 0.00019352828453274277 0 -0.0042653654054513931 0.00015797945998617579 0 -0.0045903933433712914 0.00017140494764183737 0 -0.0046538728638843094 0.00013225139015226095 0 -0.0047701666588136332 0.00017139321056989203 0 -0.0048665385124032822 8.2537141712349052e-06 0 -0.0048337848628919461 2.3109841174312817e-05 0 -0.004870088747255954 3.390768145481746e-05 0 -0.0048665385124032822 8.2537141712349052e-06 0 -0.0048337848628919461 2.3109841174312817e-05 0 -0.004781669666642098 -2.1071481097413987e-05 0 -0.0049000138278548601 1.9186300901652938e-05 0 -0.0048665385124032822 8.2537141712349052e-06 0 -0.0048883163637145361 3.2213486611254192e-05 0 -0.0048665385124032822 8.2537141712349052e-06 0 -0.0048883163637145361 3.2213486611254192e-05 0 -0.004870088747255954 3.390768145481746e-05 0 -0.0048883163637145361 3.2213486611254192e-05 0 -0.0048910341656667276 3.8165822474702769e-05 0 -0.004870088747255954 3.390768145481746e-05 0 -0.0048952850534807217 3.578197090657902e-05 0 -0.0049024054061558792 3.5429457190134406e-05 0 -0.0048910341656667276 3.8165822474702769e-05 0 -0.0048952850534807217 3.578197090657902e-05 0 -0.0048883163637145361 3.2213486611254192e-05 0 -0.0048910341656667276 3.8165822474702769e-05 0 -0.0048910341656667276 3.8165822474702769e-05 0 -0.0048607448809635289 4.1128234036026361e-05 0 -0.004870088747255954 3.390768145481746e-05 0 -0.0048337848628919461 2.3109841174312817e-05 0 -0.0048607448809635289 4.1128234036026361e-05 0 -0.004870088747255954 3.390768145481746e-05 0 -0.0048337848628919461 2.3109841174312817e-05 0 -0.0048607448809635289 4.1128234036026361e-05 0 -0.0048150154811786826 3.28581612909739e-05 0 -0.0048480684828616167 4.8822424029846596e-05 0 -0.0048607448809635289 4.1128234036026361e-05 0 -0.0048150154811786826 3.28581612909739e-05 0 -0.0048480684828616167 4.8822424029846596e-05 0 -0.0047417009795694704 2.3924441371540021e-05 0 -0.0048150154811786826 3.28581612909739e-05 0 -0.0048321897203598384 8.3110442681808062e-05 0 -0.0047397644200760404 8.7533395635575723e-05 0 -0.0048099200319746335 0.00011658329247114408 0 -0.0047534084026204411 0.0001702616360874652 0 -0.0047451067338236076 0.00016595969096187759 0 -0.0047417009795694704 2.3924441371540021e-05 0 -0.0047938042483235089 1.6146177863490088e-05 0 -0.004781669666642098 -2.1071481097413987e-05 0 -0.0048337848628919461 2.3109841174312817e-05 0 -0.0047938042483235089 1.6146177863490088e-05 0 -0.004781669666642098 -2.1071481097413987e-05 0 -0.0048337848628919461 2.3109841174312817e-05 0 -0.0048150154811786826 3.28581612909739e-05 0 -0.0047938042483235089 1.6146177863490088e-05 0 -0.0047417009795694704 2.3924441371540021e-05 0 -0.0048150154811786826 3.28581612909739e-05 0 -0.0047938042483235089 1.6146177863490088e-05 0 -0.0047417009795694704 2.3924441371540021e-05 0 -0.004781669666642098 -2.1071481097413987e-05 0 -0.0047108766854675604 -6.2955198973607985e-05 0 -0.0046152132498949389 -7.980299168047597e-05 0 -0.0047417009795694704 2.3924441371540021e-05 0 -0.0047108766854675604 -6.2955198973607985e-05 0 -0.0046295661387595784 -7.3314246483860499e-05 0 -0.0047397644200760404 8.7533395635575723e-05 0 -0.0046152132498949389 -7.980299168047597e-05 0 -0.0047108766854675604 -6.2955198973607985e-05 0 -0.0046418146299021896 -0.00011330645961610878 0 -0.0046418146299021896 -0.00011330645961610878 0 -0.0047689751692763646 -0.00012613106340317849 0 -0.0046126625651483561 -0.0001410550820788108 0 -0.0046152132498949389 -7.980299168047597e-05 0 -0.0046418146299021896 -0.00011330645961610878 0 -0.0045523520225748335 -0.00015542729275620532 0 -0.004781669666642098 -2.1071481097413987e-05 0 -0.0047689751692763646 -0.00012613106340317849 0 -0.0048642852556348435 -4.6496511957155512e-05 0 -0.004781669666642098 -2.1071481097413987e-05 0 -0.0047108766854675604 -6.2955198973607985e-05 0 -0.0047689751692763646 -0.00012613106340317849 0 -0.0047108766854675604 -6.2955198973607985e-05 0 -0.0046418146299021896 -0.00011330645961610878 0 -0.0047689751692763646 -0.00012613106340317849 0 -0.004646050996718336 -9.2866639444338315e-05 0 -0.0047530183791017486 -2.5496441703550215e-05 0 -0.0045200828970582254 -5.621365018077349e-05 0 -0.0046506133162857611 -3.0839189360576667e-06 0 -0.0046234173844369288 -6.1272945880991092e-05 0 -0.0048665385124032822 8.2537141712349052e-06 0 -0.004781669666642098 -2.1071481097413987e-05 0 -0.0048642852556348435 -4.6496511957155512e-05 0 -0.0048203154725817059 2.492440923663473e-05 0 -0.0047530183791017486 -2.5496441703550215e-05 0 -0.0049000138278548601 1.9186300901652938e-05 0 -0.0048665385124032822 8.2537141712349052e-06 0 -0.0048642852556348435 -4.6496511957155512e-05 0 -0.0047463824434999012 3.762047434498405e-05 0 -0.0046506133162857611 -3.0839189360576667e-06 0 -0.0047162821733360283 -1.7820223682092168e-05 0 -0.0046506133162857611 -3.0839189360576667e-06 0 -0.0046234173844369288 -6.1272945880991092e-05 0 -0.0046994668575552206 -7.5941389302578249e-05 0 -0.0046506133162857611 -3.0839189360576667e-06 0 -0.0047162821733360283 -1.7820223682092168e-05 0 -0.0046994668575552206 -7.5941389302578249e-05 0 -0.0046919722270010646 -7.5057242765797411e-05 0 -0.0045522854241584745 -0.0001477524604706846 0 -0.0046994668575552206 -7.5941389302578249e-05 0 -0.0044875205211302857 -0.00014808410683880282 0 -0.0046399062203687476 -0.00024319413882014883 0 -0.0046234173844369288 -6.1272945880991092e-05 0 -0.0046994668575552206 -7.5941389302578249e-05 0 -0.0046513178763446898 -0.00011906704869111988 0 -0.0045750050305127035 -8.0718002173343206e-05 0 -0.0046513178763446898 -0.00011906704869111988 0 -0.0045034905867107735 -9.8792790054839935e-05 0 -0.0045200828970582254 -5.621365018077349e-05 0 -0.0046234173844369288 -6.1272945880991092e-05 0 -0.0045750050305127035 -8.0718002173343206e-05 0 -0.0046234173844369288 -6.1272945880991092e-05 0 -0.0045750050305127035 -8.0718002173343206e-05 0 -0.0046513178763446898 -0.00011906704869111988 0 -0.0033772575675187575 -0.00022113695291932608 0 -0.0033647996575248847 -0.00023192930464611684 0 -0.0033525001240081245 -0.00022966164178931303 0 -0.0039802856459446173 -0.00023774544685067491 0 -0.0038855197854005025 -0.00027398158849075029 0 -0.0044875205211302857 -0.00014808410683880282 0 -0.0046399062203687476 -0.00024319413882014883 0 -0.004319062202657045 -0.00035603312863142643 0 -0.0033772575675187575 -0.00022113695291932608 0 -0.0033738971038350745 -0.00023067753596695635 0 -0.0033647996575248847 -0.00023192930464611684 0 -0.0033840321048176744 -0.00022951568495987762 0 -0.0033772575675187575 -0.00022113695291932608 0 -0.0033738971038350745 -0.00023067753596695635 0 -0.0033840321048176744 -0.00022951568495987762 0 -0.0033738971038350745 -0.00023067753596695635 0 -0.0033743160724362497 -0.00023853380888497259 0 -0.0033851206450197509 -0.0002388381305061159 0 -0.0033743160724362497 -0.00023853380888497259 0 -0.0033769992833261498 -0.00024407549153906554 0 -0.0033743160724362497 -0.00023853380888497259 0 -0.0033769992833261498 -0.00024407549153906554 0 -0.003369108377272802 -0.00024612844347878714 0 -0.0033743160724362497 -0.00023853380888497259 0 -0.0033628654974551908 -0.00024027922018658908 0 -0.003369108377272802 -0.00024612844347878714 0 -0.0033738971038350745 -0.00023067753596695635 0 -0.0033743160724362497 -0.00023853380888497259 0 -0.0033628654974551908 -0.00024027922018658908 0 -0.0033738971038350745 -0.00023067753596695635 0 -0.0033647996575248847 -0.00023192930464611684 0 -0.0033628654974551908 -0.00024027922018658908 0 -0.0033647996575248847 -0.00023192930464611684 0 -0.0033566409002573558 -0.00023626264820296474 0 -0.0033628654974551908 -0.00024027922018658908 0 -0.0033647996575248847 -0.00023192930464611684 0 -0.0033566409002573558 -0.00023626264820296474 0 -0.0033525001240081245 -0.00022966164178931303 0 -0.0033566409002573558 -0.00023626264820296474 0 -0.0033538005503463918 -0.00024184474764722932 0 -0.0033504649673139352 -0.00023882736182229101 0 -0.0033538005503463918 -0.00024184474764722932 0 -0.0033628654974551908 -0.00024027922018658908 0 -0.0033545498701085604 -0.00024822538802252294 0 -0.0033566409002573558 -0.00023626264820296474 0 -0.0033538005503463918 -0.00024184474764722932 0 -0.0033628654974551908 -0.00024027922018658908 0 -0.0033538005503463918 -0.00024184474764722932 0 -0.0033545498701085604 -0.00024822538802252294 0 -0.0033474278585374521 -0.00024581100383984215 0 -0.0033612544784639231 -0.00024873724898062205 0 -0.0033545498701085604 -0.00024822538802252294 0 -0.0033563732088634328 -0.00025447525241155248 0 -0.0033628654974551908 -0.00024027922018658908 0 -0.0033612544784639231 -0.00024873724898062205 0 -0.0033545498701085604 -0.00024822538802252294 0 -0.0033545498701085604 -0.00024822538802252294 0 -0.0033563732088634328 -0.00025447525241155248 0 -0.0033476954318364619 -0.0002551609158894379 0 -0.0033563732088634328 -0.00025447525241155248 0 -0.0033476954318364619 -0.0002551609158894379 0 -0.0033503447922382337 -0.00026161804308708726 0 -0.0033612544784639231 -0.00024873724898062205 0 -0.0033563732088634328 -0.00025447525241155248 0 -0.0033650228795031266 -0.00025287616482701794 0 -0.0033563732088634328 -0.00025447525241155248 0 -0.0033650228795031266 -0.00025287616482701794 0 -0.0033613841964898962 -0.000260300384012695 0 -0.0033650228795031266 -0.00025287616482701794 0 -0.0033738069873832546 -0.00024978201522354095 0 -0.0033697858037766183 -0.00025734085118382866 0 -0.0033650228795031266 -0.00025287616482701794 0 -0.0033738069873832546 -0.00024978201522354095 0 -0.003369108377272802 -0.00024612844347878714 0 -0.0033738069873832546 -0.00024978201522354095 0 -0.0033769992833261498 -0.00024407549153906554 0 -0.003369108377272802 -0.00024612844347878714 0 -0.0033628654974551908 -0.00024027922018658908 0 -0.0033612544784639231 -0.00024873724898062205 0 -0.003369108377272802 -0.00024612844347878714 0 -0.0033612544784639231 -0.00024873724898062205 0 -0.0033650228795031266 -0.00025287616482701794 0 -0.003369108377272802 -0.00024612844347878714 0 -0.0028874098923794209 -0.00057981703323855464 0 -0.0029331705538647211 -0.00051495197921358525 0 -0.0028573108625471319 -0.00049691985065669977 0 -0.0028350732277378299 -0.00054307681888790895 0 -0.0028874098923794209 -0.00057981703323855464 0 -0.0028573108625471319 -0.00049691985065669977 0 -0.0033376753893973833 -0.00025149893849058777 0 -0.0033476954318364619 -0.0002551609158894379 0 -0.0033474278585374521 -0.00024581100383984215 0 -0.0033376753893973833 -0.00025149893849058777 0 -0.0033476954318364619 -0.0002551609158894379 0 -0.0033418970551124631 -0.00026518957429967909 0 -0.0033545498701085604 -0.00024822538802252294 0 -0.0033476954318364619 -0.0002551609158894379 0 -0.0033474278585374521 -0.00024581100383984215 0 -0.0033422027985604494 -0.000240098510051083 0 -0.003331233753396886 -0.00023840109074240693 0 -0.0033525001240081245 -0.00022966164178931303 0 -0.0033376753893973833 -0.00025149893849058777 0 -0.0033474278585374521 -0.00024581100383984215 0 -0.0033422027985604494 -0.000240098510051083 0 -0.0033538005503463918 -0.00024184474764722932 0 -0.0033474278585374521 -0.00024581100383984215 0 -0.0033504649673139352 -0.00023882736182229101 0 -0.0033474278585374521 -0.00024581100383984215 0 -0.0033504649673139352 -0.00023882736182229101 0 -0.0033422027985604494 -0.000240098510051083 0 -0.0033566409002573558 -0.00023626264820296474 0 -0.0033504649673139352 -0.00023882736182229101 0 -0.0033525001240081245 -0.00022966164178931303 0 -0.0033504649673139352 -0.00023882736182229101 0 -0.0033422027985604494 -0.000240098510051083 0 -0.0033525001240081245 -0.00022966164178931303 0 -0.0028350732277378299 -0.00054307681888790895 0 -0.0028874098923794209 -0.00057981703323855464 0 -0.0028932763552469648 -0.00065076714934841418 0 -0.0030508601184033772 -0.0003775646763810525 0 -0.0034033588105675714 -0.00045619309361645126 0 -0.0033376753893973833 -0.00025149893849058777 0 -0.0033422027985604494 -0.000240098510051083 0 -0.003331233753396886 -0.00023840109074240693 0 -0.0028874098923794209 -0.00057981703323855464 0 -0.0028932763552469648 -0.00065076714934841418 0 -0.002917102851553006 -0.00060600194080700023 0 -0.0034033588105675714 -0.00045619309361645126 0 -0.0038855197854005025 -0.00027398158849075029 0 -0.0040203498802706163 -0.00035683079280146742 0 -0.0045034905867107735 -9.8792790054839935e-05 0 -0.0036542320148950629 -0.00023245741221421861 0 -0.0044616528724807656 -0.00011125696161267875 0 -0.0040388222893983456 -0.0002741856849058068 0 -0.0037580593591931 -0.00044529364689520356 0 -0.0040203498802706163 -0.00035683079280146742 0 -0.0036542320148950629 -0.00023245741221421861 0 -0.0034033588105675714 -0.00045619309361645126 0 -0.0043629511250578611 -0.00029610350627759958 0 -0.0037465683441695219 -0.00063015968532571505 0 -0.0040203498802706163 -0.00035683079280146742 0 -0.0043967897687230695 -0.00033962140826005908 0 -0.0037465683441695219 -0.00063015968532571505 0 -0.0037580593591931 -0.00044529364689520356 0 -0.0036487058475022263 -0.00045008376378845614 0 -0.0037465683441695219 -0.00063015968532571505 0 -0.0037580593591931 -0.00044529364689520356 0 -0.0040203498802706163 -0.00035683079280146742 0 -0.0037580593591931 -0.00044529364689520356 0 -0.0036487058475022263 -0.00045008376378845614 0 -0.0036542320148950629 -0.00023245741221421861 0 -0.0045238856461988696 -0.00018318332432604097 0 -0.004506907786182613 -0.00019977633875366664 0 -0.0044438415537896925 -0.00030289124554032707 0 -0.0045522854241584745 -0.0001477524604706846 0 -0.0043629511250578611 -0.00029610350627759958 0 -0.0038998290370171594 -0.00047525360847323227 0 -0.004319062202657045 -0.00035603312863142643 0 -0.0042141398945338363 -0.00028632898223860081 0 -0.0044875205211302857 -0.00014808410683880282 0 -0.004319062202657045 -0.00035603312863142643 0 -0.0042141398945338363 -0.00028632898223860081 0 -0.0040203498802706163 -0.00035683079280146742 0 -0.0043967897687230695 -0.00033962140826005908 0 -0.0045034905867107735 -9.8792790054839935e-05 0 -0.0045200828970582254 -5.621365018077349e-05 0 -0.0045034905867107735 -9.8792790054839935e-05 0 -0.004506907786182613 -0.00019977633875366664 0 -0.0046513178763446898 -0.00011906704869111988 0 -0.0043967897687230695 -0.00033962140826005908 0 -0.0045034905867107735 -9.8792790054839935e-05 0 -0.0045200828970582254 -5.621365018077349e-05 0 -0.0045750050305127035 -8.0718002173343206e-05 0 -0.0045034905867107735 -9.8792790054839935e-05 0 -0.0045034905867107735 -9.8792790054839935e-05 0 -0.004506907786182613 -0.00019977633875366664 0 -0.0044438415537896925 -0.00030289124554032707 0 -0.0047689751692763646 -0.00012613106340317849 0 -0.0045238856461988696 -0.00018318332432604097 0 -0.0046126625651483561 -0.0001410550820788108 0 -0.004646050996718336 -9.2866639444338315e-05 0 -0.0045258763145231296 -0.00018383364185631349 0 -0.0047689751692763646 -0.00012613106340317849 0 -0.0045238856461988696 -0.00018318332432604097 0 -0.004506907786182613 -0.00019977633875366664 0 -0.0046418146299021896 -0.00011330645961610878 0 -0.0046126625651483561 -0.0001410550820788108 0 -0.0045523520225748335 -0.00015542729275620532 0 -0.0045238856461988696 -0.00018318332432604097 0 -0.0046126625651483561 -0.0001410550820788108 0 -0.0045523520225748335 -0.00015542729275620532 0 -0.0045238856461988696 -0.00018318332432604097 0 -0.0039017706981267198 -2.9501132654769762e-06 0 -0.0044438415537896925 -0.00030289124554032707 0 -0.0044984202652102404 -0.00011186912859538955 0 -0.0045523520225748335 -0.00015542729275620532 0 -0.0044460365353575651 -0.00025674313192494068 0 -0.004496269332191191 -0.00017570658056578211 0 -0.004169083927520769 -0.00014276118735229217 0 -0.0045238856461988696 -0.00018318332432604097 0 -0.0045523520225748335 -0.00015542729275620532 0 -0.0044460365353575651 -0.00025674313192494068 0 -0.0039265881609116199 -0.00026613698436014276 0 -0.0044438415537896925 -0.00030289124554032707 0 -0.0037698896931304955 -0.00053250286889531672 0 -0.0039017706981267198 -2.9501132654769762e-06 0 -0.0039265881609116199 -0.00026613698436014276 0 -0.0036212110589436369 -0.00023021942517477786 0 -0.0039265881609116199 -0.00026613698436014276 0 -0.0036212110589436369 -0.00023021942517477786 0 -0.0037698896931304955 -0.00053250286889531672 0 -0.0036542320148950629 -0.00023245741221421861 0 -0.0034449951341549278 -0.00050982251787298034 0 -0.0029746308648552098 -0.00055015865089457611 0 -0.0040388222893983456 -0.0002741856849058068 0 -0.0033926438719882367 -0.00052642812624218024 0 -0.0039017706981267198 -2.9501132654769762e-06 0 -0.0039265881609116199 -0.00026613698436014276 0 -0.0044438415537896925 -0.00030289124554032707 0 -0.0036487058475022263 -0.00045008376378845614 0 -0.0036542320148950629 -0.00023245741221421861 0 -0.0034449951341549278 -0.00050982251787298034 0 -0.0032631910033048654 -0.00017578408179097944 0 -0.0033518412432159794 -6.0154319324904193e-05 0 -0.0032524107854223438 -0.00013107121801318578 0 -0.0036764695139637252 -0.00017403405486292851 0 -0.0032834505995607121 -0.00013730678723432001 0 -0.0032631910033048654 -0.00017578408179097944 0 -0.0033518412432159794 -6.0154319324904193e-05 0 -0.0033572709450295658 -0.00023965105161346208 0 -0.0039017706981267198 -2.9501132654769762e-06 0 -0.0033518412432159794 -6.0154319324904193e-05 0 -0.0036212110589436369 -0.00023021942517477786 0 -0.0042423691623513842 -9.0856725298220042e-05 0 -0.0044460365353575651 -0.00025674313192494068 0 -0.0039948819063994161 -0.00031250174537599462 0 -0.004169083927520769 -0.00014276118735229217 0 -0.0036764695139637252 -0.00017403405486292851 0 -0.0033518412432159794 -6.0154319324904193e-05 0 -0.0036212110589436369 -0.00023021942517477786 0 -0.0033572709450295658 -0.00023965105161346208 0 -0.0034700454839841047 -0.00035981386340002509 0 -0.0033733842030728984 -0.00043731405628491077 0 -0.0037698896931304955 -0.00053250286889531672 0 -0.0036212110589436369 -0.00023021942517477786 0 -0.0034700454839841047 -0.00035981386340002509 0 -0.0037698896931304955 -0.00053250286889531672 0 -0.0034700454839841047 -0.00035981386340002509 0 -0.0033572709450295658 -0.00023965105161346208 0 -0.0033223138829266102 -0.00035219631509237785 0 -0.0034700454839841047 -0.00035981386340002509 0 -0.0033223138829266102 -0.00035219631509237785 0 -0.0033733842030728984 -0.00043731405628491077 0 -0.0036212110589436369 -0.00023021942517477786 0 -0.0034700454839841047 -0.00035981386340002509 0 -0.0033572709450295658 -0.00023965105161346208 0 -0.0033572709450295658 -0.00023965105161346208 0 -0.0033223138829266102 -0.00035219631509237785 0 -0.0032394250924285633 -0.00030678385104423626 0 -0.0033223138829266102 -0.00035219631509237785 0 -0.0032394250924285633 -0.00030678385104423626 0 -0.0032344006563943249 -0.00043098142581280883 0 -0.0033223138829266102 -0.00035219631509237785 0 -0.0032344006563943249 -0.00043098142581280883 0 -0.0033733842030728984 -0.00043731405628491077 0 -0.0032394250924285633 -0.00030678385104423626 0 -0.0032344006563943249 -0.00043098142581280883 0 -0.0031472385463267674 -0.00043584150416712712 0 -0.0032631910033048654 -0.00017578408179097944 0 -0.0033572709450295658 -0.00023965105161346208 0 -0.0032394250924285633 -0.00030678385104423626 0 -0.0032631910033048654 -0.00017578408179097944 0 -0.0032394250924285633 -0.00030678385104423626 0 -0.0031786007185000179 -0.00022063687394557888 0 -0.0031778085584687212 -0.00049526539549776144 0 -0.0031495849033628706 -0.00053177442955967933 0 -0.0031472385463267674 -0.00043584150416712712 0 -0.0031778085584687212 -0.00049526539549776144 0 -0.003186770376253666 -0.00054961370935154052 0 -0.0031495849033628706 -0.00053177442955967933 0 -0.0031778085584687212 -0.00049526539549776144 0 -0.0032344006563943249 -0.00043098142581280883 0 -0.0031472385463267674 -0.00043584150416712712 0 -0.0032344006563943249 -0.00043098142581280883 0 -0.003186770376253666 -0.00054961370935154052 0 -0.0033733842030728984 -0.00043731405628491077 0 -0.0031778085584687212 -0.00049526539549776144 0 -0.0032344006563943249 -0.00043098142581280883 0 -0.003186770376253666 -0.00054961370935154052 0 -0.003186770376253666 -0.00054961370935154052 0 -0.0033733842030728984 -0.00043731405628491077 0 -0.0037698896931304955 -0.00053250286889531672 0 -0.003186770376253666 -0.00054961370935154052 0 -0.0030684524263222051 -0.0005393889505811107 0 -0.0029746308648552098 -0.00055015865089457611 0 -0.0032082698943809731 -0.00055393209304216667 0 -0.0033926438719882367 -0.00052642812624218024 0 -0.003186770376253666 -0.00054961370935154052 0 -0.0030684524263222051 -0.0005393889505811107 0 -0.0031214387381605512 -0.0005169830724634628 0 -0.0030332462069779841 -0.00047878686650655757 0 -0.0031214387381605512 -0.0005169830724634628 0 -0.003010794069647757 -0.00045508544722399648 0 -0.0030684524263222051 -0.0005393889505811107 0 -0.0030350483897549404 -0.00051419292747081858 0 -0.0030339499781900695 -0.00055807375255769289 0 -0.0030350483897549404 -0.00051419292747081858 0 -0.0030332462069779841 -0.00047878686650655757 0 -0.0031214387381605512 -0.0005169830724634628 0 -0.0030684524263222051 -0.0005393889505811107 0 -0.0030350483897549404 -0.00051419292747081858 0 -0.0031214387381605512 -0.0005169830724634628 0 -0.0030350483897549404 -0.00051419292747081858 0 -0.0030332462069779841 -0.00047878686650655757 0 -0.0030086152407987608 -0.00048298297869720733 0 -0.003186770376253666 -0.00054961370935154052 0 -0.0031214387381605512 -0.0005169830724634628 0 -0.0031495849033628706 -0.00053177442955967933 0 -0.0031214387381605512 -0.0005169830724634628 0 -0.0031563279892961281 -0.00059385466699465807 0 -0.0031495849033628706 -0.00053177442955967933 0 -0.0031214387381605512 -0.0005169830724634628 0 -0.002949516977608218 -0.00042455420118244267 0 -0.003010794069647757 -0.00045508544722399648 0 -0.0031022136763252744 -0.0005214783320088794 0 -0.0030467615496250649 -0.00052097264656990447 0 -0.0028365248368379444 -0.00069351717743432629 0 -0.0029538927359658981 -0.00062708421169963024 0 -0.0030913534141786053 -0.00063607182740593618 0 -0.0037465683441695219 -0.00063015968532571505 0 -0.0034449951341549278 -0.00050982251787298034 0 -0.0030913534141786053 -0.00063607182740593618 0 -0.0034033588105675714 -0.00045619309361645126 0 -0.0030701690765278836 -0.00068202072139179578 0 -0.0029538927359658981 -0.00062708421169963024 0 -0.0030913534141786053 -0.00063607182740593618 0 -0.0029941732178716766 -0.00055134190651204707 0 -0.0029538927359658981 -0.00062708421169963024 0 -0.0029941732178716766 -0.00055134190651204707 0 -0.0029362742691002724 -0.00056413889976542953 0 -0.0028874098923794209 -0.00057981703323855464 0 -0.002917102851553006 -0.00060600194080700023 0 -0.0029362742691002724 -0.00056413889976542953 0 -0.0028932763552469648 -0.00065076714934841418 0 -0.002917102851553006 -0.00060600194080700023 0 -0.0029538927359658981 -0.00062708421169963024 0 -0.002917102851553006 -0.00060600194080700023 0 -0.0029538927359658981 -0.00062708421169963024 0 -0.0029362742691002724 -0.00056413889976542953 0 -0.0037465683441695219 -0.00063015968532571505 0 -0.0036487058475022263 -0.00045008376378845614 0 -0.0034449951341549278 -0.00050982251787298034 0 -0.0034033588105675714 -0.00045619309361645126 0 -0.002877983841367848 -0.00070412064500497838 0 -0.0034449951341549278 -0.00050982251787298034 0 -0.0029746308648552098 -0.00055015865089457611 0 -0.0030913534141786053 -0.00063607182740593618 0 -0.0029746308648552098 -0.00055015865089457611 0 -0.0030333088765091228 -0.00058743091258884131 0 -0.0030913534141786053 -0.00063607182740593618 0 -0.0030684524263222051 -0.0005393889505811107 0 -0.0029746308648552098 -0.00055015865089457611 0 -0.0030339499781900695 -0.00055807375255769289 0 -0.0029746308648552098 -0.00055015865089457611 0 -0.0030333088765091228 -0.00058743091258884131 0 -0.0030339499781900695 -0.00055807375255769289 0 -0.0030333088765091228 -0.00058743091258884131 0 -0.0030339499781900695 -0.00055807375255769289 0 -0.0030264053034059156 -0.00055638734293527435 0 -0.0030913534141786053 -0.00063607182740593618 0 -0.0030264053034059156 -0.00055638734293527435 0 -0.0029941732178716766 -0.00055134190651204707 0 -0.0030333088765091228 -0.00058743091258884131 0 -0.0030913534141786053 -0.00063607182740593618 0 -0.0030264053034059156 -0.00055638734293527435 0 -0.0030264053034059156 -0.00055638734293527435 0 -0.0029888892449294467 -0.00051798715325820173 0 -0.0029941732178716766 -0.00055134190651204707 0 -0.0030264053034059156 -0.00055638734293527435 0 -0.003010509445132226 -0.0005085479521999886 0 -0.0029888892449294467 -0.00051798715325820173 0 -0.0030350483897549404 -0.00051419292747081858 0 -0.0030339499781900695 -0.00055807375255769289 0 -0.0030264053034059156 -0.00055638734293527435 0 -0.0030350483897549404 -0.00051419292747081858 0 -0.0030264053034059156 -0.00055638734293527435 0 -0.003010509445132226 -0.0005085479521999886 0 -0.0030350483897549404 -0.00051419292747081858 0 -0.0030086152407987608 -0.00048298297869720733 0 -0.003010509445132226 -0.0005085479521999886 0 -0.0030086152407987608 -0.00048298297869720733 0 -0.003010509445132226 -0.0005085479521999886 0 -0.0029886082711011916 -0.00049019812227629202 0 -0.003010509445132226 -0.0005085479521999886 0 -0.0029886082711011916 -0.00049019812227629202 0 -0.0029888892449294467 -0.00051798715325820173 0 -0.0029886082711011916 -0.00049019812227629202 0 -0.0029888892449294467 -0.00051798715325820173 0 -0.0029663379977784331 -0.0004895569677502682 0 -0.0029888892449294467 -0.00051798715325820173 0 -0.0029331705538647211 -0.00051495197921358525 0 -0.0029663379977784331 -0.0004895569677502682 0 -0.0029888892449294467 -0.00051798715325820173 0 -0.0029941732178716766 -0.00055134190651204707 0 -0.0029331705538647211 -0.00051495197921358525 0 -0.0029941732178716766 -0.00055134190651204707 0 -0.0029362742691002724 -0.00056413889976542953 0 -0.0029331705538647211 -0.00051495197921358525 0 -0.0028874098923794209 -0.00057981703323855464 0 -0.0029362742691002724 -0.00056413889976542953 0 -0.0029331705538647211 -0.00051495197921358525 0 -0.0029331705538647211 -0.00051495197921358525 0 -0.0029012998536211685 -0.00048189269715880094 0 -0.0028573108625471319 -0.00049691985065669977 0 -0.0029331705538647211 -0.00051495197921358525 0 -0.0029012998536211685 -0.00048189269715880094 0 -0.002934931554411976 -0.00048446865953739366 0 -0.0029012998536211685 -0.00048189269715880094 0 -0.0029236697209445344 -0.00046888006717859669 0 -0.002934931554411976 -0.00048446865953739366 0 -0.0029012998536211685 -0.00048189269715880094 0 -0.0029011000270691293 -0.00045927873878793635 0 -0.0029236697209445344 -0.00046888006717859669 0 -0.0029012998536211685 -0.00048189269715880094 0 -0.0029011000270691293 -0.00045927873878793635 0 -0.0028586184563566641 -0.00046837715957591283 0 -0.0029011000270691293 -0.00045927873878793635 0 -0.0029236697209445344 -0.00046888006717859669 0 -0.0029299888436126109 -0.00044950241838834611 0 -0.0029236697209445344 -0.00046888006717859669 0 -0.0029478957079888527 -0.00046962322786849107 0 -0.0029299888436126109 -0.00044950241838834611 0 -0.0029331705538647211 -0.00051495197921358525 0 -0.002934931554411976 -0.00048446865953739366 0 -0.0029663379977784331 -0.0004895569677502682 0 -0.002934931554411976 -0.00048446865953739366 0 -0.0029663379977784331 -0.0004895569677502682 0 -0.0029478957079888527 -0.00046962322786849107 0 -0.0029236697209445344 -0.00046888006717859669 0 -0.002934931554411976 -0.00048446865953739366 0 -0.0029478957079888527 -0.00046962322786849107 0 -0.0029886082711011916 -0.00049019812227629202 0 -0.0029663379977784331 -0.0004895569677502682 0 -0.0029681460600804615 -0.00046990287988586698 0 -0.0029663379977784331 -0.0004895569677502682 0 -0.0029681460600804615 -0.00046990287988586698 0 -0.0029478957079888527 -0.00046962322786849107 0 -0.002985075852838017 -0.00046998332187879287 0 -0.0029674074121668597 -0.00045172599148468162 0 -0.0029918291561164142 -0.00045520934639108019 0 -0.0030086152407987608 -0.00048298297869720733 0 -0.0029886082711011916 -0.00049019812227629202 0 -0.002985075852838017 -0.00046998332187879287 0 -0.0029886082711011916 -0.00049019812227629202 0 -0.0029681460600804615 -0.00046990287988586698 0 -0.002985075852838017 -0.00046998332187879287 0 -0.0029681460600804615 -0.00046990287988586698 0 -0.002985075852838017 -0.00046998332187879287 0 -0.0029674074121668597 -0.00045172599148468162 0 -0.0029681460600804615 -0.00046990287988586698 0 -0.0029674074121668597 -0.00045172599148468162 0 -0.0029527040605347335 -0.00045486948619780771 0 -0.0029674074121668597 -0.00045172599148468162 0 -0.0029527040605347335 -0.00045486948619780771 0 -0.0029479231123693281 -0.00043854808499980334 0 -0.0029478957079888527 -0.00046962322786849107 0 -0.0029527040605347335 -0.00045486948619780771 0 -0.0029299888436126109 -0.00044950241838834611 0 -0.0029681460600804615 -0.00046990287988586698 0 -0.0029478957079888527 -0.00046962322786849107 0 -0.0029527040605347335 -0.00045486948619780771 0 -0.0029527040605347335 -0.00045486948619780771 0 -0.0029429086174527744 -0.00044308703086564472 0 -0.0029299888436126109 -0.00044950241838834611 0 -0.0029429086174527744 -0.00044308703086564472 0 -0.0029307606196961331 -0.00043475765261200927 0 -0.0029479231123693281 -0.00043854808499980334 0 -0.0029429086174527744 -0.00044308703086564472 0 -0.0029307606196961331 -0.00043475765261200927 0 -0.0029299888436126109 -0.00044950241838834611 0 -0.0029307606196961331 -0.00043475765261200927 0 -0.0029479231123693281 -0.00043854808499980334 0 -0.0029293792294254432 -0.00042687412455834584 0 -0.0029527040605347335 -0.00045486948619780771 0 -0.0029429086174527744 -0.00044308703086564472 0 -0.0029479231123693281 -0.00043854808499980334 0 -0.0029674074121668597 -0.00045172599148468162 0 -0.0029479231123693281 -0.00043854808499980334 0 -0.0029564397922313143 -0.0004380190564251587 0 -0.0029479231123693281 -0.00043854808499980334 0 -0.0029330432033822015 -0.00042766411185064687 0 -0.0029564397922313143 -0.0004380190564251587 0 -0.0029330432033822015 -0.00042766411185064687 0 -0.0029293792294254432 -0.00042687412455834584 0 -0.0029207288546504789 -0.00042084967559024688 0 -0.0029479231123693281 -0.00043854808499980334 0 -0.0029330432033822015 -0.00042766411185064687 0 -0.0029293792294254432 -0.00042687412455834584 0 -0.0029307606196961331 -0.00043475765261200927 0 -0.0029293792294254432 -0.00042687412455834584 0 -0.0029211989119451195 -0.00042510385289192844 0 -0.0029293792294254432 -0.00042687412455834584 0 -0.002918156246261704 -0.00041880524559550136 0 -0.0029207288546504789 -0.00042084967559024688 0 -0.0029293792294254432 -0.00042687412455834584 0 -0.0029211989119451195 -0.00042510385289192844 0 -0.002918156246261704 -0.00041880524559550136 0 -0.0029211989119451195 -0.00042510385289192844 0 -0.0029114350517743448 -0.0004134594000707945 0 -0.002918156246261704 -0.00041880524559550136 0 -0.0029211989119451195 -0.00042510385289192844 0 -0.0029114693652144774 -0.00042272006466463879 0 -0.0029114350517743448 -0.0004134594000707945 0 -0.0029307606196961331 -0.00043475765261200927 0 -0.0029211989119451195 -0.00042510385289192844 0 -0.0029192856512912499 -0.00043347494794789384 0 -0.0029211989119451195 -0.00042510385289192844 0 -0.0029114693652144774 -0.00042272006466463879 0 -0.0029192856512912499 -0.00043347494794789384 0 -0.0029114693652144774 -0.00042272006466463879 0 -0.0029075241957921051 -0.00044035652791142398 0 -0.0029192856512912499 -0.00043347494794789384 0 -0.0029114693652144774 -0.00042272006466463879 0 -0.0028965475786466646 -0.00042621019588532592 0 -0.0029047274221907448 -0.00041278559339492774 0 -0.0028965475786466646 -0.00042621019588532592 0 -0.0028950409030859465 -0.0004093124734178918 0 -0.0029047274221907448 -0.00041278559339492774 0 -0.0028965475786466646 -0.00042621019588532592 0 -0.0028765040217549817 -0.00044925530275975257 0 -0.0028729811513226529 -0.00042680479040984909 0 -0.0028965475786466646 -0.00042621019588532592 0 -0.0028950409030859465 -0.0004093124734178918 0 -0.0028729811513226529 -0.00042680479040984909 0 -0.0029114693652144774 -0.00042272006466463879 0 -0.0028965475786466646 -0.00042621019588532592 0 -0.0029075241957921051 -0.00044035652791142398 0 -0.0029011000270691293 -0.00045927873878793635 0 -0.0029075241957921051 -0.00044035652791142398 0 -0.0028765040217549817 -0.00044925530275975257 0 -0.0028965475786466646 -0.00042621019588532592 0 -0.0029075241957921051 -0.00044035652791142398 0 -0.0028765040217549817 -0.00044925530275975257 0 -0.0029011000270691293 -0.00045927873878793635 0 -0.0029075241957921051 -0.00044035652791142398 0 -0.0029299888436126109 -0.00044950241838834611 0 -0.0029307606196961331 -0.00043475765261200927 0 -0.0029299888436126109 -0.00044950241838834611 0 -0.0029192856512912499 -0.00043347494794789384 0 -0.0029075241957921051 -0.00044035652791142398 0 -0.0029299888436126109 -0.00044950241838834611 0 -0.0029192856512912499 -0.00043347494794789384 0 -0.002949516977608218 -0.00042455420118244267 0 -0.0029613021718459202 -0.00043742600651038683 0 -0.002900134120327975 -0.00042724132685079727 0 -0.002949516977608218 -0.00042455420118244267 0 -0.0029613021718459202 -0.00043742600651038683 0 -0.003010794069647757 -0.00045508544722399648 0 -0.0029613021718459202 -0.00043742600651038683 0 -0.0029918291561164142 -0.00045520934639108019 0 -0.0029564397922313143 -0.0004380190564251587 0 -0.0030332462069779841 -0.00047878686650655757 0 -0.003010794069647757 -0.00045508544722399648 0 -0.0029918291561164142 -0.00045520934639108019 0 -0.0029613021718459202 -0.00043742600651038683 0 -0.003010794069647757 -0.00045508544722399648 0 -0.0029918291561164142 -0.00045520934639108019 0 -0.0030086152407987608 -0.00048298297869720733 0 -0.002985075852838017 -0.00046998332187879287 0 -0.0029918291561164142 -0.00045520934639108019 0 -0.0030332462069779841 -0.00047878686650655757 0 -0.0030086152407987608 -0.00048298297869720733 0 -0.0029918291561164142 -0.00045520934639108019 0 -0.0029674074121668597 -0.00045172599148468162 0 -0.0029918291561164142 -0.00045520934639108019 0 -0.0029564397922313143 -0.0004380190564251587 0 -0.0029330432033822015 -0.00042766411185064687 0 -0.0029564397922313143 -0.0004380190564251587 0 -0.002924922461717288 -0.00042874651386703213 0 -0.0029613021718459202 -0.00043742600651038683 0 -0.0029564397922313143 -0.0004380190564251587 0 -0.002924922461717288 -0.00042874651386703213 0 -0.0029613021718459202 -0.00043742600651038683 0 -0.002924922461717288 -0.00042874651386703213 0 -0.002900134120327975 -0.00042724132685079727 0 -0.002924922461717288 -0.00042874651386703213 0 -0.002900134120327975 -0.00042724132685079727 0 -0.0028811974533938535 -0.00043113651195066078 0 -0.0028811974533938535 -0.00043113651195066078 0 -0.0028316773970792717 -0.00044292024567169856 0 -0.0028464869332294374 -0.00043430425260353119 0 -0.002900134120327975 -0.00042724132685079727 0 -0.0028811974533938535 -0.00043113651195066078 0 -0.0028464869332294374 -0.00043430425260353119 0 -0.0028811974533938535 -0.00043113651195066078 0 -0.0029058737451838072 -0.00042344015020353876 0 -0.0028646524197559822 -0.00043627576328943759 0 -0.002924922461717288 -0.00042874651386703213 0 -0.0028811974533938535 -0.00043113651195066078 0 -0.0029058737451838072 -0.00042344015020353876 0 -0.0029330432033822015 -0.00042766411185064687 0 -0.002924922461717288 -0.00042874651386703213 0 -0.0029058737451838072 -0.00042344015020353876 0 -0.0028648165725857393 -0.00044655529689581258 0 -0.0028646524197559822 -0.00043627576328943759 0 -0.002814995613614413 -0.00045714920078256393 0 -0.0029058737451838072 -0.00042344015020353876 0 -0.0028843575848878536 -0.00042986401164507744 0 -0.0028646524197559822 -0.00043627576328943759 0 -0.0028843575848878536 -0.00042986401164507744 0 -0.0028648165725857393 -0.00044655529689581258 0 -0.0028646524197559822 -0.00043627576328943759 0 -0.0028316773970792717 -0.00044292024567169856 0 -0.002814995613614413 -0.00045714920078256393 0 -0.0027698868121511749 -0.00045728061270775721 0 -0.0028811974533938535 -0.00043113651195066078 0 -0.0028646524197559822 -0.00043627576328943759 0 -0.0028316773970792717 -0.00044292024567169856 0 -0.0028646524197559822 -0.00043627576328943759 0 -0.0028316773970792717 -0.00044292024567169856 0 -0.002814995613614413 -0.00045714920078256393 0 -0.0029011608426905253 -0.00039981979945540898 0 -0.0029056836153226631 -0.00040680827902171159 0 -0.0028998654994009786 -0.00040432052218169432 0 -0.0029011608426905253 -0.00039981979945540898 0 -0.0029056836153226631 -0.00040680827902171159 0 -0.0029040291113379829 -0.00040485082578437475 0 -0.0029056836153226631 -0.00040680827902171159 0 -0.0028998654994009786 -0.00040432052218169432 0 -0.0029047625031164374 -0.00041250071569838445 0 -0.0029011608426905253 -0.00039981979945540898 0 -0.0028998654994009786 -0.00040432052218169432 0 -0.0028979264072499333 -0.00039575850159592632 0 -0.0028959580212905341 -0.00039484338734302975 0 -0.0028948056314643221 -0.00038520208313209552 0 -0.0028960918210678768 -0.00039027689642994709 0 -0.0028998654994009786 -0.00040432052218169432 0 -0.0028959580212905341 -0.00039484338734302975 0 -0.0028979264072499333 -0.00039575850159592632 0 -0.0028959580212905341 -0.00039484338734302975 0 -0.0028979264072499333 -0.00039575850159592632 0 -0.0028960918210678768 -0.00039027689642994709 0 -0.0028959580212905341 -0.00039484338734302975 0 -0.0028948056314643221 -0.00038520208313209552 0 -0.0028931224579864826 -0.00037599110975793034 0 -0.0028948056314643221 -0.00038520208313209552 0 -0.0028934163542907246 -0.00038843400335183769 0 -0.0028966129686398114 -0.0003939828990131722 0 -0.0028948056314643221 -0.00038520208313209552 0 -0.0028934163542907246 -0.00038843400335183769 0 -0.0028931224579864826 -0.00037599110975793034 0 -0.0028934163542907246 -0.00038843400335183769 0 -0.002886353253940762 -0.00039068522913774414 0 -0.0028931224579864826 -0.00037599110975793034 0 -0.0029011608426905253 -0.00039981979945540898 0 -0.0028979264072499333 -0.00039575850159592632 0 -0.0028978933704142756 -0.00039384256889014098 0 -0.0028979264072499333 -0.00039575850159592632 0 -0.0028960918210678768 -0.00039027689642994709 0 -0.0028978933704142756 -0.00039384256889014098 0 -0.0028948056314643221 -0.00038520208313209552 0 -0.0028960918210678768 -0.00039027689642994709 0 -0.0028978933704142756 -0.00039384256889014098 0 -0.0028978933704142756 -0.00039384256889014098 0 -0.0028999123069372306 -0.00039859115217931131 0 -0.0028966129686398114 -0.0003939828990131722 0 -0.0028948056314643221 -0.00038520208313209552 0 -0.0028978933704142756 -0.00039384256889014098 0 -0.0028966129686398114 -0.0003939828990131722 0 -0.0029011608426905253 -0.00039981979945540898 0 -0.0028978933704142756 -0.00039384256889014098 0 -0.0028999123069372306 -0.00039859115217931131 0 -0.0028999123069372306 -0.00039859115217931131 0 -0.002899298084092141 -0.00040266445198627122 0 -0.0029040291113379829 -0.00040485082578437475 0 -0.0028999123069372306 -0.00039859115217931131 0 -0.0028966129686398114 -0.0003939828990131722 0 -0.002899298084092141 -0.00040266445198627122 0 -0.0028966129686398114 -0.0003939828990131722 0 -0.002899298084092141 -0.00040266445198627122 0 -0.0028925460692959355 -0.00039750549452631322 0 -0.002899298084092141 -0.00040266445198627122 0 -0.0028925460692959355 -0.00039750549452631322 0 -0.0028950409030859465 -0.0004093124734178918 0 -0.0028934163542907246 -0.00038843400335183769 0 -0.002886353253940762 -0.00039068522913774414 0 -0.0028925460692959355 -0.00039750549452631322 0 -0.0028934163542907246 -0.00038843400335183769 0 -0.0028966129686398114 -0.0003939828990131722 0 -0.0028925460692959355 -0.00039750549452631322 0 -0.002886353253940762 -0.00039068522913774414 0 -0.0028925460692959355 -0.00039750549452631322 0 -0.0028807994995083013 -0.00040252902496240573 0 -0.0028950409030859465 -0.0004093124734178918 0 -0.0028807994995083013 -0.00040252902496240573 0 -0.0028729811513226529 -0.00042680479040984909 0 -0.0028925460692959355 -0.00039750549452631322 0 -0.0028950409030859465 -0.0004093124734178918 0 -0.0028807994995083013 -0.00040252902496240573 0 -0.002899298084092141 -0.00040266445198627122 0 -0.0028950409030859465 -0.0004093124734178918 0 -0.0029047274221907448 -0.00041278559339492774 0 -0.002899298084092141 -0.00040266445198627122 0 -0.0029047274221907448 -0.00041278559339492774 0 -0.0029040291113379829 -0.00040485082578437475 0 -0.0029114693652144774 -0.00042272006466463879 0 -0.0029047274221907448 -0.00041278559339492774 0 -0.0029114350517743448 -0.0004134594000707945 0 -0.0029047274221907448 -0.00041278559339492774 0 -0.0029040291113379829 -0.00040485082578437475 0 -0.0029114350517743448 -0.0004134594000707945 0 -0.0029011608426905253 -0.00039981979945540898 0 -0.0028999123069372306 -0.00039859115217931131 0 -0.0029040291113379829 -0.00040485082578437475 0 -0.0029056836153226631 -0.00040680827902171159 0 -0.0029040291113379829 -0.00040485082578437475 0 -0.0029114350517743448 -0.0004134594000707945 0 -0.0029056836153226631 -0.00040680827902171159 0 -0.0029114350517743448 -0.0004134594000707945 0 -0.0029122706231019266 -0.0004143765032956765 0 -0.0029114350517743448 -0.0004134594000707945 0 -0.002918156246261704 -0.00041880524559550136 0 -0.0029122706231019266 -0.0004143765032956765 0 -0.002918156246261704 -0.00041880524559550136 0 -0.0029122706231019266 -0.0004143765032956765 0 -0.0029207288546504789 -0.00042084967559024688 0 -0.0029122706231019266 -0.0004143765032956765 0 -0.0029207288546504789 -0.00042084967559024688 0 -0.0029090418569442797 -0.00041790178012707566 0 -0.0029330432033822015 -0.00042766411185064687 0 -0.0029058737451838072 -0.00042344015020353876 0 -0.0029207288546504789 -0.00042084967559024688 0 -0.0029058737451838072 -0.00042344015020353876 0 -0.0029207288546504789 -0.00042084967559024688 0 -0.0029090418569442797 -0.00041790178012707566 0 -0.0029058737451838072 -0.00042344015020353876 0 -0.0028989217420670355 -0.00042101865384996099 0 -0.0029090418569442797 -0.00041790178012707566 0 -0.0029058737451838072 -0.00042344015020353876 0 -0.0028843575848878536 -0.00042986401164507744 0 -0.0028989217420670355 -0.00042101865384996099 0 -0.0028989217420670355 -0.00042101865384996099 0 -0.0029047625031164374 -0.00041250071569838445 0 -0.0028971578104845311 -0.00041856100956633662 0 -0.0028989217420670355 -0.00042101865384996099 0 -0.0029090418569442797 -0.00041790178012707566 0 -0.0029047625031164374 -0.00041250071569838445 0 -0.0028998654994009786 -0.00040432052218169432 0 -0.0029047625031164374 -0.00041250071569838445 0 -0.0028971578104845311 -0.00041856100956633662 0 -0.0029056836153226631 -0.00040680827902171159 0 -0.0029122706231019266 -0.0004143765032956765 0 -0.0029047625031164374 -0.00041250071569838445 0 -0.0029122706231019266 -0.0004143765032956765 0 -0.0029090418569442797 -0.00041790178012707566 0 -0.0029047625031164374 -0.00041250071569838445 0 -0.0028971578104845311 -0.00041856100956633662 0 -0.0028866537120155306 -0.00043076212407172149 0 -0.0028925692661713534 -0.00043112576804786286 0 -0.0028971578104845311 -0.00041856100956633662 0 -0.0028925692661713534 -0.00043112576804786286 0 -0.0028968673793603999 -0.00041891061329023472 0 -0.0028989217420670355 -0.00042101865384996099 0 -0.0028971578104845311 -0.00041856100956633662 0 -0.0028866537120155306 -0.00043076212407172149 0 -0.0028843575848878536 -0.00042986401164507744 0 -0.0028989217420670355 -0.00042101865384996099 0 -0.0028866537120155306 -0.00043076212407172149 0 -0.0028648165725857393 -0.00044655529689581258 0 -0.0028866537120155306 -0.00043076212407172149 0 -0.0028744779087293538 -0.00045504055451177692 0 -0.0028843575848878536 -0.00042986401164507744 0 -0.0028648165725857393 -0.00044655529689581258 0 -0.0028866537120155306 -0.00043076212407172149 0 -0.0028866537120155306 -0.00043076212407172149 0 -0.0028925692661713534 -0.00043112576804786286 0 -0.0028744779087293538 -0.00045504055451177692 0 0.0004933456008859293 0.00027388347167952865 0 0.00052729126345989143 0.00039336547153734841 0 0.00060211252922296474 0.00018563457418546063 0 0.00052729126345989143 0.00039336547153734841 0 0.00066877808030992936 0.00017163094414307184 0 0.00060211252922296474 0.00018563457418546063 0 -0.0028959580212905341 -0.00039484338734302975 0 -0.0028975611013547283 -0.00041527347197800206 0 -0.0029012608621047597 -0.00044820102345217386 0 -0.00094946649997908585 -0.00023068075870974527 0 -0.0011587947334637185 -8.0385556196737278e-05 0 -0.0028959580212905341 -0.00039484338734302975 0 -0.0028931224579864826 -0.00037599110975793034 0 -0.0029012608621047597 -0.00044820102345217386 0 -0.0028925692661713534 -0.00043112576804786286 0 -0.0028968673793603999 -0.00041891061329023472 0 -0.0029012608621047597 -0.00044820102345217386 0 -0.0028968673793603999 -0.00041891061329023472 0 -0.0028975611013547283 -0.00041527347197800206 0 -0.0029012608621047597 -0.00044820102345217386 0 -0.0028998654994009786 -0.00040432052218169432 0 -0.0028971578104845311 -0.00041856100956633662 0 -0.0028968673793603999 -0.00041891061329023472 0 -0.0028998654994009786 -0.00040432052218169432 0 -0.0028959580212905341 -0.00039484338734302975 0 -0.0028975611013547283 -0.00041527347197800206 0 -0.0028998654994009786 -0.00040432052218169432 0 -0.0028968673793603999 -0.00041891061329023472 0 -0.0028975611013547283 -0.00041527347197800206 0 0.00049571485575111208 0.00021102974122700846 0 0.0004933456008859293 0.00027388347167952865 0 0.00060211252922296474 0.00018563457418546063 0 0.0004933456008859293 0.00027388347167952865 0 0.00052729126345989143 0.00039336547153734841 0 0.00036562938026585712 0.00031296756127187391 0 0.00049571485575111208 0.00021102974122700846 0 0.00041990718360101928 0.00022814675791660831 0 0.0004933456008859293 0.00027388347167952865 0 0.00041990718360101928 0.00022814675791660831 0 0.0004933456008859293 0.00027388347167952865 0 0.00036562938026585712 0.00031296756127187391 0 -0.00094946649997908585 -0.00023068075870974527 0 -0.0012226932147894371 4.778754278514598e-05 0 -0.0028396690404947507 -0.0003888767689549522 0 -0.0026853239416686895 -0.00035330219652927614 0 -0.0028072684223377888 -0.00043793934761274331 0 -0.0028931224579864826 -0.00037599110975793034 0 -0.0028396690404947507 -0.0003888767689549522 0 -0.0027338590840480818 -0.00023219228818517883 0 -0.0028396690404947507 -0.0003888767689549522 0 -0.0028807994995083013 -0.00040252902496240573 0 -0.0028729811513226529 -0.00042680479040984909 0 -0.0028396690404947507 -0.0003888767689549522 0 -0.0028729811513226529 -0.00042680479040984909 0 -0.0028072684223377888 -0.00043793934761274331 0 -0.0028931224579864826 -0.00037599110975793034 0 -0.0028396690404947507 -0.0003888767689549522 0 -0.0028740463980185169 -0.00039079477898992272 0 -0.002886353253940762 -0.00039068522913774414 0 -0.0028931224579864826 -0.00037599110975793034 0 -0.0028740463980185169 -0.00039079477898992272 0 -0.0028396690404947507 -0.0003888767689549522 0 -0.0028807994995083013 -0.00040252902496240573 0 -0.0028740463980185169 -0.00039079477898992272 0 -0.002886353253940762 -0.00039068522913774414 0 -0.0028807994995083013 -0.00040252902496240573 0 -0.0028740463980185169 -0.00039079477898992272 0 -0.0026853239416686895 -0.00035330219652927614 0 -0.0025382941490246381 -0.00043175311982175088 0 -0.0028072684223377888 -0.00043793934761274331 0 -0.0028396690404947507 -0.0003888767689549522 0 -0.0026853239416686895 -0.00035330219652927614 0 -0.0027338590840480818 -0.00023219228818517883 0 0.00036562938026585712 0.00031296756127187391 0 0.00020123453528840272 0.00021945283625431463 0 0.00034020308992799248 0.00019205924487714088 0 -0.0026853239416686895 -0.00035330219652927614 0 -0.0027338590840480818 -0.00023219228818517883 0 -0.0025249012355019447 -0.00010475141067435245 0 -0.0012226932147894371 4.778754278514598e-05 0 -0.00097616341139991278 6.8737570844696317e-05 0 0.00041990718360101928 0.00022814675791660831 0 0.00036562938026585712 0.00031296756127187391 0 0.00034020308992799248 0.00019205924487714088 0 -0.0017005823739243136 6.1243608425118809e-06 0 -0.0014467854206767447 -0.00011195277792906893 0 -0.0017052274602112878 -0.00050003765644510525 0 -0.00097616341139991278 6.8737570844696317e-05 0 -0.0003552245498651203 8.76413438984275e-05 0 -0.00097616341139991278 6.8737570844696317e-05 0 -0.0006328761069081015 0.00012744103983741093 0 -0.00064349149971706964 0.0002972545882977715 0 -0.00069145321540284679 0.00026896150855044597 0 -0.00064200802667729222 0.00023702861356638625 0 -0.0017005823739243136 6.1243608425118809e-06 0 -0.0016616346238781119 2.8781320536906077e-05 0 -0.0014467854206767447 -0.00011195277792906893 0 -0.0006328761069081015 0.00012744103983741093 0 -0.0014313391036923113 -0.0001477616060009745 0 -0.00084038837679391493 -0.00011854846196381543 0 -0.0007583093583847394 -0.00014294062338646252 0 -0.00072886292195646803 -0.00010454378019668785 0 -0.00070158756799536986 -0.00014821269014289124 0 -0.0007583093583847394 -0.00014294062338646252 0 -0.00077087560546771478 -0.00016339751076377315 0 -0.00070158756799536986 -0.00014821269014289124 0 -0.0007583093583847394 -0.00014294062338646252 0 -0.00072886292195646803 -0.00010454378019668785 0 -0.00084038837679391493 -0.00011854846196381543 0 -0.0007583093583847394 -0.00014294062338646252 0 -0.00077201177117010604 -0.00016467675999187078 0 -0.0012549529062558715 -4.8041639947929897e-05 0 -0.0014313391036923113 -0.0001477616060009745 0 -0.00070011252625903301 -0.00020411259697749681 0 -0.00070158756799536986 -0.00014821269014289124 0 -0.00077087560546771478 -0.00016339751076377315 0 -0.0013175306343151975 -0.00033654052862503738 0 -0.0014313391036923113 -0.0001477616060009745 0 -0.0021071677028237155 -0.00031690371266922409 0 -0.0021931181875300106 -0.00025810268790656658 0 -0.0021852321619493221 -0.00034406734550965987 0 -0.0021852321619493221 -0.00034406734550965987 0 -0.0021531034656803328 -0.00039123145950031488 0 -0.0022986468346364898 -0.00041213759946697484 0 -0.0021071677028237155 -0.00031690371266922409 0 -0.0021852321619493221 -0.00034406734550965987 0 -0.0021531034656803328 -0.00039123145950031488 0 -0.0026853239416686895 -0.00035330219652927614 0 -0.0025249012355019447 -0.00010475141067435245 0 -0.0025382941490246381 -0.00043175311982175088 0 -0.0028657893480329762 -0.00034544860734198773 0 -0.0026194354646926297 -0.00044705943873982385 0 -0.0021931181875300106 -0.00025810268790656658 0 -0.0021852321619493221 -0.00034406734550965987 0 -0.0022986468346364898 -0.00041213759946697484 0 -0.00097616341139991278 6.8737570844696317e-05 0 -0.0026194354646926297 -0.00044705943873982385 0 -0.0014313391036923113 -0.0001477616060009745 0 -0.0026194354646926297 -0.00044705943873982385 0 -0.0027798247483105444 -0.00043164808982303239 0 -0.0027794890544947846 -0.00043416887909951028 0 -0.0027952579368782293 -0.00044470094514744937 0 -0.0033422677048739339 -0.00028192308194671602 0 -0.0033427156376334018 -0.0002803291544577985 0 -0.0033487773614486651 -0.00027470195795700715 0 -0.0033431752161264274 -0.00027841750998187497 0 -0.0033476192833061004 -0.00026840506401713197 0 -0.0033418970551124631 -0.00026518957429967909 0 -0.0026194354646926297 -0.00044705943873982385 0 -0.0028800046088183809 -0.00036715799563268498 0 -0.0033422677048739339 -0.00028192308194671602 0 -0.0033487773614486651 -0.00027470195795700715 0 -0.0033543042457132529 -0.00027548000795043278 0 -0.0033487773614486651 -0.00027470195795700715 0 -0.0033543042457132529 -0.00027548000795043278 0 -0.0033549545006879983 -0.00026793987101980785 0 -0.0033487773614486651 -0.00027470195795700715 0 -0.0033476192833061004 -0.00026840506401713197 0 -0.0033549545006879983 -0.00026793987101980785 0 -0.0033427156376334018 -0.0002803291544577985 0 -0.0033487773614486651 -0.00027470195795700715 0 -0.0033476192833061004 -0.00026840506401713197 0 -0.0028800046088183809 -0.00036715799563268498 0 -0.0032952685109260619 -0.00024257667440398124 0 -0.0033702879360669631 -0.00027378013657622358 0 -0.0033581821822881216 -0.00028324530210580771 0 -0.0033651553132439103 -0.00026823182678671089 0 -0.0033581821822881216 -0.00028324530210580771 0 -0.0033543042457132529 -0.00027548000795043278 0 -0.0033651553132439103 -0.00026823182678671089 0 -0.0033581821822881216 -0.00028324530210580771 0 -0.0033422677048739339 -0.00028192308194671602 0 -0.0033543042457132529 -0.00027548000795043278 0 -0.0033543042457132529 -0.00027548000795043278 0 -0.0033651553132439103 -0.00026823182678671089 0 -0.0033549545006879983 -0.00026793987101980785 0 -0.0033651553132439103 -0.00026823182678671089 0 -0.0033613841964898962 -0.000260300384012695 0 -0.0033549545006879983 -0.00026793987101980785 0 -0.0033650228795031266 -0.00025287616482701794 0 -0.0033613841964898962 -0.000260300384012695 0 -0.0033697858037766183 -0.00025734085118382866 0 -0.0033651553132439103 -0.00026823182678671089 0 -0.0033613841964898962 -0.000260300384012695 0 -0.0033697858037766183 -0.00025734085118382866 0 -0.0033752711904273987 -0.00026022106198521556 0 -0.0033651553132439103 -0.00026823182678671089 0 -0.0033697858037766183 -0.00025734085118382866 0 -0.0033476192833061004 -0.00026840506401713197 0 -0.0033503447922382337 -0.00026161804308708726 0 -0.0033418970551124631 -0.00026518957429967909 0 -0.0033476192833061004 -0.00026840506401713197 0 -0.0033549545006879983 -0.00026793987101980785 0 -0.0033503447922382337 -0.00026161804308708726 0 -0.0033613841964898962 -0.000260300384012695 0 -0.0033549545006879983 -0.00026793987101980785 0 -0.0033503447922382337 -0.00026161804308708726 0 -0.0033563732088634328 -0.00025447525241155248 0 -0.0033613841964898962 -0.000260300384012695 0 -0.0033503447922382337 -0.00026161804308708726 0 -0.0030508601184033772 -0.0003775646763810525 0 -0.00309355206146929 -0.00038200192871722002 0 -0.0027955297619432114 -0.00047085941361236632 0 -0.0028573108625471319 -0.00049691985065669977 0 -0.002819387527689318 -0.00045656631716693279 0 -0.0033476954318364619 -0.0002551609158894379 0 -0.0033503447922382337 -0.00026161804308708726 0 -0.0033418970551124631 -0.00026518957429967909 0 -0.0028350732277378299 -0.00054307681888790895 0 -0.0027955297619432114 -0.00047085941361236632 0 -0.0028573108625471319 -0.00049691985065669977 0 -0.0029012998536211685 -0.00048189269715880094 0 -0.0028573108625471319 -0.00049691985065669977 0 -0.0028586184563566641 -0.00046837715957591283 0 -0.0029011000270691293 -0.00045927873878793635 0 -0.0028586184563566641 -0.00046837715957591283 0 -0.0028765040217549817 -0.00044925530275975257 0 -0.0028573108625471319 -0.00049691985065669977 0 -0.0028586184563566641 -0.00046837715957591283 0 -0.002819387527689318 -0.00045656631716693279 0 -0.0028451800416588696 -0.00044910903139565561 0 -0.0028072684223377888 -0.00043793934761274331 0 -0.002819387527689318 -0.00045656631716693279 0 -0.0028586184563566641 -0.00046837715957591283 0 -0.0028451800416588696 -0.00044910903139565561 0 -0.002819387527689318 -0.00045656631716693279 0 -0.0028586184563566641 -0.00046837715957591283 0 -0.0028451800416588696 -0.00044910903139565561 0 -0.0028765040217549817 -0.00044925530275975257 0 -0.0028451800416588696 -0.00044910903139565561 0 -0.0028765040217549817 -0.00044925530275975257 0 -0.0028729811513226529 -0.00042680479040984909 0 -0.0028451800416588696 -0.00044910903139565561 0 -0.0028729811513226529 -0.00042680479040984909 0 -0.0028072684223377888 -0.00043793934761274331 0 -0.0026194354646926297 -0.00044705943873982385 0 -0.0028099375400139981 -0.00043786710349245271 0 -0.0028800046088183809 -0.00036715799563268498 0 -0.00309355206146929 -0.00038200192871722002 0 -0.0027798247483105444 -0.00043164808982303239 0 -0.0028072684223377888 -0.00043793934761274331 0 -0.0027952579368782293 -0.00044470094514744937 0 -0.0027794890544947846 -0.00043416887909951028 0 -0.0027955297619432114 -0.00047085941361236632 0 -0.0027952579368782293 -0.00044470094514744937 0 -0.0028072684223377888 -0.00043793934761274331 0 -0.0027952579368782293 -0.00044470094514744937 0 -0.002819387527689318 -0.00045656631716693279 0 -0.0027955297619432114 -0.00047085941361236632 0 -0.0027952579368782293 -0.00044470094514744937 0 -0.002819387527689318 -0.00045656631716693279 0 -0.0023898969589655544 -0.00069702360164879888 0 -0.0023300459035143213 -0.00064610397104245519 0 -0.0023349501928850293 -0.00064835758609805595 0 -0.0023898969589655544 -0.00069702360164879888 0 -0.0024268060267992526 -0.000615899099286906 0 -0.0023300459035143213 -0.00064610397104245519 0 -0.0023898969589655544 -0.00069702360164879888 0 -0.0025639898655520706 -0.00064271625145818434 0 -0.0026815363230110489 -0.00079496882816315628 0 -0.0023898969589655544 -0.00069702360164879888 0 -0.0024268060267992526 -0.000615899099286906 0 -0.0025639898655520706 -0.00064271625145818434 0 -0.0024268060267992526 -0.000615899099286906 0 -0.0025639898655520706 -0.00064271625145818434 0 -0.0025509244273440161 -0.00053604046202226007 0 -0.0024268060267992526 -0.000615899099286906 0 -0.0023300459035143213 -0.00064610397104245519 0 -0.00237251294081583 -0.00052619029783782022 0 -0.0021632501195694696 -0.00055097569917972843 0 -0.0028570395602657882 -0.00038910811124336992 0 -0.0021784384657502699 -0.0003928922800113727 0 -0.0021761398500737294 -0.00042049716379215669 0 -0.0021933933668736171 -0.00041264422273528691 0 -0.0022006825735861085 -0.00040234265325768187 0 -0.0021784384657502699 -0.0003928922800113727 0 -0.0021933933668736171 -0.00041264422273528691 0 -0.0022006825735861085 -0.00040234265325768187 0 -0.0021874214184375591 -0.00039072232090238689 0 -0.0021784384657502699 -0.0003928922800113727 0 -0.0021874214184375591 -0.00039072232090238689 0 -0.0021784384657502699 -0.0003928922800113727 0 -0.0021673735665345231 -0.00037585494722874478 0 -0.002311894631142679 -0.00061031097825481437 0 -0.0023056633591109657 -0.00061030953111079528 0 -0.0023349501928850293 -0.00064835758609805595 0 -0.0021632501195694696 -0.00055097569917972843 0 -0.0022518228513164124 -0.00048463469948145042 0 -0.0023300459035143213 -0.00064610397104245519 0 -0.002311894631142679 -0.00061031097825481437 0 -0.0023349501928850293 -0.00064835758609805595 0 -0.0021874214184375591 -0.00039072232090238689 0 -0.0021673735665345231 -0.00037585494722874478 0 -0.0021763071687899197 -0.00038228950621670312 0 -0.0021673735665345231 -0.00037585494722874478 0 -0.0021763071687899197 -0.00038228950621670312 0 -0.0021517713336294247 -0.00037536861362095846 0 -0.0021673735665345231 -0.00037585494722874478 0 -0.0021517713336294247 -0.00037536861362095846 0 -0.0021485872440839601 -0.00039268160985516309 0 -0.0022518228513164124 -0.00048463469948145042 0 -0.0021808474431973071 -0.00047013757300224643 0 -0.002311894631142679 -0.00061031097825481437 0 -0.0023056633591109657 -0.00061030953111079528 0 -0.0022556539427620046 -0.000548704996284957 0 -0.0023056633591109657 -0.00061030953111079528 0 -0.0022716517325411679 -0.00056917587502933458 0 -0.0022556539427620046 -0.000548704996284957 0 -0.0023056633591109657 -0.00061030953111079528 0 -0.0022841116806213355 -0.00060015492721079262 0 -0.0022716517325411679 -0.00056917587502933458 0 -0.0023898969589655544 -0.00069702360164879888 0 -0.0023056633591109657 -0.00061030953111079528 0 -0.0023349501928850293 -0.00064835758609805595 0 -0.0023763706110289428 -0.00074002722247266039 0 -0.0024902110778711869 -0.00068784569177680855 0 -0.0023898969589655544 -0.00069702360164879888 0 -0.0022841116806213355 -0.00060015492721079262 0 -0.0022470507464987396 -0.00062059357441849542 0 -0.0023898969589655544 -0.00069702360164879888 0 -0.0023056633591109657 -0.00061030953111079528 0 -0.0022841116806213355 -0.00060015492721079262 0 -0.0022841116806213355 -0.00060015492721079262 0 -0.0022470507464987396 -0.00062059357441849542 0 -0.0022579249712265195 -0.00056250337644500159 0 -0.0022841116806213355 -0.00060015492721079262 0 -0.0022579249712265195 -0.00056250337644500159 0 -0.0022716517325411679 -0.00056917587502933458 0 -0.0027478432453986795 -0.0010653060421770709 0 -0.0027544610243120608 -0.00090302305157055694 0 -0.0026346040945358223 -0.00093058696950107768 0 -0.0026175459931420415 -0.00052718610309277804 0 -0.0024902110778711869 -0.00068784569177680855 0 -0.002465996719169502 -0.00028523900642912488 0 -0.0023911476114004734 -0.00019929785016505294 0 -0.0024537328456695363 -0.00029923581696291183 0 -0.0024902110778711869 -0.00068784569177680855 0 -0.0022931213966462475 -0.00039179213202723785 0 -0.0023911476114004734 -0.00019929785016505294 0 -0.0024537328456695363 -0.00029923581696291183 0 -0.0023405867268329128 -0.00031515441554133983 0 -0.0027089993821664783 -0.00045958051358601016 0 -0.0027374055844174598 -0.00045906494879660462 0 -0.0027500315600081887 -0.00043271601287264591 0 -0.0026175459931420415 -0.00052718610309277804 0 -0.002823890867627344 -0.00070725049553019379 0 -0.0027478432453986795 -0.0010653060421770709 0 -0.0027544610243120608 -0.00090302305157055694 0 -0.0028882412963335755 -0.00091017511522231383 0 -0.0027544610243120608 -0.00090302305157055694 0 -0.0028882412963335755 -0.00091017511522231383 0 -0.002822079969166693 -0.0008010505641073872 0 -0.0027544610243120608 -0.00090302305157055694 0 -0.0026815363230110489 -0.00079496882816315628 0 -0.002822079969166693 -0.0008010505641073872 0 -0.0023898969589655544 -0.00069702360164879888 0 -0.0026030539123743082 -0.00099500577575451746 0 -0.0026815363230110489 -0.00079496882816315628 0 -0.0024902110778711869 -0.00068784569177680855 0 -0.0026479139527651667 -0.00087770207812629434 0 -0.0027544610243120608 -0.00090302305157055694 0 -0.0026346040945358223 -0.00093058696950107768 0 -0.0026815363230110489 -0.00079496882816315628 0 -0.0028316773970792717 -0.00044292024567169856 0 -0.0027882795614679939 -0.00044417635734369799 0 -0.0027698868121511749 -0.00045728061270775721 0 -0.0028316773970792717 -0.00044292024567169856 0 -0.0027882795614679939 -0.00044417635734369799 0 -0.0028464869332294374 -0.00043430425260353119 0 -0.0027882795614679939 -0.00044417635734369799 0 -0.0027374055844174598 -0.00045906494879660462 0 -0.0027500315600081887 -0.00043271601287264591 0 -0.0027882795614679939 -0.00044417635734369799 0 -0.0027374055844174598 -0.00045906494879660462 0 -0.0027698868121511749 -0.00045728061270775721 0 -0.0027882795614679939 -0.00044417635734369799 0 -0.0027500315600081887 -0.00043271601287264591 0 -0.0028384060864233679 -0.0004114443765987993 0 -0.0028882412963335755 -0.00091017511522231383 0 -0.0030324673287345006 -0.00075347609607793282 0 -0.002822079969166693 -0.0008010505641073872 0 -0.002823890867627344 -0.00070725049553019379 0 -0.0029353453654313009 -0.00057949359580344634 0 -0.0027882795614679939 -0.00044417635734369799 0 -0.0028464869332294374 -0.00043430425260353119 0 -0.0028384060864233679 -0.0004114443765987993 0 -0.002900134120327975 -0.00042724132685079727 0 -0.0028464869332294374 -0.00043430425260353119 0 -0.0028384060864233679 -0.0004114443765987993 0 -0.002949516977608218 -0.00042455420118244267 0 -0.002900134120327975 -0.00042724132685079727 0 -0.0028384060864233679 -0.0004114443765987993 0 -0.0030324673287345006 -0.00075347609607793282 0 -0.002822079969166693 -0.0008010505641073872 0 -0.0028704027575027591 -0.00068907677033609488 0 -0.0030324673287345006 -0.00075347609607793282 0 -0.0029818491028056268 -0.0006433431003260361 0 -0.0028704027575027591 -0.00068907677033609488 0 -0.0029818491028056268 -0.0006433431003260361 0 -0.0028248405674287107 -0.00056787112292061635 0 -0.0030102656089400328 -0.00054767152132504694 0 -0.0029818491028056268 -0.0006433431003260361 0 -0.0028704027575027591 -0.00068907677033609488 0 -0.0028248405674287107 -0.00056787112292061635 0 -0.0031563279892961281 -0.00059385466699465807 0 -0.0029818491028056268 -0.0006433431003260361 0 -0.0030102656089400328 -0.00054767152132504694 0 -0.0031563279892961281 -0.00059385466699465807 0 -0.0030324673287345006 -0.00075347609607793282 0 -0.0029818491028056268 -0.0006433431003260361 0 -0.0030467615496250649 -0.00052097264656990447 0 -0.0029353453654313009 -0.00057949359580344634 0 -0.0025639898655520706 -0.00064271625145818434 0 -0.0026815363230110489 -0.00079496882816315628 0 -0.0027344322354807575 -0.00068150876644193265 0 -0.0026815363230110489 -0.00079496882816315628 0 -0.002822079969166693 -0.0008010505641073872 0 -0.0027344322354807575 -0.00068150876644193265 0 -0.002822079969166693 -0.0008010505641073872 0 -0.0028704027575027591 -0.00068907677033609488 0 -0.0027344322354807575 -0.00068150876644193265 0 -0.0027344322354807575 -0.00068150876644193265 0 -0.0026636123981540524 -0.00058278575931848856 0 -0.0028248405674287107 -0.00056787112292061635 0 -0.0028704027575027591 -0.00068907677033609488 0 -0.0027344322354807575 -0.00068150876644193265 0 -0.0028248405674287107 -0.00056787112292061635 0 -0.0025639898655520706 -0.00064271625145818434 0 -0.0026636123981540524 -0.00058278575931848856 0 -0.0025509244273440161 -0.00053604046202226007 0 -0.0025639898655520706 -0.00064271625145818434 0 -0.0027344322354807575 -0.00068150876644193265 0 -0.0026636123981540524 -0.00058278575931848856 0 -0.0026636123981540524 -0.00058278575931848856 0 -0.0026632178070598637 -0.00048110093052870009 0 -0.0025509244273440161 -0.00053604046202226007 0 -0.0026636123981540524 -0.00058278575931848856 0 -0.0026632178070598637 -0.00048110093052870009 0 -0.0028248405674287107 -0.00056787112292061635 0 -0.0028248405674287107 -0.00056787112292061635 0 -0.0027838916207295217 -0.0004354861256627684 0 -0.0029066262231787193 -0.00048025405808970367 0 -0.0026632178070598637 -0.00048110093052870009 0 -0.0028248405674287107 -0.00056787112292061635 0 -0.0027838916207295217 -0.0004354861256627684 0 -0.0027838916207295217 -0.0004354861256627684 0 -0.0029135804497206191 -0.00038318630292303256 0 -0.0027622944131088052 -0.00033616611987389113 0 -0.0027838916207295217 -0.0004354861256627684 0 -0.0029066262231787193 -0.00048025405808970367 0 -0.0029135804497206191 -0.00038318630292303256 0 -0.0027838916207295217 -0.0004354861256627684 0 -0.0026682389408498553 -0.00037473107314891162 0 -0.0027622944131088052 -0.00033616611987389113 0 -0.0026632178070598637 -0.00048110093052870009 0 -0.0026682389408498553 -0.00037473107314891162 0 -0.0025650804364732087 -0.0004229376582165568 0 -0.0026632178070598637 -0.00048110093052870009 0 -0.0027838916207295217 -0.0004354861256627684 0 -0.0026682389408498553 -0.00037473107314891162 0 -0.0031563279892961281 -0.00059385466699465807 0 -0.0031495849033628706 -0.00053177442955967933 0 -0.0030102656089400328 -0.00054767152132504694 0 -0.0031495849033628706 -0.00053177442955967933 0 -0.0030102656089400328 -0.00054767152132504694 0 -0.0030322205440073921 -0.00045986710534109097 0 -0.0028248405674287107 -0.00056787112292061635 0 -0.0030102656089400328 -0.00054767152132504694 0 -0.0029066262231787193 -0.00048025405808970367 0 -0.0030102656089400328 -0.00054767152132504694 0 -0.0029066262231787193 -0.00048025405808970367 0 -0.0030322205440073921 -0.00045986710534109097 0 -0.0029066262231787193 -0.00048025405808970367 0 -0.0029135804497206191 -0.00038318630292303256 0 -0.0030322205440073921 -0.00045986710534109097 0 -0.0029135804497206191 -0.00038318630292303256 0 -0.0030322205440073921 -0.00045986710534109097 0 -0.0030532733905216432 -0.00037083372809114791 0 -0.0031495849033628706 -0.00053177442955967933 0 -0.0030322205440073921 -0.00045986710534109097 0 -0.0031472385463267674 -0.00043584150416712712 0 -0.0030322205440073921 -0.00045986710534109097 0 -0.0031472385463267674 -0.00043584150416712712 0 -0.0030532733905216432 -0.00037083372809114791 0 -0.0032394250924285633 -0.00030678385104423626 0 -0.0031418227596026675 -0.0003289448753307022 0 -0.0031786007185000179 -0.00022063687394557888 0 -0.0032394250924285633 -0.00030678385104423626 0 -0.0031472385463267674 -0.00043584150416712712 0 -0.0031418227596026675 -0.0003289448753307022 0 -0.0031472385463267674 -0.00043584150416712712 0 -0.0031418227596026675 -0.0003289448753307022 0 -0.0030532733905216432 -0.00037083372809114791 0 -0.0031418227596026675 -0.0003289448753307022 0 -0.0030799065524171792 -0.00028684508732080747 0 -0.0030532733905216432 -0.00037083372809114791 0 -0.0031418227596026675 -0.0003289448753307022 0 -0.0030799065524171792 -0.00028684508732080747 0 -0.0031786007185000179 -0.00022063687394557888 0 -0.0030799065524171792 -0.00028684508732080747 0 -0.0030531494190999577 -0.00021603209478477035 0 -0.0031786007185000179 -0.00022063687394557888 0 -0.0030799065524171792 -0.00028684508732080747 0 -0.002980809221753828 -0.00029485182464879169 0 -0.0030531494190999577 -0.00021603209478477035 0 -0.0030799065524171792 -0.00028684508732080747 0 -0.0030532733905216432 -0.00037083372809114791 0 -0.002980809221753828 -0.00029485182464879169 0 -0.0029135804497206191 -0.00038318630292303256 0 -0.0030532733905216432 -0.00037083372809114791 0 -0.002980809221753828 -0.00029485182464879169 0 -0.0029135804497206191 -0.00038318630292303256 0 -0.002980809221753828 -0.00029485182464879169 0 -0.0028670442489498746 -0.00027860068332699497 0 -0.002980809221753828 -0.00029485182464879169 0 -0.0028670442489498746 -0.00027860068332699497 0 -0.0029069119713623168 -0.00019579196279110548 0 -0.002980809221753828 -0.00029485182464879169 0 -0.0030531494190999577 -0.00021603209478477035 0 -0.0029069119713623168 -0.00019579196279110548 0 -0.0029841858354025916 -0.00013075462401734663 0 -0.0030531494190999577 -0.00021603209478477035 0 -0.0029069119713623168 -0.00019579196279110548 0 -0.0029841858354025916 -0.00013075462401734663 0 -0.0029069119713623168 -0.00019579196279110548 0 -0.0028815555919680155 -8.6890233629862435e-05 0 -0.0029841858354025916 -0.00013075462401734663 0 -0.0028815555919680155 -8.6890233629862435e-05 0 -0.0029418211745755865 -1.5758353438166736e-06 0 -0.0029841858354025916 -0.00013075462401734663 0 -0.0032524107854223438 -0.00013107121801318578 0 -0.0029418211745755865 -1.5758353438166736e-06 0 -0.0029841858354025916 -0.00013075462401734663 0 -0.0030531494190999577 -0.00021603209478477035 0 -0.0032524107854223438 -0.00013107121801318578 0 -0.0030531494190999577 -0.00021603209478477035 0 -0.0032524107854223438 -0.00013107121801318578 0 -0.0031786007185000179 -0.00022063687394557888 0 -0.0032631910033048654 -0.00017578408179097944 0 -0.0032524107854223438 -0.00013107121801318578 0 -0.0031786007185000179 -0.00022063687394557888 0 -0.0026739964816855713 -0.00026029171749956687 0 -0.0027622944131088052 -0.00033616611987389113 0 -0.0027854174223772973 -0.00018074480965935298 0 -0.0026739964816855713 -0.00026029171749956687 0 -0.0026942570504255659 -0.00017671011379862805 0 -0.0025964460452425754 -0.00019840714259519165 0 -0.0026682389408498553 -0.00037473107314891162 0 -0.0026739964816855713 -0.00026029171749956687 0 -0.0025686808312621956 -0.00030747738292107274 0 -0.0026682389408498553 -0.00037473107314891162 0 -0.0026739964816855713 -0.00026029171749956687 0 -0.0027622944131088052 -0.00033616611987389113 0 -0.0027622944131088052 -0.00033616611987389113 0 -0.0028670442489498746 -0.00027860068332699497 0 -0.0027854174223772973 -0.00018074480965935298 0 -0.0029135804497206191 -0.00038318630292303256 0 -0.0027622944131088052 -0.00033616611987389113 0 -0.0028670442489498746 -0.00027860068332699497 0 -0.0027854174223772973 -0.00018074480965935298 0 -0.0028815555919680155 -8.6890233629862435e-05 0 -0.0027464102398031039 -5.3941874980388976e-05 0 -0.0027854174223772973 -0.00018074480965935298 0 -0.0029069119713623168 -0.00019579196279110548 0 -0.0028815555919680155 -8.6890233629862435e-05 0 -0.0028670442489498746 -0.00027860068332699497 0 -0.0027854174223772973 -0.00018074480965935298 0 -0.0029069119713623168 -0.00019579196279110548 0 -0.0026449149402315662 -0.000123541456928091 0 -0.00254400763797933 -6.5419911907746314e-05 0 -0.0027464102398031039 -5.3941874980388976e-05 0 -0.0027854174223772973 -0.00018074480965935298 0 -0.0026942570504255659 -0.00017671011379862805 0 -0.0027464102398031039 -5.3941874980388976e-05 0 -0.0026739964816855713 -0.00026029171749956687 0 -0.0027854174223772973 -0.00018074480965935298 0 -0.0026942570504255659 -0.00017671011379862805 0 -0.0026942570504255659 -0.00017671011379862805 0 -0.0026449149402315662 -0.000123541456928091 0 -0.0025964460452425754 -0.00019840714259519165 0 -0.0026942570504255659 -0.00017671011379862805 0 -0.0026449149402315662 -0.000123541456928091 0 -0.0027464102398031039 -5.3941874980388976e-05 0 -0.0025964460452425754 -0.00019840714259519165 0 -0.0024621155110910796 -0.0002799536320087221 0 -0.00254400763797933 -6.5419911907746314e-05 0 -0.0026449149402315662 -0.000123541456928091 0 -0.0025964460452425754 -0.00019840714259519165 0 -0.00254400763797933 -6.5419911907746314e-05 0 -0.0041242627385391544 -0.00048232328271279479 0 -0.0043421019664196536 -0.00047492666879523499 0 -0.0041841528568590351 -0.00041865509074043023 0 -0.0041133201917724471 -0.00035582216250991671 0 -0.0040989228089570815 -0.00055890232212276153 0 -0.0041133201917724471 -0.00035582216250991671 0 -0.0040989228089570815 -0.00055890232212276153 0 -0.0040502503361388373 -0.00056021421737419098 0 -0.0041841528568590351 -0.00041865509074043023 0 -0.0042495727512447115 -0.00055449156613928687 0 -0.0041117430018753924 -0.00055949918251213527 0 -0.0032614163000153009 -0.00030719951149324373 0 -0.0039136405902513325 -0.00031342246616359156 0 -0.0041841528568590351 -0.00041865509074043023 0 -0.0041133201917724471 -0.00035582216250991671 0 -0.0041938928859156129 -0.00031156494306422666 0 -0.0025964460452425754 -0.00019840714259519165 0 -0.0024621155110910796 -0.0002799536320087221 0 -0.0025686808312621956 -0.00030747738292107274 0 -0.0026739964816855713 -0.00026029171749956687 0 -0.0025964460452425754 -0.00019840714259519165 0 -0.0025686808312621956 -0.00030747738292107274 0 -0.0026682389408498553 -0.00037473107314891162 0 -0.0025686808312621956 -0.00030747738292107274 0 -0.0025650804364732087 -0.0004229376582165568 0 -0.0025650804364732087 -0.0004229376582165568 0 -0.0024892853722600985 -0.00039407607638203062 0 -0.0024827336945762919 -0.00048827791919771329 0 -0.0025686808312621956 -0.00030747738292107274 0 -0.0025650804364732087 -0.0004229376582165568 0 -0.0024892853722600985 -0.00039407607638203062 0 -0.0024621155110910796 -0.0002799536320087221 0 -0.0025686808312621956 -0.00030747738292107274 0 -0.0024892853722600985 -0.00039407607638203062 0 -0.0041133201917724471 -0.00035582216250991671 0 -0.0041612643195192223 -0.00015416516696687227 0 -0.0041938928859156129 -0.00031156494306422666 0 -0.0024621155110910796 -0.0002799536320087221 0 -0.0024892853722600985 -0.00039407607638203062 0 -0.0023866182029105352 -0.00047494008476799593 0 -0.0032614163000153009 -0.00030719951149324373 0 -0.0028570395602657882 -0.00038910811124336992 0 -0.0024268060267992526 -0.000615899099286906 0 -0.0023866182029105352 -0.00047494008476799593 0 -0.0024827336945762919 -0.00048827791919771329 0 -0.0023134066017591144 -0.00060102391934545188 0 -0.0028570395602657882 -0.00038910811124336992 0 -0.0024892853722600985 -0.00039407607638203062 0 -0.0023866182029105352 -0.00047494008476799593 0 -0.0024827336945762919 -0.00048827791919771329 0 -0.0024268060267992526 -0.000615899099286906 0 -0.0025509244273440161 -0.00053604046202226007 0 -0.0024827336945762919 -0.00048827791919771329 0 -0.0025650804364732087 -0.0004229376582165568 0 -0.0025509244273440161 -0.00053604046202226007 0 -0.0024827336945762919 -0.00048827791919771329 0 -0.0026632178070598637 -0.00048110093052870009 0 -0.0025650804364732087 -0.0004229376582165568 0 -0.0025509244273440161 -0.00053604046202226007 0 -0.0022006825735861085 -0.00040234265325768187 0 -0.0022105407282955679 -0.00042214229873005884 0 -0.0022263654931220338 -0.00041217783765533486 0 -0.0022006825735861085 -0.00040234265325768187 0 -0.0022105407282955679 -0.00042214229873005884 0 -0.0021933933668736171 -0.00041264422273528691 0 -0.0022105407282955679 -0.00042214229873005884 0 -0.0021933933668736171 -0.00041264422273528691 0 -0.0021978968303329773 -0.00043333359627761528 0 -0.0021761398500737294 -0.00042049716379215669 0 -0.0021933933668736171 -0.00041264422273528691 0 -0.0021978968303329773 -0.00043333359627761528 0 -0.0021761398500737294 -0.00042049716379215669 0 -0.0021873278741434323 -0.00044633247853360583 0 -0.0021978968303329773 -0.00043333359627761528 0 -0.0041612643195192223 -0.00015416516696687227 0 -0.0042483497158777835 -0.00026606055713803838 0 -0.0041938928859156129 -0.00031156494306422666 0 -0.0028570395602657882 -0.00038910811124336992 0 -0.0032062148297127124 -0.00034222867888985268 0 -0.0021873278741434323 -0.00044633247853360583 0 -0.0022074043272389222 -0.00045717108028789756 0 -0.0021978968303329773 -0.00043333359627761528 0 -0.0022074043272389222 -0.00045717108028789756 0 -0.0021978968303329773 -0.00043333359627761528 0 -0.0022182750809624434 -0.00044899764758872995 0 -0.0022105407282955679 -0.00042214229873005884 0 -0.0021978968303329773 -0.00043333359627761528 0 -0.0022182750809624434 -0.00044899764758872995 0 -0.0022105407282955679 -0.00042214229873005884 0 -0.0022182750809624434 -0.00044899764758872995 0 -0.0022360289295850198 -0.00044087558300645672 0 -0.0022074043272389222 -0.00045717108028789756 0 -0.0022182750809624434 -0.00044899764758872995 0 -0.0022275554053188111 -0.00047396902596776361 0 -0.0022182750809624434 -0.00044899764758872995 0 -0.0022275554053188111 -0.00047396902596776361 0 -0.0022362754532262567 -0.00046173023870502242 0 -0.0022182750809624434 -0.00044899764758872995 0 -0.0022360289295850198 -0.00044087558300645672 0 -0.0022362754532262567 -0.00046173023870502242 0 -0.0022074043272389222 -0.00045717108028789756 0 -0.0022275554053188111 -0.00047396902596776361 0 -0.0022091413859449726 -0.00048667709675371905 0 -0.0022275554053188111 -0.00047396902596776361 0 -0.0022091413859449726 -0.00048667709675371905 0 -0.0022466547353766249 -0.00050193298791870666 0 -0.0037405056909355838 -0.00035942107481581268 0 -0.0032542994204625485 -0.00052356064758196045 0 -0.0044277439198687433 -0.00058487329423368057 0 -0.0043841191149693523 -0.00050416905274712259 0 -0.0043361194529229772 -0.00057089268260719173 0 -0.0041841528568590351 -0.00041865509074043023 0 -0.0041938928859156129 -0.00031156494306422666 0 -0.0042623856787161072 -0.00036443832534421654 0 -0.0042483497158777835 -0.00026606055713803838 0 -0.0041938928859156129 -0.00031156494306422666 0 -0.0042623856787161072 -0.00036443832534421654 0 -0.0021873278741434323 -0.00044633247853360583 0 -0.0022074043272389222 -0.00045717108028789756 0 -0.0022091413859449726 -0.00048667709675371905 0 -0.0042483497158777835 -0.00026606055713803838 0 -0.0043265756065488112 -0.00037844880364088846 0 -0.0042623856787161072 -0.00036443832534421654 0 -0.0032062148297127124 -0.00034222867888985268 0 -0.0037405056909355838 -0.00035942107481581268 0 -0.0043418699576058227 -0.00038726532200038201 0 -0.0042623856787161072 -0.00036443832534421654 0 -0.0042833317567308278 -0.00044896823847235656 0 -0.0037405056909355838 -0.00035942107481581268 0 -0.0043045223083508595 -0.00041887594136070199 0 -0.0041841528568590351 -0.00041865509074043023 0 -0.0042623856787161072 -0.00036443832534421654 0 -0.0042833317567308278 -0.00044896823847235656 0 -0.0041841528568590351 -0.00041865509074043023 0 -0.0042833317567308278 -0.00044896823847235656 0 -0.0042495727512447115 -0.00055449156613928687 0 -0.0043460885601736199 -0.00048497013199066681 0 -0.0044043419920031905 -0.00051024814690100117 0 -0.0042495727512447115 -0.00055449156613928687 0 -0.0043418699576058227 -0.00038726532200038201 0 -0.0042833317567308278 -0.00044896823847235656 0 -0.0043460885601736199 -0.00048497013199066681 0 -0.0042833317567308278 -0.00044896823847235656 0 -0.0043460885601736199 -0.00048497013199066681 0 -0.0042495727512447115 -0.00055449156613928687 0 -0.0037405056909355838 -0.00035942107481581268 0 -0.0044397548489429131 -0.00063033086477560184 0 -0.0043418699576058227 -0.00038726532200038201 0 -0.0043841191149693523 -0.00050416905274712259 0 -0.0043460885601736199 -0.00048497013199066681 0 -0.0043841191149693523 -0.00050416905274712259 0 -0.0043460885601736199 -0.00048497013199066681 0 -0.0044043419920031905 -0.00051024814690100117 0 -0.0043841191149693523 -0.00050416905274712259 0 -0.0044043419920031905 -0.00051024814690100117 0 -0.0043489106650563356 -0.00048157957832308776 0 -0.0044043419920031905 -0.00051024814690100117 0 -0.0043823537044558542 -0.00041777026546032764 0 -0.0043489106650563356 -0.00048157957832308776 0 -0.0044043419920031905 -0.00051024814690100117 0 -0.0043823537044558542 -0.00041777026546032764 0 -0.0045545817141634578 -0.00035379336629510631 0 -0.0043823537044558542 -0.00041777026546032764 0 -0.0044026030075337173 -0.00028039013522350177 0 -0.0045545817141634578 -0.00035379336629510631 0 -0.0045545817141634578 -0.00035379336629510631 0 -0.0047219274514605407 -0.00027008457820786166 0 -0.0046452975067547819 -0.00010140199503781838 0 -0.0044026030075337173 -0.00028039013522350177 0 -0.0045545817141634578 -0.00035379336629510631 0 -0.0046452975067547819 -0.00010140199503781838 0 -0.0045545817141634578 -0.00035379336629510631 0 -0.0047155219932272395 -0.000379961170963094 0 -0.0047219274514605407 -0.00027008457820786166 0 -0.0045545817141634578 -0.00035379336629510631 0 -0.0046278765600395585 -0.00051776441521058552 0 -0.0047155219932272395 -0.000379961170963094 0 -0.0043996069713935831 -0.00051937505184183809 0 -0.0044580665271712668 -0.00053074324787353579 0 -0.0044043419920031905 -0.00051024814690100117 0 -0.0045545817141634578 -0.00035379336629510631 0 -0.0046278765600395585 -0.00051776441521058552 0 -0.0044580665271712668 -0.00053074324787353579 0 -0.0043421019664196536 -0.00047492666879523499 0 -0.0048181878828305906 -0.00050546365303270923 0 -0.0047155219932272395 -0.000379961170963094 0 -0.0048197614696765412 -0.0002838353778271125 0 -0.0046278765600395585 -0.00051776441521058552 0 -0.0048181878828305906 -0.00050546365303270923 0 -0.0047155219932272395 -0.000379961170963094 0 -0.0043421019664196536 -0.00047492666879523499 0 -0.0039136405902513325 -0.00031342246616359156 0 -0.0049796366049951442 0.0001307125634541598 0 -0.0049897552788812508 0.00011385697546735636 0 -0.0049779775824500437 0.00012700914214778749 0 -0.0043421019664196536 -0.00047492666879523499 0 -0.0049239660540044026 -3.2597317470267881e-05 0 -0.0042870278253402914 -0.00052125296691007158 0 -0.004446264216152478 -0.00051508720481715934 0 -0.0046327010466227017 6.8034153156490805e-05 0 -0.0039136405902513325 -0.00031342246616359156 0 -0.003887050450422723 8.4042244949144917e-05 0 -0.0039136405902513325 -0.00031342246616359156 0 -0.0049239660540044026 -3.2597317470267881e-05 0 -0.0048181878828305906 -0.00050546365303270923 0 -0.0049480016961040898 -0.00026070575228361297 0 -0.0048197614696765412 -0.0002838353778271125 0 -0.0049897552788812508 0.00011385697546735636 0 -0.0049779775824500437 0.00012700914214778749 0 -0.0049807422019186951 0.0001176191601342454 0 -0.0049480016961040898 -0.00026070575228361297 0 -0.0048197614696765412 -0.0002838353778271125 0 -0.0048962134740614862 -0.00017208359592918272 0 -0.0047155219932272395 -0.000379961170963094 0 -0.0048197614696765412 -0.0002838353778271125 0 -0.0047219274514605407 -0.00027008457820786166 0 -0.0048197614696765412 -0.0002838353778271125 0 -0.0047219274514605407 -0.00027008457820786166 0 -0.0048210349243449488 -0.00014330159778942484 0 -0.0047219274514605407 -0.00027008457820786166 0 -0.0048210349243449488 -0.00014330159778942484 0 -0.0046452975067547819 -0.00010140199503781838 0 -0.0048197614696765412 -0.0002838353778271125 0 -0.0048210349243449488 -0.00014330159778942484 0 -0.0048962134740614862 -0.00017208359592918272 0 -0.0049516453849089113 -0.00020267874317037732 0 -0.0049613377416762704 -0.00012661724619534927 0 -0.0049853223611504736 -9.0598956895843327e-05 0 -0.0049480016961040898 -0.00026070575228361297 0 -0.0049613377416762704 -0.00012661724619534927 0 -0.0048962134740614862 -0.00017208359592918272 0 -0.0049239660540044026 -3.2597317470267881e-05 0 -0.0049399532164360388 -0.00019067404832572829 0 -0.0048210349243449488 -0.00014330159778942484 0 -0.0048962134740614862 -0.00017208359592918272 0 -0.0049006406555989626 -9.6238533332988757e-05 0 -0.0049613377416762704 -0.00012661724619534927 0 -0.0049374918644926819 -4.717916338869811e-05 0 -0.0049853223611504736 -9.0598956895843327e-05 0 -0.0049613377416762704 -0.00012661724619534927 0 -0.0048962134740614862 -0.00017208359592918272 0 -0.0049006406555989626 -9.6238533332988757e-05 0 -0.0049613377416762704 -0.00012661724619534927 0 -0.0049006406555989626 -9.6238533332988757e-05 0 -0.0049374918644926819 -4.717916338869811e-05 0 -0.0049006406555989626 -9.6238533332988757e-05 0 -0.0049374918644926819 -4.717916338869811e-05 0 -0.0048874322335176745 -1.5855468829600304e-05 0 -0.0048210349243449488 -0.00014330159778942484 0 -0.0048874322335176745 -1.5855468829600304e-05 0 -0.0046452975067547819 -0.00010140199503781838 0 -0.0048210349243449488 -0.00014330159778942484 0 -0.0049006406555989626 -9.6238533332988757e-05 0 -0.0048874322335176745 -1.5855468829600304e-05 0 -0.004873216852699468 -2.1085582591281999e-05 0 -0.0047420335126565913 -0.00010965816526934903 0 -0.0048874322335176745 -1.5855468829600304e-05 0 -0.004850481859922387 -3.7967321769709128e-05 0 -0.0048502812080865997 -0.00010411402390981395 0 -0.004850481859922387 -3.7967321769709128e-05 0 -0.0047963607998260625 -6.4553686055369703e-05 0 -0.0048154645931903477 -9.1884434773692844e-06 0 -0.004850481859922387 -3.7967321769709128e-05 0 -0.0047963607998260625 -6.4553686055369703e-05 0 -0.0048502812080865997 -0.00010411402390981395 0 -0.0047963607998260625 -6.4553686055369703e-05 0 -0.0047569901475134528 -4.3912528742327566e-05 0 -0.0048154645931903477 -9.1884434773692844e-06 0 -0.0047963607998260625 -6.4553686055369703e-05 0 -0.0047569901475134528 -4.3912528742327566e-05 0 -0.0047251915968024348 -7.7710222546924912e-05 0 -0.0047963607998260625 -6.4553686055369703e-05 0 -0.0047688378397901512 -0.00011753026587828115 0 -0.0047251915968024348 -7.7710222546924912e-05 0 -0.0046095750594072919 -0.00023200473071415488 0 -0.0047420335126565913 -0.00010965816526934903 0 -0.0047963607998260625 -6.4553686055369703e-05 0 -0.0047688378397901512 -0.00011753026587828115 0 -0.0048502812080865997 -0.00010411402390981395 0 -0.0047709764325311382 -0.00019435316942660602 0 -0.0047688378397901512 -0.00011753026587828115 0 -0.0048502812080865997 -0.00010411402390981395 0 -0.0049263910451137986 0.00010514046002273655 0 -0.0048906028563989448 0.00011801408046398152 0 -0.0049226665012137311 9.7620324475423896e-05 0 -0.0047701666588136332 0.00017139321056989203 0 -0.0048924391786489942 0.00014383898624707319 0 -0.0048906028563989448 0.00011801408046398152 0 -0.0046538728638843094 0.00013225139015226095 0 -0.0047701666588136332 0.00017139321056989203 0 -0.0048906028563989448 0.00011801408046398152 0 -0.0047967743144687299 0.00012599411391647742 0 -0.0048886238993572518 0.00012323612091977111 0 -0.0036192092244050462 -5.748217448088188e-05 0 -0.0035839202582277005 0.00011272269683584067 0 -0.0032858846415208306 -6.025863482519084e-05 0 -0.0033635884487465202 -7.3033403063768617e-05 0 -0.0036433875324578067 4.773410677386264e-05 0 -0.0042653654054513931 0.00015797945998617579 0 -0.0036433875324578067 4.773410677386264e-05 0 -0.0036192092244050462 -5.748217448088188e-05 0 -0.0032524107854223438 -0.00013107121801318578 0 -0.0029418211745755865 -1.5758353438166736e-06 0 -0.0047701666588136332 0.00017139321056989203 0 -0.0048924391786489942 0.00014383898624707319 0 -0.0049284323563410339 0.0001743654749491645 0 -0.002890062404093327 -0.0001859995572678094 0 -0.0036433875324578067 4.773410677386264e-05 0 -0.0048924391786489942 0.00014383898624707319 0 -0.0049284323563410339 0.0001743654749491645 0 -0.0049356905536621625 0.0001311172429271222 0 -0.0049284323563410339 0.0001743654749491645 0 -0.0049356905536621625 0.0001311172429271222 0 -0.0049544217828286635 0.00013614617796192335 0 -0.0048906028563989448 0.00011801408046398152 0 -0.0049346521496985265 9.7162136965657812e-05 0 -0.0049226665012137311 9.7620324475423896e-05 0 -0.0049356905536621625 0.0001311172429271222 0 -0.0048906028563989448 0.00011801408046398152 0 -0.0049346521496985265 9.7162136965657812e-05 0 -0.0048924391786489942 0.00014383898624707319 0 -0.0049356905536621625 0.0001311172429271222 0 -0.0048906028563989448 0.00011801408046398152 0 -0.0049356905536621625 0.0001311172429271222 0 -0.0049619509113649285 0.00010969152557801181 0 -0.0049346521496985265 9.7162136965657812e-05 0 -0.0049619509113649285 0.00010969152557801181 0 -0.0049544217828286635 0.00013614617796192335 0 -0.0049706313702192022 0.00012580453602589745 0 -0.0049356905536621625 0.0001311172429271222 0 -0.0049619509113649285 0.00010969152557801181 0 -0.0049544217828286635 0.00013614617796192335 0 -0.0036433875324578067 4.773410677386264e-05 0 -0.003887050450422723 8.4042244949144917e-05 0 -0.0049284323563410339 0.0001743654749491645 0 -0.0049544217828286635 0.00013614617796192335 0 -0.0049653340717962678 0.00014172705609604745 0 -0.0028815555919680155 -8.6890233629862435e-05 0 -0.0029626752227651537 -4.0634652124738234e-05 0 -0.0027464102398031039 -5.3941874980388976e-05 0 -0.0049544217828286635 0.00013614617796192335 0 -0.0049653340717962678 0.00014172705609604745 0 -0.0049706313702192022 0.00012580453602589745 0 -0.0049653340717962678 0.00014172705609604745 0 -0.0049779775824500437 0.00012700914214778749 0 -0.0049706313702192022 0.00012580453602589745 0 -0.0049796366049951442 0.0001307125634541598 0 -0.0049653340717962678 0.00014172705609604745 0 -0.0049779775824500437 0.00012700914214778749 0 -0.0049779775824500437 0.00012700914214778749 0 -0.0049807422019186951 0.0001176191601342454 0 -0.0049706313702192022 0.00012580453602589745 0 -0.0049807422019186951 0.0001176191601342454 0 -0.0049706313702192022 0.00012580453602589745 0 -0.004981264632697581 0.00010366639033908105 0 -0.0049619509113649285 0.00010969152557801181 0 -0.0049706313702192022 0.00012580453602589745 0 -0.004981264632697581 0.00010366639033908105 0 -0.0049619509113649285 0.00010969152557801181 0 -0.004981264632697581 0.00010366639033908105 0 -0.004976813215566386 9.0716217556071767e-05 0 -0.0049897552788812508 0.00011385697546735636 0 -0.0049807422019186951 0.0001176191601342454 0 -0.004981264632697581 0.00010366639033908105 0 -0.0049239660540044026 -3.2597317470267881e-05 0 -0.0049914995241551081 -9.4350535543883853e-06 0 -0.004976813215566386 9.0716217556071767e-05 0 -0.0049954839026644989 7.6695934864422783e-05 0 -0.0049660317817397468 7.6178785715891737e-05 0 -0.0049897552788812508 0.00011385697546735636 0 -0.004981264632697581 0.00010366639033908105 0 -0.0049954839026644989 7.6695934864422783e-05 0 -0.004981264632697581 0.00010366639033908105 0 -0.004976813215566386 9.0716217556071767e-05 0 -0.0049954839026644989 7.6695934864422783e-05 0 -0.0049914995241551081 -9.4350535543883853e-06 0 -0.0049887510049742264 1.1477286401977369e-05 0 -0.0049954839026644989 7.6695934864422783e-05 0 -0.0049660317817397468 7.6178785715891737e-05 0 -0.0049897531798520616 1.8535141781069101e-05 0 -0.0049374918644926819 -4.717916338869811e-05 0 -0.0049853223611504736 -9.0598956895843327e-05 0 -0.0049897531798520616 1.8535141781069101e-05 0 -0.0049664652002466524 5.0841332758089871e-05 0 -0.0049660317817397468 7.6178785715891737e-05 0 -0.0049897531798520616 1.8535141781069101e-05 0 -0.0049619509113649285 0.00010969152557801181 0 -0.004976813215566386 9.0716217556071767e-05 0 -0.0049660317817397468 7.6178785715891737e-05 0 -0.0049619509113649285 0.00010969152557801181 0 -0.0049660317817397468 7.6178785715891737e-05 0 -0.0049346521496985265 9.7162136965657812e-05 0 -0.0049660317817397468 7.6178785715891737e-05 0 -0.0049346521496985265 9.7162136965657812e-05 0 -0.0049463380011631778 7.2908289068160644e-05 0 -0.0049346521496985265 9.7162136965657812e-05 0 -0.0049463380011631778 7.2908289068160644e-05 0 -0.0049226665012137311 9.7620324475423896e-05 0 -0.0049664652002466524 5.0841332758089871e-05 0 -0.0049660317817397468 7.6178785715891737e-05 0 -0.0049463380011631778 7.2908289068160644e-05 0 -0.0049664652002466524 5.0841332758089871e-05 0 -0.0049463380011631778 7.2908289068160644e-05 0 -0.0049683744189283662 3.9868770489327516e-05 0 -0.0049412795295500685 7.5042150083384852e-05 0 -0.0049463380011631778 7.2908289068160644e-05 0 -0.0049683744189283662 3.9868770489327516e-05 0 -0.0049412795295500685 7.5042150083384852e-05 0 -0.0049463380011631778 7.2908289068160644e-05 0 -0.0049226665012137311 9.7620324475423896e-05 0 -0.0049288811421492338 9.9166791319928318e-05 0 -0.0049412795295500685 7.5042150083384852e-05 0 -0.0049226665012137311 9.7620324475423896e-05 0 -0.0049680278640576924 3.0677244151353029e-05 0 -0.0049810392927519334 2.0001521675004847e-05 0 -0.0049831590197109751 1.1997641627345473e-05 0 -0.0049412795295500685 7.5042150083384852e-05 0 -0.0049680278640576924 3.0677244151353029e-05 0 -0.0049683744189283662 3.9868770489327516e-05 0 -0.0049810392927519334 2.0001521675004847e-05 0 -0.0049875938844564545 2.2458593546601131e-05 0 -0.0049906416653852708 1.2450848166753514e-05 0 -0.0049683744189283662 3.9868770489327516e-05 0 -0.0049810392927519334 2.0001521675004847e-05 0 -0.0049875938844564545 2.2458593546601131e-05 0 -0.0049680278640576924 3.0677244151353029e-05 0 -0.0049683744189283662 3.9868770489327516e-05 0 -0.0049810392927519334 2.0001521675004847e-05 0 -0.0049875938844564545 2.2458593546601131e-05 0 -0.0049818721644466421 2.291117395118991e-05 0 -0.0049906416653852708 1.2450848166753514e-05 0 -0.0049683744189283662 3.9868770489327516e-05 0 -0.0049875938844564545 2.2458593546601131e-05 0 -0.0049897531798520616 1.8535141781069101e-05 0 -0.0049664652002466524 5.0841332758089871e-05 0 -0.0049683744189283662 3.9868770489327516e-05 0 -0.0049897531798520616 1.8535141781069101e-05 0 -0.0049374918644926819 -4.717916338869811e-05 0 -0.0049897531798520616 1.8535141781069101e-05 0 -0.0049567858444444857 1.6073984337847875e-05 0 -0.0049875938844564545 2.2458593546601131e-05 0 -0.0049897531798520616 1.8535141781069101e-05 0 -0.0049567858444444857 1.6073984337847875e-05 0 -0.0049875938844564545 2.2458593546601131e-05 0 -0.0049818721644466421 2.291117395118991e-05 0 -0.0049567858444444857 1.6073984337847875e-05 0 -0.0049818721644466421 2.291117395118991e-05 0 -0.0049999790444382186 2.0095464810119471e-08 0 -0.0049803563318304806 1.9636806685170221e-05 0 -0.0049999790444382186 2.0095464810119471e-08 0 -0.0049906416653852708 1.2450848166753514e-05 0 -0.00499998677710783 3.1787891069629753e-09 0 -0.0049818721644466421 2.291117395118991e-05 0 -0.0049999790444382186 2.0095464810119471e-08 0 -0.0049906416653852708 1.2450848166753514e-05 0 -0.0049810392927519334 2.0001521675004847e-05 0 -0.0049906416653852708 1.2450848166753514e-05 0 -0.0049831590197109751 1.1997641627345473e-05 0 -0.0049906416653852708 1.2450848166753514e-05 0 -0.00499998677710783 3.1787891069629753e-09 0 -0.0049831590197109751 1.1997641627345473e-05 0 -0.0049999756832114928 8.1316818060169506e-09 0 -0.00499998677710783 3.1787891069629753e-09 0 -0.0049831590197109751 1.1997641627345473e-05 0 -0.0048529435012457066 3.4768549643572074e-05 0 -0.0047877613244596854 4.3620713024410605e-05 0 -0.004826672327597095 0.00011173364564246797 0 -0.0047877613244596854 4.3620713024410605e-05 0 -0.0047601706247528928 9.4851817879449297e-05 0 -0.0047488216581579763 6.0529921147606762e-05 0 -0.0047877613244596854 4.3620713024410605e-05 0 -0.0047461821137520883 2.9338966326062828e-05 0 -0.0047489214817142246 -2.8649765405523211e-06 0 -0.0047877613244596854 4.3620713024410605e-05 0 -0.0047488216581579763 6.0529921147606762e-05 0 -0.0047461821137520883 2.9338966326062828e-05 0 -0.0048529435012457066 3.4768549643572074e-05 0 -0.0047877613244596854 4.3620713024410605e-05 0 -0.0048154645931903477 -9.1884434773692844e-06 0 -0.0047877613244596854 4.3620713024410605e-05 0 -0.0048154645931903477 -9.1884434773692844e-06 0 -0.0047489214817142246 -2.8649765405523211e-06 0 -0.0047569901475134528 -4.3912528742327566e-05 0 -0.0048154645931903477 -9.1884434773692844e-06 0 -0.0047489214817142246 -2.8649765405523211e-06 0 -0.004850481859922387 -3.7967321769709128e-05 0 -0.0048154645931903477 -9.1884434773692844e-06 0 -0.004890741871121697 3.3786975686666857e-06 0 -0.0048529435012457066 3.4768549643572074e-05 0 -0.0048154645931903477 -9.1884434773692844e-06 0 -0.004890741871121697 3.3786975686666857e-06 0 -0.0048874322335176745 -1.5855468829600304e-05 0 -0.004850481859922387 -3.7967321769709128e-05 0 -0.004890741871121697 3.3786975686666857e-06 0 -0.0048874322335176745 -1.5855468829600304e-05 0 -0.004890741871121697 3.3786975686666857e-06 0 -0.0049567858444444857 1.6073984337847875e-05 0 -0.0049374918644926819 -4.717916338869811e-05 0 -0.0048874322335176745 -1.5855468829600304e-05 0 -0.0049567858444444857 1.6073984337847875e-05 0 -0.0049818721644466421 2.291117395118991e-05 0 -0.0049567858444444857 1.6073984337847875e-05 0 -0.0049561098162719539 4.2129006991156388e-05 0 -0.0048529435012457066 3.4768549643572074e-05 0 -0.004890741871121697 3.3786975686666857e-06 0 -0.0049561098162719539 4.2129006991156388e-05 0 -0.004890741871121697 3.3786975686666857e-06 0 -0.0049567858444444857 1.6073984337847875e-05 0 -0.0049561098162719539 4.2129006991156388e-05 0 -0.0049561098162719539 4.2129006991156388e-05 0 -0.0049803563318304806 1.9636806685170221e-05 0 -0.0049870755578090131 1.1051106453329536e-05 0 -0.0049818721644466421 2.291117395118991e-05 0 -0.0049561098162719539 4.2129006991156388e-05 0 -0.0049803563318304806 1.9636806685170221e-05 0 -0.0049999790444382186 2.0095464810119471e-08 0 -0.0049803563318304806 1.9636806685170221e-05 0 -0.0049999632938991182 1.4378898378355635e-08 0 -0.0049803563318304806 1.9636806685170221e-05 0 -0.0049999632938991182 1.4378898378355635e-08 0 -0.0049870755578090131 1.1051106453329536e-05 0 -0.0049999632938991182 1.4378898378355635e-08 0 -0.0049870755578090131 1.1051106453329536e-05 0 -0.0049999954133682026 1.668666461900369e-09 0 -0.0049870755578090131 1.1051106453329536e-05 0 -0.0049999954133682026 1.668666461900369e-09 0 -0.0050033755039125324 1.4642209336822816e-05 0 -0.0048529435012457066 3.4768549643572074e-05 0 -0.0049561098162719539 4.2129006991156388e-05 0 -0.004826672327597095 0.00011173364564246797 0 -0.0049584300288843877 4.2354465774425263e-05 0 -0.0048995224525468593 7.0215295915227073e-05 0 -0.0049561098162719539 4.2129006991156388e-05 0 -0.0049870755578090131 1.1051106453329536e-05 0 -0.0050033755039125324 1.4642209336822816e-05 0 -0.0047877613244596854 4.3620713024410605e-05 0 -0.004826672327597095 0.00011173364564246797 0 -0.0047601706247528928 9.4851817879449297e-05 0 -0.004826672327597095 0.00011173364564246797 0 -0.0047200374823020419 0.00014242226741984428 0 -0.0047601706247528928 9.4851817879449297e-05 0 -0.0048995224525468593 7.0215295915227073e-05 0 -0.0049170203696297559 2.5855255300937799e-05 0 -0.0049999954133682026 1.668666461900369e-09 0 -0.0050033755039125324 1.4642209336822816e-05 0 -0.005002042584865969 4.7201687639145351e-06 0 -0.0049999954133682026 1.668666461900369e-09 0 -0.005002042584865969 4.7201687639145351e-06 0 -0.0050000161163513144 9.6173492781028565e-09 0 -0.0050033755039125324 1.4642209336822816e-05 0 -0.005002042584865969 4.7201687639145351e-06 0 -0.0050026023623821027 3.3401356933842639e-06 0 -0.005002042584865969 4.7201687639145351e-06 0 -0.0050000161163513144 9.6173492781028565e-09 0 -0.0050026023623821027 3.3401356933842639e-06 0 -0.0050000070824394362 -3.2169527314694046e-09 0 -0.0050002992847763264 -6.9618682211332057e-07 0 -0.0049999876697664879 5.3667164173040261e-09 0 -0.004999981053696468 1.2495265237083205e-09 0 -0.0049170203696297559 2.5855255300937799e-05 0 -0.0049534592446770949 9.7511902641427286e-06 0 -0.0049933957039231249 2.1854189167486713e-05 0 -0.0049967970689547992 1.2719578571364123e-06 0 -0.0049170203696297559 2.5855255300937799e-05 0 -0.0050212984368444976 -7.0696599407747965e-06 0 -0.0050002992847763264 -6.9618682211332057e-07 0 -0.0049999876697664879 5.3667164173040261e-09 0 -0.0049967970689547992 1.2719578571364123e-06 0 -0.0049534592446770949 9.7511902641427286e-06 0 -0.004958984880635087 4.3860531529137345e-05 0 -0.0049933957039231249 2.1854189167486713e-05 0 -0.0047793809870754515 7.3207170838627538e-05 0 -0.0047904403159684935 7.0563075396186292e-05 0 -0.0047200374823020419 0.00014242226741984428 0 -0.0047601706247528928 9.4851817879449297e-05 0 -0.0047314605056848974 8.2574642738881187e-05 0 -0.0049170203696297559 2.5855255300937799e-05 0 -0.0047793809870754515 7.3207170838627538e-05 0 -0.0047200374823020419 0.00014242226741984428 0 -0.0047314605056848974 8.2574642738881187e-05 0 -0.0047022068658514543 6.3729560490409523e-05 0 -0.0047601706247528928 9.4851817879449297e-05 0 -0.0047314605056848974 8.2574642738881187e-05 0 -0.0047488216581579763 6.0529921147606762e-05 0 -0.0047314605056848974 8.2574642738881187e-05 0 -0.0047488216581579763 6.0529921147606762e-05 0 -0.0047200218063821074 5.3167140719902684e-05 0 -0.0047200218063821074 5.3167140719902684e-05 0 -0.0046999504220507429 6.5637758613431332e-05 0 -0.004673648654907033 -6.0682166967693232e-07 0 -0.0047461821137520883 2.9338966326062828e-05 0 -0.0047200218063821074 5.3167140719902684e-05 0 -0.004673648654907033 -6.0682166967693232e-07 0 -0.0047488216581579763 6.0529921147606762e-05 0 -0.0047461821137520883 2.9338966326062828e-05 0 -0.0047200218063821074 5.3167140719902684e-05 0 -0.0047314605056848974 8.2574642738881187e-05 0 -0.0047200218063821074 5.3167140719902684e-05 0 -0.0047022068658514543 6.3729560490409523e-05 0 -0.0047405109539086334 7.9543446124934447e-05 0 -0.0047793809870754515 7.3207170838627538e-05 0 -0.0047793809870754515 7.3207170838627538e-05 0 -0.0046566961473112197 -9.7328082625433267e-06 0 -0.0046690301816375342 6.9682656453121938e-05 0 -0.0046515941013050817 -5.3212569942254639e-06 0 -0.0045899428118228135 3.0828397469402549e-05 0 -0.0046690301816375342 6.9682656453121938e-05 0 -0.0045899428118228135 3.0828397469402549e-05 0 -0.0045895809357355934 0.00011881287785591311 0 -0.0046515941013050817 -5.3212569942254639e-06 0 -0.0046104038689241209 -3.4076076635442658e-05 0 -0.0045899428118228135 3.0828397469402549e-05 0 -0.0047461821137520883 2.9338966326062828e-05 0 -0.004673648654907033 -6.0682166967693232e-07 0 -0.0047489214817142246 -2.8649765405523211e-06 0 -0.004673648654907033 -6.0682166967693232e-07 0 -0.0047489214817142246 -2.8649765405523211e-06 0 -0.0046931032812635798 -3.8182871827774011e-05 0 -0.0047569901475134528 -4.3912528742327566e-05 0 -0.0047489214817142246 -2.8649765405523211e-06 0 -0.0046931032812635798 -3.8182871827774011e-05 0 -0.0045226073162393026 9.7480646777420885e-06 0 -0.0044711624399950663 5.4684735791970653e-05 0 -0.0044518951601662995 -3.9999856199955445e-05 0 -0.0045226073162393026 9.7480646777420885e-06 0 -0.0044518951601662995 -3.9999856199955445e-05 0 -0.0045260839083714382 -5.6751834558936985e-05 0 -0.0045226073162393026 9.7480646777420885e-06 0 -0.0045676462937563455 -2.5718327475326065e-05 0 -0.0045260839083714382 -5.6751834558936985e-05 0 -0.0045226073162393026 9.7480646777420885e-06 0 -0.0045676462937563455 -2.5718327475326065e-05 0 -0.0045899428118228135 3.0828397469402549e-05 0 -0.0046104038689241209 -3.4076076635442658e-05 0 -0.0045676462937563455 -2.5718327475326065e-05 0 -0.0045899428118228135 3.0828397469402549e-05 0 -0.0045226073162393026 9.7480646777420885e-06 0 -0.0045899428118228135 3.0828397469402549e-05 0 -0.0045272955412064119 9.3262755070124266e-05 0 -0.0045899428118228135 3.0828397469402549e-05 0 -0.0045272955412064119 9.3262755070124266e-05 0 -0.0045895809357355934 0.00011881287785591311 0 -0.0045226073162393026 9.7480646777420885e-06 0 -0.0045272955412064119 9.3262755070124266e-05 0 -0.0044711624399950663 5.4684735791970653e-05 0 -0.0045272955412064119 9.3262755070124266e-05 0 -0.0045895809357355934 0.00011881287785591311 0 -0.0045111624581626797 0.00016763142016461865 0 -0.0045272955412064119 9.3262755070124266e-05 0 -0.0045111624581626797 0.00016763142016461865 0 -0.0044897560842926754 0.00014702267767768766 0 -0.0045272955412064119 9.3262755070124266e-05 0 -0.0044897560842926754 0.00014702267767768766 0 -0.0044711624399950663 5.4684735791970653e-05 0 -0.0047904403159684935 7.0563075396186292e-05 0 -0.004796671087044348 6.9636130655501726e-05 0 -0.0049967970689547992 1.2719578571364123e-06 0 -0.0050000080729656008 -4.3206255050514291e-09 0 -0.0050082886205660765 5.3694257222201563e-06 0 -0.0049999876697664879 5.3667164173040261e-09 0 -0.0049967970689547992 1.2719578571364123e-06 0 -0.0050000080729656008 -4.3206255050514291e-09 0 -0.0049933957039231249 2.1854189167486713e-05 0 -0.0049967970689547992 1.2719578571364123e-06 0 -0.0050082886205660765 5.3694257222201563e-06 0 -0.004647836015206591 0.00016738523598089667 0 -0.0048967231504814029 1.2486115510145577e-05 0 -0.004768571292534815 0.00010278239603587497 0 -0.0047651311428088131 9.9936775802745708e-05 0 -0.004766366464802033 0.00010412118760534508 0 -0.004796671087044348 6.9636130655501726e-05 0 -0.0048967231504814029 1.2486115510145577e-05 0 -0.004796671087044348 6.9636130655501726e-05 0 -0.004647836015206591 0.00016738523598089667 0 -0.0050000048841515165 7.6094975674121133e-08 0 -0.004796671087044348 6.9636130655501726e-05 0 -0.0049999999514557568 6.1596544996862751e-11 0 -0.0049992651086649444 9.0067722692224911e-08 0 -0.004999998368380696 1.2554105024414441e-10 0 -0.0049992651086649444 9.0067722692224911e-08 0 -0.0049993710033925057 5.3269071238569892e-08 0 -0.004999998368380696 1.2554105024414441e-10 0 -0.0048967231504814029 1.2486115510145577e-05 0 -0.0049998866730706958 1.7345359760573107e-08 0 -0.0049997210355467855 4.9216578654754524e-08 0 -0.0049999991772573492 1.0754893078331497e-10 0 -0.0050000000512686396 -8.2459982339788032e-11 0 -0.0048967231504814029 1.2486115510145577e-05 0 -0.0050000358932310264 -3.5729683426142148e-08 0 -0.004991506915503631 5.0096680606177719e-06 0 -0.0049917604906411367 1.9956275521837286e-06 0 -0.0049999620837793907 1.3694872947341542e-08 0 -0.0049999620837793907 1.3694872947341542e-08 0 -0.0049999642643204032 8.0673567563741537e-09 0 -0.0049972153726611096 1.0801018906852324e-06 0 -0.004991506915503631 5.0096680606177719e-06 0 -0.0049999620837793907 1.3694872947341542e-08 0 -0.0049944491629399339 5.0137916335029053e-06 0 -0.0049999620837793907 1.3694872947341542e-08 0 -0.0049944491629399339 5.0137916335029053e-06 0 -0.0049931825167931565 4.9483146735513717e-06 0 -0.0049944491629399339 5.0137916335029053e-06 0 -0.0049931825167931565 4.9483146735513717e-06 0 -0.0049910665226171906 9.1723332239258063e-06 0 -0.004647836015206591 0.00016738523598089667 0 -0.0043633262692566689 0.00013665620151604802 0 -0.004647836015206591 0.00016738523598089667 0 -0.0045729508134836599 0.00011655686427605204 0 -0.0043406643864445935 0.00039808589613670988 0 -0.0043012706724452386 0.00018590270768579963 0 -0.0041449529524368242 0.00021151870884790136 0 -0.004991506915503631 5.0096680606177719e-06 0 -0.0049944491629399339 5.0137916335029053e-06 0 -0.0049910665226171906 9.1723332239258063e-06 0 -0.0049999620837793907 1.3694872947341542e-08 0 -0.0049931825167931565 4.9483146735513717e-06 0 -0.0049972153726611096 1.0801018906852324e-06 0 -0.0049931825167931565 4.9483146735513717e-06 0 -0.0049878435117020085 5.4718776489476023e-06 0 -0.0049972153726611096 1.0801018906852324e-06 0 -0.0049931825167931565 4.9483146735513717e-06 0 -0.0049831093285776463 8.5348002257917144e-06 0 -0.0049910665226171906 9.1723332239258063e-06 0 -0.0049931825167931565 4.9483146735513717e-06 0 -0.0049814470502599194 8.1923473706962594e-06 0 -0.0049831093285776463 8.5348002257917144e-06 0 -0.0049931825167931565 4.9483146735513717e-06 0 -0.0049814470502599194 8.1923473706962594e-06 0 -0.0049878435117020085 5.4718776489476023e-06 0 -0.0049814470502599194 8.1923473706962594e-06 0 -0.0049606745759408419 4.3947976985300814e-06 0 -0.0049780627400993708 7.7597726747088086e-06 0 -0.0049814470502599194 8.1923473706962594e-06 0 -0.0049878435117020085 5.4718776489476023e-06 0 -0.0049780627400993708 7.7597726747088086e-06 0 -0.0049814470502599194 8.1923473706962594e-06 0 -0.0049606745759408419 4.3947976985300814e-06 0 -0.0049831093285776463 8.5348002257917144e-06 0 -0.0049606745759408419 4.3947976985300814e-06 0 -0.0049783116786964584 8.5437907425624061e-06 0 -0.0049831093285776463 8.5348002257917144e-06 0 -0.0049606745759408419 4.3947976985300814e-06 0 -0.0049783116786964584 8.5437907425624061e-06 0 -0.0049244244572332922 3.4395283628983318e-06 0 -0.0049783116786964584 8.5437907425624061e-06 0 -0.0049976910352538123 -1.2107815949199238e-05 0 -0.0049910665226171906 9.1723332239258063e-06 0 -0.0049783116786964584 8.5437907425624061e-06 0 -0.0049831093285776463 8.5348002257917144e-06 0 -0.0049910665226171906 9.1723332239258063e-06 0 -0.0049783116786964584 8.5437907425624061e-06 0 -0.0049976910352538123 -1.2107815949199238e-05 0 -0.0049244244572332922 3.4395283628983318e-06 0 -0.0049606745759408419 4.3947976985300814e-06 0 -0.0049244244572332922 3.4395283628983318e-06 0 -0.0049647293272176559 6.3787262871720728e-06 0 -0.0049051440950571481 1.2259987410099959e-05 0 -0.0048265714700796306 4.741614260493995e-05 0 -0.0043012706724452386 0.00018590270768579963 0 -0.0041449529524368242 0.00021151870884790136 0 -0.0042025335485312357 8.5394163578225173e-05 0 -0.0044684534451287419 -1.197217529410824e-06 0 -0.0045729508134836599 0.00011655686427605204 0 -0.0039431884187386239 1.7378352079059411e-05 0 -0.0041449529524368242 0.00021151870884790136 0 -0.0041001698591142622 -2.4649410210284361e-05 0 -0.0041449529524368242 0.00021151870884790136 0 -0.0041001698591142622 -2.4649410210284361e-05 0 -0.0042025335485312357 8.5394163578225173e-05 0 -0.0043012706724452386 0.00018590270768579963 0 -0.0042025335485312357 8.5394163578225173e-05 0 -0.0042629401438893308 -3.2050958306336743e-05 0 -0.0041001698591142622 -2.4649410210284361e-05 0 -0.0042025335485312357 8.5394163578225173e-05 0 -0.0042629401438893308 -3.2050958306336743e-05 0 -0.0043633262692566689 0.00013665620151604802 0 -0.0043772589293346268 -3.3958724451199031e-05 0 -0.0044518951601662995 -3.9999856199955445e-05 0 -0.0044324553415249204 -0.00013914927229983121 0 -0.0044910534827862251 -8.811726465765866e-05 0 -0.0043772589293346268 -3.3958724451199031e-05 0 -0.0041477177903388729 -0.00020631982734333021 0 -0.0042629401438893308 -3.2050958306336743e-05 0 -0.0041453390552487531 -0.00017945239379777228 0 -0.0042243443700254518 -0.00025312485175675776 0 -0.0041001698591142622 -2.4649410210284361e-05 0 -0.0041453390552487531 -0.00017945239379777228 0 -0.0040420865384901208 -0.00018625322943499815 0 -0.0041001698591142622 -2.4649410210284361e-05 0 -0.0040420865384901208 -0.00018625322943499815 0 -0.0039416293850903349 -0.00014098106154443728 0 -0.0041001698591142622 -2.4649410210284361e-05 0 -0.0042629401438893308 -3.2050958306336743e-05 0 -0.0041453390552487531 -0.00017945239379777228 0 -0.0039684818458485972 -0.00031511745031915481 0 -0.0040186084257221805 -0.00030344338634714408 0 -0.0040244495636896083 -0.00032928603330870701 0 -0.0041453390552487531 -0.00017945239379777228 0 -0.0040518906086475844 -0.00029206048612888223 0 -0.0041952878336278202 -0.00026096122825274395 0 -0.0041267141217829631 -0.0002289399169688468 0 -0.0040681019628015487 -0.00025749100524476414 0 -0.0041453390552487531 -0.00017945239379777228 0 -0.0040420865384901208 -0.00018625322943499815 0 -0.0040518906086475844 -0.00029206048612888223 0 -0.0040110012411298896 -0.00030008807372008191 0 -0.0040681019628015487 -0.00025749100524476414 0 -0.0040522752687761829 -0.0001974843872442248 0 -0.0040650403202542162 -0.00028157379698077079 0 -0.0043442990212208283 -0.00020502475666991918 0 -0.0040681019628015487 -0.00025749100524476414 0 -0.0038717733396395546 -0.00023901601096654247 0 -0.0041477177903388729 -0.00020631982734333021 0 -0.0038717733396395546 -0.00023901601096654247 0 -0.004003689883765477 -0.00027279878497327913 0 -0.0039766322576606575 -0.00027869482665923077 0 -0.0039825829354524535 -0.00023931652161639268 0 -0.0040681019628015487 -0.00025749100524476414 0 -0.0041477177903388729 -0.00020631982734333021 0 -0.0040186084257221805 -0.00030344338634714408 0 -0.0040264927542971399 -0.00031634161940028609 0 -0.0040244495636896083 -0.00032928603330870701 0 -0.0040522752687761829 -0.0001974843872442248 0 -0.0040438864473895143 -0.00024729704294905154 0 -0.0040650403202542162 -0.00028157379698077079 0 -0.0038717733396395546 -0.00023901601096654247 0 -0.0035375138147856243 -0.00023155791504420121 0 -0.0037606382758508393 -0.00024617205934065838 0 -0.0036850628908908769 -0.00012489496857056524 0 -0.0037841654465069251 -9.7198620028418758e-05 0 -0.0038717733396395546 -0.00023901601096654247 0 -0.0037986962353595936 -0.000215446021737806 0 -0.0041453390552487531 -0.00017945239379777228 0 -0.00419496884098424 -0.00025955366141973592 0 -0.0042243443700254518 -0.00025312485175675776 0 -0.0049976910352538123 -1.2107815949199238e-05 0 -0.0049244244572332922 3.4395283628983318e-06 0 -0.0047859375523106873 -0.00025105551287196547 0 -0.0039431884187386239 1.7378352079059411e-05 0 -0.0039416293850903349 -0.00014098106154443728 0 -0.0037514252607852103 -0.00018094324114559051 0 -0.0044684534451287419 -1.197217529410824e-06 0 -0.004258059660901382 -0.00021801360709996237 0 -0.0049244244572332922 3.4395283628983318e-06 0 -0.0047859375523106873 -0.00025105551287196547 0 -0.0047151904524542583 -7.6124199722895684e-05 0 -0.0039431884187386239 1.7378352079059411e-05 0 -0.0041001698591142622 -2.4649410210284361e-05 0 -0.0039416293850903349 -0.00014098106154443728 0 -0.0040420865384901208 -0.00018625322943499815 0 -0.0039416293850903349 -0.00014098106154443728 0 -0.0039571628327322809 -0.00023098948720025615 0 -0.0040420865384901208 -0.00018625322943499815 0 -0.0040518906086475844 -0.00029206048612888223 0 -0.0039571628327322809 -0.00023098948720025615 0 -0.0040518906086475844 -0.00029206048612888223 0 -0.0039571628327322809 -0.00023098948720025615 0 -0.003897813681740009 -0.0003175388416450815 0 -0.0040110012411298896 -0.00030008807372008191 0 -0.0039127981151674783 -0.00031814745758090661 0 -0.0039571628327322809 -0.00023098948720025615 0 -0.003897813681740009 -0.0003175388416450815 0 -0.0038679845815534032 -0.00023606329760560236 0 -0.0039416293850903349 -0.00014098106154443728 0 -0.0039571628327322809 -0.00023098948720025615 0 -0.0038679845815534032 -0.00023606329760560236 0 -0.0039416293850903349 -0.00014098106154443728 0 -0.0038679845815534032 -0.00023606329760560236 0 -0.0037514252607852103 -0.00018094324114559051 0 -0.0037972279253277478 -0.00030424154344361337 0 -0.0037514252607852103 -0.00018094324114559051 0 -0.0037026761154251033 -0.00034925731610076693 0 -0.003897813681740009 -0.0003175388416450815 0 -0.0038679845815534032 -0.00023606329760560236 0 -0.0037972279253277478 -0.00030424154344361337 0 -0.0038679845815534032 -0.00023606329760560236 0 -0.0037972279253277478 -0.00030424154344361337 0 -0.0037514252607852103 -0.00018094324114559051 0 -0.0037972279253277478 -0.00030424154344361337 0 -0.0037857145817927922 -0.0004222076631649055 0 -0.0037026761154251033 -0.00034925731610076693 0 -0.003897813681740009 -0.0003175388416450815 0 -0.0037972279253277478 -0.00030424154344361337 0 -0.0037857145817927922 -0.0004222076631649055 0 -0.003897813681740009 -0.0003175388416450815 0 -0.0037857145817927922 -0.0004222076631649055 0 -0.003946087899809732 -0.00036158544558634141 0 -0.0032013715001233218 -0.0003512182189921522 0 -0.0032686508758356394 -0.00031329429195478282 0 -0.0025563223451313738 -0.00029191763101382397 0 -0.0026599407700923011 -0.00024422758767884555 0 -0.0026104027132482512 -0.00033220130319500129 0 -0.0039684818458485972 -0.00031511745031915481 0 -0.003897813681740009 -0.0003175388416450815 0 -0.003946087899809732 -0.00036158544558634141 0 -0.0026104027132482512 -0.00033220130319500129 0 -0.0026924131858836299 -0.0002973862128626746 0 -0.0026681617849578453 -0.00035475889689425862 0 -0.0026599407700923011 -0.00024422758767884555 0 -0.0026104027132482512 -0.00033220130319500129 0 -0.0026924131858836299 -0.0002973862128626746 0 -0.0025563223451313738 -0.00029191763101382397 0 -0.0026104027132482512 -0.00033220130319500129 0 -0.002520356300231558 -0.00037756230841965609 0 -0.0033742665138777567 -0.00026430946791421389 0 -0.0033504142941830346 -0.00027089468853485271 0 -0.003322792895531224 -0.00042427814965764613 0 -0.0035375138147856243 -0.00023155791504420121 0 -0.0030437994237312526 -0.00037183349539584654 0 -0.0037986962353595936 -0.000215446021737806 0 -0.0038352344796470728 -0.00052621231308386935 0 -0.0033742665138777567 -0.00026430946791421389 0 -0.003322792895531224 -0.00042427814965764613 0 -0.0034895594336080589 -0.00045286716529453069 0 -0.0037986962353595936 -0.000215446021737806 0 -0.0035375138147856243 -0.00023155791504420121 0 -0.0039684818458485972 -0.00031511745031915481 0 -0.003946087899809732 -0.00036158544558634141 0 -0.0040244495636896083 -0.00032928603330870701 0 -0.0027816950162723375 -0.00020726816382450079 0 -0.0026924131858836299 -0.0002973862128626746 0 -0.0027625781258011368 -0.00029221160008462539 0 -0.0032686508758356394 -0.00031329429195478282 0 -0.0035375138147856243 -0.00023155791504420121 0 -0.0026599407700923011 -0.00024422758767884555 0 -0.0027816950162723375 -0.00020726816382450079 0 -0.0026924131858836299 -0.0002973862128626746 0 -0.0026924131858836299 -0.0002973862128626746 0 -0.0027625781258011368 -0.00029221160008462539 0 -0.0027452375113227929 -0.00037361058075971953 0 -0.0026924131858836299 -0.0002973862128626746 0 -0.0027452375113227929 -0.00037361058075971953 0 -0.0026681617849578453 -0.00035475889689425862 0 -0.0030437994237312526 -0.00037183349539584654 0 -0.0029231927657071767 -0.00045950797790757919 0 -0.003322792895531224 -0.00042427814965764613 0 -0.003389705849327896 -0.00051629611528208636 0 -0.0034895594336080589 -0.00045286716529453069 0 -0.003322792895531224 -0.00042427814965764613 0 -0.003389705849327896 -0.00051629611528208636 0 -0.0032949994212485931 -0.00057826664838359532 0 -0.003389705849327896 -0.00051629611528208636 0 -0.0034895594336080589 -0.00045286716529453069 0 -0.0034513068519118292 -0.00061028961068287891 0 -0.004122426203730949 -0.00054412192694286356 0 -0.0043795318443306357 -0.00061289921317461064 0 -0.0042748254691353299 -0.00079201885517793272 0 -0.0038352344796470728 -0.00052621231308386935 0 -0.0036180819533210853 -0.00067332409015936141 0 -0.004122426203730949 -0.00054412192694286356 0 -0.0041428116747429756 -0.00031869776448070248 0 -0.0042991808282930241 -0.00041000758498973069 0 -0.0039628657390886578 -0.00029097236161559822 0 -0.004122426203730949 -0.00054412192694286356 0 -0.0041428116747429756 -0.00031869776448070248 0 -0.004264752765029284 -0.0003079226700325484 0 -0.0041428116747429756 -0.00031869776448070248 0 -0.0042991808282930241 -0.00041000758498973069 0 -0.0044489451005049968 -0.00032209159940349883 0 -0.0042991808282930241 -0.00041000758498973069 0 -0.0045295049154049274 -0.00046721734186891921 0 -0.0044489451005049968 -0.00032209159940349883 0 -0.0043341241620856513 -0.00029866148913304329 0 -0.0042991808282930241 -0.00041000758498973069 0 -0.004264752765029284 -0.0003079226700325484 0 -0.0043341241620856513 -0.00029866148913304329 0 -0.0042991808282930241 -0.00041000758498973069 0 -0.0042991808282930241 -0.00041000758498973069 0 -0.0043795318443306357 -0.00061289921317461064 0 -0.0045295049154049274 -0.00046721734186891921 0 -0.004122426203730949 -0.00054412192694286356 0 -0.0042991808282930241 -0.00041000758498973069 0 -0.0043795318443306357 -0.00061289921317461064 0 -0.0043795318443306357 -0.00061289921317461064 0 -0.0046278601040137457 -0.00062718013929099798 0 -0.0045295049154049274 -0.00046721734186891921 0 -0.0042275710357823817 -0.0004785028612119299 0 -0.0043439146027237068 -0.00036065369694128827 0 -0.0043823537044558542 -0.00041777026546032764 0 -0.0043489106650563356 -0.00048157957832308776 0 -0.0042555558187643379 -0.0004416301482327132 0 -0.0044222593467608765 -0.00045970942826620802 0 -0.0044500474155638936 -0.0004349388477081656 0 -0.0044924779632088416 -0.00018716413693972673 0 -0.0043823537044558542 -0.00041777026546032764 0 -0.0044026030075337173 -0.00028039013522350177 0 -0.0042555558187643379 -0.0004416301482327132 0 -0.0046095750594072919 -0.00023200473071415488 0 -0.0043439146027237068 -0.00036065369694128827 0 -0.0043439146027237068 -0.00036065369694128827 0 -0.0046694835669239187 -0.00021808367396561429 0 -0.0047709764325311382 -0.00019435316942660602 0 -0.004675584338946122 -0.00028387732517207615 0 -0.0046979431342821197 -0.00015932254297330265 0 -0.0042275710357823817 -0.0004785028612119299 0 -0.0046694835669239187 -0.00021808367396561429 0 -0.0046278601040137457 -0.00062718013929099798 0 -0.0045295049154049274 -0.00046721734186891921 0 -0.0047076016763149403 -0.00028096195820855106 0 -0.0045295049154049274 -0.00046721734186891921 0 -0.0045754945862824335 -0.0003051782011717427 0 -0.0047076016763149403 -0.00028096195820855106 0 -0.0044489451005049968 -0.00032209159940349883 0 -0.0045295049154049274 -0.00046721734186891921 0 -0.0045754945862824335 -0.0003051782011717427 0 -0.0045413807868059175 -0.00023720390058067062 0 -0.0046145757318862887 -0.00013579485503832159 0 -0.0044430805127509713 -0.0002399729846746763 0 -0.0044489451005049968 -0.00032209159940349883 0 -0.0045754945862824335 -0.0003051782011717427 0 -0.0045413807868059175 -0.00023720390058067062 0 -0.0044489451005049968 -0.00032209159940349883 0 -0.0045413807868059175 -0.00023720390058067062 0 -0.0044430805127509713 -0.0002399729846746763 0 -0.0045754945862824335 -0.0003051782011717427 0 -0.0046395535025242152 -0.00020669732291044628 0 -0.0047076016763149403 -0.00028096195820855106 0 -0.0045754945862824335 -0.0003051782011717427 0 -0.0045413807868059175 -0.00023720390058067062 0 -0.0046395535025242152 -0.00020669732291044628 0 -0.0045413807868059175 -0.00023720390058067062 0 -0.0046395535025242152 -0.00020669732291044628 0 -0.0046145757318862887 -0.00013579485503832159 0 -0.0046395535025242152 -0.00020669732291044628 0 -0.0046145757318862887 -0.00013579485503832159 0 -0.0046738244600574748 -0.00013556990292378537 0 -0.0047709764325311382 -0.00019435316942660602 0 -0.0047688378397901512 -0.00011753026587828115 0 -0.0046979431342821197 -0.00015932254297330265 0 -0.0047688378397901512 -0.00011753026587828115 0 -0.0047075872631225603 -0.00012890047282714139 0 -0.0046979431342821197 -0.00015932254297330265 0 -0.0047016806733089214 -0.0001634554155418935 0 -0.0046694835669239187 -0.00021808367396561429 0 -0.0046395535025242152 -0.00020669732291044628 0 -0.0047201789786949448 -0.00019826869359668723 0 -0.0047076016763149403 -0.00028096195820855106 0 -0.0047016806733089214 -0.0001634554155418935 0 -0.0047225391197610904 -9.4870373042728291e-05 0 -0.0047201789786949448 -0.00019826869359668723 0 -0.0046738244600574748 -0.00013556990292378537 0 -0.0047251915968024348 -7.7710222546924912e-05 0 -0.0046395535025242152 -0.00020669732291044628 0 -0.0047201789786949448 -0.00019826869359668723 0 -0.0046738244600574748 -0.00013556990292378537 0 -0.0047688378397901512 -0.00011753026587828115 0 -0.0047075872631225603 -0.00012890047282714139 0 -0.0047251915968024348 -7.7710222546924912e-05 0 -0.0046738244600574748 -0.00013556990292378537 0 -0.0047251915968024348 -7.7710222546924912e-05 0 -0.0046575188937335327 -8.4001502955972563e-05 0 -0.0047251915968024348 -7.7710222546924912e-05 0 -0.0046931032812635798 -3.8182871827774011e-05 0 -0.0046575188937335327 -8.4001502955972563e-05 0 -0.0047569901475134528 -4.3912528742327566e-05 0 -0.0047251915968024348 -7.7710222546924912e-05 0 -0.0046931032812635798 -3.8182871827774011e-05 0 -0.0046332385574594124 -7.9564111585733071e-05 0 -0.0046575188937335327 -8.4001502955972563e-05 0 -0.0045501950515320867 -0.00011144442762377359 0 -0.004673648654907033 -6.0682166967693232e-07 0 -0.0046931032812635798 -3.8182871827774011e-05 0 -0.0046332385574594124 -7.9564111585733071e-05 0 -0.0046515941013050817 -5.3212569942254639e-06 0 -0.0046104038689241209 -3.4076076635442658e-05 0 -0.0046332385574594124 -7.9564111585733071e-05 0 -0.0046566961473112197 -9.7328082625433267e-06 0 -0.0046388116630510512 -7.2182699335600898e-05 0 -0.0046363750888232446 -8.8083019598443531e-05 0 -0.0044780980637051503 -0.00011517071741896771 0 -0.0046145757318862887 -0.00013579485503832159 0 -0.0046575188937335327 -8.4001502955972563e-05 0 -0.0043569068174138291 -0.00013314159042873737 0 -0.0046145757318862887 -0.00013579485503832159 0 -0.0046738244600574748 -0.00013556990292378537 0 -0.0046575188937335327 -8.4001502955972563e-05 0 -0.0046931032812635798 -3.8182871827774011e-05 0 -0.0046332385574594124 -7.9564111585733071e-05 0 -0.0046575188937335327 -8.4001502955972563e-05 0 -0.0046104038689241209 -3.4076076635442658e-05 0 -0.0046332385574594124 -7.9564111585733071e-05 0 -0.0045778881429730973 -6.1615300383904598e-05 0 -0.0046104038689241209 -3.4076076635442658e-05 0 -0.0045676462937563455 -2.5718327475326065e-05 0 -0.0045778881429730973 -6.1615300383904598e-05 0 -0.0046332385574594124 -7.9564111585733071e-05 0 -0.0045778881429730973 -6.1615300383904598e-05 0 -0.0045501950515320867 -0.00011144442762377359 0 -0.0045778881429730973 -6.1615300383904598e-05 0 -0.0045260839083714382 -5.6751834558936985e-05 0 -0.0045501950515320867 -0.00011144442762377359 0 -0.0045676462937563455 -2.5718327475326065e-05 0 -0.0045778881429730973 -6.1615300383904598e-05 0 -0.0045260839083714382 -5.6751834558936985e-05 0 -0.0044518951601662995 -3.9999856199955445e-05 0 -0.0045260839083714382 -5.6751834558936985e-05 0 -0.0044910534827862251 -8.811726465765866e-05 0 -0.0045260839083714382 -5.6751834558936985e-05 0 -0.0044910534827862251 -8.811726465765866e-05 0 -0.0045501950515320867 -0.00011144442762377359 0 -0.0037986962353595936 -0.000215446021737806 0 -0.0043633993377418575 -0.00020742847112758012 0 -0.0041477177903388729 -0.00020631982734333021 0 -0.0044780980637051503 -0.00011517071741896771 0 -0.0044324553415249204 -0.00013914927229983121 0 -0.0044910534827862251 -8.811726465765866e-05 0 -0.0045501950515320867 -0.00011144442762377359 0 -0.0039628657390886578 -0.00029097236161559822 0 -0.0041428116747429756 -0.00031869776448070248 0 -0.0042829878300524359 -0.00020275832250712735 0 -0.0040522752687761829 -0.0001974843872442248 0 -0.0043442990212208283 -0.00020502475666991918 0 -0.0043569068174138291 -0.00013314159042873737 0 -0.004264752765029284 -0.0003079226700325484 0 -0.0041428116747429756 -0.00031869776448070248 0 -0.0042829878300524359 -0.00020275832250712735 0 -0.0043341241620856513 -0.00029866148913304329 0 -0.0042829878300524359 -0.00020275832250712735 0 -0.0044430805127509713 -0.0002399729846746763 0 -0.004264752765029284 -0.0003079226700325484 0 -0.0043341241620856513 -0.00029866148913304329 0 -0.0042829878300524359 -0.00020275832250712735 0 -0.0045772522397793504 -0.00013930907688843131 0 -0.0043633993377418575 -0.00020742847112758012 0 -0.0046145757318862887 -0.00013579485503832159 0 -0.0043442990212208283 -0.00020502475666991918 0 -0.0043569068174138291 -0.00013314159042873737 0 -0.0046145757318862887 -0.00013579485503832159 0 -0.0042829878300524359 -0.00020275832250712735 0 -0.0044430805127509713 -0.0002399729846746763 0 -0.0044489451005049968 -0.00032209159940349883 0 -0.0043341241620856513 -0.00029866148913304329 0 -0.0044430805127509713 -0.0002399729846746763 0 -0.0049996094395799344 1.2360551345426566e-07 0 -0.0049765881133199451 3.5791694101993316e-06 0 -0.0050000642146954882 -2.7166143102497044e-08 0 -0.0044008278188941308 1.5545320570197174e-07 0 -0.0043113753738179541 1.6438948434238556e-05 0 -0.0046529348252493889 -3.42211695319866e-07 0 -0.0044008278188941308 1.5545320570197174e-07 0 -0.0043113753738179541 1.6438948434238556e-05 0 -0.0042338801808054563 3.132733444058515e-05 0 -0.0043113753738179541 1.6438948434238556e-05 0 -0.004286919742902507 -0.00010962384176286104 0 -0.0046529348252493889 -3.42211695319866e-07 0 -0.0043113753738179541 1.6438948434238556e-05 0 -0.004286919742902507 -0.00010962384176286104 0 -0.0042076744739053913 -4.4986014333402642e-06 0 -0.0046688699939991755 -5.883133709099072e-07 0 -0.0046542868545908127 5.5475407898488059e-09 0 -0.0047284690433762365 -5.7610229445732834e-09 0 -0.0046290133525167644 -3.2885305361991709e-05 0 -0.0046531782947238278 -4.3259132056610977e-08 0 -0.004974114276864886 -4.9366278512523836e-05 0 -0.0047299446427082311 -1.9909196065741669e-07 0 -0.0049273047635173739 1.1757236722823424e-05 0 -0.0046290133525167644 -3.2885305361991709e-05 0 -0.0047296037750934614 -4.2229791306221526e-08 0 -0.0049996094395799344 1.2360551345426566e-07 0 -0.0049273047635173739 1.1757236722823424e-05 0 -0.0049765881133199451 3.5791694101993316e-06 0 -0.0047299446427082311 -1.9909196065741669e-07 0 -0.0049996094395799344 1.2360551345426566e-07 0 -0.0049273047635173739 1.1757236722823424e-05 0 -0.004974114276864886 -4.9366278512523836e-05 0 -0.0049273047635173739 1.1757236722823424e-05 0 -0.0049765881133199451 3.5791694101993316e-06 0 -0.004974114276864886 -4.9366278512523836e-05 0 -0.0049765881133199451 3.5791694101993316e-06 0 -0.0049962731520480788 -1.4238438310881154e-05 0 -0.0049765881133199451 3.5791694101993316e-06 0 -0.0049962731520480788 -1.4238438310881154e-05 0 -0.0050000642146954882 -2.7166143102497044e-08 0 -0.004610552497540321 1.9382308716199267e-05 0 -0.004601835980397811 5.5708185474566377e-06 0 -0.0046520362323897819 -5.1749806863728733e-06 0 -0.0043554443229690803 -2.5436028649649e-05 0 -0.0043750657353657778 -2.1834876549609648e-05 0 -0.00455918104929096 1.1581963634669948e-05 0 -0.004610552497540321 1.9382308716199267e-05 0 -0.004601835980397811 5.5708185474566377e-06 0 -0.004286919742902507 -0.00010962384176286104 0 -0.0041767313524308704 -6.0504629646336726e-05 0 -0.0042076744739053913 -4.4986014333402642e-06 0 -0.0046290133525167644 -3.2885305361991709e-05 0 -0.004835635797545511 4.30257473290907e-06 0 -0.0046290133525167644 -3.2885305361991709e-05 0 -0.0043554443229690803 -2.5436028649649e-05 0 -0.0042076744739053913 -4.4986014333402642e-06 0 -0.0041588861893321659 1.7512039967333914e-05 0 -0.0041935797240533514 3.9455099306625973e-05 0 -0.0043113753738179541 1.6438948434238556e-05 0 -0.0042076744739053913 -4.4986014333402642e-06 0 -0.0041935797240533514 3.9455099306625973e-05 0 -0.0041767313524308704 -6.0504629646336726e-05 0 -0.0042076744739053913 -4.4986014333402642e-06 0 -0.0041588861893321659 1.7512039967333914e-05 0 -0.0041767313524308704 -6.0504629646336726e-05 0 -0.0041306280207094627 -3.3855979533936087e-05 0 -0.0041588861893321659 1.7512039967333914e-05 0 -0.0041306280207094627 -3.3855979533936087e-05 0 -0.0041182934433050553 1.7850878197794409e-05 0 -0.0041588861893321659 1.7512039967333914e-05 0 -0.0041306280207094627 -3.3855979533936087e-05 0 -0.0040963027169625913 -2.2426257932751988e-05 0 -0.0041182934433050553 1.7850878197794409e-05 0 -0.0045312449706689057 1.9620893570536685e-05 0 -0.0041168779130009887 -5.3826419202150812e-05 0 -0.0043624934584515791 0.00015356288887769613 0 -0.0045030439696117112 -0.0001461758996494525 0 -0.0041900199996048951 -0.00011020226252528752 0 -0.0043750657353657778 -2.1834876549609648e-05 0 -0.0045312449706689057 1.9620893570536685e-05 0 -0.0046729999748079433 2.7006575501258982e-05 0 -0.0047439748884229426 3.2919407971816677e-05 0 -0.0047097144580530628 -1.7998801823870554e-05 0 -0.0046520362323897819 -5.1749806863728733e-06 0 -0.0046729999748079433 2.7006575501258982e-05 0 -0.0047097144580530628 -1.7998801823870554e-05 0 -0.004610552497540321 1.9382308716199267e-05 0 -0.0046520362323897819 -5.1749806863728733e-06 0 -0.0046729999748079433 2.7006575501258982e-05 0 -0.0050000642146954882 -2.7166143102497044e-08 0 -0.0049999369286880839 -5.7451806222773506e-06 0 -0.0049999642643204032 8.0673567563741537e-09 0 -0.004835635797545511 4.30257473290907e-06 0 -0.0048160716708106005 7.816456922357136e-06 0 -0.0049962731520480788 -1.4238438310881154e-05 0 -0.0050000642146954882 -2.7166143102497044e-08 0 -0.0049999369286880839 -5.7451806222773506e-06 0 -0.0048160716708106005 7.816456922357136e-06 0 -0.0049350798925430692 2.9444593098615526e-05 0 -0.0049999369286880839 -5.7451806222773506e-06 0 -0.0049996755764571748 -2.4521078735174231e-06 0 -0.0049999642643204032 8.0673567563741537e-09 0 -0.0049996755764571748 -2.4521078735174231e-06 0 -0.0049999642643204032 8.0673567563741537e-09 0 -0.0049972153726611096 1.0801018906852324e-06 0 -0.0049878435117020085 5.4718776489476023e-06 0 -0.0049972153726611096 1.0801018906852324e-06 0 -0.0049863120980213399 5.5075527049584313e-06 0 -0.0049854746338553997 8.4042871320949029e-06 0 -0.0049863120980213399 5.5075527049584313e-06 0 -0.0049780627400993708 7.7597726747088086e-06 0 -0.0049350798925430692 2.9444593098615526e-05 0 -0.004989096184468504 9.9987084494619329e-06 0 -0.0049878435117020085 5.4718776489476023e-06 0 -0.0049863120980213399 5.5075527049584313e-06 0 -0.0049780627400993708 7.7597726747088086e-06 0 -0.0049854746338553997 8.4042871320949029e-06 0 -0.0049972153726611096 1.0801018906852324e-06 0 -0.0049863120980213399 5.5075527049584313e-06 0 -0.0049350798925430692 2.9444593098615526e-05 0 -0.0050106778846192232 -4.7357105280066529e-06 0 -0.0049629824998506074 1.0632079447125303e-05 0 -0.0049780627400993708 7.7597726747088086e-06 0 -0.0049666535601085434 5.3711265007385095e-06 0 -0.0049606745759408419 4.3947976985300814e-06 0 -0.0049666535601085434 5.3711265007385095e-06 0 -0.0049647293272176559 6.3787262871720728e-06 0 -0.0049606745759408419 4.3947976985300814e-06 0 -0.0049780627400993708 7.7597726747088086e-06 0 -0.0049666535601085434 5.3711265007385095e-06 0 -0.0049629824998506074 1.0632079447125303e-05 0 -0.0049666535601085434 5.3711265007385095e-06 0 -0.004956344600383052 3.4520647792398342e-06 0 -0.0049666535601085434 5.3711265007385095e-06 0 -0.004956344600383052 3.4520647792398342e-06 0 -0.0049647293272176559 6.3787262871720728e-06 0 -0.0049350798925430692 2.9444593098615526e-05 0 -0.0045312449706689057 1.9620893570536685e-05 0 -0.0045312449706689057 1.9620893570536685e-05 0 -0.0048265714700796306 4.741614260493995e-05 0 -0.0043624934584515791 0.00015356288887769613 0 -0.0046397975067682586 9.3233031235209589e-05 0 -0.0045030439696117112 -0.0001461758996494525 0 -0.0049244244572332922 3.4395283628983318e-06 0 -0.0046397975067682586 9.3233031235209589e-05 0 -0.0047151904524542583 -7.6124199722895684e-05 0 -0.0046397975067682586 9.3233031235209589e-05 0 -0.0047151904524542583 -7.6124199722895684e-05 0 -0.0045030439696117112 -0.0001461758996494525 0 -0.0047859375523106873 -0.00025105551287196547 0 -0.0047151904524542583 -7.6124199722895684e-05 0 -0.0045030439696117112 -0.0001461758996494525 0 -0.0045030439696117112 -0.0001461758996494525 0 -0.0044895626378853677 -0.00051359831035851275 0 -0.0042914102566942464 -0.0003192744563687621 0 -0.004258059660901382 -0.00021801360709996237 0 -0.0040888406926616189 -0.00042592889346863643 0 -0.0047859375523106873 -0.00025105551287196547 0 -0.0045030439696117112 -0.0001461758996494525 0 -0.0044895626378853677 -0.00051359831035851275 0 -0.0037514252607852103 -0.00018094324114559051 0 -0.0037026761154251033 -0.00034925731610076693 0 -0.0035811657555378058 -0.00035792497608423072 0 -0.0037857145817927922 -0.0004222076631649055 0 -0.0037026761154251033 -0.00034925731610076693 0 -0.003595218394862112 -0.00047769412682862667 0 -0.0037026761154251033 -0.00034925731610076693 0 -0.003595218394862112 -0.00047769412682862667 0 -0.0035811657555378058 -0.00035792497608423072 0 -0.0032013715001233218 -0.0003512182189921522 0 -0.0029286261321167743 -0.00040905452124056406 0 -0.0025563223451313738 -0.00029191763101382397 0 -0.0024897395757295954 -0.00033920070525330243 0 -0.002520356300231558 -0.00037756230841965609 0 -0.0024897395757295954 -0.00033920070525330243 0 -0.0024869600121608399 -0.00037227038125754166 0 -0.002520356300231558 -0.00037756230841965609 0 -0.003595218394862112 -0.00047769412682862667 0 -0.0035811657555378058 -0.00035792497608423072 0 -0.0034108118901672439 -0.00053175777787438968 0 -0.0040888406926616189 -0.00042592889346863643 0 -0.0035260011201876757 -0.00061812973166865636 0 -0.0029286261321167743 -0.00040905452124056406 0 -0.0035260011201876757 -0.00061812973166865636 0 -0.0024897395757295954 -0.00033920070525330243 0 -0.002465019268116527 -0.0003706846388982541 0 -0.0024869600121608399 -0.00037227038125754166 0 -0.0044895626378853677 -0.00051359831035851275 0 -0.0042137515588557663 -0.00051058571631352491 0 -0.0042914102566942464 -0.0003192744563687621 0 -0.0044895626378853677 -0.00051359831035851275 0 -0.0042137515588557663 -0.00051058571631352491 0 -0.0042091488217910686 -0.00074888169347453112 0 -0.0042137515588557663 -0.00051058571631352491 0 -0.0042091488217910686 -0.00074888169347453112 0 -0.0040516799951246362 -0.00061103020621767492 0 -0.0040516799951246362 -0.00061103020621767492 0 -0.0038761019322848013 -0.00061072753719497669 0 -0.0039298478193127741 -0.00078641438875584071 0 -0.0042091488217910686 -0.00074888169347453112 0 -0.0040516799951246362 -0.00061103020621767492 0 -0.0039298478193127741 -0.00078641438875584071 0 -0.0035260011201876757 -0.00061812973166865636 0 -0.004159621700198712 -0.00078170754833618785 0 -0.0040516799951246362 -0.00061103020621767492 0 -0.0040242957777789573 -0.00036688129133992647 0 -0.0038761019322848013 -0.00061072753719497669 0 -0.0042137515588557663 -0.00051058571631352491 0 -0.0040516799951246362 -0.00061103020621767492 0 -0.0040242957777789573 -0.00036688129133992647 0 -0.0042137515588557663 -0.00051058571631352491 0 -0.0040242957777789573 -0.00036688129133992647 0 -0.0042914102566942464 -0.0003192744563687621 0 -0.0040242957777789573 -0.00036688129133992647 0 -0.0042914102566942464 -0.0003192744563687621 0 -0.0041900199996048951 -0.00011020226252528752 0 -0.0045030439696117112 -0.0001461758996494525 0 -0.0042914102566942464 -0.0003192744563687621 0 -0.0041900199996048951 -0.00011020226252528752 0 -0.0041432294909399536 4.4541619956956396e-05 0 -0.0041182934433050553 1.7850878197794409e-05 0 -0.0041588861893321659 1.7512039967333914e-05 0 -0.0040891394203284174 -0.00015985177004471785 0 -0.0041168779130009887 -5.3826419202150812e-05 0 -0.0041588861893321659 1.7512039967333914e-05 0 -0.0041935797240533514 3.9455099306625973e-05 0 -0.0041492346089861088 4.9126046428903159e-05 0 -0.0041935797240533514 3.9455099306625973e-05 0 -0.0041492346089861088 4.9126046428903159e-05 0 -0.0041022917630301192 4.4684683543371821e-05 0 -0.0041432294909399536 4.4541619956956396e-05 0 -0.0041588861893321659 1.7512039967333914e-05 0 -0.0041492346089861088 4.9126046428903159e-05 0 -0.0040891394203284174 -0.00015985177004471785 0 -0.0040114522567409302 -0.00028854154004207276 0 -0.0041432294909399536 4.4541619956956396e-05 0 -0.0041492346089861088 4.9126046428903159e-05 0 -0.0041511231171828386 2.8542743301713469e-05 0 -0.0040114522567409302 -0.00028854154004207276 0 -0.003970531746349695 -0.00045099729845440075 0 -0.0038761019322848013 -0.00061072753719497669 0 -0.0039298478193127741 -0.00078641438875584071 0 -0.0038623240540025701 -0.00078888569602462207 0 -0.0038761019322848013 -0.00061072753719497669 0 -0.0037824339750559899 -0.0007928381235609408 0 -0.0038623240540025701 -0.00078888569602462207 0 -0.0041511231171828386 2.8542743301713469e-05 0 -0.0041001408236080589 2.4354715450201484e-05 0 -0.0041124892323507259 -5.6178746654079083e-05 0 -0.0041001408236080589 2.4354715450201484e-05 0 -0.0040008605881110089 -8.9247120971259335e-07 0 -0.0041124892323507259 -5.6178746654079083e-05 0 -0.0041492346089861088 4.9126046428903159e-05 0 -0.0041511231171828386 2.8542743301713469e-05 0 -0.0041001408236080589 2.4354715450201484e-05 0 -0.0041492346089861088 4.9126046428903159e-05 0 -0.0041001408236080589 2.4354715450201484e-05 0 -0.0041022917630301192 4.4684683543371821e-05 0 -0.0041001408236080589 2.4354715450201484e-05 0 -0.0041022917630301192 4.4684683543371821e-05 0 -0.0040008605881110089 -8.9247120971259335e-07 0 -0.0041022917630301192 4.4684683543371821e-05 0 -0.0040008605881110089 -8.9247120971259335e-07 0 -0.003895366915597723 1.6761121805134558e-07 0 -0.003895366915597723 1.6761121805134558e-07 0 -0.0036430254982904621 -3.8091137414139473e-07 0 -0.0038700285928757543 -1.3721199077494847e-05 0 -0.0040008605881110089 -8.9247120971259335e-07 0 -0.003895366915597723 1.6761121805134558e-07 0 -0.0038700285928757543 -1.3721199077494847e-05 0 -0.0041022917630301192 4.4684683543371821e-05 0 -0.003895366915597723 1.6761121805134558e-07 0 -0.0041479963076039546 3.0490602261967674e-08 0 -0.0041022917630301192 4.4684683543371821e-05 0 -0.0041479963076039546 3.0490602261967674e-08 0 -0.0042338801808054563 3.132733444058515e-05 0 -0.0041935797240533514 3.9455099306625973e-05 0 -0.0041022917630301192 4.4684683543371821e-05 0 -0.0042338801808054563 3.132733444058515e-05 0 -0.0043113753738179541 1.6438948434238556e-05 0 -0.0041935797240533514 3.9455099306625973e-05 0 -0.0042338801808054563 3.132733444058515e-05 0 -0.0044008278188941308 1.5545320570197174e-07 0 -0.0041479963076039546 3.0490602261967674e-08 0 -0.0042338801808054563 3.132733444058515e-05 0 -0.0030574496408569307 -1.9186197661964588e-05 0 -0.0030284125072272921 -1.0745331339547173e-07 0 -0.0030514732907488628 -9.471434389320988e-06 0 -0.0031538410294972307 4.7218235185804595e-05 0 -0.0030290010424337131 -1.8275043540834958e-08 0 -0.0033439600957923727 4.1340901547154561e-06 0 -0.0032334941954143071 -3.9039589612125787e-09 0 -0.0030290988688028483 -5.878461005028126e-08 0 -0.0027748253364534479 -0.00019322861655624355 0 -0.0028859172010430728 -0.00012219105838542693 0 -0.0030574496408569307 -1.9186197661964588e-05 0 -0.0030392020031133776 -2.2263887076609827e-05 0 -0.0030514732907488628 -9.471434389320988e-06 0 -0.002561147233556175 -0.00037530986694166748 0 -0.0025057572425346854 -0.00027582232758480981 0 -0.0027180791891743107 -0.00025316992029323851 0 -0.0030574496408569307 -1.9186197661964588e-05 0 -0.0030392020031133776 -2.2263887076609827e-05 0 -0.0030457586949587385 -6.0310529945876065e-05 0 -0.0031538410294972307 4.7218235185804595e-05 0 -0.0035993741229929533 -0.00033823719534480573 0 -0.0033439600957923727 4.1340901547154561e-06 0 -0.0034115648685786471 -2.9067846593952889e-06 0 -0.0034265028137730313 -6.6618527974086946e-06 0 -0.0033439600957923727 4.1340901547154561e-06 0 -0.0032334941954143071 -3.9039589612125787e-09 0 -0.0034380789951343259 1.0891808062036961e-07 0 -0.0033439600957923727 4.1340901547154561e-06 0 -0.0034380789951343259 1.0891808062036961e-07 0 -0.0034115648685786471 -2.9067846593952889e-06 0 -0.0034380789951343259 1.0891808062036961e-07 0 -0.0034494461249387296 -8.05620331492826e-06 0 -0.0036422818988854776 -1.5691473393123515e-07 0 -0.0034380789951343259 1.0891808062036961e-07 0 -0.0034115648685786471 -2.9067846593952889e-06 0 -0.0034494461249387296 -8.05620331492826e-06 0 -0.0036704688396176684 -7.910745149142278e-05 0 -0.0036425940727421425 -3.933740497869289e-08 0 -0.0038878218087098145 -0.00016391647513449927 0 -0.0036430254982904621 -3.8091137414139473e-07 0 -0.0038700285928757543 -1.3721199077494847e-05 0 -0.0040008605881110089 -8.9247120971259335e-07 0 -0.0039858627563863517 -8.7213031942034121e-05 0 -0.0041124892323507259 -5.6178746654079083e-05 0 -0.0040008605881110089 -8.9247120971259335e-07 0 -0.0038700285928757543 -1.3721199077494847e-05 0 -0.0039858627563863517 -8.7213031942034121e-05 0 -0.0038878218087098145 -0.00016391647513449927 0 -0.0038700285928757543 -1.3721199077494847e-05 0 -0.0039858627563863517 -8.7213031942034121e-05 0 -0.0038878218087098145 -0.00016391647513449927 0 -0.0039858627563863517 -8.7213031942034121e-05 0 -0.0040218533193264383 -0.00021613053075524732 0 -0.0036704688396176684 -7.910745149142278e-05 0 -0.0035993741229929533 -0.00033823719534480573 0 -0.0034115648685786471 -2.9067846593952889e-06 0 -0.0034494461249387296 -8.05620331492826e-06 0 -0.0034265028137730313 -6.6618527974086946e-06 0 -0.0037135725960848898 -0.00090670264605799368 0 -0.0037927721855574906 -0.00087964230516590441 0 -0.0037824339750559899 -0.0007928381235609408 0 -0.0035993741229929533 -0.00033823719534480573 0 -0.00299282544620969 -0.00042313847656416762 0 -0.0037135725960848898 -0.00090670264605799368 0 -0.0037927721855574906 -0.00087964230516590441 0 -0.0038085416794639343 -0.000953778168621951 0 -0.0039858627563863517 -8.7213031942034121e-05 0 -0.0040218533193264383 -0.00021613053075524732 0 -0.0041124892323507259 -5.6178746654079083e-05 0 -0.0035993741229929533 -0.00033823719534480573 0 -0.003970531746349695 -0.00045099729845440075 0 -0.0037927721855574906 -0.00087964230516590441 0 -0.0037824339750559899 -0.0007928381235609408 0 -0.003836728488874628 -0.00083545390978760061 0 -0.0039298478193127741 -0.00078641438875584071 0 -0.0038623240540025701 -0.00078888569602462207 0 -0.003894247195065619 -0.00083036577456865304 0 -0.0037824339750559899 -0.0007928381235609408 0 -0.0038623240540025701 -0.00078888569602462207 0 -0.003836728488874628 -0.00083545390978760061 0 -0.0038623240540025701 -0.00078888569602462207 0 -0.003836728488874628 -0.00083545390978760061 0 -0.003894247195065619 -0.00083036577456865304 0 -0.003836728488874628 -0.00083545390978760061 0 -0.003894247195065619 -0.00083036577456865304 0 -0.003854094149174959 -0.00087905190787403598 0 -0.003894247195065619 -0.00083036577456865304 0 -0.0038973892219912954 -0.00088361477516180889 0 -0.003854094149174959 -0.00087905190787403598 0 -0.0029964147574434445 -0.00063730245242975942 0 -0.003675255222313282 -0.00077747006883587151 0 -0.0037927721855574906 -0.00087964230516590441 0 -0.003836728488874628 -0.00083545390978760061 0 -0.003854094149174959 -0.00087905190787403598 0 -0.0037927721855574906 -0.00087964230516590441 0 -0.003854094149174959 -0.00087905190787403598 0 -0.0038085416794639343 -0.000953778168621951 0 -0.0038849650452331785 -0.0008834068108418921 0 -0.003854094149174959 -0.00087905190787403598 0 -0.0038085416794639343 -0.000953778168621951 0 -0.0029964147574434445 -0.00063730245242975942 0 -0.00299282544620969 -0.00042313847656416762 0 -0.0023324329482459693 -0.00054696902065650603 0 -0.002340927139199981 -0.00047728103102617742 0 -0.0024230172693578108 -0.00046523308801155677 0 -0.002340927139199981 -0.00047728103102617742 0 -0.0023479358983486214 -0.00044334874317896654 0 -0.0023092066198358652 -0.00043085865181942325 0 -0.002340927139199981 -0.00047728103102617742 0 -0.0023479358983486214 -0.00044334874317896654 0 -0.0023867951049525186 -0.00045061046238703377 0 -0.0023479358983486214 -0.00044334874317896654 0 -0.0023549611248362174 -0.00041420642425156831 0 -0.0023867951049525186 -0.00045061046238703377 0 -0.0023479358983486214 -0.00044334874317896654 0 -0.0023549611248362174 -0.00041420642425156831 0 -0.0023092066198358652 -0.00043085865181942325 0 -0.0023549611248362174 -0.00041420642425156831 0 -0.0023093249124606424 -0.00039420896556451648 0 -0.0023092066198358652 -0.00043085865181942325 0 -0.0023395820033295929 -0.00037030707641472264 0 -0.0022902596148696398 -0.00036542060087491377 0 -0.0023093249124606424 -0.00039420896556451648 0 -0.0023549611248362174 -0.00041420642425156831 0 -0.0023395820033295929 -0.00037030707641472264 0 -0.0023093249124606424 -0.00039420896556451648 0 -0.0023549611248362174 -0.00041420642425156831 0 -0.0024158107967044914 -0.00039210770629940903 0 -0.0023395820033295929 -0.00037030707641472264 0 -0.0023549611248362174 -0.00041420642425156831 0 -0.0024158107967044914 -0.00039210770629940903 0 -0.0023867951049525186 -0.00045061046238703377 0 -0.0024158107967044914 -0.00039210770629940903 0 -0.0023867951049525186 -0.00045061046238703377 0 -0.0024291463758058626 -0.00047438860780387154 0 -0.002340927139199981 -0.00047728103102617742 0 -0.0023867951049525186 -0.00045061046238703377 0 -0.0024230172693578108 -0.00046523308801155677 0 -0.0026113772015196051 -0.00033267810714000866 0 -0.00299282544620969 -0.00042313847656416762 0 -0.002561147233556175 -0.00037530986694166748 0 -0.0024158107967044914 -0.00039210770629940903 0 -0.0024291463758058626 -0.00047438860780387154 0 -0.0027748253364534479 -0.00019322861655624355 0 -0.00299282544620969 -0.00042313847656416762 0 -0.0030392020031133776 -2.2263887076609827e-05 0 -0.0030457586949587385 -6.0310529945876065e-05 0 -0.0030172374008816979 -4.9578991182186422e-05 0 -0.002561147233556175 -0.00037530986694166748 0 -0.0024158107967044914 -0.00039210770629940903 0 -0.0024464902186882484 -0.00032966272615718786 0 -0.002561147233556175 -0.00037530986694166748 0 -0.0024464902186882484 -0.00032966272615718786 0 -0.0025057572425346854 -0.00027582232758480981 0 -0.0024464902186882484 -0.00032966272615718786 0 -0.0025057572425346854 -0.00027582232758480981 0 -0.0024000918566324078 -0.00029339804845880874 0 -0.0024464902186882484 -0.00032966272615718786 0 -0.0024000918566324078 -0.00029339804845880874 0 -0.0023742688823721043 -0.00033244480514271139 0 -0.0024000918566324078 -0.00029339804845880874 0 -0.0023469480689594789 -0.00028374086207436235 0 -0.002415227643608955 -0.00023212371947863424 0 -0.0024000918566324078 -0.00029339804845880874 0 -0.0023469480689594789 -0.00028374086207436235 0 -0.0023742688823721043 -0.00033244480514271139 0 -0.0023469480689594789 -0.00028374086207436235 0 -0.0023742688823721043 -0.00033244480514271139 0 -0.0023010614006575693 -0.00032480941927310729 0 -0.0023469480689594789 -0.00028374086207436235 0 -0.0023010614006575693 -0.00032480941927310729 0 -0.0022988824006954147 -0.00027914970688685712 0 -0.0023395820033295929 -0.00037030707641472264 0 -0.0023742688823721043 -0.00033244480514271139 0 -0.0023010614006575693 -0.00032480941927310729 0 -0.0023395820033295929 -0.00037030707641472264 0 -0.0022902596148696398 -0.00036542060087491377 0 -0.0023010614006575693 -0.00032480941927310729 0 -0.0024158107967044914 -0.00039210770629940903 0 -0.0024464902186882484 -0.00032966272615718786 0 -0.0023742688823721043 -0.00033244480514271139 0 -0.0024158107967044914 -0.00039210770629940903 0 -0.0023395820033295929 -0.00037030707641472264 0 -0.0023742688823721043 -0.00033244480514271139 0 -0.0022435798826486368 -0.00034107371414284572 0 -0.002192424762071528 -0.00035883538489939475 0 -0.0022547003102710733 -0.0003897020738776822 0 -0.0022435798826486368 -0.00034107371414284572 0 -0.0021997013837522878 -0.0003077794842745309 0 -0.002192424762071528 -0.00035883538489939475 0 -0.0022435798826486368 -0.00034107371414284572 0 -0.0022902596148696398 -0.00036542060087491377 0 -0.0023010614006575693 -0.00032480941927310729 0 -0.0022435798826486368 -0.00034107371414284572 0 -0.0022902596148696398 -0.00036542060087491377 0 -0.0022547003102710733 -0.0003897020738776822 0 -0.0022435798826486368 -0.00034107371414284572 0 -0.0023010614006575693 -0.00032480941927310729 0 -0.0022514664833752336 -0.00029522211899536921 0 -0.0023010614006575693 -0.00032480941927310729 0 -0.0022988824006954147 -0.00027914970688685712 0 -0.0022514664833752336 -0.00029522211899536921 0 -0.0022514664833752336 -0.00029522211899536921 0 -0.0021997013837522878 -0.0003077794842745309 0 -0.0022122858078701692 -0.00025464473504521246 0 -0.0022435798826486368 -0.00034107371414284572 0 -0.0022514664833752336 -0.00029522211899536921 0 -0.0021997013837522878 -0.0003077794842745309 0 -0.0021997013837522878 -0.0003077794842745309 0 -0.0021604038858952343 -0.00026970653421886796 0 -0.0022122858078701692 -0.00025464473504521246 0 -0.0021567360060582852 -0.00031524092669103472 0 -0.0021233777513428136 -0.00027862934235883439 0 -0.0021604038858952343 -0.00026970653421886796 0 -0.0021997013837522878 -0.0003077794842745309 0 -0.0021567360060582852 -0.00031524092669103472 0 -0.0021604038858952343 -0.00026970653421886796 0 -0.0021567360060582852 -0.00031524092669103472 0 -0.0021233777513428136 -0.00027862934235883439 0 -0.0021207129644414719 -0.00032085620748622596 0 -0.0021233777513428136 -0.00027862934235883439 0 -0.0021207129644414719 -0.00032085620748622596 0 -0.002090009137132354 -0.00028706358490389143 0 -0.0021207129644414719 -0.00032085620748622596 0 -0.002146487055390691 -0.00035414501859305959 0 -0.0021072933258819981 -0.0003586004912953998 0 -0.0021567360060582852 -0.00031524092669103472 0 -0.0021207129644414719 -0.00032085620748622596 0 -0.002146487055390691 -0.00035414501859305959 0 -0.0021997013837522878 -0.0003077794842745309 0 -0.0021567360060582852 -0.00031524092669103472 0 -0.002192424762071528 -0.00035883538489939475 0 -0.002146487055390691 -0.00035414501859305959 0 -0.002192424762071528 -0.00035883538489939475 0 -0.0021690923917137791 -0.00038514035265112013 0 -0.0021567360060582852 -0.00031524092669103472 0 -0.002146487055390691 -0.00035414501859305959 0 -0.002192424762071528 -0.00035883538489939475 0 -0.002192424762071528 -0.00035883538489939475 0 -0.0021690923917137791 -0.00038514035265112013 0 -0.0021979212985178934 -0.0004186430041420436 0 -0.0021690923917137791 -0.00038514035265112013 0 -0.00213733167991153 -0.0003886283315374408 0 -0.0021423104510520296 -0.00044104678236914951 0 -0.002146487055390691 -0.00035414501859305959 0 -0.00213733167991153 -0.0003886283315374408 0 -0.0021072933258819981 -0.0003586004912953998 0 -0.002146487055390691 -0.00035414501859305959 0 -0.0021690923917137791 -0.00038514035265112013 0 -0.00213733167991153 -0.0003886283315374408 0 -0.00213733167991153 -0.0003886283315374408 0 -0.0021423104510520296 -0.00044104678236914951 0 -0.0021229072941454396 -0.00040688517713804144 0 -0.0021423104510520296 -0.00044104678236914951 0 -0.0021115449778702344 -0.00041767186008822676 0 -0.0021229072941454396 -0.00040688517713804144 0 -0.0021690923917137791 -0.00038514035265112013 0 -0.0021423104510520296 -0.00044104678236914951 0 -0.0021979212985178934 -0.0004186430041420436 0 -0.0021423104510520296 -0.00044104678236914951 0 -0.0021979212985178934 -0.0004186430041420436 0 -0.0021711583050010807 -0.00049859754554140777 0 -0.0021979212985178934 -0.0004186430041420436 0 -0.0022542834549582847 -0.00042782482346374569 0 -0.0022576011423863884 -0.0004718732818741399 0 -0.0021979212985178934 -0.0004186430041420436 0 -0.0022542834549582847 -0.00042782482346374569 0 -0.0022547003102710733 -0.0003897020738776822 0 -0.002192424762071528 -0.00035883538489939475 0 -0.0021979212985178934 -0.0004186430041420436 0 -0.0022547003102710733 -0.0003897020738776822 0 -0.0022542834549582847 -0.00042782482346374569 0 -0.0022547003102710733 -0.0003897020738776822 0 -0.0023092066198358652 -0.00043085865181942325 0 -0.0022902596148696398 -0.00036542060087491377 0 -0.0022547003102710733 -0.0003897020738776822 0 -0.0023093249124606424 -0.00039420896556451648 0 -0.0022547003102710733 -0.0003897020738776822 0 -0.0023093249124606424 -0.00039420896556451648 0 -0.0023092066198358652 -0.00043085865181942325 0 -0.0022542834549582847 -0.00042782482346374569 0 -0.0023092066198358652 -0.00043085865181942325 0 -0.0022576011423863884 -0.0004718732818741399 0 -0.002340927139199981 -0.00047728103102617742 0 -0.0023092066198358652 -0.00043085865181942325 0 -0.0022576011423863884 -0.0004718732818741399 0 -0.0029964147574434445 -0.00063730245242975942 0 -0.0021909773780145261 -0.0004213426801394432 0 -0.0023324329482459693 -0.00054696902065650603 0 -0.0022576011423863884 -0.0004718732818741399 0 -0.0021711583050010807 -0.00049859754554140777 0 -0.0024613220896633429 -0.00039724489084244733 0 -0.0024609925735692346 -0.00039046601231878695 0 -0.0024626003520781359 -0.00040101453714143305 0 -0.0023324329482459693 -0.00054696902065650603 0 -0.002340927139199981 -0.00047728103102617742 0 -0.0022576011423863884 -0.0004718732818741399 0 -0.0021979212985178934 -0.0004186430041420436 0 -0.0022576011423863884 -0.0004718732818741399 0 -0.0021711583050010807 -0.00049859754554140777 0 -0.0029964147574434445 -0.00063730245242975942 0 -0.0032047958356001866 -0.00060619700631909721 0 -0.003894247195065619 -0.00083036577456865304 0 -0.0038973892219912954 -0.00088361477516180889 0 -0.0039620271241159379 -0.00081001919304227719 0 -0.0039934570887747798 -0.00077169736595720541 0 -0.0039298478193127741 -0.00078641438875584071 0 -0.0039620271241159379 -0.00081001919304227719 0 -0.0039298478193127741 -0.00078641438875584071 0 -0.003894247195065619 -0.00083036577456865304 0 -0.0039620271241159379 -0.00081001919304227719 0 -0.0024655909819796856 -0.00038785446725202091 0 -0.002469198172968633 -0.00039540111283288147 0 -0.0024626003520781359 -0.00040101453714143305 0 -0.0024609925735692346 -0.00039046601231878695 0 -0.0024655909819796856 -0.00038785446725202091 0 -0.0024626003520781359 -0.00040101453714143305 0 -0.002465019268116527 -0.0003706846388982541 0 -0.0024655909819796856 -0.00038785446725202091 0 -0.0024743364103944937 -0.00038826279021470422 0 -0.002465019268116527 -0.0003706846388982541 0 -0.0024609925735692346 -0.00039046601231878695 0 -0.0024655909819796856 -0.00038785446725202091 0 -0.0035260011201876757 -0.00061812973166865636 0 -0.0032047958356001866 -0.00060619700631909721 0 -0.0024655909819796856 -0.00038785446725202091 0 -0.002469198172968633 -0.00039540111283288147 0 -0.0024743364103944937 -0.00038826279021470422 0 -0.0021423104510520296 -0.00044104678236914951 0 -0.0021711583050010807 -0.00049859754554140777 0 -0.0020885259141400453 -0.00041744342257261718 0 -0.002469198172968633 -0.00039540111283288147 0 -0.0024626003520781359 -0.00040101453714143305 0 -0.0024770173527075756 -0.00040440763221224042 0 -0.0024626003520781359 -0.00040101453714143305 0 -0.0024843110321476599 -0.00041935147465206433 0 -0.0024770173527075756 -0.00040440763221224042 0 -0.0021909773780145261 -0.0004213426801394432 0 -0.0023302246420424939 -0.00043022599272106714 0 -0.0020885259141400453 -0.00041744342257261718 0 -0.0020934038257857347 -0.00045438943967211282 0 -0.0021023927938539984 -0.00043175218919830132 0 -0.0024845386897092911 -0.00041045381445331411 0 -0.0024770173527075756 -0.00040440763221224042 0 -0.0024883360520904082 -0.00040085773081273212 0 -0.0024843110321476599 -0.00041935147465206433 0 -0.0024845386897092911 -0.00041045381445331411 0 -0.0024770173527075756 -0.00040440763221224042 0 -0.0024843110321476599 -0.00041935147465206433 0 -0.0024845386897092911 -0.00041045381445331411 0 -0.0024891183824861766 -0.00041480681830448915 0 -0.0024845386897092911 -0.00041045381445331411 0 -0.0024883360520904082 -0.00040085773081273212 0 -0.0024891183824861766 -0.00041480681830448915 0 -0.002465019268116527 -0.0003706846388982541 0 -0.0024743364103944937 -0.00038826279021470422 0 -0.0024869600121608399 -0.00037227038125754166 0 -0.002469198172968633 -0.00039540111283288147 0 -0.0024770173527075756 -0.00040440763221224042 0 -0.0024743364103944937 -0.00038826279021470422 0 -0.0024770173527075756 -0.00040440763221224042 0 -0.0024743364103944937 -0.00038826279021470422 0 -0.0024883360520904082 -0.00040085773081273212 0 -0.0024743364103944937 -0.00038826279021470422 0 -0.0024883360520904082 -0.00040085773081273212 0 -0.0024869600121608399 -0.00037227038125754166 0 -0.0024883360520904082 -0.00040085773081273212 0 -0.002520356300231558 -0.00037756230841965609 0 -0.0025001906215715813 -0.00042564282238935632 0 -0.0024883360520904082 -0.00040085773081273212 0 -0.0024869600121608399 -0.00037227038125754166 0 -0.002520356300231558 -0.00037756230841965609 0 -0.0020885259141400453 -0.00041744342257261718 0 -0.0022933377314913908 -0.00049779473932111136 0 -0.0025036337855589151 -0.00046247833368475805 0 -0.0024843110321476599 -0.00041935147465206433 0 -0.0025001906215715813 -0.00042564282238935632 0 -0.0025036337855589151 -0.00046247833368475805 0 -0.002520356300231558 -0.00037756230841965609 0 -0.0025001906215715813 -0.00042564282238935632 0 -0.002528053794673395 -0.0004274026997791197 0 -0.0023302246420424939 -0.00043022599272106714 0 -0.0024765982500171749 -0.00045522094762667824 0 -0.0024883360520904082 -0.00040085773081273212 0 -0.0025001906215715813 -0.00042564282238935632 0 -0.0024891183824861766 -0.00041480681830448915 0 -0.0024843110321476599 -0.00041935147465206433 0 -0.0025001906215715813 -0.00042564282238935632 0 -0.0024891183824861766 -0.00041480681830448915 0 -0.0020885259141400453 -0.00041744342257261718 0 -0.0022933377314913908 -0.00049779473932111136 0 -0.0020934038257857347 -0.00045438943967211282 0 -0.0022933377314913908 -0.00049779473932111136 0 -0.0025036337855589151 -0.00046247833368475805 0 -0.0024132332245945624 -0.00057853927554815221 0 -0.0023009424609789454 -0.00065873616043068278 0 -0.0024132332245945624 -0.00057853927554815221 0 -0.0024354385481294744 -0.00068952934141256698 0 -0.0022933377314913908 -0.00049779473932111136 0 -0.0023009424609789454 -0.00065873616043068278 0 -0.0024132332245945624 -0.00057853927554815221 0 -0.0019839824812554318 -0.00036666100538182905 0 -0.0020934038257857347 -0.00045438943967211282 0 -0.0020838028054019583 -0.00040733332077766421 0 -0.0021526863254967502 -0.00052199729336788701 0 -0.0020925343397657785 -0.00045333233459304075 0 -0.0022933377314913908 -0.00049779473932111136 0 -0.0023009424609789454 -0.00065873616043068278 0 -0.0020934038257857347 -0.00045438943967211282 0 -0.0021423104510520296 -0.00044104678236914951 0 -0.0020885259141400453 -0.00041744342257261718 0 -0.0021023927938539984 -0.00043175218919830132 0 -0.0020934038257857347 -0.00045438943967211282 0 -0.0021023927938539984 -0.00043175218919830132 0 -0.0020838028054019583 -0.00040733332077766421 0 -0.0021423104510520296 -0.00044104678236914951 0 -0.0021023927938539984 -0.00043175218919830132 0 -0.0021115449778702344 -0.00041767186008822676 0 -0.0021023927938539984 -0.00043175218919830132 0 -0.0021115449778702344 -0.00041767186008822676 0 -0.0020838028054019583 -0.00040733332077766421 0 -0.0021036829393678508 -0.00039100197391226554 0 -0.0020706128491819534 -0.00036494245878775544 0 -0.0021072933258819981 -0.0003586004912953998 0 -0.00213733167991153 -0.0003886283315374408 0 -0.0021229072941454396 -0.00040688517713804144 0 -0.0021036829393678508 -0.00039100197391226554 0 -0.0021115449778702344 -0.00041767186008822676 0 -0.0021229072941454396 -0.00040688517713804144 0 -0.0021036829393678508 -0.00039100197391226554 0 -0.0021115449778702344 -0.00041767186008822676 0 -0.0021036829393678508 -0.00039100197391226554 0 -0.0020838028054019583 -0.00040733332077766421 0 -0.00213733167991153 -0.0003886283315374408 0 -0.0021036829393678508 -0.00039100197391226554 0 -0.0021072933258819981 -0.0003586004912953998 0 -0.0019839824812554318 -0.00036666100538182905 0 -0.0020838028054019583 -0.00040733332077766421 0 -0.0020706128491819534 -0.00036494245878775544 0 -0.0021036829393678508 -0.00039100197391226554 0 -0.0020838028054019583 -0.00040733332077766421 0 -0.0020706128491819534 -0.00036494245878775544 0 -0.0020706128491819534 -0.00036494245878775544 0 -0.0020325314080859242 -0.00032064008358029944 0 -0.00207937496435622 -0.0003275427967477896 0 -0.0020325314080859242 -0.00032064008358029944 0 -0.00207937496435622 -0.0003275427967477896 0 -0.0020593798674250893 -0.00029191744887251055 0 -0.0020706128491819534 -0.00036494245878775544 0 -0.0021072933258819981 -0.0003586004912953998 0 -0.00207937496435622 -0.0003275427967477896 0 -0.0021207129644414719 -0.00032085620748622596 0 -0.0021072933258819981 -0.0003586004912953998 0 -0.00207937496435622 -0.0003275427967477896 0 -0.0021207129644414719 -0.00032085620748622596 0 -0.00207937496435622 -0.0003275427967477896 0 -0.002090009137132354 -0.00028706358490389143 0 -0.00207937496435622 -0.0003275427967477896 0 -0.002090009137132354 -0.00028706358490389143 0 -0.0020593798674250893 -0.00029191744887251055 0 -0.002090009137132354 -0.00028706358490389143 0 -0.0020593798674250893 -0.00029191744887251055 0 -0.0020533112881759834 -0.0002447201831461452 0 -0.0020325314080859242 -0.00032064008358029944 0 -0.0020593798674250893 -0.00029191744887251055 0 -0.0020152102184061113 -0.00026865027172649292 0 -0.0020593798674250893 -0.00029191744887251055 0 -0.0020152102184061113 -0.00026865027172649292 0 -0.0020533112881759834 -0.0002447201831461452 0 -0.0020325314080859242 -0.00032064008358029944 0 -0.0020152102184061113 -0.00026865027172649292 0 -0.0019842915917247981 -0.00029636350449259951 0 -0.0020152102184061113 -0.00026865027172649292 0 -0.0019842915917247981 -0.00029636350449259951 0 -0.00196911668902043 -0.00025183095354355226 0 -0.0019842915917247981 -0.00029636350449259951 0 -0.00196911668902043 -0.00025183095354355226 0 -0.001913317128899738 -0.0002773187092746828 0 -0.0019964247358457963 -0.00036018279022528111 0 -0.0021667837233440334 -0.00041981118029829265 0 -0.0023009424609789454 -0.00065873616043068278 0 -0.0024571803516524435 -0.00081529240646176584 0 -0.0024354385481294744 -0.00068952934141256698 0 -0.0019839824812554318 -0.00036666100538182905 0 -0.0019842915917247981 -0.00029636350449259951 0 -0.001913317128899738 -0.0002773187092746828 0 -0.0021526863254967502 -0.00052199729336788701 0 -0.0021667837233440334 -0.00041981118029829265 0 -0.0019839824812554318 -0.00036666100538182905 0 -0.0020706128491819534 -0.00036494245878775544 0 -0.0020325314080859242 -0.00032064008358029944 0 -0.0019839824812554318 -0.00036666100538182905 0 -0.0020325314080859242 -0.00032064008358029944 0 -0.0019842915917247981 -0.00029636350449259951 0 -0.0020019915302949024 -0.0001761290723706124 0 -0.001984208682067801 -0.00021066937029382671 0 -0.0020190382007912108 -0.00021996843407956238 0 -0.0020019915302949024 -0.0001761290723706124 0 -0.001969145815888574 -0.00017433409560419229 0 -0.001984208682067801 -0.00021066937029382671 0 -0.001969145815888574 -0.00017433409560419229 0 -0.001984208682067801 -0.00021066937029382671 0 -0.0019535785043875362 -0.00022299344999616633 0 -0.00196911668902043 -0.00025183095354355226 0 -0.0019396166631464864 -0.00026250070414983624 0 -0.0019535785043875362 -0.00022299344999616633 0 -0.00196911668902043 -0.00025183095354355226 0 -0.001984208682067801 -0.00021066937029382671 0 -0.0019535785043875362 -0.00022299344999616633 0 -0.0020152102184061113 -0.00026865027172649292 0 -0.00196911668902043 -0.00025183095354355226 0 -0.001984208682067801 -0.00021066937029382671 0 -0.0020152102184061113 -0.00026865027172649292 0 -0.001984208682067801 -0.00021066937029382671 0 -0.0020190382007912108 -0.00021996843407956238 0 -0.0020152102184061113 -0.00026865027172649292 0 -0.0020533112881759834 -0.0002447201831461452 0 -0.0020190382007912108 -0.00021996843407956238 0 -0.0020533112881759834 -0.0002447201831461452 0 -0.0020190382007912108 -0.00021996843407956238 0 -0.0020360213902347732 -0.00019922809849779266 0 -0.0020533112881759834 -0.0002447201831461452 0 -0.0020858587488213837 -0.00023317570989881851 0 -0.0020360213902347732 -0.00019922809849779266 0 -0.002090009137132354 -0.00028706358490389143 0 -0.0020533112881759834 -0.0002447201831461452 0 -0.0020858587488213837 -0.00023317570989881851 0 -0.0020858587488213837 -0.00023317570989881851 0 -0.0020520489883795686 -0.00017851197955556512 0 -0.0020360213902347732 -0.00019922809849779266 0 -0.0020019915302949024 -0.0001761290723706124 0 -0.0020360213902347732 -0.00019922809849779266 0 -0.0020141960312153695 -0.0001477469436795177 0 -0.0020019915302949024 -0.0001761290723706124 0 -0.0020190382007912108 -0.00021996843407956238 0 -0.0020360213902347732 -0.00019922809849779266 0 -0.0020520489883795686 -0.00017851197955556512 0 -0.0020360213902347732 -0.00019922809849779266 0 -0.0020141960312153695 -0.0001477469436795177 0 -0.0020520489883795686 -0.00017851197955556512 0 -0.0020141960312153695 -0.0001477469436795177 0 -0.0020228508177712484 -0.0001157509223022126 0 -0.0020141960312153695 -0.0001477469436795177 0 -0.0020228508177712484 -0.0001157509223022126 0 -0.0019916120200547606 -9.6636170021812358e-05 0 -0.0020141960312153695 -0.0001477469436795177 0 -0.001999052127535116 -0.00012488488091018761 0 -0.0019916120200547606 -9.6636170021812358e-05 0 -0.0020019915302949024 -0.0001761290723706124 0 -0.0020141960312153695 -0.0001477469436795177 0 -0.001999052127535116 -0.00012488488091018761 0 -0.0020019915302949024 -0.0001761290723706124 0 -0.001969145815888574 -0.00017433409560419229 0 -0.001999052127535116 -0.00012488488091018761 0 -0.001969145815888574 -0.00017433409560419229 0 -0.001999052127535116 -0.00012488488091018761 0 -0.0019703755265002461 -0.00011612775871445825 0 -0.001999052127535116 -0.00012488488091018761 0 -0.0020226681333802431 -0.00010366852318340878 0 -0.0020086454896178583 -0.00011083093269800742 0 -0.0015160761337431972 -0.00017874522517641184 0 -0.0016599461609418699 -6.831579807854925e-05 0 -0.001999052127535116 -0.00012488488091018761 0 -0.0020226681333802431 -0.00010366852318340878 0 -0.0019703755265002461 -0.00011612775871445825 0 -0.0020226681333802431 -0.00010366852318340878 0 -0.002086104936874591 -0.00027405523311703592 0 -0.0020420243808996863 -5.6272034908212422e-05 0 -0.0020086454896178583 -0.00011083093269800742 0 -0.0020107327584451291 -0.00015199692727424721 0 -0.0019916120200547606 -9.6636170021812358e-05 0 -0.001999052127535116 -0.00012488488091018761 0 -0.0020086454896178583 -0.00011083093269800742 0 -0.0019916120200547606 -9.6636170021812358e-05 0 -0.0020226681333802431 -0.00010366852318340878 0 -0.0020086454896178583 -0.00011083093269800742 0 -0.0020107327584451291 -0.00015199692727424721 0 -0.0020226681333802431 -0.00010366852318340878 0 -0.0020107327584451291 -0.00015199692727424721 0 -0.002086104936874591 -0.00027405523311703592 0 -0.0020107327584451291 -0.00015199692727424721 0 -0.002086104936874591 -0.00027405523311703592 0 -0.0019085698708552164 -0.00027798887131078411 0 -0.0019085698708552164 -0.00027798887131078411 0 -0.001931054740355119 -4.8934442993312771e-05 0 -0.0017237983879396877 -0.00024730550198946255 0 -0.002086104936874591 -0.00027405523311703592 0 -0.0019085698708552164 -0.00027798887131078411 0 -0.0019479327464953587 -0.00041590553256100457 0 -0.0020107327584451291 -0.00015199692727424721 0 -0.0019085698708552164 -0.00027798887131078411 0 -0.001931054740355119 -4.8934442993312771e-05 0 -0.0020107327584451291 -0.00015199692727424721 0 -0.001931054740355119 -4.8934442993312771e-05 0 -0.0019916120200547606 -9.6636170021812358e-05 0 -0.0020228508177712484 -0.0001157509223022126 0 -0.001931054740355119 -4.8934442993312771e-05 0 -0.0019916120200547606 -9.6636170021812358e-05 0 -0.0020228508177712484 -0.0001157509223022126 0 -0.001931054740355119 -4.8934442993312771e-05 0 -0.0020831936871033197 -5.9334864025900575e-05 0 -0.001931054740355119 -4.8934442993312771e-05 0 -0.0020831936871033197 -5.9334864025900575e-05 0 -0.002135658858234532 7.2046549377619441e-05 0 -0.0019009890050789911 -3.3327426692672143e-05 0 -0.0018425824129620564 -2.4022761970519956e-05 0 -0.0015579871143614422 -0.00029716180291524113 0 -0.0017237983879396877 -0.00024730550198946255 0 -0.0017464184368054501 -0.00049879032479716783 0 -0.0015579871143614422 -0.00029716180291524113 0 -0.0012429010145471218 -0.0003140316602334605 0 -0.0017464184368054501 -0.00049879032479716783 0 -0.001931054740355119 -4.8934442993312771e-05 0 -0.0015116489340237271 -9.4697421746086762e-05 0 -0.0017237983879396877 -0.00024730550198946255 0 -0.0019085698708552164 -0.00027798887131078411 0 -0.0017237983879396877 -0.00024730550198946255 0 -0.0017464184368054501 -0.00049879032479716783 0 -0.0015116489340237271 -9.4697421746086762e-05 0 -0.0015579871143614422 -0.00029716180291524113 0 -0.0017237983879396877 -0.00024730550198946255 0 -0.0015116489340237271 -9.4697421746086762e-05 0 -0.0015579871143614422 -0.00029716180291524113 0 -0.0012429010145471218 -0.0003140316602334605 0 -0.002135658858234532 7.2046549377619441e-05 0 -0.002276630649409501 0.00012440388950535493 0 -0.0022104495641977395 -3.0426517146035263e-07 0 -0.0018425824129620564 -2.4022761970519956e-05 0 -0.0016786468443571775 -0.00012689750041218099 0 -0.0015116489340237271 -9.4697421746086762e-05 0 -0.0012429010145471218 -0.0003140316602334605 0 -0.0011981174338910835 -0.00028937604646414301 0 -0.002276630649409501 0.00012440388950535493 0 -0.0022104495641977395 -3.0426517146035263e-07 0 -0.0023074814422453182 -3.7263798096114269e-06 0 -0.0020831936871033197 -5.9334864025900575e-05 0 -0.002135658858234532 7.2046549377619441e-05 0 -0.0022104495641977395 -3.0426517146035263e-07 0 -0.0022104495641977395 -3.0426517146035263e-07 0 -0.002261043928093202 -6.2115150807264284e-05 0 -0.0021731860464284818 -8.6805992949845468e-05 0 -0.0020831936871033197 -5.9334864025900575e-05 0 -0.0022104495641977395 -3.0426517146035263e-07 0 -0.0021731860464284818 -8.6805992949845468e-05 0 -0.0022104495641977395 -3.0426517146035263e-07 0 -0.002261043928093202 -6.2115150807264284e-05 0 -0.0023074814422453182 -3.7263798096114269e-06 0 -0.002261043928093202 -6.2115150807264284e-05 0 -0.0022542954537752213 -0.00012266247207155605 0 -0.0021731860464284818 -8.6805992949845468e-05 0 -0.002261043928093202 -6.2115150807264284e-05 0 -0.0022542954537752213 -0.00012266247207155605 0 -0.0023538682954140208 -9.6998791057782032e-05 0 -0.002287191991878228 -0.00016575902730751031 0 -0.0022542954537752213 -0.00012266247207155605 0 -0.0023538682954140208 -9.6998791057782032e-05 0 -0.002287191991878228 -0.00016575902730751031 0 -0.0022542954537752213 -0.00012266247207155605 0 -0.0022295692904711725 -0.00019546533611585666 0 -0.0022542954537752213 -0.00012266247207155605 0 -0.0021668986248627952 -0.00015472693782649064 0 -0.0022295692904711725 -0.00019546533611585666 0 -0.0022542954537752213 -0.00012266247207155605 0 -0.0021731860464284818 -8.6805992949845468e-05 0 -0.0021668986248627952 -0.00015472693782649064 0 -0.0021731860464284818 -8.6805992949845468e-05 0 -0.0021062776628559409 -0.00011900736897629375 0 -0.0021668986248627952 -0.00015472693782649064 0 -0.0020831936871033197 -5.9334864025900575e-05 0 -0.0021731860464284818 -8.6805992949845468e-05 0 -0.0021062776628559409 -0.00011900736897629375 0 -0.0020228508177712484 -0.0001157509223022126 0 -0.0020831936871033197 -5.9334864025900575e-05 0 -0.0021062776628559409 -0.00011900736897629375 0 -0.0020228508177712484 -0.0001157509223022126 0 -0.0021062776628559409 -0.00011900736897629375 0 -0.0021003266854681198 -0.00017980597472919789 0 -0.0020520489883795686 -0.00017851197955556512 0 -0.0020228508177712484 -0.0001157509223022126 0 -0.0021003266854681198 -0.00017980597472919789 0 -0.0021062776628559409 -0.00011900736897629375 0 -0.0021668986248627952 -0.00015472693782649064 0 -0.0021003266854681198 -0.00017980597472919789 0 -0.0021639907419677431 -0.00021697924229033443 0 -0.0021003266854681198 -0.00017980597472919789 0 -0.002126223064493791 -0.00023541838114440449 0 -0.0021668986248627952 -0.00015472693782649064 0 -0.0021639907419677431 -0.00021697924229033443 0 -0.0021003266854681198 -0.00017980597472919789 0 -0.0020858587488213837 -0.00023317570989881851 0 -0.0021003266854681198 -0.00017980597472919789 0 -0.002126223064493791 -0.00023541838114440449 0 -0.0020858587488213837 -0.00023317570989881851 0 -0.0020520489883795686 -0.00017851197955556512 0 -0.0021003266854681198 -0.00017980597472919789 0 -0.0021233777513428136 -0.00027862934235883439 0 -0.002090009137132354 -0.00028706358490389143 0 -0.0020858587488213837 -0.00023317570989881851 0 -0.0021233777513428136 -0.00027862934235883439 0 -0.002126223064493791 -0.00023541838114440449 0 -0.0021604038858952343 -0.00026970653421886796 0 -0.0021233777513428136 -0.00027862934235883439 0 -0.0020858587488213837 -0.00023317570989881851 0 -0.002126223064493791 -0.00023541838114440449 0 -0.0021639907419677431 -0.00021697924229033443 0 -0.0021604038858952343 -0.00026970653421886796 0 -0.0022122858078701692 -0.00025464473504521246 0 -0.0021639907419677431 -0.00021697924229033443 0 -0.002126223064493791 -0.00023541838114440449 0 -0.0021604038858952343 -0.00026970653421886796 0 -0.0022122858078701692 -0.00025464473504521246 0 -0.0022757100758546188 -0.00023796489026749041 0 -0.0022295692904711725 -0.00019546533611585666 0 -0.0022514664833752336 -0.00029522211899536921 0 -0.0022122858078701692 -0.00025464473504521246 0 -0.0022757100758546188 -0.00023796489026749041 0 -0.0022988824006954147 -0.00027914970688685712 0 -0.0022514664833752336 -0.00029522211899536921 0 -0.0022757100758546188 -0.00023796489026749041 0 -0.0022988824006954147 -0.00027914970688685712 0 -0.0022757100758546188 -0.00023796489026749041 0 -0.0023300994894685152 -0.00023961347154976046 0 -0.002287191991878228 -0.00016575902730751031 0 -0.0022757100758546188 -0.00023796489026749041 0 -0.0023406216457025897 -0.00019187461292784783 0 -0.002287191991878228 -0.00016575902730751031 0 -0.0022757100758546188 -0.00023796489026749041 0 -0.0022295692904711725 -0.00019546533611585666 0 -0.0021668986248627952 -0.00015472693782649064 0 -0.0021639907419677431 -0.00021697924229033443 0 -0.0022295692904711725 -0.00019546533611585666 0 -0.0021639907419677431 -0.00021697924229033443 0 -0.0022122858078701692 -0.00025464473504521246 0 -0.0022295692904711725 -0.00019546533611585666 0 -0.0024142529620604625 -0.00016591661557031521 0 -0.0023406216457025897 -0.00019187461292784783 0 -0.002415227643608955 -0.00023212371947863424 0 -0.0023469480689594789 -0.00028374086207436235 0 -0.0023300994894685152 -0.00023961347154976046 0 -0.002415227643608955 -0.00023212371947863424 0 -0.0022757100758546188 -0.00023796489026749041 0 -0.0023406216457025897 -0.00019187461292784783 0 -0.0023300994894685152 -0.00023961347154976046 0 -0.0023406216457025897 -0.00019187461292784783 0 -0.0023300994894685152 -0.00023961347154976046 0 -0.002415227643608955 -0.00023212371947863424 0 -0.0023469480689594789 -0.00028374086207436235 0 -0.0022988824006954147 -0.00027914970688685712 0 -0.0023300994894685152 -0.00023961347154976046 0 -0.0025057572425346854 -0.00027582232758480981 0 -0.002415227643608955 -0.00023212371947863424 0 -0.0025211975688859563 -0.00016755595383506852 0 -0.0025057572425346854 -0.00027582232758480981 0 -0.0024000918566324078 -0.00029339804845880874 0 -0.002415227643608955 -0.00023212371947863424 0 -0.0024142529620604625 -0.00016591661557031521 0 -0.002415227643608955 -0.00023212371947863424 0 -0.0025211975688859563 -0.00016755595383506852 0 -0.0024142529620604625 -0.00016591661557031521 0 -0.0025211975688859563 -0.00016755595383506852 0 -0.0024527969810618261 -0.0001055812537610878 0 -0.0025211975688859563 -0.00016755595383506852 0 -0.0024527969810618261 -0.0001055812537610878 0 -0.0025447824448072815 -6.2116328058006473e-05 0 -0.0024527969810618261 -0.0001055812537610878 0 -0.0025447824448072815 -6.2116328058006473e-05 0 -0.0024228186842836109 -3.0479349313064494e-05 0 -0.0024527969810618261 -0.0001055812537610878 0 -0.0023538682954140208 -9.6998791057782032e-05 0 -0.0024228186842836109 -3.0479349313064494e-05 0 -0.0024142529620604625 -0.00016591661557031521 0 -0.0024527969810618261 -0.0001055812537610878 0 -0.0023538682954140208 -9.6998791057782032e-05 0 -0.0024142529620604625 -0.00016591661557031521 0 -0.0023406216457025897 -0.00019187461292784783 0 -0.0023538682954140208 -9.6998791057782032e-05 0 -0.002287191991878228 -0.00016575902730751031 0 -0.0023406216457025897 -0.00019187461292784783 0 -0.0023538682954140208 -9.6998791057782032e-05 0 -0.0023538682954140208 -9.6998791057782032e-05 0 -0.0023524887288643142 1.1614741538369089e-05 0 -0.0024228186842836109 -3.0479349313064494e-05 0 -0.002261043928093202 -6.2115150807264284e-05 0 -0.0023538682954140208 -9.6998791057782032e-05 0 -0.0023074814422453182 -3.7263798096114269e-06 0 -0.0024228186842836109 -3.0479349313064494e-05 0 -0.0023852774884199272 5.1829294574902246e-05 0 -0.0024279044282416551 5.1003967454191865e-05 0 -0.0023524887288643142 1.1614741538369089e-05 0 -0.0024228186842836109 -3.0479349313064494e-05 0 -0.0023852774884199272 5.1829294574902246e-05 0 -0.002350017672760686 -9.0802035203789105e-05 0 -0.002302321031536405 5.4272923985068546e-06 0 -0.0016786468443571775 -0.00012689750041218099 0 -0.002302321031536405 5.4272923985068546e-06 0 -0.0023404375902180835 7.588398561113709e-05 0 -0.0023524887288643142 1.1614741538369089e-05 0 -0.0023852774884199272 5.1829294574902246e-05 0 -0.0023404375902180835 7.588398561113709e-05 0 -0.0023852774884199272 5.1829294574902246e-05 0 -0.0024481993535227405 0.00011471869930821529 0 -0.0010911848838768361 -0.00037287639190660766 0 -0.0011096244721921142 -0.00037051920371653364 0 -0.001098074163986021 -0.00036801585568930784 0 -0.0016786468443571775 -0.00012689750041218099 0 -0.0019726473953194058 -0.00011881786180602829 0 -0.0025745874038000474 5.7054329805955176e-05 0 -0.0025205977741500126 5.2706956353031631e-05 0 -0.0025659285208789666 6.6345431315190909e-05 0 -0.0023852774884199272 5.1829294574902246e-05 0 -0.0024279044282416551 5.1003967454191865e-05 0 -0.0024481993535227405 0.00011471869930821529 0 -0.0024995796107802138 0.0001074581436508591 0 -0.0019726473953194058 -0.00011881786180602829 0 -0.0025745874038000474 5.7054329805955176e-05 0 -0.0025205977741500126 5.2706956353031631e-05 0 -0.0025690963553956728 4.5297878971127304e-05 0 -0.0025205977741500126 5.2706956353031631e-05 0 -0.0025690963553956728 4.5297878971127304e-05 0 -0.002549296309741701 1.2725796801088798e-05 0 -0.0024228186842836109 -3.0479349313064494e-05 0 -0.0025205977741500126 5.2706956353031631e-05 0 -0.002549296309741701 1.2725796801088798e-05 0 -0.0024213884531239733 -5.0090118403212829e-05 0 -0.0024995796107802138 0.0001074581436508591 0 -0.0025447824448072815 -6.2116328058006473e-05 0 -0.0024228186842836109 -3.0479349313064494e-05 0 -0.002549296309741701 1.2725796801088798e-05 0 -0.0025447824448072815 -6.2116328058006473e-05 0 -0.002549296309741701 1.2725796801088798e-05 0 -0.0026228066123882439 -6.5961544220327206e-06 0 -0.002549296309741701 1.2725796801088798e-05 0 -0.0026228066123882439 -6.5961544220327206e-06 0 -0.0026026423823174213 3.5383126544025817e-05 0 -0.0026228066123882439 -6.5961544220327206e-06 0 -0.0026571915475487422 2.532914469585443e-05 0 -0.0027343306017453156 2.7026149781858018e-06 0 -0.0026228066123882439 -6.5961544220327206e-06 0 -0.0026026423823174213 3.5383126544025817e-05 0 -0.0026571915475487422 2.532914469585443e-05 0 -0.0025690963553956728 4.5297878971127304e-05 0 -0.002549296309741701 1.2725796801088798e-05 0 -0.0026026423823174213 3.5383126544025817e-05 0 -0.0025690963553956728 4.5297878971127304e-05 0 -0.0026026423823174213 3.5383126544025817e-05 0 -0.0025881374626132827 4.5876482835987466e-05 0 -0.0025745874038000474 5.7054329805955176e-05 0 -0.0025690963553956728 4.5297878971127304e-05 0 -0.0025881374626132827 4.5876482835987466e-05 0 -0.0026026423823174213 3.5383126544025817e-05 0 -0.0025962356141428383 3.9259160466027264e-05 0 -0.0026571915475487422 2.532914469585443e-05 0 -0.0026026423823174213 3.5383126544025817e-05 0 -0.0025881374626132827 4.5876482835987466e-05 0 -0.0025962356141428383 3.9259160466027264e-05 0 -0.0025881374626132827 4.5876482835987466e-05 0 -0.0025856630292208156 3.899278632797613e-05 0 -0.0025962356141428383 3.9259160466027264e-05 0 -0.0025856630292208156 3.899278632797613e-05 0 -0.0025962356141428383 3.9259160466027264e-05 0 -0.0025523931198519227 1.542200552064673e-05 0 -0.0025745874038000474 5.7054329805955176e-05 0 -0.0025881374626132827 4.5876482835987466e-05 0 -0.0025856630292208156 3.899278632797613e-05 0 -0.0025342316785248761 8.9151346998125215e-08 0 -0.0026147732245535497 2.4743258537648518e-05 0 -0.0027399035810145261 1.4555773834334471e-07 0 -0.0025342316785248761 8.9151346998125215e-08 0 -0.0025503633626926853 1.9533925055173461e-05 0 -0.0026147732245535497 2.4743258537648518e-05 0 -0.0025962356141428383 3.9259160466027264e-05 0 -0.0025503633626926853 1.9533925055173461e-05 0 -0.0026147732245535497 2.4743258537648518e-05 0 -0.0025962356141428383 3.9259160466027264e-05 0 -0.0025503633626926853 1.9533925055173461e-05 0 -0.0025523931198519227 1.542200552064673e-05 0 -0.0025962356141428383 3.9259160466027264e-05 0 -0.0026147732245535497 2.4743258537648518e-05 0 -0.0026571915475487422 2.532914469585443e-05 0 -0.0026147732245535497 2.4743258537648518e-05 0 -0.0026571915475487422 2.532914469585443e-05 0 -0.0027399035810145261 1.4555773834334471e-07 0 -0.0026571915475487422 2.532914469585443e-05 0 -0.0027399035810145261 1.4555773834334471e-07 0 -0.0027343306017453156 2.7026149781858018e-06 0 -0.0027399035810145261 1.4555773834334471e-07 0 -0.0029449934082476622 -3.6971698441842456e-07 0 -0.0027343306017453156 2.7026149781858018e-06 0 -0.0029449934082476622 -3.6971698441842456e-07 0 -0.0027343306017453156 2.7026149781858018e-06 0 -0.0026519759499184095 -9.442378426455102e-05 0 -0.0026228066123882439 -6.5961544220327206e-06 0 -0.0027343306017453156 2.7026149781858018e-06 0 -0.0026519759499184095 -9.442378426455102e-05 0 -0.0025447824448072815 -6.2116328058006473e-05 0 -0.0026228066123882439 -6.5961544220327206e-06 0 -0.0026519759499184095 -9.442378426455102e-05 0 -0.0025211975688859563 -0.00016755595383506852 0 -0.0025447824448072815 -6.2116328058006473e-05 0 -0.0026519759499184095 -9.442378426455102e-05 0 -0.0025211975688859563 -0.00016755595383506852 0 -0.0026519759499184095 -9.442378426455102e-05 0 -0.0027180791891743107 -0.00025316992029323851 0 -0.0025057572425346854 -0.00027582232758480981 0 -0.0025211975688859563 -0.00016755595383506852 0 -0.0027180791891743107 -0.00025316992029323851 0 -0.0029454228259532191 -3.3770751520655286e-08 0 -0.0028859172010430728 -0.00012219105838542693 0 -0.0029459158697624772 9.6452527431948993e-08 0 -0.0030284125072272921 -1.0745331339547173e-07 0 -0.0030514732907488628 -9.471434389320988e-06 0 -0.0029449934082476622 -3.6971698441842456e-07 0 -0.0026519759499184095 -9.442378426455102e-05 0 -0.0027180791891743107 -0.00025316992029323851 0 -0.0026576658838286049 -0.00046211295965695989 0 -0.002651047522176507 -0.00046076986864898052 0 -0.0026607775339223157 -0.0004705647354739036 0 -0.0026576658838286049 -0.00046211295965695989 0 -0.0026600741836298319 -0.00045838879151441928 0 -0.0026535166858851506 -0.00045735799262651623 0 -0.0026576658838286049 -0.00046211295965695989 0 -0.0026535166858851506 -0.00045735799262651623 0 -0.002651047522176507 -0.00046076986864898052 0 -0.0026576658838286049 -0.00046211295965695989 0 -0.0026607173724818791 -0.0004638682002214825 0 -0.002661937495439904 -0.00046182072871062406 0 -0.0024573113395681377 -0.00039328977331781008 0 -0.0025706238024237071 -0.00046221127553824269 0 -0.002661937495439904 -0.00046182072871062406 0 -0.0026603393127055562 -0.00045984061771721168 0 -0.0026649918469334745 -0.00046061988380777236 0 -0.002661937495439904 -0.00046182072871062406 0 -0.0026632903669051283 -0.00046418813901509288 0 -0.0026649918469334745 -0.00046061988380777236 0 -0.0030273820707009103 -0.00058822252910893354 0 -0.0029667830018613628 -0.0005887518032707432 0 -0.0029325218113591938 -0.00062815648738449956 0 -0.0030084425449018316 -0.00059427622956590689 0 -0.0029249930776403129 -0.00063012162572756577 0 -0.0030185992501221763 -0.00060367643224047891 0 -0.0030273820707009103 -0.00058822252910893354 0 -0.0028873281658473734 -0.0006376159173433287 0 -0.0026607173724818791 -0.0004638682002214825 0 -0.002661937495439904 -0.00046182072871062406 0 -0.0026632903669051283 -0.00046418813901509288 0 -0.0028340736008015933 -0.00054214581798431359 0 -0.0025706238024237071 -0.00046221127553824269 0 -0.0026576658838286049 -0.00046211295965695989 0 -0.002661937495439904 -0.00046182072871062406 0 -0.0026600741836298319 -0.00045838879151441928 0 -0.0025886228426050813 -0.00049331294445588197 0 -0.0024573113395681377 -0.00039328977331781008 0 -0.0024573113395681377 -0.00039328977331781008 0 -0.0021681408984535622 -0.00022293395072843012 0 -0.0018932535104056996 -0.0001071029800210763 0 -0.0018669471031537216 -0.00011360337569722287 0 -0.0018857680560890218 -0.00012583115894363814 0 -0.0023375737182252856 -0.00030005563376053214 0 -0.0023042266823832995 -0.0003130623675755102 0 -0.0023458992895142652 -0.00031695405055948833 0 -0.0023375737182252856 -0.00030005563376053214 0 -0.0023042266823832995 -0.0003130623675755102 0 -0.0022693769988678075 -0.00029473626502398554 0 -0.0021681408984535622 -0.00022293395072843012 0 -0.0020548277170413616 -0.0002237288346101377 0 -0.0023042266823832995 -0.0003130623675755102 0 -0.0023458992895142652 -0.00031695405055948833 0 -0.0022731125944412804 -0.0003391112939820296 0 -0.0023458462047669178 -0.00037862577989965587 0 -0.0020635363977844364 -0.00023183583291765708 0 -0.0022128235381614308 -0.00028650858060267178 0 -0.002207313422200425 -0.0002861697650010965 0 -0.0022121102053612725 -0.0002540129575898849 0 -0.0022272927132347404 -0.00028170862180869533 0 -0.0022128235381614308 -0.00028650858060267178 0 -0.0022121102053612725 -0.0002540129575898849 0 -0.0022990308598479295 -0.00031283183940836689 0 -0.0023140086728069822 -0.00034273582861610834 0 -0.0023910894908057319 -0.00031962046354780242 0 -0.0024573113395681377 -0.00039328977331781008 0 -0.0024171759530045083 -0.00036106648856669627 0 -0.0021681408984535622 -0.00022293395072843012 0 -0.0024171759530045083 -0.00036106648856669627 0 -0.0022088489265619351 -0.00040279044811931172 0 -0.0022099046579164318 -0.0004035747219266147 0 -0.0022095923268498569 -0.00039865869087433938 0 -0.0022899456284269292 -0.00038385042707613014 0 -0.0022132237306329416 -0.00039742653598986668 0 -0.0022088489265619351 -0.00040279044811931172 0 -0.0022096198410119774 -0.00040258916240364101 0 -0.0022124383541593422 -0.00040511930903896321 0 -0.0022088489265619351 -0.00040279044811931172 0 -0.0022096198410119774 -0.00040258916240364101 0 -0.0022099046579164318 -0.0004035747219266147 0 -0.0023508563639118144 -0.00037251998338080807 0 -0.0023674899149609399 -0.00037382002896238958 0 -0.0023566174810428862 -0.00038159810722045097 0 -0.0022899456284269292 -0.00038385042707613014 0 -0.0023458462047669178 -0.00037862577989965587 0 -0.0024079406998409642 -0.00039069861561242652 0 -0.0023890159612025546 -0.0003891906367822171 0 -0.0023874018541874351 -0.00039677598413093054 0 -0.0024171759530045083 -0.00036106648856669627 0 -0.0023458462047669178 -0.00037862577989965587 0 -0.0023458462047669178 -0.00037862577989965587 0 -0.0024239846380027432 -0.00037867619463775203 0 -0.0022006825735861085 -0.00040234265325768187 0 -0.0022124383541593422 -0.00040511930903896321 0 -0.0022263654931220338 -0.00041217783765533486 0 -0.0023082551152869475 -0.00040431178980212184 0 -0.0022263654931220338 -0.00041217783765533486 0 -0.0022614372465826907 -0.0004299777818503476 0 -0.0022899456284269292 -0.00038385042707613014 0 -0.0022246256627385481 -0.00040765868042331007 0 -0.0022186639612335147 -0.00040781274851286011 0 -0.0022124383541593422 -0.00040511930903896321 0 -0.0022263654931220338 -0.00041217783765533486 0 -0.0022105407282955679 -0.00042214229873005884 0 -0.0022263654931220338 -0.00041217783765533486 0 -0.0022360289295850198 -0.00044087558300645672 0 -0.0022263654931220338 -0.00041217783765533486 0 -0.0022360289295850198 -0.00044087558300645672 0 -0.0022614372465826907 -0.0004299777818503476 0 -0.0022360289295850198 -0.00044087558300645672 0 -0.0022614372465826907 -0.0004299777818503476 0 -0.0022634642938731283 -0.00045053732889727876 0 -0.0022614372465826907 -0.0004299777818503476 0 -0.0022816411095334917 -0.00044536018525409115 0 -0.0022634642938731283 -0.00045053732889727876 0 -0.0022614372465826907 -0.0004299777818503476 0 -0.0022816411095334917 -0.00044536018525409115 0 -0.0022937417665034984 -0.00042933837477314695 0 -0.0022816411095334917 -0.00044536018525409115 0 -0.0022772453201239827 -0.00046833702650006043 0 -0.0022634642938731283 -0.00045053732889727876 0 -0.0022772453201239827 -0.00046833702650006043 0 -0.0022576638712474575 -0.00046689570417415079 0 -0.0022634642938731283 -0.00045053732889727876 0 -0.0022360289295850198 -0.00044087558300645672 0 -0.0022576638712474575 -0.00046689570417415079 0 -0.0022362754532262567 -0.00046173023870502242 0 -0.0022360289295850198 -0.00044087558300645672 0 -0.0022576638712474575 -0.00046689570417415079 0 -0.0022634642938731283 -0.00045053732889727876 0 -0.0023357109807555995 -0.00044183124287584466 0 -0.0023031758869026375 -0.00043962512843451364 0 -0.0023283843858783195 -0.00057194566589379944 0 -0.002596473568249066 -0.00042542656732445197 0 -0.0023865081811754699 -0.00038817283037699389 0 -0.0023357109807555995 -0.00044183124287584466 0 -0.0023205740974151408 -0.00041949594686711589 0 -0.0023031758869026375 -0.00043962512843451364 0 -0.002596473568249066 -0.00042542656732445197 0 -0.0024239846380027432 -0.00037867619463775203 0 -0.0026535166858851506 -0.00045735799262651623 0 -0.002651047522176507 -0.00046076986864898052 0 -0.0026510818698087359 -0.00045803516151543999 0 -0.0024171759530045083 -0.00036106648856669627 0 -0.0024239846380027432 -0.00037867619463775203 0 -0.0023674899149609399 -0.00037382002896238958 0 -0.0023664700745358192 -0.00037866595543900919 0 -0.0023566174810428862 -0.00038159810722045097 0 -0.002494529966212483 -0.00038929669347565539 0 -0.0024919084568580923 -0.00040014266459782884 0 -0.00249960624101918 -0.00039782743740622307 0 -0.0024239846380027432 -0.00037867619463775203 0 -0.0023865081811754699 -0.00038817283037699389 0 -0.0023082551152869475 -0.00040431178980212184 0 -0.0022614372465826907 -0.0004299777818503476 0 -0.0022937417665034984 -0.00042933837477314695 0 -0.0022899456284269292 -0.00038385042707613014 0 -0.0023865081811754699 -0.00038817283037699389 0 -0.0023865081811754699 -0.00038817283037699389 0 -0.0023276838643763492 -0.00040917476045589248 0 -0.0023082551152869475 -0.00040431178980212184 0 -0.0023191698804254034 -0.0004216344435377097 0 -0.0022937417665034984 -0.00042933837477314695 0 -0.0022816411095334917 -0.00044536018525409115 0 -0.0022937417665034984 -0.00042933837477314695 0 -0.0023031758869026375 -0.00043962512843451364 0 -0.0023205740974151408 -0.00041949594686711589 0 -0.0022937417665034984 -0.00042933837477314695 0 -0.0023031758869026375 -0.00043962512843451364 0 -0.0022816411095334917 -0.00044536018525409115 0 -0.0022772453201239827 -0.00046833702650006043 0 -0.0023031758869026375 -0.00043962512843451364 0 -0.0030622369568035785 -0.00039455726490572179 0 -0.0030229396460934622 -0.00060091134189102079 0 -0.0031787330647074742 -0.00057405983147055693 0 -0.002596473568249066 -0.00042542656732445197 0 -0.0031637513602163917 -0.00064507930426805455 0 -0.0021235869202759334 -0.00043553943446706593 0 -0.0031335328437906681 -0.00061378270996740052 0 -0.0022772453201239827 -0.00046833702650006043 0 -0.0023031758869026375 -0.00043962512843451364 0 -0.0022925929607115108 -0.00051636938576061229 0 -0.0023031758869026375 -0.00043962512843451364 0 -0.0023088509014083879 -0.00056789791263084745 0 -0.0023283843858783195 -0.00057194566589379944 0 -0.0022772453201239827 -0.00046833702650006043 0 -0.0022925929607115108 -0.00051636938576061229 0 -0.0022660783482844962 -0.0004884887989527524 0 -0.0022275554053188111 -0.00047396902596776361 0 -0.0022464205945075155 -0.00047863386477631497 0 -0.0022466547353766249 -0.00050193298791870666 0 -0.0022275554053188111 -0.00047396902596776361 0 -0.0022362754532262567 -0.00046173023870502242 0 -0.0022464205945075155 -0.00047863386477631497 0 -0.0022576638712474575 -0.00046689570417415079 0 -0.0022362754532262567 -0.00046173023870502242 0 -0.0022464205945075155 -0.00047863386477631497 0 -0.0022576638712474575 -0.00046689570417415079 0 -0.0022464205945075155 -0.00047863386477631497 0 -0.0022660783482844962 -0.0004884887989527524 0 -0.0022772453201239827 -0.00046833702650006043 0 -0.0022576638712474575 -0.00046689570417415079 0 -0.0022660783482844962 -0.0004884887989527524 0 -0.0031335328437906681 -0.00061378270996740052 0 -0.0032542994204625485 -0.00052356064758196045 0 -0.0022925929607115108 -0.00051636938576061229 0 -0.0022660783482844962 -0.0004884887989527524 0 -0.0022466547353766249 -0.00050193298791870666 0 -0.0022464205945075155 -0.00047863386477631497 0 -0.0022660783482844962 -0.0004884887989527524 0 -0.0022466547353766249 -0.00050193298791870666 0 -0.0042555558187643379 -0.0004416301482327132 0 -0.0042470710474001088 -0.00055952293780605884 0 -0.0043082808821085982 -0.00051563423905817978 0 -0.0043841191149693523 -0.00050416905274712259 0 -0.0043361194529229772 -0.00057089268260719173 0 -0.0043082808821085982 -0.00051563423905817978 0 -0.0042470710474001088 -0.00055952293780605884 0 -0.0043361194529229772 -0.00057089268260719173 0 -0.0043082808821085982 -0.00051563423905817978 0 -0.0043841191149693523 -0.00050416905274712259 0 -0.0043489106650563356 -0.00048157957832308776 0 -0.0043082808821085982 -0.00051563423905817978 0 -0.0043489106650563356 -0.00048157957832308776 0 -0.0042555558187643379 -0.0004416301482327132 0 -0.0043082808821085982 -0.00051563423905817978 0 -0.0042275710357823817 -0.0004785028612119299 0 -0.0031637513602163917 -0.00064507930426805455 0 -0.0037092545169950565 -0.00034665849720026356 0 -0.0037639369898364704 -0.00029689934765099875 0 -0.0036986342195425535 -0.00071919059766770426 0 -0.0042275710357823817 -0.0004785028612119299 0 -0.0037041678394085804 -0.0006319033452405388 0 -0.0043439146027237068 -0.00036065369694128827 0 -0.0031335328437906681 -0.00061378270996740052 0 -0.0037092545169950565 -0.00034665849720026356 0 -0.0036986342195425535 -0.00071919059766770426 0 -0.0036234738382848529 -0.00070386856463543581 0 -0.0038292576666886674 -0.00043628261844531186 0 -0.0037689236492515392 -0.0007021734243443993 0 -0.0035837623572158236 -0.0006643150446860119 0 -0.0043795318443306357 -0.00061289921317461064 0 -0.0046278601040137457 -0.00062718013929099798 0 -0.0044151115022586507 -0.00082100518373735322 0 -0.0031637513602163917 -0.00064507930426805455 0 -0.0037041678394085804 -0.0006319033452405388 0 -0.0031335328437906681 -0.00061378270996740052 0 -0.0031637513602163917 -0.00064507930426805455 0 -0.0030229396460934622 -0.00060091134189102079 0 -0.0031283923410821133 -0.0006221457367025998 0 -0.0031787330647074742 -0.00057405983147055693 0 -0.0043795318443306357 -0.00061289921317461064 0 -0.0042748254691353299 -0.00079201885517793272 0 -0.0044151115022586507 -0.00082100518373735322 0 -0.0036180819533210853 -0.00067332409015936141 0 -0.0037041678394085804 -0.0006319033452405388 0 -0.0034640053984908961 -0.00062728395790670791 0 -0.0034559901635464307 -0.00062509074260344523 0 -0.0034595806919106029 -0.00062091986158579191 0 -0.0030841121863905635 -0.00046745918219521376 0 -0.0031178255169352119 -0.0005191826748520399 0 -0.0030470657387691841 -0.00051637185506405554 0 -0.0036180819533210853 -0.00067332409015936141 0 -0.0031136571745851967 -0.00055555703287544405 0 -0.0037041678394085804 -0.0006319033452405388 0 -0.0031136571745851967 -0.00055555703287544405 0 -0.0026576658838286049 -0.00046211295965695989 0 -0.0026607173724818791 -0.0004638682002214825 0 -0.0026607775339223157 -0.0004705647354739036 0 -0.002596473568249066 -0.00042542656732445197 0 -0.0031136571745851967 -0.00055555703287544405 0 -0.0030026536372452983 -0.00057364777604585967 0 -0.0030273820707009103 -0.00058822252910893354 0 -0.0029667830018613628 -0.0005887518032707432 0 -0.0030177800341919222 -0.00056431053897973936 0 -0.0030026536372452983 -0.00057364777604585967 0 -0.0030273820707009103 -0.00058822252910893354 0 -0.0030177800341919222 -0.00056431053897973936 0 -0.0030411811378936826 -0.00054825150474837366 0 -0.0029999832070559214 -0.00054682857038735732 0 -0.0030177800341919222 -0.00056431053897973936 0 -0.0030026536372452983 -0.00057364777604585967 0 -0.0029999832070559214 -0.00054682857038735732 0 -0.0030026536372452983 -0.00057364777604585967 0 -0.0029999832070559214 -0.00054682857038735732 0 -0.0029667830018613628 -0.0005887518032707432 0 -0.0030185992501221763 -0.00060367643224047891 0 -0.0031178255169352119 -0.0005191826748520399 0 -0.0030273820707009103 -0.00058822252910893354 0 -0.0026607173724818791 -0.0004638682002214825 0 -0.0026632903669051283 -0.00046418813901509288 0 -0.0026607775339223157 -0.0004705647354739036 0 -0.0028340736008015933 -0.00054214581798431359 0 -0.0031136571745851967 -0.00055555703287544405 0 -0.0030177800341919222 -0.00056431053897973936 0 -0.0030273820707009103 -0.00058822252910893354 0 -0.0030411811378936826 -0.00054825150474837366 0 -0.0031178255169352119 -0.0005191826748520399 0 -0.0030411811378936826 -0.00054825150474837366 0 -0.0030470657387691841 -0.00051637185506405554 0 -0.0031178255169352119 -0.0005191826748520399 0 -0.0030273820707009103 -0.00058822252910893354 0 -0.0030411811378936826 -0.00054825150474837366 0 -0.0030411811378936826 -0.00054825150474837366 0 -0.0030470657387691841 -0.00051637185506405554 0 -0.0029999832070559214 -0.00054682857038735732 0 -0.0029999832070559214 -0.00054682857038735732 0 -0.003008225115430912 -0.00049802213680985401 0 -0.0029419937230488486 -0.00051904381875094992 0 -0.0030470657387691841 -0.00051637185506405554 0 -0.0029999832070559214 -0.00054682857038735732 0 -0.003008225115430912 -0.00049802213680985401 0 -0.0030841121863905635 -0.00046745918219521376 0 -0.003008225115430912 -0.00049802213680985401 0 -0.0029781497967558482 -0.00044809602411813922 0 -0.0034895594336080589 -0.00045286716529453069 0 -0.003606675355229474 -0.00064207939468369549 0 -0.0034513068519118292 -0.00061028961068287891 0 -0.0036180819533210853 -0.00067332409015936141 0 -0.0031951350030113971 -0.0005253629435500813 0 -0.0030841121863905635 -0.00046745918219521376 0 -0.0030470657387691841 -0.00051637185506405554 0 -0.003008225115430912 -0.00049802213680985401 0 -0.003389705849327896 -0.00051629611528208636 0 -0.0034513068519118292 -0.00061028961068287891 0 -0.0032949994212485931 -0.00057826664838359532 0 -0.0029781497967558482 -0.00044809602411813922 0 -0.0028760985977667104 -0.00042797356606522107 0 -0.0029419937230488486 -0.00051904381875094992 0 -0.0028760985977667104 -0.00042797356606522107 0 -0.0028558298669847906 -0.00054928872236248915 0 -0.0029419937230488486 -0.00051904381875094992 0 -0.0031951350030113971 -0.0005253629435500813 0 -0.0029231927657071767 -0.00045950797790757919 0 -0.003008225115430912 -0.00049802213680985401 0 -0.0029781497967558482 -0.00044809602411813922 0 -0.0029419937230488486 -0.00051904381875094992 0 -0.0027322725718952785 -0.00036440429361440376 0 -0.0026675776995304409 -0.00042213029608320738 0 -0.0027228407225965358 -0.00045337174154472894 0 -0.0029231927657071767 -0.00045950797790757919 0 -0.0027909346649227802 -0.00050240539035888957 0 -0.0027322725718952785 -0.00036440429361440376 0 -0.0026681617849578453 -0.00035475889689425862 0 -0.0026675776995304409 -0.00042213029608320738 0 -0.0029231927657071767 -0.00045950797790757919 0 -0.0026232342729149037 -0.00035125853950392614 0 -0.0026675776995304409 -0.00042213029608320738 0 -0.0027228407225965358 -0.00045337174154472894 0 -0.002687559348642512 -0.00050859092232986456 0 -0.0029139168372912297 -0.00057778382354568532 0 -0.0029667830018613628 -0.0005887518032707432 0 -0.0029419937230488486 -0.00051904381875094992 0 -0.0029139168372912297 -0.00057778382354568532 0 -0.0029667830018613628 -0.0005887518032707432 0 -0.0029325218113591938 -0.00062815648738449956 0 -0.0029999832070559214 -0.00054682857038735732 0 -0.0029667830018613628 -0.0005887518032707432 0 -0.0029419937230488486 -0.00051904381875094992 0 -0.0028558298669847906 -0.00054928872236248915 0 -0.0029139168372912297 -0.00057778382354568532 0 -0.0029419937230488486 -0.00051904381875094992 0 -0.0026104027132482512 -0.00033220130319500129 0 -0.002520356300231558 -0.00037756230841965609 0 -0.0025864478749226894 -0.00040745172753415957 0 -0.002520356300231558 -0.00037756230841965609 0 -0.0025864478749226894 -0.00040745172753415957 0 -0.002528053794673395 -0.0004274026997791197 0 -0.0026104027132482512 -0.00033220130319500129 0 -0.0026681617849578453 -0.00035475889689425862 0 -0.0025864478749226894 -0.00040745172753415957 0 -0.0026681617849578453 -0.00035475889689425862 0 -0.0026675776995304409 -0.00042213029608320738 0 -0.0025864478749226894 -0.00040745172753415957 0 -0.0025864478749226894 -0.00040745172753415957 0 -0.0026325764091601747 -0.00048339190452245575 0 -0.0025736784472562809 -0.00049570456194906077 0 -0.0026675776995304409 -0.00042213029608320738 0 -0.0025864478749226894 -0.00040745172753415957 0 -0.0026325764091601747 -0.00048339190452245575 0 -0.0026675776995304409 -0.00042213029608320738 0 -0.0026325764091601747 -0.00048339190452245575 0 -0.002687559348642512 -0.00050859092232986456 0 -0.0025864478749226894 -0.00040745172753415957 0 -0.002528053794673395 -0.0004274026997791197 0 -0.0025736784472562809 -0.00049570456194906077 0 -0.0025036337855589151 -0.00046247833368475805 0 -0.002528053794673395 -0.0004274026997791197 0 -0.0025736784472562809 -0.00049570456194906077 0 -0.0025001906215715813 -0.00042564282238935632 0 -0.0025036337855589151 -0.00046247833368475805 0 -0.002528053794673395 -0.0004274026997791197 0 -0.0024132332245945624 -0.00057853927554815221 0 -0.0025264463140870943 -0.00057719297884544049 0 -0.0024354385481294744 -0.00068952934141256698 0 -0.0025036337855589151 -0.00046247833368475805 0 -0.0024132332245945624 -0.00057853927554815221 0 -0.0025264463140870943 -0.00057719297884544049 0 -0.0025036337855589151 -0.00046247833368475805 0 -0.0025736784472562809 -0.00049570456194906077 0 -0.0025264463140870943 -0.00057719297884544049 0 -0.0026325764091601747 -0.00048339190452245575 0 -0.0025736784472562809 -0.00049570456194906077 0 -0.0027149787288992398 -0.00056520046945092591 0 -0.0026054667810696082 -0.00058882562849723848 0 -0.0026496694483020547 -0.00055335852024028141 0 -0.0025264463140870943 -0.00057719297884544049 0 -0.0026832277381212935 -0.00070864010751517826 0 -0.0029000952060370864 -0.00061405660768559063 0 -0.0025736784472562809 -0.00049570456194906077 0 -0.0025264463140870943 -0.00057719297884544049 0 -0.0027149787288992398 -0.00056520046945092591 0 -0.0024130464296440342 -0.00053072850396874581 0 -0.0026496694483020547 -0.00055335852024028141 0 -0.0021482655790713823 -0.00034356205726114445 0 -0.0021723347880634146 -0.00033451871406004586 0 -0.0021626195415134605 -0.00034509248011198855 0 -0.0021548442064334475 -0.0003530348506457046 0 -0.0021482655790713823 -0.00034356205726114445 0 -0.0021626195415134605 -0.00034509248011198855 0 -0.0021548442064334475 -0.0003530348506457046 0 -0.002145496974274878 -0.00035323117667129849 0 -0.0021482655790713823 -0.00034356205726114445 0 -0.0025264463140870943 -0.00057719297884544049 0 -0.0026832277381212935 -0.00070864010751517826 0 -0.0024354385481294744 -0.00068952934141256698 0 -0.002145496974274878 -0.00035323117667129849 0 -0.0021482655790713823 -0.00034356205726114445 0 -0.0021308432723243574 -0.00035189181631247596 0 -0.002145496974274878 -0.00035323117667129849 0 -0.0021308432723243574 -0.00035189181631247596 0 -0.0021395326337807345 -0.00035729720817116273 0 -0.0024130464296440342 -0.00053072850396874581 0 -0.0021667837233440334 -0.00041981118029829265 0 -0.0026832277381212935 -0.00070864010751517826 0 -0.0024571803516524435 -0.00081529240646176584 0 -0.0024354385481294744 -0.00068952934141256698 0 -0.0025706238024237071 -0.00046221127553824269 0 -0.0026496694483020547 -0.00055335852024028141 0 -0.0029139168372912297 -0.00057778382354568532 0 -0.0029325218113591938 -0.00062815648738449956 0 -0.002830490366101938 -0.00067131071347395043 0 -0.00289134528895352 -0.00071216688163914523 0 -0.0028873281658473734 -0.0006376159173433287 0 -0.0027377804286282592 -0.00069920601948548372 0 -0.0029249930776403129 -0.00063012162572756577 0 -0.0026496694483020547 -0.00055335852024028141 0 -0.0030185992501221763 -0.00060367643224047891 0 -0.00289134528895352 -0.00071216688163914523 0 -0.0028873281658473734 -0.0006376159173433287 0 -0.0027228407225965358 -0.00045337174154472894 0 -0.002687559348642512 -0.00050859092232986456 0 -0.0027149787288992398 -0.00056520046945092591 0 -0.0028558298669847906 -0.00054928872236248915 0 -0.0029139168372912297 -0.00057778382354568532 0 -0.002830490366101938 -0.00067131071347395043 0 -0.0027909346649227802 -0.00050240539035888957 0 -0.0026496694483020547 -0.00055335852024028141 0 -0.0026325764091601747 -0.00048339190452245575 0 -0.002687559348642512 -0.00050859092232986456 0 -0.0027149787288992398 -0.00056520046945092591 0 -0.0021723347880634146 -0.00033451871406004586 0 -0.0021626195415134605 -0.00034509248011198855 0 -0.0021656798856221457 -0.0003573871257377752 0 -0.0025706238024237071 -0.00046221127553824269 0 -0.0021756251082145541 -0.00031792155424403563 0 -0.0020548277170413616 -0.0002237288346101377 0 -0.0020573308943678667 -0.0002867263217772889 0 -0.00248517365999972 -0.00041662001784246083 0 -0.0024458366556647086 -0.00041353033060607377 0 -0.0024382929568837648 -0.00045725238111166285 0 -0.0026496694483020547 -0.00055335852024028141 0 -0.0021756251082145541 -0.00031792155424403563 0 -0.0022731125944412804 -0.0003391112939820296 0 -0.0021937970787273765 -0.00036215445055162216 0 -0.002198856049647304 -0.00035756273658853991 0 -0.0021548442064334475 -0.0003530348506457046 0 -0.0021626195415134605 -0.00034509248011198855 0 -0.0021656798856221457 -0.0003573871257377752 0 -0.0022693769988678075 -0.00029473626502398554 0 -0.0022731125944412804 -0.0003391112939820296 0 -0.002198856049647304 -0.00035756273658853991 0 -0.0023042266823832995 -0.0003130623675755102 0 -0.0022693769988678075 -0.00029473626502398554 0 -0.0022731125944412804 -0.0003391112939820296 0 -0.0018669471031537216 -0.00011360337569722287 0 -0.0018713656205586596 -0.00013191115311767689 0 -0.0018538672102080764 -0.00013570419049689801 0 -0.0018669471031537216 -0.00011360337569722287 0 -0.0018538672102080764 -0.00013570419049689801 0 -0.0018398342233703388 -0.00012125798744442981 0 -0.0018538672102080764 -0.00013570419049689801 0 -0.0018398342233703388 -0.00012125798744442981 0 -0.0018329700030533839 -0.00015041228282618524 0 -0.0021548442064334475 -0.0003530348506457046 0 -0.0021636578865537096 -0.00035895268891669382 0 -0.0021656798856221457 -0.0003573871257377752 0 -0.0020573308943678667 -0.0002867263217772889 0 -0.0021756251082145541 -0.00031792155424403563 0 -0.0018538672102080764 -0.00013570419049689801 0 -0.0018329700030533839 -0.00015041228282618524 0 -0.0018498536550217006 -0.00015195648782321132 0 -0.0020573308943678667 -0.0002867263217772889 0 -0.0014789247065866429 4.7996975080819492e-05 0 -0.0018498536550217006 -0.00015195648782321132 0 -0.0018628605790949862 -0.00014607101286371612 0 -0.0018579697831654373 -0.0001603503391578771 0 -0.0018713656205586596 -0.00013191115311767689 0 -0.0018538672102080764 -0.00013570419049689801 0 -0.0018628605790949862 -0.00014607101286371612 0 -0.0018538672102080764 -0.00013570419049689801 0 -0.0018498536550217006 -0.00015195648782321132 0 -0.0018628605790949862 -0.00014607101286371612 0 -0.001969145815888574 -0.00017433409560419229 0 -0.0019535785043875362 -0.00022299344999616633 0 -0.0019059005759773592 -0.00021634786387542118 0 -0.0019396166631464864 -0.00026250070414983624 0 -0.0019535785043875362 -0.00022299344999616633 0 -0.0019059005759773592 -0.00021634786387542118 0 -0.0021667837233440334 -0.00041981118029829265 0 -0.0019621426269990027 -0.00027709636683982133 0 -0.0021308432723243574 -0.00035189181631247596 0 -0.0021395326337807345 -0.00035729720817116273 0 -0.0021382861811601846 -0.00036032421284591719 0 -0.0021395326337807345 -0.00035729720817116273 0 -0.0021393888451986002 -0.00035937581198563774 0 -0.0021426416166548347 -0.00035935714355283665 0 -0.0019814049635874359 -0.00029199156208163641 0 -0.0019621426269990027 -0.00027709636683982133 0 -0.0019621426269990027 -0.00027709636683982133 0 -0.0016267845397562955 -0.00011869786800817145 0 -0.0021393888451986002 -0.00035937581198563774 0 -0.0021426416166548347 -0.00035935714355283665 0 -0.0021434852113223915 -0.00036111555871000205 0 -0.0021426416166548347 -0.00035935714355283665 0 -0.0021456744174015345 -0.00036012771274836989 0 -0.0021434852113223915 -0.00036111555871000205 0 -0.0021548442064334475 -0.0003530348506457046 0 -0.002145496974274878 -0.00035323117667129849 0 -0.0021456744174015345 -0.00036012771274836989 0 -0.002145496974274878 -0.00035323117667129849 0 -0.0021395326337807345 -0.00035729720817116273 0 -0.0021426416166548347 -0.00035935714355283665 0 -0.002145496974274878 -0.00035323117667129849 0 -0.0021426416166548347 -0.00035935714355283665 0 -0.0021456744174015345 -0.00036012771274836989 0 -0.0020573308943678667 -0.0002867263217772889 0 -0.0021562263606730659 -0.00033403443194313142 0 -0.0021548442064334475 -0.0003530348506457046 0 -0.0021636578865537096 -0.00035895268891669382 0 -0.0021456744174015345 -0.00036012771274836989 0 -0.0021452725624279802 -0.00035881371434238449 0 -0.0021456744174015345 -0.00036012771274836989 0 -0.0021434852113223915 -0.00036111555871000205 0 -0.0020573308943678667 -0.0002867263217772889 0 -0.0016267845397562955 -0.00011869786800817145 0 -0.0017047771072871802 -0.00017934280801677071 0 -0.0017172731104280682 -3.7266848300562897e-05 0 -0.0017775004040875243 -0.00010810751473013783 0 -0.0011738183706888259 9.5616887329657316e-05 0 -0.0011110029872509343 0.00017222189222417379 0 -0.0010990694229182998 6.0943458764132459e-05 0 -0.0014789247065866429 4.7996975080819492e-05 0 -0.0016267845397562955 -0.00011869786800817145 0 -0.0011110029872509343 0.00017222189222417379 0 -0.0010125930563163012 8.6524494985070754e-05 0 -0.0010990694229182998 6.0943458764132459e-05 0 -0.0017537528372179529 -0.00019335172939342546 0 -0.0017276948899566274 -0.00016296285554438594 0 -0.0017774874119692178 -0.00011486861836720554 0 -0.0016267845397562955 -0.00011869786800817145 0 -0.0016599461609418699 -6.831579807854925e-05 0 -0.001969145815888574 -0.00017433409560419229 0 -0.0019059005759773592 -0.00021634786387542118 0 -0.0019703755265002461 -0.00011612775871445825 0 -0.0019621426269990027 -0.00027709636683982133 0 -0.0016599461609418699 -6.831579807854925e-05 0 -0.0010125930563163012 8.6524494985070754e-05 0 -0.0010990694229182998 6.0943458764132459e-05 0 -0.0010552855533385596 -3.0074190596150554e-05 0 -0.0019278158327978841 -1.5559767933588766e-06 0 -0.0016599461609418699 -6.831579807854925e-05 0 -0.0010990694229182998 6.0943458764132459e-05 0 -0.0011520277914333281 -1.8447839341436596e-05 0 -0.0010552855533385596 -3.0074190596150554e-05 0 -0.0014789247065866429 4.7996975080819492e-05 0 -0.0011725679209531317 6.2724928754562167e-05 0 -0.0011738183706888259 9.5616887329657316e-05 0 -0.0010990694229182998 6.0943458764132459e-05 0 -0.0011520277914333281 -1.8447839341436596e-05 0 -0.0011725679209531317 6.2724928754562167e-05 0 -0.0011555453396799697 -0.00011131379240510301 0 -0.0011520277914333281 -1.8447839341436596e-05 0 -0.0010552855533385596 -3.0074190596150554e-05 0 -0.0011317944332320379 -0.00013297488453062773 0 -0.00094679105348308026 -7.8038421967904941e-05 0 -0.0010552855533385596 -3.0074190596150554e-05 0 -0.0010266742487193543 -0.00014955374427616579 0 -0.00094679105348308026 -7.8038421967904941e-05 0 -0.0010125930563163012 8.6524494985070754e-05 0 -0.0010552855533385596 -3.0074190596150554e-05 0 -0.0018498536550217006 -0.00015195648782321132 0 -0.0018579697831654373 -0.0001603503391578771 0 -0.0018507168342491976 -0.00017096393063701013 0 -0.0018579697831654373 -0.0001603503391578771 0 -0.0018507168342491976 -0.00017096393063701013 0 -0.0018564730205386172 -0.00017244570835281265 0 -0.0018579697831654373 -0.0001603503391578771 0 -0.0018564730205386172 -0.00017244570835281265 0 -0.0018730555540630574 -0.00015912820703725268 0 -0.0018628605790949862 -0.00014607101286371612 0 -0.0018579697831654373 -0.0001603503391578771 0 -0.0018730555540630574 -0.00015912820703725268 0 -0.0012462683101204532 0.00027211374184445971 0 -0.0012149792193497906 0.00010360223083138942 0 -0.0013736801117722318 0.00012396698281644293 0 -0.0018329700030533839 -0.00015041228282618524 0 -0.0018498536550217006 -0.00015195648782321132 0 -0.0018507168342491976 -0.00017096393063701013 0 -0.0014789247065866429 4.7996975080819492e-05 0 -0.0016201124174532585 -2.5768569016351742e-05 0 -0.0012149792193497906 0.00010360223083138942 0 -0.0013336923326947069 -3.4583109083452507e-05 0 -0.0011776462090065144 -7.2090062279334816e-05 0 -0.0012149792193497906 0.00010360223083138942 0 -0.0013736801117722318 0.00012396698281644293 0 -0.0013336923326947069 -3.4583109083452507e-05 0 -0.0018564730205386172 -0.00017244570835281265 0 -0.0018556724318537427 -0.00017700261599697565 0 -0.0018559157295326796 -0.00017689471486711321 0 -0.0018507168342491976 -0.00017096393063701013 0 -0.0018564730205386172 -0.00017244570835281265 0 -0.0018559157295326796 -0.00017689471486711321 0 -0.0013736801117722318 0.00012396698281644293 0 -0.0015100174135713649 -3.0123955811114758e-05 0 -0.0013336923326947069 -3.4583109083452507e-05 0 -0.0016201124174532585 -2.5768569016351742e-05 0 -0.0016813072039627392 -9.9214676671668137e-05 0 -0.0018564730205386172 -0.00017244570835281265 0 -0.0018719250287233442 -0.00018323293443548247 0 -0.0018712093898080224 -0.00019649129643382584 0 -0.0018576658465523984 -0.00017564494730873753 0 -0.0018619974448831681 -0.00018126508798245903 0 -0.0018719250287233442 -0.00018323293443548247 0 -0.0018808259376020741 -0.00018924503657530875 0 -0.0018712093898080224 -0.00019649129643382584 0 -0.0018808259376020741 -0.00018924503657530875 0 -0.0018787700207332798 -0.00017483957664350607 0 -0.001893174249115809 -0.00018637276953071337 0 -0.0018564730205386172 -0.00017244570835281265 0 -0.0018719250287233442 -0.00018323293443548247 0 -0.0018787700207332798 -0.00017483957664350607 0 -0.0018719250287233442 -0.00018323293443548247 0 -0.0018808259376020741 -0.00018924503657530875 0 -0.0018787700207332798 -0.00017483957664350607 0 -0.0019380139733718253 -0.00031888666556823973 0 -0.0019993244204429676 -0.00028619717345928402 0 -0.0019788412640409309 -0.000369325378208663 0 -0.0019224598864346861 -0.00026228617418595123 0 -0.0019217272469232321 -0.00017677949692070048 0 -0.0018787700207332798 -0.00017483957664350607 0 -0.001893174249115809 -0.00018637276953071337 0 -0.0018987787900048147 -0.00015837019514903302 0 -0.0019380139733718253 -0.00031888666556823973 0 -0.0019607178067446423 -0.00022778796819303572 0 -0.0019993244204429676 -0.00028619717345928402 0 -0.0018787700207332798 -0.00017483957664350607 0 -0.0018987787900048147 -0.00015837019514903302 0 -0.0018730555540630574 -0.00015912820703725268 0 -0.0018564730205386172 -0.00017244570835281265 0 -0.0018787700207332798 -0.00017483957664350607 0 -0.0018730555540630574 -0.00015912820703725268 0 -0.0018713656205586596 -0.00013191115311767689 0 -0.0018628605790949862 -0.00014607101286371612 0 -0.0018840915284551085 -0.00014239257747778429 0 -0.0018987787900048147 -0.00015837019514903302 0 -0.0018730555540630574 -0.00015912820703725268 0 -0.0018840915284551085 -0.00014239257747778429 0 -0.0018628605790949862 -0.00014607101286371612 0 -0.0018730555540630574 -0.00015912820703725268 0 -0.0018840915284551085 -0.00014239257747778429 0 -0.0018987787900048147 -0.00015837019514903302 0 -0.0018840915284551085 -0.00014239257747778429 0 -0.0019054131166525558 -0.00013408661213473887 0 -0.0019217272469232321 -0.00017677949692070048 0 -0.0020635363977844364 -0.00023183583291765708 0 -0.0019607178067446423 -0.00022778796819303572 0 -0.0019809685058442676 -0.0001433769590887844 0 -0.0020187521112755196 -0.00021734734130292346 0 -0.0018932535104056996 -0.0001071029800210763 0 -0.0019054131166525558 -0.00013408661213473887 0 -0.0018857680560890218 -0.00012583115894363814 0 -0.0021681408984535622 -0.00022293395072843012 0 -0.0020635363977844364 -0.00023183583291765708 0 -0.0018840915284551085 -0.00014239257747778429 0 -0.0019054131166525558 -0.00013408661213473887 0 -0.0018857680560890218 -0.00012583115894363814 0 -0.0018669471031537216 -0.00011360337569722287 0 -0.0018713656205586596 -0.00013191115311767689 0 -0.0018857680560890218 -0.00012583115894363814 0 -0.0018713656205586596 -0.00013191115311767689 0 -0.0018840915284551085 -0.00014239257747778429 0 -0.0018857680560890218 -0.00012583115894363814 0 -0.0022006825735861085 -0.00040234265325768187 0 -0.0021874214184375591 -0.00039072232090238689 0 -0.0022017811948738431 -0.00039937043666917165 0 -0.0022006825735861085 -0.00040234265325768187 0 -0.0022124383541593422 -0.00040511930903896321 0 -0.0022017811948738431 -0.00039937043666917165 0 -0.0022017811948738431 -0.00039937043666917165 0 -0.0022062049963134066 -0.0004012487331293285 0 -0.0021987986141069442 -0.00039490274888469512 0 -0.0022124383541593422 -0.00040511930903896321 0 -0.0022017811948738431 -0.00039937043666917165 0 -0.0022062049963134066 -0.0004012487331293285 0 -0.0022095923268498569 -0.00039865869087433938 0 -0.0022062049963134066 -0.0004012487331293285 0 -0.0021987986141069442 -0.00039490274888469512 0 -0.0022088489265619351 -0.00040279044811931172 0 -0.0022124383541593422 -0.00040511930903896321 0 -0.0022062049963134066 -0.0004012487331293285 0 -0.0022088489265619351 -0.00040279044811931172 0 -0.0022095923268498569 -0.00039865869087433938 0 -0.0022062049963134066 -0.0004012487331293285 0 -0.0022095923268498569 -0.00039865869087433938 0 -0.0021987986141069442 -0.00039490274888469512 0 -0.002197607217045447 -0.00038577611357675846 0 -0.0020635363977844364 -0.00023183583291765708 0 -0.0021129855237270062 -0.0003107500030153338 0 -0.0021987986141069442 -0.00039490274888469512 0 -0.0021763071687899197 -0.00038228950621670312 0 -0.002197607217045447 -0.00038577611357675846 0 -0.0021874214184375591 -0.00039072232090238689 0 -0.0021987986141069442 -0.00039490274888469512 0 -0.0021763071687899197 -0.00038228950621670312 0 -0.0021874214184375591 -0.00039072232090238689 0 -0.0022017811948738431 -0.00039937043666917165 0 -0.0021987986141069442 -0.00039490274888469512 0 -0.0021763071687899197 -0.00038228950621670312 0 -0.002197607217045447 -0.00038577611357675846 0 -0.0021701556432274735 -0.00037436424375748877 0 -0.0020187521112755196 -0.00021734734130292346 0 -0.0019993244204429676 -0.00028619717345928402 0 -0.002061417732789094 -0.00029396771153037006 0 -0.0019607178067446423 -0.00022778796819303572 0 -0.0020187521112755196 -0.00021734734130292346 0 -0.0019993244204429676 -0.00028619717345928402 0 -0.0021129855237270062 -0.0003107500030153338 0 -0.0021147058209796143 -0.00033645183233904869 0 -0.0019993244204429676 -0.00028619717345928402 0 -0.0020388991748002587 -0.00035899666190558805 0 -0.0019788412640409309 -0.000369325378208663 0 -0.0019993244204429676 -0.00028619717345928402 0 -0.002061417732789094 -0.00029396771153037006 0 -0.0020388991748002587 -0.00035899666190558805 0 -0.002061417732789094 -0.00029396771153037006 0 -0.0021162926706217743 -0.00038214049262049371 0 -0.0020388991748002587 -0.00035899666190558805 0 -0.0021517713336294247 -0.00037536861362095846 0 -0.0021701556432274735 -0.00037436424375748877 0 -0.0021162926706217743 -0.00038214049262049371 0 -0.0021763071687899197 -0.00038228950621670312 0 -0.0021517713336294247 -0.00037536861362095846 0 -0.0021701556432274735 -0.00037436424375748877 0 -0.0021147058209796143 -0.00033645183233904869 0 -0.0021216375272199049 -0.00038065079538624906 0 -0.0021162926706217743 -0.00038214049262049371 0 -0.0020733827445239424 -0.00042192230987445994 0 -0.0021485872440839601 -0.00039268160985516309 0 -0.0021162926706217743 -0.00038214049262049371 0 -0.0020388991748002587 -0.00035899666190558805 0 -0.0020733827445239424 -0.00042192230987445994 0 -0.0020388991748002587 -0.00035899666190558805 0 -0.0020083487035899967 -0.0004172594363623833 0 -0.0020733827445239424 -0.00042192230987445994 0 -0.0020388991748002587 -0.00035899666190558805 0 -0.0020083487035899967 -0.0004172594363623833 0 -0.0019788412640409309 -0.000369325378208663 0 -0.0020083487035899967 -0.0004172594363623833 0 -0.0019933297448482476 -0.00045720355414767945 0 -0.0019706935545895556 -0.00042775240571385801 0 -0.0020083487035899967 -0.0004172594363623833 0 -0.0020225402750657759 -0.00046841735739829423 0 -0.0020733827445239424 -0.00042192230987445994 0 -0.0020225402750657759 -0.00046841735739829423 0 -0.0019933297448482476 -0.00045720355414767945 0 -0.0019981286379371585 -0.00047821813533140053 0 -0.0020083487035899967 -0.0004172594363623833 0 -0.0020225402750657759 -0.00046841735739829423 0 -0.0019933297448482476 -0.00045720355414767945 0 -0.0020733827445239424 -0.00042192230987445994 0 -0.0020849753223641178 -0.00050380880859360875 0 -0.0021485872440839601 -0.00039268160985516309 0 -0.0020225402750657759 -0.00046841735739829423 0 -0.0020733827445239424 -0.00042192230987445994 0 -0.0020849753223641178 -0.00050380880859360875 0 -0.0020225402750657759 -0.00046841735739829423 0 -0.0020849753223641178 -0.00050380880859360875 0 -0.0019941231894358923 -0.0005077548171118167 0 -0.0020225402750657759 -0.00046841735739829423 0 -0.0020000129598775453 -0.00048831420528302647 0 -0.0019941231894358923 -0.0005077548171118167 0 -0.0020225402750657759 -0.00046841735739829423 0 -0.0019981286379371585 -0.00047821813533140053 0 -0.0020000129598775453 -0.00048831420528302647 0 -0.0019933297448482476 -0.00045720355414767945 0 -0.0019981286379371585 -0.00047821813533140053 0 -0.0019901928702690907 -0.00049415000422978943 0 -0.0019981286379371585 -0.00047821813533140053 0 -0.0020000129598775453 -0.00048831420528302647 0 -0.0019901928702690907 -0.00049415000422978943 0 -0.0020000129598775453 -0.00048831420528302647 0 -0.0019941231894358923 -0.0005077548171118167 0 -0.0019901928702690907 -0.00049415000422978943 0 -0.0019941231894358923 -0.0005077548171118167 0 -0.0019901928702690907 -0.00049415000422978943 0 -0.0019427371530229582 -0.00052409219955440206 0 -0.0018248944666375637 -0.00046299755993940586 0 -0.0017897801939922543 -0.00035223350916080399 0 -0.0019427371530229582 -0.00052409219955440206 0 -0.0018675875897106967 -0.00050092353526408145 0 -0.0017078497378913606 -0.00049253071343128153 0 -0.0018934360027278625 -0.00052476929348709966 0 -0.0015994050183968922 -0.0003918330604170479 0 -0.0018723894125182543 -0.00051268439165725493 0 -0.001888861102344062 -0.00043205408145371885 0 -0.0019444441888442534 -0.00051953264412180099 0 -0.0018248944666375637 -0.00046299755993940586 0 -0.0018675875897106967 -0.00050092353526408145 0 -0.0019427371530229582 -0.00052409219955440206 0 -0.0020849753223641178 -0.00050380880859360875 0 -0.0020226275301626468 -0.00054727438137003065 0 -0.001997117056665922 -0.00052269149159543237 0 -0.001997117056665922 -0.00052269149159543237 0 -0.0019427371530229582 -0.00052409219955440206 0 -0.0019740256810375548 -0.0005435422038569239 0 -0.0019941231894358923 -0.0005077548171118167 0 -0.001997117056665922 -0.00052269149159543237 0 -0.0019427371530229582 -0.00052409219955440206 0 -0.0020226275301626468 -0.00054727438137003065 0 -0.001997117056665922 -0.00052269149159543237 0 -0.0019740256810375548 -0.0005435422038569239 0 -0.0020849753223641178 -0.00050380880859360875 0 -0.0019941231894358923 -0.0005077548171118167 0 -0.001997117056665922 -0.00052269149159543237 0 -0.0014897458379966094 -0.00027908166024972678 0 -0.001152283973051267 -0.00021365239084915989 0 -0.0013848813385253292 -0.00045667291126109467 0 -0.0017078497378913606 -0.00049253071343128153 0 -0.0016610085314189007 -0.00038284978667574131 0 -0.001476806534323295 -0.00041751856485860756 0 -0.0015994050183968922 -0.0003918330604170479 0 -0.0013199353094202743 -0.00031818534284403204 0 -0.0018248944666375637 -0.00046299755993940586 0 -0.0018675875897106967 -0.00050092353526408145 0 -0.0017078497378913606 -0.00049253071343128153 0 -0.0018248944666375637 -0.00046299755993940586 0 -0.0017078497378913606 -0.00049253071343128153 0 -0.0017586515992205785 -0.00042537276807927589 0 -0.0018248944666375637 -0.00046299755993940586 0 -0.0017586515992205785 -0.00042537276807927589 0 -0.0017897801939922543 -0.00035223350916080399 0 -0.0017078497378913606 -0.00049253071343128153 0 -0.0017586515992205785 -0.00042537276807927589 0 -0.0016610085314189007 -0.00038284978667574131 0 -0.0017586515992205785 -0.00042537276807927589 0 -0.0017340206726882523 -0.00036124629175828427 0 -0.0016610085314189007 -0.00038284978667574131 0 -0.0017340206726882523 -0.00036124629175828427 0 -0.0016906038135242843 -0.00032180115393157314 0 -0.0016610085314189007 -0.00038284978667574131 0 -0.0017586515992205785 -0.00042537276807927589 0 -0.0017340206726882523 -0.00036124629175828427 0 -0.0017897801939922543 -0.00035223350916080399 0 -0.0017340206726882523 -0.00036124629175828427 0 -0.0017897801939922543 -0.00035223350916080399 0 -0.0017621788961709336 -0.0003237818235587122 0 -0.0017340206726882523 -0.00036124629175828427 0 -0.0017621788961709336 -0.0003237818235587122 0 -0.0016906038135242843 -0.00032180115393157314 0 -0.0016610085314189007 -0.00038284978667574131 0 -0.0016266440851614606 -0.00028468305878714132 0 -0.0015111768694709643 -0.00029444856423630215 0 -0.0016906038135242843 -0.00032180115393157314 0 -0.0016610085314189007 -0.00038284978667574131 0 -0.0016266440851614606 -0.00028468305878714132 0 -0.0016610085314189007 -0.00038284978667574131 0 -0.001476806534323295 -0.00041751856485860756 0 -0.0015111768694709643 -0.00029444856423630215 0 -0.0016266440851614606 -0.00028468305878714132 0 -0.0015406042109233241 -0.00021734016574233224 0 -0.0015111768694709643 -0.00029444856423630215 0 -0.0016906038135242843 -0.00032180115393157314 0 -0.0016266440851614606 -0.00028468305878714132 0 -0.0016488699253045566 -0.00018770776625413112 0 -0.0016266440851614606 -0.00028468305878714132 0 -0.0016464320120406681 -0.00018704115676395269 0 -0.0015406042109233241 -0.00021734016574233224 0 -0.0016596150522136021 -0.00026897312504861322 0 -0.0017406851819122115 -0.00020979563478695269 0 -0.0017406851819122115 -0.00020979563478695269 0 -0.0018116674820086334 -0.0002696307293517406 0 -0.0019901928702690907 -0.00049415000422978943 0 -0.0019192857633868853 -0.00041110590326997486 0 -0.0019706935545895556 -0.00042775240571385801 0 -0.0017897801939922543 -0.00035223350916080399 0 -0.0017621788961709336 -0.0003237818235587122 0 -0.0016801189976780612 -0.00019687485839598931 0 -0.0017361101917666745 -0.00030164602540243784 0 -0.0017406851819122115 -0.00020979563478695269 0 -0.0019933297448482476 -0.00045720355414767945 0 -0.0019901928702690907 -0.00049415000422978943 0 -0.0019706935545895556 -0.00042775240571385801 0 -0.0017621788961709336 -0.0003237818235587122 0 -0.0016906038135242843 -0.00032180115393157314 0 -0.0016488699253045566 -0.00018770776625413112 0 -0.0017621788961709336 -0.0003237818235587122 0 -0.0016752942732457302 -0.00021927426173312724 0 -0.0016801189976780612 -0.00019687485839598931 0 -0.001888861102344062 -0.00043205408145371885 0 -0.0018116674820086334 -0.0002696307293517406 0 -0.0019380139733718253 -0.00031888666556823973 0 -0.0019192857633868853 -0.00041110590326997486 0 -0.0019788412640409309 -0.000369325378208663 0 -0.0019224598864346861 -0.00026228617418595123 0 -0.0018116674820086334 -0.0002696307293517406 0 -0.0020083487035899967 -0.0004172594363623833 0 -0.0019706935545895556 -0.00042775240571385801 0 -0.0019788412640409309 -0.000369325378208663 0 -0.0019192857633868853 -0.00041110590326997486 0 -0.0019706935545895556 -0.00042775240571385801 0 -0.0019788412640409309 -0.000369325378208663 0 -0.0018523952945377303 -0.00017559208875652375 0 -0.0018525237232709536 -0.00017600147364729097 0 -0.0018559157295326796 -0.00017689471486711321 0 -0.0016464320120406681 -0.00018704115676395269 0 -0.0015406042109233241 -0.00021734016574233224 0 -0.0015100174135713649 -3.0123955811114758e-05 0 -0.0018808259376020741 -0.00018924503657530875 0 -0.001893174249115809 -0.00018637276953071337 0 -0.0018863459705480625 -0.00021891680803055085 0 -0.0018808259376020741 -0.00018924503657530875 0 -0.0018863459705480625 -0.00021891680803055085 0 -0.0018712093898080224 -0.00019649129643382584 0 -0.0017406851819122115 -0.00020979563478695269 0 -0.0016813072039627392 -9.9214676671668137e-05 0 -0.0018116674820086334 -0.0002696307293517406 0 -0.0018619974448831681 -0.00018126508798245903 0 -0.0018525237232709536 -0.00017600147364729097 0 -0.0018556724318537427 -0.00017700261599697565 0 -0.0018559157295326796 -0.00017689471486711321 0 -0.0015406042109233241 -0.00021734016574233224 0 -0.0015100174135713649 -3.0123955811114758e-05 0 -0.0014227288762670579 -0.00018788602100310364 0 -0.0015100174135713649 -3.0123955811114758e-05 0 -0.0013336923326947069 -3.4583109083452507e-05 0 -0.0014227288762670579 -0.00018788602100310364 0 -0.0013336923326947069 -3.4583109083452507e-05 0 -0.001274868758907585 -0.00018314302209465272 0 -0.0011776462090065144 -7.2090062279334816e-05 0 -0.0013336923326947069 -3.4583109083452507e-05 0 -0.001274868758907585 -0.00018314302209465272 0 -0.0014227288762670579 -0.00018788602100310364 0 -0.001274868758907585 -0.00018314302209465272 0 -0.0013846011804563275 -0.00028288221064144643 0 -0.0014227288762670579 -0.00018788602100310364 0 -0.001274868758907585 -0.00018314302209465272 0 -0.0013846011804563275 -0.00028288221064144643 0 -0.0012347593610935069 -0.00033074284790328635 0 -0.0013846011804563275 -0.00028288221064144643 0 -0.0014227288762670579 -0.00018788602100310364 0 -0.0015111768694709643 -0.00029444856423630215 0 -0.0015406042109233241 -0.00021734016574233224 0 -0.0014227288762670579 -0.00018788602100310364 0 -0.0015111768694709643 -0.00029444856423630215 0 -0.0010552855533385596 -3.0074190596150554e-05 0 -0.0010266742487193543 -0.00014955374427616579 0 -0.0011317944332320379 -0.00013297488453062773 0 -0.00094679105348308026 -7.8038421967904941e-05 0 -0.0010266742487193543 -0.00014955374427616579 0 -0.00096385123402137503 -0.00020288859809408598 0 -0.0010266742487193543 -0.00014955374427616579 0 -0.0011317944332320379 -0.00013297488453062773 0 -0.0010730972809174645 -0.00019383094444859198 0 -0.0011317944332320379 -0.00013297488453062773 0 -0.0011339872904596383 -0.00026579156257040582 0 -0.0010730972809174645 -0.00019383094444859198 0 -0.001274868758907585 -0.00018314302209465272 0 -0.0011776462090065144 -7.2090062279334816e-05 0 -0.0011339872904596383 -0.00026579156257040582 0 -0.0011339872904596383 -0.00026579156257040582 0 -0.0009950396745681241 -0.00024135001252045083 0 -0.0012347593610935069 -0.00033074284790328635 0 -0.0011555453396799697 -0.00011131379240510301 0 -0.0011345704025210812 -0.00025164265995498812 0 -0.0010001481262094498 -0.00024344159167169536 0 -0.0011282185631273723 -0.00028862798569816595 0 -0.001274868758907585 -0.00018314302209465272 0 -0.0011339872904596383 -0.00026579156257040582 0 -0.0012347593610935069 -0.00033074284790328635 0 -0.0009950396745681241 -0.00024135001252045083 0 -0.00096385123402137503 -0.00020288859809408598 0 -0.00096172853686117327 -0.00027725840083634692 0 -0.0010266742487193543 -0.00014955374427616579 0 -0.0010730972809174645 -0.00019383094444859198 0 -0.0009950396745681241 -0.00024135001252045083 0 -0.0011339872904596383 -0.00026579156257040582 0 -0.0010730972809174645 -0.00019383094444859198 0 -0.0009950396745681241 -0.00024135001252045083 0 -0.0010266742487193543 -0.00014955374427616579 0 -0.0009950396745681241 -0.00024135001252045083 0 -0.00096385123402137503 -0.00020288859809408598 0 -0.0009950396745681241 -0.00024135001252045083 0 -0.00097794334281732596 -0.0003012028728581063 0 -0.00096172853686117327 -0.00027725840083634692 0 -0.00097794334281732596 -0.0003012028728581063 0 -0.00095290754635539399 -0.00033509140404218679 0 -0.00095687877979245693 -0.00032261046595790575 0 -0.00099394329741049701 -0.00031594851170110177 0 -0.00091080255184729599 -0.00026383824890283911 0 -0.0009950396745681241 -0.00024135001252045083 0 -0.00097794334281732596 -0.0003012028728581063 0 -0.0010177341989647565 -0.00025377327794782941 0 -0.00097794334281732596 -0.0003012028728581063 0 -0.0010013050786478325 -0.00030629900564553423 0 -0.0010177341989647565 -0.00025377327794782941 0 -0.00097794334281732596 -0.0003012028728581063 0 -0.0010013050786478325 -0.00030629900564553423 0 -0.00096169151417602812 -0.00035462577554818162 0 -0.0010013050786478325 -0.00030629900564553423 0 -0.00096169151417602812 -0.00035462577554818162 0 -0.0010116568878429499 -0.00036242757458601035 0 -0.00096169151417602812 -0.00035462577554818162 0 -0.00095290754635539399 -0.00033509140404218679 0 -0.00094234321648538637 -0.00036514007223800146 0 -0.00097794334281732596 -0.0003012028728581063 0 -0.00096169151417602812 -0.00035462577554818162 0 -0.00095290754635539399 -0.00033509140404218679 0 -0.0013846011804563275 -0.00028288221064144643 0 -0.001476806534323295 -0.00041751856485860756 0 -0.0015111768694709643 -0.00029444856423630215 0 -0.0013846011804563275 -0.00028288221064144643 0 -0.001476806534323295 -0.00041751856485860756 0 -0.0012347593610935069 -0.00033074284790328635 0 -0.0013199353094202743 -0.00031818534284403204 0 -0.0011282185631273723 -0.00028862798569816595 0 -0.0010013050786478325 -0.00030629900564553423 0 -0.0010177341989647565 -0.00025377327794782941 0 -0.0010554471945648459 -0.00028757787386748788 0 -0.001152283973051267 -0.00021365239084915989 0 -0.0010177341989647565 -0.00025377327794782941 0 -0.0010554471945648459 -0.00028757787386748788 0 -0.0010013050786478325 -0.00030629900564553423 0 -0.0010554471945648459 -0.00028757787386748788 0 -0.0010116568878429499 -0.00036242757458601035 0 -0.001152283973051267 -0.00021365239084915989 0 -0.0010554471945648459 -0.00028757787386748788 0 -0.0011230233347592927 -0.00044431559439427699 0 -0.0010554471945648459 -0.00028757787386748788 0 -0.0011230233347592927 -0.00044431559439427699 0 -0.0010116568878429499 -0.00036242757458601035 0 -0.0011230233347592927 -0.00044431559439427699 0 -0.0010116568878429499 -0.00036242757458601035 0 -0.00096665093389688235 -0.00043212628909119539 0 -0.0011230233347592927 -0.00044431559439427699 0 -0.00096665093389688235 -0.00043212628909119539 0 -0.0009854670347119337 -0.00050195959361664353 0 -0.0011230233347592927 -0.00044431559439427699 0 -0.0009854670347119337 -0.00050195959361664353 0 -0.0011954857128948506 -0.00043442708203627191 0 -0.00096169151417602812 -0.00035462577554818162 0 -0.00093169625745686646 -0.00040126649136805497 0 -0.00094234321648538637 -0.00036514007223800146 0 -0.00096169151417602812 -0.00035462577554818162 0 -0.0010116568878429499 -0.00036242757458601035 0 -0.00096665093389688235 -0.00043212628909119539 0 -0.00096169151417602812 -0.00035462577554818162 0 -0.00096665093389688235 -0.00043212628909119539 0 -0.00093169625745686646 -0.00040126649136805497 0 -0.00096665093389688235 -0.00043212628909119539 0 -0.00093169625745686646 -0.00040126649136805497 0 -0.00092506511899063135 -0.0004339411571947375 0 -0.00093169625745686646 -0.00040126649136805497 0 -0.00092506511899063135 -0.0004339411571947375 0 -0.00090984805053194754 -0.000413864274300203 0 -0.00090984805053194754 -0.000413864274300203 0 -0.00090756944524801944 -0.00048023177698697033 0 -0.00088611779344694992 -0.00047913200571641753 0 -0.00092506511899063135 -0.0004339411571947375 0 -0.00090984805053194754 -0.000413864274300203 0 -0.00090756944524801944 -0.00048023177698697033 0 -0.00096665093389688235 -0.00043212628909119539 0 -0.00092506511899063135 -0.0004339411571947375 0 -0.00090756944524801944 -0.00048023177698697033 0 -0.00090756944524801944 -0.00048023177698697033 0 -0.00088611779344694992 -0.00047913200571641753 0 -0.00087153221578972556 -0.0005637620425232449 0 -0.00088611779344694992 -0.00047913200571641753 0 -0.00089677662065606545 -0.00042087495547212314 0 -0.00088266117943217872 -0.00046207735237055345 0 -0.00090984805053194754 -0.000413864274300203 0 -0.00088611779344694992 -0.00047913200571641753 0 -0.00089677662065606545 -0.00042087495547212314 0 -0.00096665093389688235 -0.00043212628909119539 0 -0.00090756944524801944 -0.00048023177698697033 0 -0.0009854670347119337 -0.00050195959361664353 0 -0.00090756944524801944 -0.00048023177698697033 0 -0.0009854670347119337 -0.00050195959361664353 0 -0.00087153221578972556 -0.0005637620425232449 0 -0.0009854670347119337 -0.00050195959361664353 0 -0.00087153221578972556 -0.0005637620425232449 0 -0.00085943088219598098 -0.00067887328566073484 0 -0.0009854670347119337 -0.00050195959361664353 0 -0.0011705568085730849 -0.00064430295032393947 0 -0.00085943088219598098 -0.00067887328566073484 0 -0.0009854670347119337 -0.00050195959361664353 0 -0.0011705568085730849 -0.00064430295032393947 0 -0.0011954857128948506 -0.00043442708203627191 0 -0.0011705568085730849 -0.00064430295032393947 0 -0.0011954857128948506 -0.00043442708203627191 0 -0.001486102721813919 -0.00057564809154111605 0 -0.0013450044725564127 -0.00059758216295830357 0 -0.0016197954140065077 -0.00073894536694574589 0 -0.0014901654020679856 -0.00077123206460141325 0 -0.001760000426967103 -0.00088907633699253526 0 -0.0018279115506951047 -0.00071889580540189708 0 -0.0011705568085730849 -0.00064430295032393947 0 -0.001486102721813919 -0.00057564809154111605 0 -0.0014757623418937384 -0.0009317375576462075 0 -0.0016197954140065077 -0.00073894536694574589 0 -0.0018241039311736398 -0.00089996238341386687 0 -0.001760000426967103 -0.00088907633699253526 0 -0.0019028882722524449 -0.00085870434370731213 0 -0.0019436477672518711 -0.00077431268310428948 0 -0.001760000426967103 -0.00088907633699253526 0 -0.0019028882722524449 -0.00085870434370731213 0 -0.0018361715300310567 -0.00091042711242909761 0 -0.001760000426967103 -0.00088907633699253526 0 -0.0019436477672518711 -0.00077431268310428948 0 -0.0018279115506951047 -0.00071889580540189708 0 -0.0018279115506951047 -0.00071889580540189708 0 -0.0018634077696371714 -0.00062657149723563941 0 -0.0017688407873289664 -0.00056498622750700983 0 -0.0018279115506951047 -0.00071889580540189708 0 -0.0017688407873289664 -0.00056498622750700983 0 -0.0016315401345012191 -0.00059992804284489853 0 -0.0019436477672518711 -0.00077431268310428948 0 -0.0018279115506951047 -0.00071889580540189708 0 -0.001961763738162382 -0.00069938540120898819 0 -0.0018279115506951047 -0.00071889580540189708 0 -0.001961763738162382 -0.00069938540120898819 0 -0.0019304474198949702 -0.00064595843301512763 0 -0.0018279115506951047 -0.00071889580540189708 0 -0.0018634077696371714 -0.00062657149723563941 0 -0.0019304474198949702 -0.00064595843301512763 0 -0.001961763738162382 -0.00069938540120898819 0 -0.0019304474198949702 -0.00064595843301512763 0 -0.0020039717175792328 -0.00064665038236254302 0 -0.0019304474198949702 -0.00064595843301512763 0 -0.001971659240216929 -0.00058323427289297489 0 -0.0020039717175792328 -0.00064665038236254302 0 -0.001971659240216929 -0.00058323427289297489 0 -0.0020306581092709099 -0.00059522801794771954 0 -0.0020039717175792328 -0.00064665038236254302 0 -0.0018634077696371714 -0.00062657149723563941 0 -0.0019304474198949702 -0.00064595843301512763 0 -0.0018953046409437063 -0.00057886675199776032 0 -0.0019304474198949702 -0.00064595843301512763 0 -0.001971659240216929 -0.00058323427289297489 0 -0.0018953046409437063 -0.00057886675199776032 0 -0.001971659240216929 -0.00058323427289297489 0 -0.0019366788010975141 -0.00054807422658046344 0 -0.0018953046409437063 -0.00057886675199776032 0 -0.0019366788010975141 -0.00054807422658046344 0 -0.0019427371530229582 -0.00052409219955440206 0 -0.0019740256810375548 -0.0005435422038569239 0 -0.001971659240216929 -0.00058323427289297489 0 -0.0019366788010975141 -0.00054807422658046344 0 -0.0019740256810375548 -0.0005435422038569239 0 -0.0020226275301626468 -0.00054727438137003065 0 -0.001971659240216929 -0.00058323427289297489 0 -0.0019740256810375548 -0.0005435422038569239 0 -0.0020226275301626468 -0.00054727438137003065 0 -0.001971659240216929 -0.00058323427289297489 0 -0.0020306581092709099 -0.00059522801794771954 0 -0.0017688407873289664 -0.00056498622750700983 0 -0.0018934360027278625 -0.00052476929348709966 0 -0.0016345126631981469 -0.00048603417772120195 0 -0.0018634077696371714 -0.00062657149723563941 0 -0.0017688407873289664 -0.00056498622750700983 0 -0.0018953046409437063 -0.00057886675199776032 0 -0.0017688407873289664 -0.00056498622750700983 0 -0.0018953046409437063 -0.00057886675199776032 0 -0.0018934360027278625 -0.00052476929348709966 0 -0.0019366788010975141 -0.00054807422658046344 0 -0.0018953046409437063 -0.00057886675199776032 0 -0.0018934360027278625 -0.00052476929348709966 0 -0.0019366788010975141 -0.00054807422658046344 0 -0.0019427371530229582 -0.00052409219955440206 0 -0.0018934360027278625 -0.00052476929348709966 0 -0.0018675875897106967 -0.00050092353526408145 0 -0.0019427371530229582 -0.00052409219955440206 0 -0.0018934360027278625 -0.00052476929348709966 0 -0.0014897458379966094 -0.00027908166024972678 0 -0.0016345126631981469 -0.00048603417772120195 0 -0.0013848813385253292 -0.00045667291126109467 0 -0.0016345126631981469 -0.00048603417772120195 0 -0.0013848813385253292 -0.00045667291126109467 0 -0.0016315401345012191 -0.00059992804284489853 0 -0.0014897458379966094 -0.00027908166024972678 0 -0.0018934360027278625 -0.00052476929348709966 0 -0.0016345126631981469 -0.00048603417772120195 0 -0.0017688407873289664 -0.00056498622750700983 0 -0.0016345126631981469 -0.00048603417772120195 0 -0.0016315401345012191 -0.00059992804284489853 0 -0.001152283973051267 -0.00021365239084915989 0 -0.0011230233347592927 -0.00044431559439427699 0 -0.0013848813385253292 -0.00045667291126109467 0 -0.0011230233347592927 -0.00044431559439427699 0 -0.0014901654020679856 -0.00077123206460141325 0 -0.0013848813385253292 -0.00045667291126109467 0 -0.0011372454242347268 -0.00045210883877274543 0 -0.0013450044725564127 -0.00059758216295830357 0 -0.0014901654020679856 -0.00077123206460141325 0 -0.0013848813385253292 -0.00045667291126109467 0 -0.0016315401345012191 -0.00059992804284489853 0 -0.0014901654020679856 -0.00077123206460141325 0 -0.0018279115506951047 -0.00071889580540189708 0 -0.0016315401345012191 -0.00059992804284489853 0 -0.0019684914600450625 1.381525533741727e-07 0 -0.0019948435319640688 2.4014621947951213e-05 0 -0.002028995368875239 3.1589978026476605e-06 0 -0.0019684914600450625 1.381525533741727e-07 0 -0.0019948435319640688 2.4014621947951213e-05 0 -0.0018051152034122319 -1.3546056405328142e-07 0 -0.0015421375935647161 -0.00014551363876002551 0 -0.0015154298150355239 -0.00012161166830778028 0 -0.0014723570205490957 -0.00017173388767914626 0 -0.0012916617258787874 -0.00024844728655211196 0 -0.0012189648959449063 -0.00028114969086420971 0 -0.0012616081782827937 -0.00021437966785787404 0 -0.0017827591222296885 -4.1266627759520027e-05 0 -0.0016625728947656905 -0.00016271536972100597 0 -0.0019948435319640688 2.4014621947951213e-05 0 -0.002028995368875239 3.1589978026476605e-06 0 -0.0019794502760552271 -3.147012317951865e-05 0 -0.0015421375935647161 -0.00014551363876002551 0 -0.0015143522367638868 -0.00021778949241925552 0 -0.0014723570205490957 -0.00017173388767914626 0 -0.0019684914600450625 1.381525533741727e-07 0 -0.002028995368875239 3.1589978026476605e-06 0 -0.0021318849147163726 -1.4439823477365882e-07 0 -0.002028995368875239 3.1589978026476605e-06 0 -0.0021318849147163726 -1.4439823477365882e-07 0 -0.0020262907403156725 -0.00010665200164977696 0 -0.0021322496256361233 3.9047614669607407e-08 0 -0.0021577884211568714 -7.6193165863232634e-05 0 -0.0021326304243202872 1.4832255352598974e-09 0 -0.0023149152645958568 -2.0846297227203036e-07 0 -0.0023282346336934317 -2.5990958215626482e-09 0 -0.0023149152645958568 -2.0846297227203036e-07 0 -0.0023282346336934317 -2.5990958215626482e-09 0 -0.0023191825802388556 -4.5677011890843936e-06 0 -0.0021577884211568714 -7.6193165863232634e-05 0 -0.0023789336160717216 -3.7504759261921007e-05 0 -0.0025342316785248761 8.9151346998125215e-08 0 -0.0023289433647989809 -1.3266819538324416e-07 0 -0.0024719928037619356 3.3041408193485102e-06 0 -0.0023289433647989809 -1.3266819538324416e-07 0 -0.0024719928037619356 3.3041408193485102e-06 0 -0.0024953615429785061 -2.6373327799935934e-05 0 -0.0023287543416243292 -1.8586399022685455e-08 0 -0.0023789336160717216 -3.7504759261921007e-05 0 -0.0024719928037619356 3.3041408193485102e-06 0 -0.0025136720083096149 -3.3599621216168819e-05 0 -0.0025523931198519227 1.542200552064673e-05 0 -0.002416059486291641 -4.3447614521864167e-05 0 -0.0023789336160717216 -3.7504759261921007e-05 0 -0.0025503633626926853 1.9533925055173461e-05 0 -0.0024719928037619356 3.3041408193485102e-06 0 -0.0025523931198519227 1.542200552064673e-05 0 -0.0025342316785248761 8.9151346998125215e-08 0 -0.0025503633626926853 1.9533925055173461e-05 0 -0.0024719928037619356 3.3041408193485102e-06 0 -0.0019529739130285126 -0.00013710281657692013 0 -0.0019465818420802789 -0.00014491120678446323 0 -0.001939548103614817 -0.00013899410961560517 0 -0.0023631361573878428 -2.8056233968877201e-05 0 -0.0019726473953194058 -0.00011881786180602829 0 -0.0025745874038000474 5.7054329805955176e-05 0 -0.0025814338692326539 6.9717279950708445e-05 0 -0.0025659285208789666 6.6345431315190909e-05 0 -0.0025942189012723754 9.8970331013721109e-05 0 -0.0023631361573878428 -2.8056233968877201e-05 0 -0.0025745874038000474 5.7054329805955176e-05 0 -0.0025856630292208156 3.899278632797613e-05 0 -0.0025918250634543189 1.3327922035043398e-05 0 -0.0025856630292208156 3.899278632797613e-05 0 -0.0025523931198519227 1.542200552064673e-05 0 -0.0025918250634543189 1.3327922035043398e-05 0 -0.0025136720083096149 -3.3599621216168819e-05 0 -0.0025523931198519227 1.542200552064673e-05 0 -0.0025918250634543189 1.3327922035043398e-05 0 -0.0023789336160717216 -3.7504759261921007e-05 0 -0.0023631361573878428 -2.8056233968877201e-05 0 -0.0022842515864498272 -6.6245413978108616e-05 0 -0.0022634965769201538 -4.2092513645842747e-05 0 -0.0023239013264246006 -1.7543238408689798e-05 0 -0.0021577884211568714 -7.6193165863232634e-05 0 -0.0023631361573878428 -2.8056233968877201e-05 0 -0.0019465818420802789 -0.00014491120678446323 0 -0.001939548103614817 -0.00013899410961560517 0 -0.0019363233649070132 -0.00014854932241936672 0 -0.002028995368875239 3.1589978026476605e-06 0 -0.0020262907403156725 -0.00010665200164977696 0 -0.0019794502760552271 -3.147012317951865e-05 0 -0.0019529739130285126 -0.00013710281657692013 0 -0.001939548103614817 -0.00013899410961560517 0 -0.0019426899151026458 -0.00012832056931690746 0 -0.0021577884211568714 -7.6193165863232634e-05 0 -0.0016625728947656905 -0.00016271536972100597 0 -0.0015256471014078921 -0.00031200055267283192 0 -0.0016625728947656905 -0.00016271536972100597 0 -0.0011169368472949851 -0.00036119949847727501 0 -0.0011295426391013282 -0.00034209022020205757 0 -0.0011069900916508837 -0.00035073785955459693 0 -0.0011069900916508837 -0.00035073785955459693 0 -0.001101003271882745 -0.00036411662168722128 0 -0.0010790589850414604 -0.00035691824331657014 0 -0.0011169368472949851 -0.00036119949847727501 0 -0.0011069900916508837 -0.00035073785955459693 0 -0.001101003271882745 -0.00036411662168722128 0 -0.0015256471014078921 -0.00031200055267283192 0 -0.0019726473953194058 -0.00011881786180602829 0 -0.0011169368472949851 -0.00036119949847727501 0 -0.001101003271882745 -0.00036411662168722128 0 -0.0011096244721921142 -0.00037051920371653364 0 -0.001101003271882745 -0.00036411662168722128 0 -0.0011096244721921142 -0.00037051920371653364 0 -0.001098074163986021 -0.00036801585568930784 0 -0.0010911848838768361 -0.00037287639190660766 0 -0.001098074163986021 -0.00036801585568930784 0 -0.0010908468744267872 -0.00036410253880450345 0 -0.0010911848838768361 -0.00037287639190660766 0 -0.0010908468744267872 -0.00036410253880450345 0 -0.0010834026021732182 -0.00036051218523518186 0 -0.001101003271882745 -0.00036411662168722128 0 -0.001098074163986021 -0.00036801585568930784 0 -0.0010908468744267872 -0.00036410253880450345 0 -0.0010908468744267872 -0.00036410253880450345 0 -0.0010790589850414604 -0.00035691824331657014 0 -0.0010834026021732182 -0.00036051218523518186 0 -0.001101003271882745 -0.00036411662168722128 0 -0.0010908468744267872 -0.00036410253880450345 0 -0.0010790589850414604 -0.00035691824331657014 0 -0.0010790589850414604 -0.00035691824331657014 0 -0.0010677959516075023 -0.00037008570473074818 0 -0.0010535424424062754 -0.00037339299283470253 0 -0.0010790589850414604 -0.00035691824331657014 0 -0.0010698843462459506 -0.00037217260040388464 0 -0.0010677959516075023 -0.00037008570473074818 0 -0.0010698843462459506 -0.00037217260040388464 0 -0.0010677959516075023 -0.00037008570473074818 0 -0.0010621516192798955 -0.00037710758055675025 0 -0.0010677959516075023 -0.00037008570473074818 0 -0.0010621516192798955 -0.00037710758055675025 0 -0.0010628467044738229 -0.00037560791061225538 0 -0.0010677959516075023 -0.00037008570473074818 0 -0.0010610267128350896 -0.00037560901775869247 0 -0.0010628467044738229 -0.00037560791061225538 0 -0.001042956925631197 -0.00038514611945460279 0 -0.0011820046695966301 -0.00028800831456919407 0 -0.0011295426391013282 -0.00034209022020205757 0 -0.0011069900916508837 -0.00035073785955459693 0 -0.001108622526062213 -0.00031708471485628509 0 -0.0011069900916508837 -0.00035073785955459693 0 -0.0010790589850414604 -0.00035691824331657014 0 -0.001108622526062213 -0.00031708471485628509 0 -0.0016625728947656905 -0.00016271536972100597 0 -0.0011820046695966301 -0.00028800831456919407 0 -0.0010677959516075023 -0.00037008570473074818 0 -0.0010535424424062754 -0.00037339299283470253 0 -0.0010610267128350896 -0.00037560901775869247 0 -0.0010535424424062754 -0.00037339299283470253 0 -0.0010610267128350896 -0.00037560901775869247 0 -0.0010614867040013944 -0.00037782546764116687 0 -0.0011820046695966301 -0.00028800831456919407 0 -0.0011062122594398243 -0.00033886869660298302 0 -0.0011395033242469726 -0.0002898454361171823 0 -0.0012189648959449063 -0.00028114969086420971 0 -0.0012616081782827937 -0.00021437966785787404 0 -0.0011062122594398243 -0.00033886869660298302 0 -0.0011524491206356651 -0.00031989105261573272 0 -0.0011989533702389688 -0.00035750068767675437 0 -0.0011395033242469726 -0.0002898454361171823 0 -0.0012189648959449063 -0.00028114969086420971 0 -0.0014291331055858272 -0.00016101867368061593 0 -0.0011820046695966301 -0.00028800831456919407 0 -0.0012916617258787874 -0.00024844728655211196 0 -0.0011989533702389688 -0.00035750068767675437 0 -0.0012189648959449063 -0.00028114969086420971 0 -0.0010614867040013944 -0.00037782546764116687 0 -0.0010621516192798955 -0.00037710758055675025 0 -0.0010526481595519235 -0.00037776543847421376 0 -0.0011062122594398243 -0.00033886869660298302 0 -0.0010574670873413372 -0.00038366308745245225 0 -0.0010621516192798955 -0.00037710758055675025 0 -0.0010569178657720689 -0.00037839884151318493 0 -0.0010526481595519235 -0.00037776543847421376 0 -0.0010698843462459506 -0.00037217260040388464 0 -0.0010621516192798955 -0.00037710758055675025 0 -0.0010569178657720689 -0.00037839884151318493 0 -0.0010614867040013944 -0.00037782546764116687 0 -0.0010621516192798955 -0.00037710758055675025 0 -0.0010628467044738229 -0.00037560791061225538 0 -0.0010610267128350896 -0.00037560901775869247 0 -0.0010614867040013944 -0.00037782546764116687 0 -0.0010628467044738229 -0.00037560791061225538 0 -0.0010569178657720689 -0.00037839884151318493 0 -0.001044668117023753 -0.00037684382992655155 0 -0.0010182376194275268 -0.00037451491133322796 0 -0.001044668117023753 -0.00037684382992655155 0 -0.00098172841812118141 -0.00037417976773600968 0 -0.0010182376194275268 -0.00037451491133322796 0 -0.001044668117023753 -0.00037684382992655155 0 -0.0010818933560732588 -0.00036871889799520215 0 -0.0010835216409818709 -0.00036813417239670525 0 -0.0010569178657720689 -0.00037839884151318493 0 -0.001044668117023753 -0.00037684382992655155 0 -0.0010818933560732588 -0.00036871889799520215 0 -0.0010790589850414604 -0.00035691824331657014 0 -0.0010698843462459506 -0.00037217260040388464 0 -0.0010818933560732588 -0.00036871889799520215 0 -0.0010698843462459506 -0.00037217260040388464 0 -0.0010569178657720689 -0.00037839884151318493 0 -0.0010818933560732588 -0.00036871889799520215 0 -0.0010988041537215716 -0.00036339387946041313 0 -0.0010799323048421062 -0.0003969600313693905 0 -0.0010818933560732588 -0.00036871889799520215 0 -0.0011654934123515107 -0.00037287002236409574 0 -0.0010835216409818709 -0.00036813417239670525 0 -0.0010790589850414604 -0.00035691824331657014 0 -0.0010818933560732588 -0.00036871889799520215 0 -0.0010834026021732182 -0.00036051218523518186 0 -0.0012429010145471218 -0.0003140316602334605 0 -0.0011981174338910835 -0.00028937604646414301 0 -0.0011654934123515107 -0.00037287002236409574 0 -0.0016786468443571775 -0.00012689750041218099 0 -0.0010799323048421062 -0.0003969600313693905 0 -0.0012429010145471218 -0.0003140316602334605 0 -0.0011654934123515107 -0.00037287002236409574 0 -0.0011211536638157204 -0.000383713935415419 0 -0.0012207370536553004 -0.00029952167790498803 0 -0.0014774189313754066 -0.00046671558620551504 0 -0.0011654934123515107 -0.00037287002236409574 0 -0.0011211536638157204 -0.000383713935415419 0 -0.0010835216409818709 -0.00036813417239670525 0 -0.0014774189313754066 -0.00046671558620551504 0 -0.0012963775562083711 -0.00035911834082249063 0 -0.0011211536638157204 -0.000383713935415419 0 -0.0010835216409818709 -0.00036813417239670525 0 -0.001068069663340183 -0.00037412831534789861 0 -0.0019085698708552164 -0.00027798887131078411 0 -0.0017464184368054501 -0.00049879032479716783 0 -0.0019479327464953587 -0.00041590553256100457 0 -0.0017464184368054501 -0.00049879032479716783 0 -0.0019479327464953587 -0.00041590553256100457 0 -0.0020135370693503073 -0.00062373895367156412 0 -0.002086104936874591 -0.00027405523311703592 0 -0.0019479327464953587 -0.00041590553256100457 0 -0.0020135370693503073 -0.00062373895367156412 0 -0.00094679105348308026 -7.8038421967904941e-05 0 -0.00096385123402137503 -0.00020288859809408598 0 -0.00089343682638124333 -0.00023922831762154267 0 -0.0015160761337431972 -0.00017874522517641184 0 -0.0012963775562083711 -0.00035911834082249063 0 -0.00096385123402137503 -0.00020288859809408598 0 -0.00089343682638124333 -0.00023922831762154267 0 -0.00096172853686117327 -0.00027725840083634692 0 -0.0012963775562083711 -0.00035911834082249063 0 -0.00091080255184729599 -0.00026383824890283911 0 -0.00095290754635539399 -0.00033509140404218679 0 -0.00095687877979245693 -0.00032261046595790575 0 -0.00094776923124053041 -0.00034817982547182398 0 -0.00094980488843642941 -0.00032006489534973777 0 -0.00095687877979245693 -0.00032261046595790575 0 -0.00094776923124053041 -0.00034817982547182398 0 -0.001044668117023753 -0.00037684382992655155 0 -0.0010835216409818709 -0.00036813417239670525 0 -0.0010547082929845081 -0.00037115408875830003 0 -0.0010835216409818709 -0.00036813417239670525 0 -0.001068069663340183 -0.00037412831534789861 0 -0.0010547082929845081 -0.00037115408875830003 0 -0.0012963775562083711 -0.00035911834082249063 0 -0.00097509790346296402 -0.00036549950777238515 0 -0.001044668117023753 -0.00037684382992655155 0 -0.0010547082929845081 -0.00037115408875830003 0 -0.00098172841812118141 -0.00037417976773600968 0 -0.00097509790346296402 -0.00036549950777238515 0 -0.00099294661500801064 -0.00036176626525051493 0 -0.00094776923124053041 -0.00034817982547182398 0 -0.00094234321648538637 -0.00036514007223800146 0 -0.00098172841812118141 -0.00037417976773600968 0 -0.00095290754635539399 -0.00033509140404218679 0 -0.00094776923124053041 -0.00034817982547182398 0 -0.00094234321648538637 -0.00036514007223800146 0 -0.00093169625745686646 -0.00040126649136805497 0 -0.00094234321648538637 -0.00036514007223800146 0 -0.0009358643736383708 -0.00037935204728708187 0 -0.00094234321648538637 -0.00036514007223800146 0 -0.00098172841812118141 -0.00037417976773600968 0 -0.0009358643736383708 -0.00037935204728708187 0 -0.00098172841812118141 -0.00037417976773600968 0 -0.00096131400828719483 -0.00036973864809169949 0 -0.0009358643736383708 -0.00037935204728708187 0 -0.00096131400828719483 -0.00036973864809169949 0 -0.0009358643736383708 -0.00037935204728708187 0 -0.00092914274873983401 -0.00037417100189873179 0 -0.00096131400828719483 -0.00036973864809169949 0 -0.00092914274873983401 -0.00037417100189873179 0 -0.00095499911623351695 -0.00035601803405111229 0 -0.00093169625745686646 -0.00040126649136805497 0 -0.00090984805053194754 -0.000413864274300203 0 -0.0009358643736383708 -0.00037935204728708187 0 -0.00090984805053194754 -0.000413864274300203 0 -0.0009358643736383708 -0.00037935204728708187 0 -0.00092914274873983401 -0.00037417100189873179 0 -0.00090984805053194754 -0.000413864274300203 0 -0.00091123430535792972 -0.00038211421346484711 0 -0.00092914274873983401 -0.00037417100189873179 0 -0.00091123430535792972 -0.00038211421346484711 0 -0.00089677662065606545 -0.00042087495547212314 0 -0.0009117025860659278 -0.00035047458260101781 0 -0.00089677662065606545 -0.00042087495547212314 0 -0.0009117025860659278 -0.00035047458260101781 0 -0.00090373352344720094 -0.00037929141105596853 0 -0.00090984805053194754 -0.000413864274300203 0 -0.00091123430535792972 -0.00038211421346484711 0 -0.00089677662065606545 -0.00042087495547212314 0 -0.00091123430535792972 -0.00038211421346484711 0 -0.0009117025860659278 -0.00035047458260101781 0 -0.00093018326615739084 -0.00033852697480396429 0 -0.0009117025860659278 -0.00035047458260101781 0 -0.00093018326615739084 -0.00033852697480396429 0 -0.00092699963095687254 -0.00029652280628235649 0 -0.00091123430535792972 -0.00038211421346484711 0 -0.00093018326615739084 -0.00033852697480396429 0 -0.00092914274873983401 -0.00037417100189873179 0 -0.00093018326615739084 -0.00033852697480396429 0 -0.00092914274873983401 -0.00037417100189873179 0 -0.00095499911623351695 -0.00035601803405111229 0 -0.00093018326615739084 -0.00033852697480396429 0 -0.00095499911623351695 -0.00035601803405111229 0 -0.00097419806707123432 -0.00032979465861077308 0 -0.00095499911623351695 -0.00035601803405111229 0 -0.00097419806707123432 -0.00032979465861077308 0 -0.00099250354759982035 -0.0003573794706456769 0 -0.00093018326615739084 -0.00033852697480396429 0 -0.00097419806707123432 -0.00032979465861077308 0 -0.00096096031173931846 -0.00027504562381025521 0 -0.00093018326615739084 -0.00033852697480396429 0 -0.00096096031173931846 -0.00027504562381025521 0 -0.00092699963095687254 -0.00029652280628235649 0 -0.00096096031173931846 -0.00027504562381025521 0 -0.00092699963095687254 -0.00029652280628235649 0 -0.00093419946802921568 -0.00023492434340653898 0 -0.0010581528895217242 -0.0001859408472144263 0 -0.0011344990527785263 -8.0147023036718749e-05 0 -0.00093419946802921568 -0.00023492434340653898 0 -0.00096096031173931846 -0.00027504562381025521 0 -0.0010581528895217242 -0.0001859408472144263 0 -0.001111883385661103 -0.00019489233276385055 0 -0.00096096031173931846 -0.00027504562381025521 0 -0.0010581528895217242 -0.0001859408472144263 0 -0.00093419946802921568 -0.00023492434340653898 0 -0.00097419806707123432 -0.00032979465861077308 0 -0.00099250354759982035 -0.0003573794706456769 0 -0.0010484069509360346 -0.00032118398810215398 0 -0.00097419806707123432 -0.00032979465861077308 0 -0.00096096031173931846 -0.00027504562381025521 0 -0.0010484069509360346 -0.00032118398810215398 0 -0.00096450362584822775 -0.00026242823833600083 0 -0.0010765503866355867 -0.00025669028397975834 0 -0.0010325991338068297 -0.00036152494824950572 0 -0.00099250354759982035 -0.0003573794706456769 0 -0.0010182376194275268 -0.00037451491133322796 0 -0.0010325991338068297 -0.00036152494824950572 0 -0.00099250354759982035 -0.0003573794706456769 0 -0.0010484069509360346 -0.00032118398810215398 0 -0.00096131400828719483 -0.00036973864809169949 0 -0.00099250354759982035 -0.0003573794706456769 0 -0.0010182376194275268 -0.00037451491133322796 0 -0.00096131400828719483 -0.00036973864809169949 0 -0.00095499911623351695 -0.00035601803405111229 0 -0.00099250354759982035 -0.0003573794706456769 0 -0.00098172841812118141 -0.00037417976773600968 0 -0.00096131400828719483 -0.00036973864809169949 0 -0.0010182376194275268 -0.00037451491133322796 0 -0.0010325991338068297 -0.00036152494824950572 0 -0.0010182376194275268 -0.00037451491133322796 0 -0.0010526481595519235 -0.00037776543847421376 0 -0.0010569178657720689 -0.00037839884151318493 0 -0.0010182376194275268 -0.00037451491133322796 0 -0.0010526481595519235 -0.00037776543847421376 0 -0.0010736456199735261 -0.00040416317837425723 0 -0.0010526481595519235 -0.00037776543847421376 0 -0.0010770238706026268 -0.00037275427319171734 0 -0.0010526481595519235 -0.00037776543847421376 0 -0.0010770238706026268 -0.00037275427319171734 0 -0.0010608284278855332 -0.0003557979440871285 0 -0.0010325991338068297 -0.00036152494824950572 0 -0.0010526481595519235 -0.00037776543847421376 0 -0.0010608284278855332 -0.0003557979440871285 0 -0.0010736456199735261 -0.00040416317837425723 0 -0.0010770238706026268 -0.00037275427319171734 0 -0.0011065019779114018 -0.00038606347499368004 0 -0.0010770238706026268 -0.00037275427319171734 0 -0.0010942977666112245 -0.00034091629573148935 0 -0.0011065019779114018 -0.00038606347499368004 0 -0.0010770238706026268 -0.00037275427319171734 0 -0.0010942977666112245 -0.00034091629573148935 0 -0.0010608284278855332 -0.0003557979440871285 0 -0.0010325991338068297 -0.00036152494824950572 0 -0.0010608284278855332 -0.0003557979440871285 0 -0.0010484069509360346 -0.00032118398810215398 0 -0.0010942977666112245 -0.00034091629573148935 0 -0.0010608284278855332 -0.0003557979440871285 0 -0.0010484069509360346 -0.00032118398810215398 0 -0.0010581528895217242 -0.0001859408472144263 0 -0.001111883385661103 -0.00019489233276385055 0 -0.0011344990527785263 -8.0147023036718749e-05 0 -0.001111883385661103 -0.00019489233276385055 0 -0.0012475914423207566 -8.6047739040063899e-05 0 -0.0011344990527785263 -8.0147023036718749e-05 0 -0.0012475914423207566 -8.6047739040063899e-05 0 -0.0012885760382606503 -1.3541503680969867e-05 0 -0.0011344990527785263 -8.0147023036718749e-05 0 -0.0011348595935870946 -0.0002674041187964049 0 -0.0010765503866355867 -0.00025669028397975834 0 -0.0012322280722372075 -0.00016241049849706425 0 -0.001111883385661103 -0.00019489233276385055 0 -0.0012475914423207566 -8.6047739040063899e-05 0 -0.0012475914423207566 -8.6047739040063899e-05 0 -0.0013222901156633173 -7.4704783916631798e-05 0 -0.0013171022276429961 -4.7141828393124703e-06 0 -0.0012322280722372075 -0.00016241049849706425 0 -0.0012475914423207566 -8.6047739040063899e-05 0 -0.0013222901156633173 -7.4704783916631798e-05 0 -0.0012475914423207566 -8.6047739040063899e-05 0 -0.0013171022276429961 -4.7141828393124703e-06 0 -0.0012885760382606503 -1.3541503680969867e-05 0 -0.0013171022276429961 -4.7141828393124703e-06 0 -0.0011968869406694753 -3.194045304700546e-08 0 -0.0012885760382606503 -1.3541503680969867e-05 0 -0.0013171022276429961 -4.7141828393124703e-06 0 -0.0013974381356921467 3.432267486394456e-08 0 -0.0011968869406694753 -3.194045304700546e-08 0 -0.0013171022276429961 -4.7141828393124703e-06 0 -0.0013974381356921467 3.432267486394456e-08 0 -0.0014015393043777893 -2.0425060059843941e-05 0 -0.0013974381356921467 3.432267486394456e-08 0 -0.0014015393043777893 -2.0425060059843941e-05 0 -0.0015443702456877785 -7.8431396780711225e-06 0 -0.0013974381356921467 3.432267486394456e-08 0 -0.0015443702456877785 -7.8431396780711225e-06 0 -0.0015985147315105599 -2.4169963886866692e-07 0 -0.0013222901156633173 -7.4704783916631798e-05 0 -0.0013171022276429961 -4.7141828393124703e-06 0 -0.0014015393043777893 -2.0425060059843941e-05 0 -0.0013222901156633173 -7.4704783916631798e-05 0 -0.0014015393043777893 -2.0425060059843941e-05 0 -0.0014071781216391807 -7.5197669212077821e-05 0 -0.0013222901156633173 -7.4704783916631798e-05 0 -0.0014071781216391807 -7.5197669212077821e-05 0 -0.0013552476011144485 -0.00014664516902047889 0 -0.0014015393043777893 -2.0425060059843941e-05 0 -0.0014071781216391807 -7.5197669212077821e-05 0 -0.0015443702456877785 -7.8431396780711225e-06 0 -0.0015443702456877785 -7.8431396780711225e-06 0 -0.0015985147315105599 -2.4169963886866692e-07 0 -0.0016493130088035752 6.0852106090958245e-06 0 -0.0015621374446809883 -2.2097705923051902e-05 0 -0.0015678305622996594 -5.6578218244066217e-05 0 -0.0014071781216391807 -7.5197669212077821e-05 0 -0.0015443702456877785 -7.8431396780711225e-06 0 -0.0014627666113668034 -0.00017795742513475617 0 -0.0015987164242745819 -5.2267499130093647e-09 0 -0.0015678305622996594 -5.6578218244066217e-05 0 -0.0015988381538512937 1.5588321262916329e-09 0 -0.0016699216837915609 -2.1036495019790033e-09 0 -0.001657177204391266 1.2437683273955998e-06 0 -0.0016699216837915609 -2.1036495019790033e-09 0 -0.001657177204391266 1.2437683273955998e-06 0 -0.0016512600095076732 -1.3569171999318934e-05 0 -0.0015678305622996594 -5.6578218244066217e-05 0 -0.0016130898638447844 -5.5600226009654049e-05 0 -0.001670090775137056 -1.0126548244815908e-08 0 -0.0016130898638447844 -5.5600226009654049e-05 0 -0.0015678305622996594 -5.6578218244066217e-05 0 -0.0014320718166038679 -0.00015817553983434688 0 -0.0015650497869308668 -3.7549989137039293e-05 0 -0.0015412780136007933 -9.7584925246879607e-05 0 -0.0014915889200417672 -0.00012395673778832877 0 -0.0014627666113668034 -0.00017795742513475617 0 -0.0013552476011144485 -0.00014664516902047889 0 -0.00138961636887141 -0.00023597884515424075 0 -0.0014071781216391807 -7.5197669212077821e-05 0 -0.0014627666113668034 -0.00017795742513475617 0 -0.0013552476011144485 -0.00014664516902047889 0 -0.0012322280722372075 -0.00016241049849706425 0 -0.0013552476011144485 -0.00014664516902047889 0 -0.00138961636887141 -0.00023597884515424075 0 -0.0012322280722372075 -0.00016241049849706425 0 -0.0013222901156633173 -7.4704783916631798e-05 0 -0.0013552476011144485 -0.00014664516902047889 0 -0.0011348595935870946 -0.0002674041187964049 0 -0.0014320718166038679 -0.00015817553983434688 0 -0.0010942977666112245 -0.00034091629573148935 0 -0.0011065019779114018 -0.00038606347499368004 0 -0.0011441507394472192 -0.0003627896447248477 0 -0.0011524491206356651 -0.00031989105261573272 0 -0.0014320718166038679 -0.00015817553983434688 0 -0.0015421375935647161 -0.00014551363876002551 0 -0.0015154298150355239 -0.00012161166830778028 0 -0.0015586723257737332 -7.0783017537500657e-05 0 -0.0014291331055858272 -0.00016101867368061593 0 -0.0014320718166038679 -0.00015817553983434688 0 -0.0012916617258787874 -0.00024844728655211196 0 -0.0012616081782827937 -0.00021437966785787404 0 -0.0013908574846380767 -0.00013316971453354047 0 -0.0019948435319640688 2.4014621947951213e-05 0 -0.0018051152034122319 -1.3546056405328142e-07 0 -0.0018689569754190263 -4.0505803783080804e-05 0 -0.0015421375935647161 -0.00014551363876002551 0 -0.001568544715405254 -7.6103352664012278e-05 0 -0.0015586723257737332 -7.0783017537500657e-05 0 -0.0017827591222296885 -4.1266627759520027e-05 0 -0.0016473227330834157 -7.8118251862725228e-05 0 -0.0017294007380546318 5.8989890791200039e-06 0 -0.0018045660958873422 -8.2506387548962768e-10 0 -0.0017305899723318765 -6.0391457205580712e-06 0 -0.0016703123506675466 2.4904537614327735e-10 0 -0.0017294007380546318 5.8989890791200039e-06 0 -0.0018045660958873422 -8.2506387548962768e-10 0 -0.0018047696646297457 -9.6468026615467668e-08 0 -0.0016473227330834157 -7.8118251862725228e-05 0 -0.0015911343847577514 -0.00011242478697610359 0 -0.0015961256130682788 -9.9280922068081663e-05 0 -0.0016054649407599134 -0.00010461311498773641 0 -0.0016130898638447844 -5.5600226009654049e-05 0 -0.0014320718166038679 -0.00015817553983434688 0 -0.0016130898638447844 -5.5600226009654049e-05 0 -0.0016473227330834157 -7.8118251862725228e-05 0 -0.0016473227330834157 -7.8118251862725228e-05 0 -0.0014320718166038679 -0.00015817553983434688 0 -0.00080070006031928483 3.0249981322104253e-06 0 -0.00090886078477454368 1.8671767211056487e-07 0 -0.00062164655153797198 -2.8408372547732286e-07 0 -0.00080070006031928483 3.0249981322104253e-06 0 -0.00087611286982639132 -7.637926418481272e-05 0 -0.00062164655153797198 -2.8408372547732286e-07 0 -0.00080070006031928483 3.0249981322104253e-06 0 -0.000880981963083597 -5.9787648972439331e-06 0 -0.00087611286982639132 -7.637926418481272e-05 0 -0.000880981963083597 -5.9787648972439331e-06 0 -0.00090215391060173523 -5.0629284185947804e-05 0 -0.00087611286982639132 -7.637926418481272e-05 0 -0.000880981963083597 -5.9787648972439331e-06 0 -0.00090886078477454368 1.8671767211056487e-07 0 -0.0009849140306085781 -7.5648824298130626e-06 0 -0.00080070006031928483 3.0249981322104253e-06 0 -0.000880981963083597 -5.9787648972439331e-06 0 -0.00090886078477454368 1.8671767211056487e-07 0 -0.00090886078477454368 1.8671767211056487e-07 0 -0.0009849140306085781 -7.5648824298130626e-06 0 -0.0011960533387754642 -3.1026787392573501e-07 0 -0.0011964517725220061 -2.3755772648978262e-08 0 -0.0011091233127216477 -6.1622468016144747e-05 0 -0.0009849140306085781 -7.5648824298130626e-06 0 -0.0011960533387754642 -3.1026787392573501e-07 0 -0.00093580248884830082 -0.00011170552683477404 0 -0.0009849140306085781 -7.5648824298130626e-06 0 -0.00093580248884830082 -0.00011170552683477404 0 -0.00092237595657293405 -4.885658513726146e-05 0 -0.000880981963083597 -5.9787648972439331e-06 0 -0.0009849140306085781 -7.5648824298130626e-06 0 -0.00092237595657293405 -4.885658513726146e-05 0 -0.00092237595657293405 -4.885658513726146e-05 0 -0.00090125343921889202 -0.0001145911506455847 0 -0.00090826464432058646 -5.9726341412113028e-05 0 -0.00093580248884830082 -0.00011170552683477404 0 -0.00092237595657293405 -4.885658513726146e-05 0 -0.00090125343921889202 -0.0001145911506455847 0 -0.0011091233127216477 -6.1622468016144747e-05 0 -0.0010164878989321153 -0.00012924053440113104 0 -0.00093580248884830082 -0.00011170552683477404 0 -0.00089397969410777596 -0.00016427574532642831 0 -0.00090125343921889202 -0.0001145911506455847 0 -0.00089397969410777596 -0.00016427574532642831 0 -0.00090125343921889202 -0.0001145911506455847 0 -0.00088388511106149252 -0.00020243983508058265 0 -0.00090125343921889202 -0.0001145911506455847 0 -0.00089393011997874615 -9.8327455492682399e-05 0 -0.00088388511106149252 -0.00020243983508058265 0 -0.00090125343921889202 -0.0001145911506455847 0 -0.00089393011997874615 -9.8327455492682399e-05 0 -0.00090826464432058646 -5.9726341412113028e-05 0 -0.00089393011997874615 -9.8327455492682399e-05 0 -0.00090826464432058646 -5.9726341412113028e-05 0 -0.00089846215248364197 -6.0202522558724526e-05 0 -0.000880981963083597 -5.9787648972439331e-06 0 -0.00092237595657293405 -4.885658513726146e-05 0 -0.00090826464432058646 -5.9726341412113028e-05 0 -0.000880981963083597 -5.9787648972439331e-06 0 -0.00090826464432058646 -5.9726341412113028e-05 0 -0.00090215391060173523 -5.0629284185947804e-05 0 -0.00090826464432058646 -5.9726341412113028e-05 0 -0.00090215391060173523 -5.0629284185947804e-05 0 -0.00089846215248364197 -6.0202522558724526e-05 0 -0.00090215391060173523 -5.0629284185947804e-05 0 -0.00089846215248364197 -6.0202522558724526e-05 0 -0.00090186741812722229 -4.8917189295913105e-05 0 -0.00089393011997874615 -9.8327455492682399e-05 0 -0.00089846215248364197 -6.0202522558724526e-05 0 -0.00087791739317143907 -6.8973383718656803e-05 0 -0.00089846215248364197 -6.0202522558724526e-05 0 -0.00087791739317143907 -6.8973383718656803e-05 0 -0.00088240109935175479 -5.0872084585509045e-05 0 -0.00087791739317143907 -6.8973383718656803e-05 0 -0.00085185824103805046 -5.5355676000453681e-05 0 -0.00084650154705505354 -9.7400169583477085e-05 0 -0.00087791739317143907 -6.8973383718656803e-05 0 -0.00085185824103805046 -5.5355676000453681e-05 0 -0.00088240109935175479 -5.0872084585509045e-05 0 -0.00085185824103805046 -5.5355676000453681e-05 0 -0.00081391797430643419 -6.8883416400674518e-05 0 -0.00084650154705505354 -9.7400169583477085e-05 0 -0.00081391797430643419 -6.8883416400674518e-05 0 -0.00084650154705505354 -9.7400169583477085e-05 0 -0.00078843275467782256 -0.00010353942361602596 0 -0.00084650154705505354 -9.7400169583477085e-05 0 -0.00080234183586544168 -0.00016004527115060689 0 -0.00078843275467782256 -0.00010353942361602596 0 -0.00089393011997874615 -9.8327455492682399e-05 0 -0.00084650154705505354 -9.7400169583477085e-05 0 -0.00088388511106149252 -0.00020243983508058265 0 -0.00089393011997874615 -9.8327455492682399e-05 0 -0.00087791739317143907 -6.8973383718656803e-05 0 -0.00084650154705505354 -9.7400169583477085e-05 0 -0.0010164878989321153 -0.00012924053440113104 0 -0.00094099007426613627 -0.00021463312177889517 0 -0.00089397969410777596 -0.00016427574532642831 0 -0.00088388511106149252 -0.00020243983508058265 0 -0.00093419946802921568 -0.00023492434340653898 0 -0.00088388511106149252 -0.00020243983508058265 0 -0.00093419946802921568 -0.00023492434340653898 0 -0.00090888029975723383 -0.00026184746256481284 0 -0.00092699963095687254 -0.00029652280628235649 0 -0.00093419946802921568 -0.00023492434340653898 0 -0.00091475150813114089 -0.00030780833920697551 0 -0.00093419946802921568 -0.00023492434340653898 0 -0.00090888029975723383 -0.00026184746256481284 0 -0.00091475150813114089 -0.00030780833920697551 0 -0.00084650154705505354 -9.7400169583477085e-05 0 -0.00088388511106149252 -0.00020243983508058265 0 -0.00080234183586544168 -0.00016004527115060689 0 -0.00090888029975723383 -0.00026184746256481284 0 -0.00090659159367503783 -0.0003388235502718154 0 -0.00091475150813114089 -0.00030780833920697551 0 -0.00088388511106149252 -0.00020243983508058265 0 -0.00090888029975723383 -0.00026184746256481284 0 -0.00090659159367503783 -0.0003388235502718154 0 -0.00088500073933246519 -0.00021878832784928001 0 -0.00085897962075584023 -0.00024811526183230722 0 -0.00090659159367503783 -0.0003388235502718154 0 -0.00090538009483213272 -0.0003809235345318466 0 -0.00091475150813114089 -0.00030780833920697551 0 -0.00090659159367503783 -0.0003388235502718154 0 -0.00090538009483213272 -0.0003809235345318466 0 -0.00089920635920215733 -0.00041421000879301957 0 -0.00090538009483213272 -0.0003809235345318466 0 -0.00091475150813114089 -0.00030780833920697551 0 -0.00090373352344720094 -0.00037929141105596853 0 -0.0009117025860659278 -0.00035047458260101781 0 -0.00091475150813114089 -0.00030780833920697551 0 -0.00090373352344720094 -0.00037929141105596853 0 -0.0009117025860659278 -0.00035047458260101781 0 -0.00092699963095687254 -0.00029652280628235649 0 -0.00091475150813114089 -0.00030780833920697551 0 -0.00089677662065606545 -0.00042087495547212314 0 -0.00090373352344720094 -0.00037929141105596853 0 -0.00088266117943217872 -0.00046207735237055345 0 -0.00090373352344720094 -0.00037929141105596853 0 -0.00089122652330699329 -0.00042922450050595561 0 -0.00088266117943217872 -0.00046207735237055345 0 -0.00090538009483213272 -0.0003809235345318466 0 -0.00089122652330699329 -0.00042922450050595561 0 -0.00088702410611615139 -0.00044134454663356327 0 -0.00090538009483213272 -0.0003809235345318466 0 -0.00090373352344720094 -0.00037929141105596853 0 -0.00089122652330699329 -0.00042922450050595561 0 -0.00090538009483213272 -0.0003809235345318466 0 -0.00088702410611615139 -0.00044134454663356327 0 -0.00089920635920215733 -0.00041421000879301957 0 -0.00089122652330699329 -0.00042922450050595561 0 -0.00088702410611615139 -0.00044134454663356327 0 -0.00087113195934867703 -0.00047560113156801172 0 -0.00088702410611615139 -0.00044134454663356327 0 -0.00089920635920215733 -0.00041421000879301957 0 -0.00086978524154703832 -0.00044280220030632454 0 -0.00083894913764808409 -0.00027057974458404959 0 -0.00068982529721185748 -0.0003517423609821727 0 -0.00074810364606008744 -0.00013040522678769845 0 -0.00074017935554238046 -8.487396300583706e-05 0 -0.00069494405406314249 -0.00010726210522535435 0 -0.00080234183586544168 -0.00016004527115060689 0 -0.00074810364606008744 -0.00013040522678769845 0 -0.00078843275467782256 -0.00010353942361602596 0 -0.00085897962075584023 -0.00024811526183230722 0 -0.00083894913764808409 -0.00027057974458404959 0 -0.00074810364606008744 -0.00013040522678769845 0 -0.00078843275467782256 -0.00010353942361602596 0 -0.00074017935554238046 -8.487396300583706e-05 0 -0.00081391797430643419 -6.8883416400674518e-05 0 -0.00078843275467782256 -0.00010353942361602596 0 -0.00077267768241944012 -5.7275355789382862e-05 0 -0.00078843275467782256 -0.00010353942361602596 0 -0.00077267768241944012 -5.7275355789382862e-05 0 -0.00074017935554238046 -8.487396300583706e-05 0 -0.00077267768241944012 -5.7275355789382862e-05 0 -0.00074017935554238046 -8.487396300583706e-05 0 -0.0007116014667938144 -4.2441874875576033e-05 0 -0.00074017935554238046 -8.487396300583706e-05 0 -0.0007116014667938144 -4.2441874875576033e-05 0 -0.00069494405406314249 -0.00010726210522535435 0 -0.00077267768241944012 -5.7275355789382862e-05 0 -0.0007116014667938144 -4.2441874875576033e-05 0 -0.0007602096797791572 -1.9087675947531372e-05 0 -0.00077267768241944012 -5.7275355789382862e-05 0 -0.0007602096797791572 -1.9087675947531372e-05 0 -0.00082029011304240898 -3.083443195981664e-05 0 -0.00019530785493563024 2.6041218913401827e-05 0 -0.00022374496407923875 4.3028946271283081e-05 0 -0.0002496050974995228 5.6446693254912977e-06 0 -0.0007602096797791572 -1.9087675947531372e-05 0 -0.00072725285220582171 2.2157155123277848e-05 0 -0.00079567472866242338 6.8931771710462275e-06 0 -0.0007602096797791572 -1.9087675947531372e-05 0 -0.00079567472866242338 6.8931771710462275e-06 0 -0.00082029011304240898 -3.083443195981664e-05 0 -0.00049016536214456464 -0.00014058963512828679 0 -0.00051294305803582904 2.4161534171579787e-05 0 -0.00043397915934493446 -0.00047539192827796532 0 -0.00044068186750236422 -0.00049466872596520958 0 -0.00043854758037003774 -0.00049022044971753717 0 -0.00057056587530204957 -0.00026091681678150125 0 -0.00049016536214456464 -0.00014058963512828679 0 -0.0007116014667938144 -4.2441874875576033e-05 0 -0.0007602096797791572 -1.9087675947531372e-05 0 -0.00072725285220582171 2.2157155123277848e-05 0 -0.00044068186750236422 -0.00049466872596520958 0 -0.00043854758037003774 -0.00049022044971753717 0 -0.00043780965098095615 -0.00049338906926058848 0 -0.00045912897844439788 -0.00049656226620803921 0 -0.0004496389895307492 -0.00048588477831296514 0 -0.00045629339171345906 -0.00047423213769521379 0 -0.00044068186750236422 -0.00049466872596520958 0 -0.00043780965098095615 -0.00049338906926058848 0 -0.00044245956323341003 -0.00049310816395802687 0 -0.00044245956323341003 -0.00049310816395802687 0 -0.00043665522684344478 -0.00048720355230806952 0 -0.00044533506762310546 -0.00048159560304797259 0 -0.00044245956323341003 -0.00049310816395802687 0 -0.0004496389895307492 -0.00048588477831296514 0 -0.00044533506762310546 -0.00048159560304797259 0 -0.00045912897844439788 -0.00049656226620803921 0 -0.00044245956323341003 -0.00049310816395802687 0 -0.0004496389895307492 -0.00048588477831296514 0 -0.00049016536214456464 -0.00014058963512828679 0 -0.00049272896251608897 -0.00015888175030890145 0 -0.00043780965098095615 -0.00049338906926058848 0 -0.00044245956323341003 -0.00049310816395802687 0 -0.00043665522684344478 -0.00048720355230806952 0 -0.00043780965098095615 -0.00049338906926058848 0 -0.00043665522684344478 -0.00048720355230806952 0 -0.00042822323588389579 -0.00049669891309057467 0 -0.00043665522684344478 -0.00048720355230806952 0 -0.00044492345562873532 -0.0004637535358930834 0 -0.00040490580662390271 -0.00044136223488006938 0 -0.00019530785493563024 2.6041218913401827e-05 0 -0.00021331689092710993 6.6111511059431866e-05 0 -0.00021549475458663164 5.0710533403386578e-05 0 -0.00049016536214456464 -0.00014058963512828679 0 0.00021252687310492605 -0.00019473914551555442 0 -0.00045912897844439788 -0.00049656226620803921 0 -0.0004622319696328668 -0.00044608087273753015 0 -0.00048573833592340681 -0.00038855691270901495 0 -0.00043665522684344478 -0.00048720355230806952 0 -0.00044533506762310546 -0.00048159560304797259 0 -0.00044492345562873532 -0.0004637535358930834 0 -0.0004496389895307492 -0.00048588477831296514 0 -0.00044533506762310546 -0.00048159560304797259 0 -0.00045629339171345906 -0.00047423213769521379 0 -0.00044533506762310546 -0.00048159560304797259 0 -0.00045629339171345906 -0.00047423213769521379 0 -0.00044492345562873532 -0.0004637535358930834 0 -0.00045629339171345906 -0.00047423213769521379 0 -0.00044492345562873532 -0.0004637535358930834 0 -0.0004622319696328668 -0.00044608087273753015 0 -0.00044492345562873532 -0.0004637535358930834 0 -0.00041245000746708025 -0.00041840677490348341 0 -0.00040490580662390271 -0.00044136223488006938 0 -0.00019530785493563024 2.6041218913401827e-05 0 -0.00021549475458663164 5.0710533403386578e-05 0 -0.00022374496407923875 4.3028946271283081e-05 0 -0.00045912897844439788 -0.00049656226620803921 0 -0.00045629339171345906 -0.00047423213769521379 0 -0.0004622319696328668 -0.00044608087273753015 0 -0.0004622319696328668 -0.00044608087273753015 0 -0.00045214730211573582 -0.00041910558805724647 0 -0.00048573833592340681 -0.00038855691270901495 0 -0.00044492345562873532 -0.0004637535358930834 0 -0.0004622319696328668 -0.00044608087273753015 0 -0.00045214730211573582 -0.00041910558805724647 0 -0.00040594742065834684 -0.00054050992744711769 0 0.00013218610281612341 -0.00019286228376623287 0 -0.00044492345562873532 -0.0004637535358930834 0 -0.0004155643093520932 -0.00032860016740492555 0 -0.0004075759601411598 -0.00037987281805633275 0 -0.00044492345562873532 -0.0004637535358930834 0 -0.00045214730211573582 -0.00041910558805724647 0 -0.00041485857360645454 -0.00038610401399866607 0 -0.00044492345562873532 -0.0004637535358930834 0 -0.0004075759601411598 -0.00037987281805633275 0 -0.00041245000746708025 -0.00041840677490348341 0 -0.00045214730211573582 -0.00041910558805724647 0 -0.00041485857360645454 -0.00038610401399866607 0 -0.00048573833592340681 -0.00038855691270901495 0 0.0010224053316550995 -0.00017574885727529037 0 0.00099772203484656567 -0.00016643747300484668 0 0.00096020134648740663 -0.00018561638573972553 0 0.00013218610281612341 -0.00019286228376623287 0 0.00021252687310492605 -0.00019473914551555442 0 0.0010224053316550995 -0.00017574885727529037 0 0.0010081969471732869 -0.00015255815966362291 0 0.00099772203484656567 -0.00016643747300484668 0 0.00099178772914095535 -0.00015767271291597498 0 0.00099772203484656567 -0.00016643747300484668 0 0.00097895901586631624 -0.00016749144395807069 0 0.0010081969471732869 -0.00015255815966362291 0 0.00099959202330287384 -0.00015500333545934473 0 0.00099772203484656567 -0.00016643747300484668 0 0.00099178772914095535 -0.00015767271291597498 0 0.00099959202330287384 -0.00015500333545934473 0 0.00099772203484656567 -0.00016643747300484668 0 0.00099772203484656567 -0.00016643747300484668 0 0.00096020134648740663 -0.00018561638573972553 0 0.00097895901586631624 -0.00016749144395807069 0 0.00096020134648740663 -0.00018561638573972553 0 0.00095975720079977936 -0.00017681786291023162 0 0.00097895901586631624 -0.00016749144395807069 0 0.00021252687310492605 -0.00019473914551555442 0 0.00029996717681761626 -0.0002353427482199138 0 0.00095975720079977936 -0.00017681786291023162 0 0.00097895901586631624 -0.00016749144395807069 0 0.00097968949168098863 -0.00015157687902951834 0 0.00099178772914095535 -0.00015767271291597498 0 0.00097895901586631624 -0.00016749144395807069 0 0.00097968949168098863 -0.00015157687902951834 0 0.00097968949168098863 -0.00015157687902951834 0 0.00097469004697511418 -0.00012616977451718496 0 0.00099690554566771845 -0.00014216217188575098 0 0.00095975720079977936 -0.00017681786291023162 0 0.00097469004697511418 -0.00012616977451718496 0 0.00091384541022612774 -0.0001159285976592252 0 0.00095975720079977936 -0.00017681786291023162 0 0.00097968949168098863 -0.00015157687902951834 0 0.00097469004697511418 -0.00012616977451718496 0 0.0010224053316550995 -0.00017574885727529037 0 0.0010081969471732869 -0.00015255815966362291 0 0.0010126081888801577 -0.00012166164978295367 0 0.00097469004697511418 -0.00012616977451718496 0 0.0010126081888801577 -0.00012166164978295367 0 0.00099690554566771845 -0.00014216217188575098 0 0.0010081969471732869 -0.00015255815966362291 0 0.0010126081888801577 -0.00012166164978295367 0 0.00099690554566771845 -0.00014216217188575098 0 0.00099178772914095535 -0.00015767271291597498 0 0.00099959202330287384 -0.00015500333545934473 0 0.00099690554566771845 -0.00014216217188575098 0 0.0010081969471732869 -0.00015255815966362291 0 0.00099959202330287384 -0.00015500333545934473 0 0.00099690554566771845 -0.00014216217188575098 0 0.00099178772914095535 -0.00015767271291597498 0 0.00097968949168098863 -0.00015157687902951834 0 0.00099690554566771845 -0.00014216217188575098 0 0.00095975720079977936 -0.00017681786291023162 0 0.00082827505996452397 -0.0001633025581652685 0 0.00091384541022612774 -0.0001159285976592252 0 0.00021252687310492605 -0.00019473914551555442 0 0.000277539523233387 -7.2590803962941842e-05 0 0.00096736861962857189 -0.00020341685687124021 0 0.00095975720079977936 -0.00017681786291023162 0 0.00082827505996452397 -0.0001633025581652685 0 0.00096736861962857189 -0.00020341685687124021 0 0.00082827505996452397 -0.0001633025581652685 0 0.00071257411745020332 -0.0002380094349818579 0 -0.00021331689092710993 6.6111511059431866e-05 0 -0.00022913712898623036 5.9210195325708032e-05 0 -0.00024512362560306195 6.0896649871469973e-05 0 0.0008306783670031121 -0.00010773289521745491 0 0.00082827505996452397 -0.0001633025581652685 0 0.00091384541022612774 -0.0001159285976592252 0 -0.00022913712898623036 5.9210195325708032e-05 0 -0.00023851607075017029 5.7827929025756478e-05 0 -0.00022374496407923875 4.3028946271283081e-05 0 -0.00023851607075017029 5.7827929025756478e-05 0 -0.00022374496407923875 4.3028946271283081e-05 0 -0.0002496050974995228 5.6446693254912977e-06 0 -0.00022913712898623036 5.9210195325708032e-05 0 -0.00021549475458663164 5.0710533403386578e-05 0 -0.00022374496407923875 4.3028946271283081e-05 0 -0.00021331689092710993 6.6111511059431866e-05 0 -0.00022913712898623036 5.9210195325708032e-05 0 -0.00021549475458663164 5.0710533403386578e-05 0 -0.00024464269159432531 5.8294587647203062e-05 0 -0.00028845226515677444 5.2947464611267929e-05 0 -0.00023851607075017029 5.7827929025756478e-05 0 -0.00033865367771860748 5.1862639243239748e-05 0 -0.0002496050974995228 5.6446693254912977e-06 0 -0.00023851607075017029 5.7827929025756478e-05 0 -0.00024512362560306195 6.0896649871469973e-05 0 -0.00024768376955941181 5.5178962214906717e-05 0 -0.00022913712898623036 5.9210195325708032e-05 0 -0.00023851607075017029 5.7827929025756478e-05 0 -0.00024512362560306195 6.0896649871469973e-05 0 0.00082827505996452397 -0.0001633025581652685 0 0.00071257411745020332 -0.0002380094349818579 0 0.00069442628257970415 -0.00016675662265650508 0 0.000277539523233387 -7.2590803962941842e-05 0 0.00017937301456507783 -9.3423929745547305e-05 0 0.00069470401191750917 -0.00010313924781383682 0 0.00082827505996452397 -0.0001633025581652685 0 0.00069442628257970415 -0.00016675662265650508 0 0.00069470401191750917 -0.00010313924781383682 0 0.0008306783670031121 -0.00010773289521745491 0 0.00082827505996452397 -0.0001633025581652685 0 0.00066821897859434211 -0.00023737472748797049 0 0.00058143217257276641 -0.00015365666997592186 0 0.00041230995417273683 -0.00019937561317197384 0 0.00017937301456507783 -9.3423929745547305e-05 0 0.00027678198899221975 -0.00012867970909769769 0 0.00054839585320054052 -3.5609553999636622e-05 0 0.00058143217257276641 -0.00015365666997592186 0 0.00046570488495490829 -0.00010500067705080983 0 0.00069470401191750917 -0.00010313924781383682 0 0.00069442628257970415 -0.00016675662265650508 0 0.00058143217257276641 -0.00015365666997592186 0 0.00071257411745020332 -0.0002380094349818579 0 0.00066821897859434211 -0.00023737472748797049 0 0.00058143217257276641 -0.00015365666997592186 0 0.00071257411745020332 -0.0002380094349818579 0 0.00069442628257970415 -0.00016675662265650508 0 0.00058143217257276641 -0.00015365666997592186 0 -0.00024540389141093822 6.0031925799171546e-05 0 -0.00024768376955941181 5.5178962214906717e-05 0 -0.00024932739105910836 5.5024264278704268e-05 0 7.1608278111078013e-05 -5.729180503281161e-05 0 5.6949938820147626e-05 -6.3159596344122436e-05 0 5.4132595431790133e-05 -5.9326665526679571e-05 0 0.00017937301456507783 -9.3423929745547305e-05 0 -0.00014271916388058201 -8.6740068297372782e-06 0 -0.00024512362560306195 6.0896649871469973e-05 0 -0.00024540389141093822 6.0031925799171546e-05 0 -0.00024768376955941181 5.5178962214906717e-05 0 -0.00033865367771860748 5.1862639243239748e-05 0 -0.00033923681580791837 -1.1875827304119427e-05 0 -0.0002496050974995228 5.6446693254912977e-06 0 -0.00033865367771860748 5.1862639243239748e-05 0 -0.00033923681580791837 -1.1875827304119427e-05 0 -0.00038206445146977876 2.1779255887218213e-05 0 -0.00060129717308918566 -1.6036155143701607e-05 0 -0.00051294305803582904 2.4161534171579787e-05 0 -0.00086117380920295499 -1.5935553985184965e-05 0 -0.00079567472866242338 6.8931771710462275e-06 0 -0.00082029011304240898 -3.083443195981664e-05 0 -0.00081391797430643419 -6.8883416400674518e-05 0 -0.00077267768241944012 -5.7275355789382862e-05 0 -0.00082029011304240898 -3.083443195981664e-05 0 -0.00085185824103805046 -5.5355676000453681e-05 0 -0.00081391797430643419 -6.8883416400674518e-05 0 -0.00082029011304240898 -3.083443195981664e-05 0 -0.00085185824103805046 -5.5355676000453681e-05 0 -0.00086117380920295499 -1.5935553985184965e-05 0 -0.00088240109935175479 -5.0872084585509045e-05 0 -0.00085185824103805046 -5.5355676000453681e-05 0 -0.00086117380920295499 -1.5935553985184965e-05 0 -0.00082029011304240898 -3.083443195981664e-05 0 -0.00089846215248364197 -6.0202522558724526e-05 0 -0.00088240109935175479 -5.0872084585509045e-05 0 -0.00090186741812722229 -4.8917189295913105e-05 0 -0.00086117380920295499 -1.5935553985184965e-05 0 -0.00088240109935175479 -5.0872084585509045e-05 0 -0.00090186741812722229 -4.8917189295913105e-05 0 -0.00060129717308918566 -1.6036155143701607e-05 0 -0.00066111343303033811 -3.4675693764860517e-05 0 -0.00042813961242117737 -2.1234504925523854e-05 0 -0.00046612530048427945 2.7166445544649343e-06 0 -0.00048476054924447324 -1.8231033730119245e-05 0 -0.00090215391060173523 -5.0629284185947804e-05 0 -0.00090186741812722229 -4.8917189295913105e-05 0 -0.00087611286982639132 -7.637926418481272e-05 0 -0.00066111343303033811 -3.4675693764860517e-05 0 -0.00067659574781624545 -4.2114093849209739e-05 0 -0.00042813961242117737 -2.1234504925523854e-05 0 -0.00043490063058220841 5.838722011307783e-06 0 -0.00046612530048427945 2.7166445544649343e-06 0 -0.00046612530048427945 2.7166445544649343e-06 0 -0.0004333192276007934 3.5435278797123831e-05 0 -0.00051259729162901927 1.4249530117079688e-05 0 -0.00036278006822442659 4.5390719887600151e-05 0 -0.00029025190443930611 -1.0210301701280401e-05 0 -0.00025214703653559647 5.0833624527190765e-05 0 -0.0002535399308121344 5.0802827139342342e-05 0 -0.0002596460509072793 4.4276017740936623e-05 0 -0.00043490063058220841 5.838722011307783e-06 0 -0.00046612530048427945 2.7166445544649343e-06 0 -0.0004333192276007934 3.5435278797123831e-05 0 -0.00043490063058220841 5.838722011307783e-06 0 -0.0004333192276007934 3.5435278797123831e-05 0 -0.00041036304237879829 7.4839262058332633e-06 0 -0.00033923681580791837 -1.1875827304119427e-05 0 -0.00042813961242117737 -2.1234504925523854e-05 0 -0.00041036304237879829 7.4839262058332633e-06 0 -0.00033923681580791837 -1.1875827304119427e-05 0 -0.00041036304237879829 7.4839262058332633e-06 0 -0.00038206445146977876 2.1779255887218213e-05 0 -0.00033865367771860748 5.1862639243239748e-05 0 -0.0004333192276007934 3.5435278797123831e-05 0 -0.00038206445146977876 2.1779255887218213e-05 0 -0.0004333192276007934 3.5435278797123831e-05 0 -0.00041036304237879829 7.4839262058332633e-06 0 -0.00038206445146977876 2.1779255887218213e-05 0 -0.00042813961242117737 -2.1234504925523854e-05 0 -0.00043490063058220841 5.838722011307783e-06 0 -0.00041036304237879829 7.4839262058332633e-06 0 -0.00014271916388058201 -8.6740068297372782e-06 0 -7.4798562440548356e-05 -1.312612234570729e-06 0 -0.00025214703653559647 5.0833624527190765e-05 0 -0.00024932739105910836 5.5024264278704268e-05 0 -0.0002535399308121344 5.0802827139342342e-05 0 -0.00028845226515677444 5.2947464611267929e-05 0 -0.00036278006822442659 4.5390719887600151e-05 0 5.6949938820147626e-05 -6.3159596344122436e-05 0 5.4132595431790133e-05 -5.9326665526679571e-05 0 4.8576642613864801e-05 -6.3099485454365549e-05 0 -0.00024768376955941181 5.5178962214906717e-05 0 -0.00025214703653559647 5.0833624527190765e-05 0 -0.00024932739105910836 5.5024264278704268e-05 0 0.00030684572237120504 -3.5647607144655426e-05 0 0.00041230995417273683 -0.00019937561317197384 0 0.00046570488495490829 -0.00010500067705080983 0 0.00058143217257276641 -0.00015365666997592186 0 0.00041230995417273683 -0.00019937561317197384 0 0.00046570488495490829 -0.00010500067705080983 0 0.00030684572237120504 -3.5647607144655426e-05 0 0.00041230995417273683 -0.00019937561317197384 0 5.603118022620363e-05 -5.531765337611762e-05 0 0.00027678198899221975 -0.00012867970909769769 0 5.3419283382078638e-05 -6.6721445107569021e-05 0 5.4132595431790133e-05 -5.9326665526679571e-05 0 4.8576642613864801e-05 -6.3099485454365549e-05 0 5.603118022620363e-05 -5.531765337611762e-05 0 4.8576642613864801e-05 -6.3099485454365549e-05 0 1.4936476012215726e-06 -6.2125554486619006e-05 0 5.603118022620363e-05 -5.531765337611762e-05 0 1.4936476012215726e-06 -6.2125554486619006e-05 0 5.603118022620363e-05 -5.531765337611762e-05 0 -0.0001380032469577024 -2.80460310437553e-05 0 0.00030684572237120504 -3.5647607144655426e-05 0 0.0001642968499988924 6.3696824059653776e-06 0 5.603118022620363e-05 -5.531765337611762e-05 0 0.0001642968499988924 6.3696824059653776e-06 0 5.603118022620363e-05 -5.531765337611762e-05 0 -0.00017385570386751426 8.655252088804972e-09 0 0.00011832632945568004 4.8797255269585165e-08 0 0.0001642968499988924 6.3696824059653776e-06 0 -0.00017385570386751426 8.655252088804972e-09 0 -0.00017385570386751426 8.655252088804972e-09 0 -0.0001380032469577024 -2.80460310437553e-05 0 -0.00041530222180943994 -8.0367019977615843e-06 0 5.603118022620363e-05 -5.531765337611762e-05 0 -0.00017385570386751426 8.655252088804972e-09 0 -0.0001380032469577024 -2.80460310437553e-05 0 -0.00041530222180943994 -8.0367019977615843e-06 0 -0.0004657671693772747 -3.1787512509808338e-07 0 -0.00025068946717515448 -4.1752780044793782e-05 0 -0.00046620269978558688 -3.0109045164088678e-08 0 -0.00029025190443930611 -1.0210301701280401e-05 0 -0.00046665835605152106 1.5682412274971879e-08 0 -0.00051259729162901927 1.4249530117079688e-05 0 -0.00052300127664100474 1.0898742254148405e-05 0 -0.00017385570386751426 8.655252088804972e-09 0 -0.00041530222180943994 -8.0367019977615843e-06 0 -0.0004657671693772747 -3.1787512509808338e-07 0 -0.00033377684967943167 -3.2425190214712995e-05 0 -0.00029025190443930611 -1.0210301701280401e-05 0 -0.0001380032469577024 -2.80460310437553e-05 0 -0.00041530222180943994 -8.0367019977615843e-06 0 -6.7772542540563054e-05 -0.00011462400550504936 0 -0.00046612530048427945 2.7166445544649343e-06 0 -0.00051259729162901927 1.4249530117079688e-05 0 -0.00048476054924447324 -1.8231033730119245e-05 0 4.8576642613864801e-05 -6.3099485454365549e-05 0 1.4936476012215726e-06 -6.2125554486619006e-05 0 -6.7772542540563054e-05 -0.00011462400550504936 0 1.4936476012215726e-06 -6.2125554486619006e-05 0 -0.0001380032469577024 -2.80460310437553e-05 0 -6.7772542540563054e-05 -0.00011462400550504936 0 -7.4798562440548356e-05 -1.312612234570729e-06 0 -0.00029025190443930611 -1.0210301701280401e-05 0 -0.00051259729162901927 1.4249530117079688e-05 0 -0.00048476054924447324 -1.8231033730119245e-05 0 -0.00052300127664100474 1.0898742254148405e-05 0 -0.00048476054924447324 -1.8231033730119245e-05 0 -0.00062072049797687475 -2.677740326186165e-08 0 -0.00052300127664100474 1.0898742254148405e-05 0 -0.00067659574781624545 -4.2114093849209739e-05 0 -0.00062121585435320401 -1.7476773223661652e-08 0 -0.00046665835605152106 1.5682412274971879e-08 0 -0.00062072049797687475 -2.677740326186165e-08 0 -0.00052300127664100474 1.0898742254148405e-05 0 -0.00041013743919560733 -0.00064899002648809699 0 -0.00046100564470442419 -0.00060912653954691602 0 -0.00054789953819872953 -0.00066185806008457922 0 -0.00046100564470442419 -0.00060912653954691602 0 -0.00054789953819872953 -0.00066185806008457922 0 -0.00057172612541191018 -0.00056106371336408557 0 -0.00046100564470442419 -0.00060912653954691602 0 -0.00057172612541191018 -0.00056106371336408557 0 -0.00041661085856638881 -0.00062415202327921644 0 -0.00055139735922804978 -0.00057356625841471082 0 -0.00043133322397537937 -0.00058177450615950349 0 -0.00041013743919560733 -0.00064899002648809699 0 -0.00046100564470442419 -0.00060912653954691602 0 -0.00038511966048153487 -0.0006388437241749219 0 -0.00046100564470442419 -0.00060912653954691602 0 -0.00038511966048153487 -0.0006388437241749219 0 -0.00041661085856638881 -0.00062415202327921644 0 -0.00038511966048153487 -0.0006388437241749219 0 -0.00036924663186643764 -0.00064408680238179771 0 -0.00035106367478929566 -0.00066372098284632843 0 -0.00041013743919560733 -0.00064899002648809699 0 -0.00038511966048153487 -0.0006388437241749219 0 -0.00036924663186643764 -0.00064408680238179771 0 -0.00174641885308696 -0.0013537761457289898 0 -0.0017170098485851477 -0.0011730950626085072 0 -0.0018309207979017592 -0.0013105183400744355 0 -0.0017170098485851477 -0.0011730950626085072 0 -0.0018309207979017592 -0.0013105183400744355 0 -0.0019107812048578909 -0.0011277975938873322 0 -0.00093651688777057459 -0.00092953567496100375 0 -0.0010634849638642657 -0.0010017397450971667 0 -0.0014687736272718027 -0.0012218240990681385 0 -0.00174641885308696 -0.0013537761457289898 0 -0.0017170098485851477 -0.0011730950626085072 0 -0.0014687736272718027 -0.0012218240990681385 0 -0.0017170098485851477 -0.0011730950626085072 0 -0.0014757623418937384 -0.0009317375576462075 0 -0.0017170098485851477 -0.0011730950626085072 0 -0.0018361715300310567 -0.00091042711242909761 0 -0.0014757623418937384 -0.0009317375576462075 0 -0.0017170098485851477 -0.0011730950626085072 0 -0.0018361715300310567 -0.00091042711242909761 0 -0.0019107812048578909 -0.0011277975938873322 0 -0.001486102721813919 -0.00057564809154111605 0 -0.0018361715300310567 -0.00091042711242909761 0 -0.0014757623418937384 -0.0009317375576462075 0 -0.0011705568085730849 -0.00064430295032393947 0 -0.0014757623418937384 -0.0009317375576462075 0 -0.0011534246781108337 -0.00099959569389289501 0 -0.0014687736272718027 -0.0012218240990681385 0 -0.0014757623418937384 -0.0009317375576462075 0 -0.0011534246781108337 -0.00099959569389289501 0 -0.00093651688777057459 -0.00092953567496100375 0 -0.00085494050821253867 -0.00082024669223611354 0 -0.0011705568085730849 -0.00064430295032393947 0 -0.0011534246781108337 -0.00099959569389289501 0 -0.00085943088219598098 -0.00067887328566073484 0 -0.00085494050821253867 -0.00082024669223611354 0 -0.00084455646222330856 -0.00069913831628946356 0 -0.00087153221578972556 -0.0005637620425232449 0 -0.00085943088219598098 -0.00067887328566073484 0 -0.00082337947398445331 -0.00058458957258533748 0 -0.00082337947398445331 -0.00058458957258533748 0 -0.00072247195480695846 -0.00059936308429173332 0 -0.00077351051937458678 -0.00054632296371191389 0 -0.00085943088219598098 -0.00067887328566073484 0 -0.00082337947398445331 -0.00058458957258533748 0 -0.00072247195480695846 -0.00059936308429173332 0 -0.00054789953819872953 -0.00066185806008457922 0 -0.00085943088219598098 -0.00067887328566073484 0 -0.00072247195480695846 -0.00059936308429173332 0 -0.00088611779344694992 -0.00047913200571641753 0 -0.00088266117943217872 -0.00046207735237055345 0 -0.00085935525420744547 -0.00052409523286181265 0 -0.00088266117943217872 -0.00046207735237055345 0 -0.00085935525420744547 -0.00052409523286181265 0 -0.00087113195934867703 -0.00047560113156801172 0 -0.00088611779344694992 -0.00047913200571641753 0 -0.00087153221578972556 -0.0005637620425232449 0 -0.00085935525420744547 -0.00052409523286181265 0 -0.00087153221578972556 -0.0005637620425232449 0 -0.00082337947398445331 -0.00058458957258533748 0 -0.00085935525420744547 -0.00052409523286181265 0 -0.00082337947398445331 -0.00058458957258533748 0 -0.00083438784422396495 -0.00052121087332351965 0 -0.00077351051937458678 -0.00054632296371191389 0 -0.00082337947398445331 -0.00058458957258533748 0 -0.00085935525420744547 -0.00052409523286181265 0 -0.00083438784422396495 -0.00052121087332351965 0 -0.00085935525420744547 -0.00052409523286181265 0 -0.00083438784422396495 -0.00052121087332351965 0 -0.00087113195934867703 -0.00047560113156801172 0 -0.00083438784422396495 -0.00052121087332351965 0 -0.00087113195934867703 -0.00047560113156801172 0 -0.00086050855853006438 -0.00046878920834397049 0 -0.00088702410611615139 -0.00044134454663356327 0 -0.00087113195934867703 -0.00047560113156801172 0 -0.00086050855853006438 -0.00046878920834397049 0 -0.00089122652330699329 -0.00042922450050595561 0 -0.00088266117943217872 -0.00046207735237055345 0 -0.00087113195934867703 -0.00047560113156801172 0 -0.00068982529721185748 -0.0003517423609821727 0 -0.00078487680195350935 -0.00045004120696068588 0 -0.00088702410611615139 -0.00044134454663356327 0 -0.00086978524154703832 -0.00044280220030632454 0 -0.00086050855853006438 -0.00046878920834397049 0 -0.00083438784422396495 -0.00052121087332351965 0 -0.00086050855853006438 -0.00046878920834397049 0 -0.00081576440665643592 -0.00049733420294097044 0 -0.00086163322062285191 -0.00046949259566085198 0 -0.00086050855853006438 -0.00046878920834397049 0 -0.00081576440665643592 -0.00049733420294097044 0 -0.00081576440665643592 -0.00049733420294097044 0 -0.00068748716338884138 -0.0005313649309567404 0 -0.00077351051937458678 -0.00054632296371191389 0 -0.00083438784422396495 -0.00052121087332351965 0 -0.00081576440665643592 -0.00049733420294097044 0 -0.00077351051937458678 -0.00054632296371191389 0 -0.00081576440665643592 -0.00049733420294097044 0 -0.00077978537778781781 -0.00046611972827701159 0 -0.00068748716338884138 -0.0005313649309567404 0 -0.00086163322062285191 -0.00046949259566085198 0 -0.00081576440665643592 -0.00049733420294097044 0 -0.00077978537778781781 -0.00046611972827701159 0 -0.00043397915934493446 -0.00047539192827796532 0 -0.00044459942131607995 -0.00042739281693046725 0 -0.00046070104922938364 -0.00047279982275992056 0 -0.00068982529721185748 -0.0003517423609821727 0 -0.0006305927421096009 -0.00046881636567814336 0 -0.00057056587530204957 -0.00026091681678150125 0 -0.00068982529721185748 -0.0003517423609821727 0 -0.00044459942131607995 -0.00042739281693046725 0 -0.00048616931810054753 -0.00044436695560245683 0 -0.00046070104922938364 -0.00047279982275992056 0 -0.00072247195480695846 -0.00059936308429173332 0 -0.00057172612541191018 -0.00056106371336408557 0 -0.00068748716338884138 -0.0005313649309567404 0 -0.00054789953819872953 -0.00066185806008457922 0 -0.00072247195480695846 -0.00059936308429173332 0 -0.00057172612541191018 -0.00056106371336408557 0 -0.00072247195480695846 -0.00059936308429173332 0 -0.00068748716338884138 -0.0005313649309567404 0 -0.00077351051937458678 -0.00054632296371191389 0 -0.00077978537778781781 -0.00046611972827701159 0 -0.00068748716338884138 -0.0005313649309567404 0 -0.00056339668621749231 -0.00048588794768849485 0 -0.00057172612541191018 -0.00056106371336408557 0 -0.00068748716338884138 -0.0005313649309567404 0 -0.00056339668621749231 -0.00048588794768849485 0 -0.0006305927421096009 -0.00046881636567814336 0 -0.00057955619969978433 -0.0004761818792772864 0 -0.00057172612541191018 -0.00056106371336408557 0 -0.00056339668621749231 -0.00048588794768849485 0 -0.00043193937183399128 -0.00053831551370666611 0 -0.00056339668621749231 -0.00048588794768849485 0 -0.00046681226361262743 -0.00051386924187576716 0 -0.00043193937183399128 -0.00053831551370666611 0 -0.00056339668621749231 -0.00048588794768849485 0 -0.0004828929209180468 -0.00051169228015533307 0 -0.00046681226361262743 -0.00051386924187576716 0 -0.00056339668621749231 -0.00048588794768849485 0 -0.0004828929209180468 -0.00051169228015533307 0 -0.0004797894563572172 -0.00049697595173145784 0 -0.0004828929209180468 -0.00051169228015533307 0 -0.00042982493957717017 -0.00051562103239191593 0 -0.00046681226361262743 -0.00051386924187576716 0 -0.00042982493957717017 -0.00051562103239191593 0 -0.00046681226361262743 -0.00051386924187576716 0 -0.00039777027323312843 -0.00052795466479441111 0 -0.00043397915934493446 -0.00047539192827796532 0 -0.00046070104922938364 -0.00047279982275992056 0 -0.00045165436704773775 -0.00049029949892324455 0 -0.00043397915934493446 -0.00047539192827796532 0 -0.00043854758037003774 -0.00049022044971753717 0 -0.00045165436704773775 -0.00049029949892324455 0 -0.00048616931810054753 -0.00044436695560245683 0 -0.00046070104922938364 -0.00047279982275992056 0 -0.0004797894563572172 -0.00049697595173145784 0 -0.00048616931810054753 -0.00044436695560245683 0 -0.00056339668621749231 -0.00048588794768849485 0 -0.0004797894563572172 -0.00049697595173145784 0 -0.00046070104922938364 -0.00047279982275992056 0 -0.0004797894563572172 -0.00049697595173145784 0 -0.00045165436704773775 -0.00049029949892324455 0 -0.0004828929209180468 -0.00051169228015533307 0 -0.0004797894563572172 -0.00049697595173145784 0 -0.00046989222850661805 -0.00050312825312104922 0 -0.0004797894563572172 -0.00049697595173145784 0 -0.00046989222850661805 -0.00050312825312104922 0 -0.00045165436704773775 -0.00049029949892324455 0 -0.00046989222850661805 -0.00050312825312104922 0 -0.00045165436704773775 -0.00049029949892324455 0 -0.00042822323588389579 -0.00049669891309057467 0 -0.00043854758037003774 -0.00049022044971753717 0 -0.00043780965098095615 -0.00049338906926058848 0 -0.00042822323588389579 -0.00049669891309057467 0 -0.00043854758037003774 -0.00049022044971753717 0 -0.00045165436704773775 -0.00049029949892324455 0 -0.00042822323588389579 -0.00049669891309057467 0 -0.00046989222850661805 -0.00050312825312104922 0 -0.00042822323588389579 -0.00049669891309057467 0 -0.00046605389608052051 -0.00050402870340623756 0 -0.00037947122145863402 -0.00038536019821263295 0 -0.00040490580662390271 -0.00044136223488006938 0 -0.00027527154250228696 -0.00037990372338342289 0 -0.00037947122145863402 -0.00038536019821263295 0 -0.00027527154250228696 -0.00037990372338342289 0 -0.0003377822759188789 -0.00034748039611080849 0 -0.00037947122145863402 -0.00038536019821263295 0 -0.0004075759601411598 -0.00037987281805633275 0 -0.00041245000746708025 -0.00041840677490348341 0 -0.00037947122145863402 -0.00038536019821263295 0 -0.0004075759601411598 -0.00037987281805633275 0 -0.0003768618450305028 -0.00035063756186273895 0 -0.00037947122145863402 -0.00038536019821263295 0 -0.0003377822759188789 -0.00034748039611080849 0 -0.0003768618450305028 -0.00035063756186273895 0 -0.00037947122145863402 -0.00038536019821263295 0 -0.00041245000746708025 -0.00041840677490348341 0 -0.00040490580662390271 -0.00044136223488006938 0 -0.00041251089093718692 -0.00048402281941536414 0 -0.00037756659274086694 -0.00044142407831091249 0 -0.00042822323588389579 -0.00049669891309057467 0 -0.00040490580662390271 -0.00044136223488006938 0 -0.00027527154250228696 -0.00037990372338342289 0 -0.00043665522684344478 -0.00048720355230806952 0 -0.00042822323588389579 -0.00049669891309057467 0 -0.00040490580662390271 -0.00044136223488006938 0 -0.00046989222850661805 -0.00050312825312104922 0 -0.00046605389608052051 -0.00050402870340623756 0 -0.00046955588735551765 -0.00049557076823101339 0 -0.00046989222850661805 -0.00050312825312104922 0 -0.00046955588735551765 -0.00049557076823101339 0 -0.00046356406816510233 -0.000500274053907808 0 -0.00046955588735551765 -0.00049557076823101339 0 -0.00046241897085832746 -0.00047527781889919604 0 -0.00044585450845146835 -0.00048428081164107143 0 -0.00046955588735551765 -0.00049557076823101339 0 -0.00046241897085832746 -0.00047527781889919604 0 -0.00047505876525137533 -0.00048468094878848775 0 -0.0004643931071286302 -0.00045507444082613734 0 -0.00047275007004678258 -0.00045381498614768107 0 -0.00047603144862281313 -0.00046962853444245897 0 -0.00047275007004678258 -0.00045381498614768107 0 -0.00047603144862281313 -0.00046962853444245897 0 -0.0004882292623935874 -0.00046816635107026894 0 -0.00046241897085832746 -0.00047527781889919604 0 -0.0004643931071286302 -0.00045507444082613734 0 -0.00047603144862281313 -0.00046962853444245897 0 -0.00046241897085832746 -0.00047527781889919604 0 -0.00047603144862281313 -0.00046962853444245897 0 -0.00047505876525137533 -0.00048468094878848775 0 -0.00047603144862281313 -0.00046962853444245897 0 -0.0004882292623935874 -0.00046816635107026894 0 -0.00047505876525137533 -0.00048468094878848775 0 -0.00019361241090450239 -0.00017191880208112563 0 -0.00016131681502494258 -0.00021550771016727119 0 -0.00022951419726254403 -0.00021175730786831957 0 -0.00027527154250228696 -0.00037990372338342289 0 -0.00016131681502494258 -0.00021550771016727119 0 -0.00022951419726254403 -0.00021175730786831957 0 -0.00046605389608052051 -0.00050402870340623756 0 -0.0004882292623935874 -0.00046816635107026894 0 -0.00047505876525137533 -0.00048468094878848775 0 -0.00046605389608052051 -0.00050402870340623756 0 -0.00046955588735551765 -0.00049557076823101339 0 -0.00047505876525137533 -0.00048468094878848775 0 -0.00037756659274086694 -0.00044142407831091249 0 -0.00031039276897603171 -0.00028684531873596539 0 -0.00031718998476783363 -2.9265286060317879e-06 0 -0.0004155643093520932 -0.00032860016740492555 0 -0.00034329708909719382 -0.00028148180257256893 0 0.0010337749861892239 -3.9387961055762689e-05 0 0.0010224053316550995 -0.00017574885727529037 0 0.0010126081888801577 -0.00012166164978295367 0 -0.00027527154250228696 -0.00037990372338342289 0 -0.00030035168768454497 -0.00031337504386365545 0 -0.00022951419726254403 -0.00021175730786831957 0 -0.00030035168768454497 -0.00031337504386365545 0 -0.00022951419726254403 -0.00021175730786831957 0 -0.00034329708909719382 -0.00028148180257256893 0 -0.00027527154250228696 -0.00037990372338342289 0 -0.00030035168768454497 -0.00031337504386365545 0 -0.0003377822759188789 -0.00034748039611080849 0 -0.00030035168768454497 -0.00031337504386365545 0 -0.00034329708909719382 -0.00028148180257256893 0 -0.0003377822759188789 -0.00034748039611080849 0 -0.00034329708909719382 -0.00028148180257256893 0 -0.0003377822759188789 -0.00034748039611080849 0 -0.0003768618450305028 -0.00035063756186273895 0 -0.0004155643093520932 -0.00032860016740492555 0 -0.00034329708909719382 -0.00028148180257256893 0 -0.0003768618450305028 -0.00035063756186273895 0 -0.0004155643093520932 -0.00032860016740492555 0 -0.0004075759601411598 -0.00037987281805633275 0 -0.0003768618450305028 -0.00035063756186273895 0 -0.00042982493957717017 -0.00051562103239191593 0 -0.0004187731020912152 -0.00049030147108022881 0 -0.00034894999969992444 -0.00051868196232568475 0 -0.0004828929209180468 -0.00051169228015533307 0 -0.00042982493957717017 -0.00051562103239191593 0 -0.0004187731020912152 -0.00049030147108022881 0 -0.00046356406816510233 -0.000500274053907808 0 -0.00044585450845146835 -0.00048428081164107143 0 -0.0004187731020912152 -0.00049030147108022881 0 -0.0004828929209180468 -0.00051169228015533307 0 -0.00046356406816510233 -0.000500274053907808 0 -0.0004187731020912152 -0.00049030147108022881 0 -0.0004828929209180468 -0.00051169228015533307 0 -0.00046989222850661805 -0.00050312825312104922 0 -0.00046356406816510233 -0.000500274053907808 0 -0.00046955588735551765 -0.00049557076823101339 0 -0.00046356406816510233 -0.000500274053907808 0 -0.00044585450845146835 -0.00048428081164107143 0 -0.00044585450845146835 -0.00048428081164107143 0 -0.00043512661679133468 -0.00045654198747563808 0 -0.0004187731020912152 -0.00049030147108022881 0 -0.00046241897085832746 -0.00047527781889919604 0 -0.00044585450845146835 -0.00048428081164107143 0 -0.00043512661679133468 -0.00045654198747563808 0 -0.00046241897085832746 -0.00047527781889919604 0 -0.0004643931071286302 -0.00045507444082613734 0 -0.00043512661679133468 -0.00045654198747563808 0 -0.00038325856093397931 -0.00044240094443127333 0 -0.00043512661679133468 -0.00045654198747563808 0 -0.0004187731020912152 -0.00049030147108022881 0 -0.00038325856093397931 -0.00044240094443127333 0 -0.0004187731020912152 -0.00049030147108022881 0 -0.00032362800750716575 -0.00047802454345109024 0 -0.00019675956720590664 -0.00046089596359543924 0 -0.00026421611279722637 -0.00051327109276652237 0 -0.00014624362920872392 -0.0005346097138882466 0 -0.00032362800750716575 -0.00047802454345109024 0 -0.00019675956720590664 -0.00046089596359543924 0 -0.00026421611279722637 -0.00051327109276652237 0 -0.00026421611279722637 -0.00051327109276652237 0 -0.00030113674148988899 -0.00054924368579860761 0 -0.00014624362920872392 -0.0005346097138882466 0 -0.00026421611279722637 -0.00051327109276652237 0 -0.00034894999969992444 -0.00051868196232568475 0 -0.00030113674148988899 -0.00054924368579860761 0 -0.00032362800750716575 -0.00047802454345109024 0 -0.00026421611279722637 -0.00051327109276652237 0 -0.00034894999969992444 -0.00051868196232568475 0 -0.0004187731020912152 -0.00049030147108022881 0 -0.00032362800750716575 -0.00047802454345109024 0 -0.00034894999969992444 -0.00051868196232568475 0 -0.00042982493957717017 -0.00051562103239191593 0 -0.00034894999969992444 -0.00051868196232568475 0 -0.00039777027323312843 -0.00052795466479441111 0 -0.00034894999969992444 -0.00051868196232568475 0 -0.00039777027323312843 -0.00052795466479441111 0 -0.00030113674148988899 -0.00054924368579860761 0 -0.00039777027323312843 -0.00052795466479441111 0 -0.00030113674148988899 -0.00054924368579860761 0 -0.00043193937183399128 -0.00053831551370666611 0 -0.00031592305371426721 -0.00061371021598128142 0 -0.00043133322397537937 -0.00058177450615950349 0 -0.00034357068376392668 -0.00068948127331168614 0 -0.0003501071612960792 -0.00067489838856514518 0 -0.00041661085856638881 -0.00062415202327921644 0 -0.00038511966048153487 -0.0006388437241749219 0 -0.0003501071612960792 -0.00067489838856514518 0 -0.00041661085856638881 -0.00062415202327921644 0 -0.00046681226361262743 -0.00051386924187576716 0 -0.00039777027323312843 -0.00052795466479441111 0 -0.00043193937183399128 -0.00053831551370666611 0 -0.00036924663186643764 -0.00064408680238179771 0 -0.00037295589939689248 -0.00068566439623439263 0 -0.00044607661090586686 -0.00068031397555225626 0 -0.00036924663186643764 -0.00064408680238179771 0 -0.00037295589939689248 -0.00068566439623439263 0 -0.00035106367478929566 -0.00066372098284632843 0 -0.00037295589939689248 -0.00068566439623439263 0 -0.00035106367478929566 -0.00066372098284632843 0 -0.00026956061844104882 -0.00073453903244947798 0 -0.0003501071612960792 -0.00067489838856514518 0 -0.00035106367478929566 -0.00066372098284632843 0 -0.00026956061844104882 -0.00073453903244947798 0 -0.00038511966048153487 -0.0006388437241749219 0 -0.0003501071612960792 -0.00067489838856514518 0 -0.00035106367478929566 -0.00066372098284632843 0 -0.00034357068376392668 -0.00068948127331168614 0 -0.00026956061844104882 -0.00073453903244947798 0 -0.00011726118318309692 -0.00066950533565692427 0 -0.00034357068376392668 -0.00068948127331168614 0 -0.0003501071612960792 -0.00067489838856514518 0 -0.00026956061844104882 -0.00073453903244947798 0 -0.00026956061844104882 -0.00073453903244947798 0 -0.00011726118318309692 -0.00066950533565692427 0 0.00010969979921951851 -0.00079345900695039029 0 -0.00025404528418137841 -0.00074798189971247455 0 -0.00013948164829662068 -0.00077662091669704325 0 -0.00037295589939689248 -0.00068566439623439263 0 -0.00026956061844104882 -0.00073453903244947798 0 -0.00041252002219450908 -0.0007792804106932313 0 -0.00011726118318309692 -0.00066950533565692427 0 0.00014184607511879481 -0.00061565920714631622 0 0.00010969979921951851 -0.00079345900695039029 0 -0.00011726118318309692 -0.00066950533565692427 0 -0.00014624362920872392 -0.0005346097138882466 0 0.00014184607511879481 -0.00061565920714631622 0 -0.00031592305371426721 -0.00061371021598128142 0 -0.0001653174956674872 -0.00053233022065222796 0 -0.00034357068376392668 -0.00068948127331168614 0 -0.00011726118318309692 -0.00066950533565692427 0 -0.00014624362920872392 -0.0005346097138882466 0 8.1008197532515285e-06 -0.00042972240402437424 0 -0.00019675956720590664 -0.00046089596359543924 0 -0.00014624362920872392 -0.0005346097138882466 0 8.1008197532515285e-06 -0.00042972240402437424 0 -0.00014624362920872392 -0.0005346097138882466 0 0.00014184607511879481 -0.00061565920714631622 0 0.00025382698737238049 -0.00050383508216034168 0 0.00036317726640024795 -0.00059481018433020125 0 0.00014184607511879481 -0.00061565920714631622 0 8.1008197532515285e-06 -0.00042972240402437424 0 0.00025382698737238049 -0.00050383508216034168 0 0.00014184607511879481 -0.00061565920714631622 0 0.00043793766524695887 -0.00048814484274571212 0 0.00025382698737238049 -0.00050383508216034168 0 0.00036317726640024795 -0.00059481018433020125 0 0.00043793766524695887 -0.00048814484274571212 0 0.00036317726640024795 -0.00059481018433020125 0 0.00050800408908248135 -0.00061006543957275246 0 0.00036317726640024795 -0.00059481018433020125 0 0.00042476033831854244 -0.00074984570905398346 0 0.00014184607511879481 -0.00061565920714631622 0 0.00036317726640024795 -0.00059481018433020125 0 0.00042476033831854244 -0.00074984570905398346 0 0.00050800408908248135 -0.00061006543957275246 0 -8.5819070950665996e-05 -0.00077339132169622468 0 -0.00013948164829662068 -0.00077662091669704325 0 0.00042476033831854244 -0.00074984570905398346 0 0.00014184607511879481 -0.00061565920714631622 0 0.00010969979921951851 -0.00079345900695039029 0 0.00086067989267784618 -0.00068137892595348159 0 0.0010507490113071606 -0.00079316206457427435 0 0.0010258434791805455 -0.00091410428719310675 0 0.0010507490113071606 -0.00079316206457427435 0 0.0010258434791805455 -0.00091410428719310675 0 0.0012402674394264496 -0.00083233049260020688 0 0.00086067989267784618 -0.00068137892595348159 0 0.0010546729321614463 -0.00059210877401989054 0 0.0010507490113071606 -0.00079316206457427435 0 0.00043793766524695887 -0.00048814484274571212 0 0.00056631910400424383 -0.00049230674173348277 0 0.00050800408908248135 -0.00061006543957275246 0 0.00056631910400424383 -0.00049230674173348277 0 0.00050800408908248135 -0.00061006543957275246 0 0.00066177333078106459 -0.00067632189856492604 0 0.00077934226958293197 -0.00060085981475854441 0 0.00026721463958453154 -0.00082900041228631195 0 -0.00050650666891236755 -0.00080427112818564652 0 -0.00058853845624684965 -0.00080717873534408757 0 -0.00053144962847931809 -0.0007553044204938466 0 -0.00050650666891236755 -0.00080427112818564652 0 -0.00057649195767445812 -0.00082569194267420186 0 -0.00058853845624684965 -0.00080717873534408757 0 0.00042476033831854244 -0.00074984570905398346 0 0.00050800408908248135 -0.00061006543957275246 0 0.00066177333078106459 -0.00067632189856492604 0 -8.5819070950665996e-05 -0.00077339132169622468 0 0.00026721463958453154 -0.00082900041228631195 0 0.00026721463958453154 -0.00082900041228631195 0 0.0012360017874966875 -0.00059695330757810437 0 -7.9010088118319435e-05 -0.00075998547948262084 0 0.00010058865480211727 -0.0010917066598736119 0 0.0010060064149508563 -0.00044022753962070268 0 0.00026721463958453154 -0.00082900041228631195 0 -0.00046130960971782882 -0.00089061142633046 0 -0.00046130960971782882 -0.00089061142633046 0 -0.0005542327841960166 -0.0011002880180590851 0 -0.0020351648558752326 -0.00153371734324258 0 -0.002032070841261955 -0.0014615289589351766 0 -0.0021173454891774885 -0.0014382816032681345 0 -0.00046130960971782882 -0.00089061142633046 0 -0.0014139706971337176 -0.0011950552689146186 0 -0.002032070841261955 -0.0014615289589351766 0 -0.0019516125046848268 -0.0014667319828043078 0 -0.00200418324888568 -0.001408039239192953 0 -0.0020351648558752326 -0.00153371734324258 0 -0.002032070841261955 -0.0014615289589351766 0 -0.0019516125046848268 -0.0014667319828043078 0 -0.0019516125046848268 -0.0014667319828043078 0 -0.00200418324888568 -0.001408039239192953 0 -0.0019420315180776408 -0.0013830200880736703 0 -0.00200418324888568 -0.001408039239192953 0 -0.0019420315180776408 -0.0013830200880736703 0 -0.0020133023340507396 -0.0013508596911797424 0 -0.002032070841261955 -0.0014615289589351766 0 -0.00200418324888568 -0.001408039239192953 0 -0.0020915240597893675 -0.0013727757824047312 0 -0.00200418324888568 -0.001408039239192953 0 -0.0020133023340507396 -0.0013508596911797424 0 -0.0020915240597893675 -0.0013727757824047312 0 -0.002032070841261955 -0.0014615289589351766 0 -0.0020915240597893675 -0.0013727757824047312 0 -0.0021173454891774885 -0.0014382816032681345 0 -0.00050650666891236755 -0.00080427112818564652 0 -0.00041252002219450908 -0.0007792804106932313 0 -0.00047084310606239268 -0.0007585777636705198 0 -0.00041252002219450908 -0.0007792804106932313 0 -0.00047084310606239268 -0.0007585777636705198 0 -0.00044607661090586686 -0.00068031397555225626 0 -0.00053144962847931809 -0.0007553044204938466 0 -0.00047084310606239268 -0.0007585777636705198 0 -0.00044607661090586686 -0.00068031397555225626 0 -0.00050650666891236755 -0.00080427112818564652 0 -0.00053144962847931809 -0.0007553044204938466 0 -0.00047084310606239268 -0.0007585777636705198 0 -0.0014139706971337176 -0.0011950552689146186 0 -0.001117644097492852 -0.0010203284866206498 0 -0.0019516125046848268 -0.0014667319828043078 0 -0.0019420315180776408 -0.0013830200880736703 0 -0.0018652553312026121 -0.0013984240760624501 0 -0.00037295589939689248 -0.00068566439623439263 0 -0.00041252002219450908 -0.0007792804106932313 0 -0.00044607661090586686 -0.00068031397555225626 0 -0.00174641885308696 -0.0013537761457289898 0 -0.0018652553312026121 -0.0013984240760624501 0 -0.0018309207979017592 -0.0013105183400744355 0 -0.0018309207979017592 -0.0013105183400744355 0 -0.0019144300746317625 -0.0012630097994399477 0 -0.0018995147256044543 -0.0013349264275986481 0 -0.0010634849638642657 -0.0010017397450971667 0 -0.001117644097492852 -0.0010203284866206498 0 -0.0018652553312026121 -0.0013984240760624501 0 -0.0018309207979017592 -0.0013105183400744355 0 -0.0018995147256044543 -0.0013349264275986481 0 -0.0018309207979017592 -0.0013105183400744355 0 -0.002075199989757279 -0.001210352904734476 0 -0.0019107812048578909 -0.0011277975938873322 0 -0.001841431965027419 -0.0013045159771173536 0 -0.0019918346275722 -0.0012366168823542589 0 -0.0019144300746317625 -0.0012630097994399477 0 -0.0018995147256044543 -0.0013349264275986481 0 -0.0019539305204236473 -0.0013216254921457654 0 -0.0019420315180776408 -0.0013830200880736703 0 -0.0018652553312026121 -0.0013984240760624501 0 -0.0018995147256044543 -0.0013349264275986481 0 -0.0019420315180776408 -0.0013830200880736703 0 -0.0018995147256044543 -0.0013349264275986481 0 -0.0019539305204236473 -0.0013216254921457654 0 -0.0019420315180776408 -0.0013830200880736703 0 -0.0020133023340507396 -0.0013508596911797424 0 -0.0019539305204236473 -0.0013216254921457654 0 -0.0020133023340507396 -0.0013508596911797424 0 -0.0019539305204236473 -0.0013216254921457654 0 -0.0020250968480864024 -0.0012788044397259101 0 -0.0020133023340507396 -0.0013508596911797424 0 -0.0021062746138713236 -0.0012878268153356854 0 -0.0020250968480864024 -0.0012788044397259101 0 -0.0020133023340507396 -0.0013508596911797424 0 -0.0020915240597893675 -0.0013727757824047312 0 -0.0021062746138713236 -0.0012878268153356854 0 -0.0021062746138713236 -0.0012878268153356854 0 -0.0020832884158401331 -0.001221058617518587 0 -0.0021861221835414515 -0.0011141674098413248 0 -0.0021062746138713236 -0.0012878268153356854 0 -0.0020832884158401331 -0.001221058617518587 0 -0.0020250968480864024 -0.0012788044397259101 0 -0.0020832884158401331 -0.001221058617518587 0 -0.0020250968480864024 -0.0012788044397259101 0 -0.0020260059004332982 -0.0011939118732369057 0 -0.0019918346275722 -0.0012366168823542589 0 -0.0021333781737024947 -0.0011595585251730444 0 -0.0019144300746317625 -0.0012630097994399477 0 -0.0019539305204236473 -0.0013216254921457654 0 -0.0020250968480864024 -0.0012788044397259101 0 -0.0019144300746317625 -0.0012630097994399477 0 -0.0020250968480864024 -0.0012788044397259101 0 -0.0020260059004332982 -0.0011939118732369057 0 -0.0022166612548847283 -0.0010753900677094909 0 -0.0021597747597754454 -0.00095741546601065648 0 -0.002074918041150686 -0.0010474000495122818 0 -0.002075199989757279 -0.001210352904734476 0 -0.0022166612548847283 -0.0010753900677094909 0 -0.0022400881290395411 -0.0011240099830035753 0 -0.0022400881290395411 -0.0011240099830035753 0 -0.0022867920784753943 -0.0010448901020643838 0 -0.0023436067307484494 -0.0010718006490499528 0 -0.0020832884158401331 -0.001221058617518587 0 -0.0020260059004332982 -0.0011939118732369057 0 -0.0021861221835414515 -0.0011141674098413248 0 -0.0021333781737024947 -0.0011595585251730444 0 -0.0022680411544015321 -0.0010947538139821913 0 -0.0022166612548847283 -0.0010753900677094909 0 -0.0022400881290395411 -0.0011240099830035753 0 -0.0022867920784753943 -0.0010448901020643838 0 -0.0022867920784753943 -0.0010448901020643838 0 -0.0023627458334713591 -0.0010040674048821462 0 -0.0022647506674080241 -0.00096310227447246783 0 -0.0022166612548847283 -0.0010753900677094909 0 -0.0022867920784753943 -0.0010448901020643838 0 -0.0022647506674080241 -0.00096310227447246783 0 -0.0022189251971280084 -0.0010682784691624396 0 -0.0022703519871709651 -0.0009321071054020437 0 -0.0022166612548847283 -0.0010753900677094909 0 -0.0021597747597754454 -0.00095741546601065648 0 -0.0022775515345081253 -0.00089610510612809135 0 -0.0021597747597754454 -0.00095741546601065648 0 -0.002074918041150686 -0.0010474000495122818 0 -0.0020536959234369488 -0.00090354800021826605 0 -0.0018361715300310567 -0.00091042711242909761 0 -0.002074918041150686 -0.0010474000495122818 0 -0.0020536959234369488 -0.00090354800021826605 0 -0.0018361715300310567 -0.00091042711242909761 0 -0.0019107812048578909 -0.0011277975938873322 0 -0.002074918041150686 -0.0010474000495122818 0 -0.002075199989757279 -0.001210352904734476 0 -0.0019107812048578909 -0.0011277975938873322 0 -0.002074918041150686 -0.0010474000495122818 0 -0.002075199989757279 -0.001210352904734476 0 -0.0022166612548847283 -0.0010753900677094909 0 -0.002074918041150686 -0.0010474000495122818 0 0.0010524010887836147 -0.00063832457212617988 0 0.0010385407986476258 -0.00061969292111203878 0 0.0010382851805195254 -0.00064966936757662318 0 0.0010524010887836147 -0.00063832457212617988 0 0.0010385407986476258 -0.00061969292111203878 0 0.0010562637873983724 -0.00056189305271559539 0 0.0010215211230956288 -0.00063366443291848918 0 0.0010385407986476258 -0.00061969292111203878 0 0.0010382851805195254 -0.00064966936757662318 0 0.0010215211230956288 -0.00063366443291848918 0 0.0010385407986476258 -0.00061969292111203878 0 0.0010234340531711955 -0.00059954645190652344 0 0.0010385407986476258 -0.00061969292111203878 0 0.0010234340531711955 -0.00059954645190652344 0 0.0010562637873983724 -0.00056189305271559539 0 0.0010234340531711955 -0.00059954645190652344 0 0.0010562637873983724 -0.00056189305271559539 0 0.00099872246284687591 -0.00057098830667501094 0 -0.00067332358429754294 -0.00088894972723393842 0 -0.00073775090874676774 -0.00076982283992505136 0 -0.00252838390954176 -0.00098421202354211589 0 -0.0024190550572316949 -0.0010466020235285055 0 -0.0024421326386506728 -0.00096873623819104544 0 -0.0023986187539654555 -0.0011430897498900987 0 -0.00252838390954176 -0.00098421202354211589 0 -0.0024190550572316949 -0.0010466020235285055 0 -0.0024190550572316949 -0.0010466020235285055 0 -0.0023627458334713591 -0.0010040674048821462 0 -0.0023436067307484494 -0.0010718006490499528 0 -0.0024190550572316949 -0.0010466020235285055 0 -0.0023627458334713591 -0.0010040674048821462 0 -0.0024421326386506728 -0.00096873623819104544 0 -0.0022867920784753943 -0.0010448901020643838 0 -0.0023627458334713591 -0.0010040674048821462 0 -0.0023436067307484494 -0.0010718006490499528 0 -0.0023986187539654555 -0.0011430897498900987 0 -0.0024190550572316949 -0.0010466020235285055 0 -0.0021861221835414515 -0.0011141674098413248 0 -0.0024074889869053614 -0.0010479985627727794 0 -0.0022680411544015321 -0.0010947538139821913 0 -0.00067332358429754294 -0.00088894972723393842 0 -0.00060341016238293888 -0.00098844741849047181 0 0.0010524010887836147 -0.00063832457212617988 0 0.001038880568958884 -0.00067718935753494503 0 0.0010423422150330191 -0.00067048387357251395 0 -0.0023986187539654555 -0.0011430897498900987 0 -0.0021861221835414515 -0.0011141674098413248 0 -0.0022382222411537725 -0.0013251137354093167 0 -0.0021062746138713236 -0.0012878268153356854 0 -0.0021861221835414515 -0.0011141674098413248 0 -0.0022382222411537725 -0.0013251137354093167 0 -0.0020915240597893675 -0.0013727757824047312 0 -0.0022382222411537725 -0.0013251137354093167 0 -0.0021173454891774885 -0.0014382816032681345 0 -0.0020915240597893675 -0.0013727757824047312 0 -0.0021062746138713236 -0.0012878268153356854 0 -0.0022382222411537725 -0.0013251137354093167 0 0.001038880568958884 -0.00067718935753494503 0 0.0010423422150330191 -0.00067048387357251395 0 0.001042720955965205 -0.0006801713574263198 0 0.0010423422150330191 -0.00067048387357251395 0 0.0010464595511289962 -0.00068032448456227068 0 0.001042720955965205 -0.0006801713574263198 0 0.0010423422150330191 -0.00067048387357251395 0 0.0010377688967502703 -0.00066883959108365474 0 0.0010464595511289962 -0.00068032448456227068 0 0.0010524010887836147 -0.00063832457212617988 0 0.0010423422150330191 -0.00067048387357251395 0 0.0010382851805195254 -0.00064966936757662318 0 0.0010423422150330191 -0.00067048387357251395 0 0.0010382851805195254 -0.00064966936757662318 0 0.0010377688967502703 -0.00066883959108365474 0 0.0010382851805195254 -0.00064966936757662318 0 0.0010269720010462619 -0.00065760622680416543 0 0.0010377688967502703 -0.00066883959108365474 0 0.0010215211230956288 -0.00063366443291848918 0 0.0010382851805195254 -0.00064966936757662318 0 0.0010269720010462619 -0.00065760622680416543 0 0.0010269720010462619 -0.00065760622680416543 0 0.0010377688967502703 -0.00066883959108365474 0 0.0010301084894531432 -0.00067119350573796913 0 0.0010377688967502703 -0.00066883959108365474 0 0.0010464595511289962 -0.00068032448456227068 0 0.0010301084894531432 -0.00067119350573796913 0 0.0010464595511289962 -0.00068032448456227068 0 0.0010626697995166482 -0.00068357587304250945 0 0.0010563887861129925 -0.00068154725828986813 0 0.0010464595511289962 -0.00068032448456227068 0 0.001048875213243703 -0.00068287496077755689 0 0.0010626697995166482 -0.00068357587304250945 0 0.0010464595511289962 -0.00068032448456227068 0 0.0010410097894710602 -0.00067784795613492935 0 0.0010563887861129925 -0.00068154725828986813 0 0.0010464595511289962 -0.00068032448456227068 0 0.0010410097894710602 -0.00067784795613492935 0 0.0010301084894531432 -0.00067119350573796913 0 0.0010464595511289962 -0.00068032448456227068 0 0.001042720955965205 -0.0006801713574263198 0 0.001048875213243703 -0.00068287496077755689 0 0.001048875213243703 -0.00068287496077755689 0 0.0010401645418324115 -0.00067560942181220157 0 0.0010601228020632567 -0.00068017294281121521 0 0.001048875213243703 -0.00068287496077755689 0 0.0010626697995166482 -0.00068357587304250945 0 0.0010601228020632567 -0.00068017294281121521 0 0.0010626697995166482 -0.00068357587304250945 0 0.0010813111209901222 -0.000684228020488314 0 0.0010601228020632567 -0.00068017294281121521 0 0.0010626697995166482 -0.00068357587304250945 0 0.0010813111209901222 -0.000684228020488314 0 0.0010762802000787732 -0.00068096971391464845 0 0.0010626697995166482 -0.00068357587304250945 0 0.0010563887861129925 -0.00068154725828986813 0 0.0010762802000787732 -0.00068096971391464845 0 0.001038880568958884 -0.00067718935753494503 0 0.0010153814409123898 -0.00068619983749541251 0 0.0010340872975943859 -0.00068275149622988108 0 -0.00060341016238293888 -0.00098844741849047181 0 -0.0005542327841960166 -0.0011002880180590851 0 0.001042720955965205 -0.0006801713574263198 0 0.001048875213243703 -0.00068287496077755689 0 0.0010340872975943859 -0.00068275149622988108 0 0.001038880568958884 -0.00067718935753494503 0 0.001042720955965205 -0.0006801713574263198 0 0.0010340872975943859 -0.00068275149622988108 0 0.0010340872975943859 -0.00068275149622988108 0 0.0010401645418324115 -0.00067560942181220157 0 0.0010224860727599261 -0.00067262484475470654 0 0.001048875213243703 -0.00068287496077755689 0 0.0010340872975943859 -0.00068275149622988108 0 0.0010401645418324115 -0.00067560942181220157 0 0.0010153814409123898 -0.00068619983749541251 0 0.0010340872975943859 -0.00068275149622988108 0 0.0010224860727599261 -0.00067262484475470654 0 0.00098885155853313967 -0.00066883948575721067 0 0.0010153814409123898 -0.00068619983749541251 0 0.0010224860727599261 -0.00067262484475470654 0 0.00098885155853313967 -0.00066883948575721067 0 0.0010224860727599261 -0.00067262484475470654 0 0.0010169140286260148 -0.00065457261658457991 0 -0.00046130960971782882 -0.00089061142633046 0 0.0012360017874966875 -0.00059695330757810437 0 0.0010224860727599261 -0.00067262484475470654 0 0.001034522633347569 -0.00066476992311696834 0 0.0010169140286260148 -0.00065457261658457991 0 0.0010401645418324115 -0.00067560942181220157 0 0.0010224860727599261 -0.00067262484475470654 0 0.001034522633347569 -0.00066476992311696834 0 0.0010401645418324115 -0.00067560942181220157 0 0.001034522633347569 -0.00066476992311696834 0 0.0010486319587858866 -0.00066811016487895963 0 0.001525295740679644 -0.0005185532161016723 0 0.0014185969768023951 -0.00058502854993299684 0 0.0015265191469108381 -0.00055449139480036791 0 0.0014507902176008212 -0.00064544190116282434 0 0.0012835886596334 -0.00067811094125790701 0 0.0012402674394264496 -0.00083233049260020688 0 0.0015002191792971001 -0.00059877583226415349 0 0.0012360017874966875 -0.00059695330757810437 0 0.001034522633347569 -0.00066476992311696834 0 0.0010169140286260148 -0.00065457261658457991 0 0.0010443782955971298 -0.00065181081074607863 0 0.0012360017874966875 -0.00059695330757810437 0 0.0012788516769750996 -0.00060404356148175439 0 0.0012835886596334 -0.00067811094125790701 0 0.0010507490113071606 -0.00079316206457427435 0 0.0012402674394264496 -0.00083233049260020688 0 0.0010755089220850129 -0.00067562803896033859 0 0.0010813111209901222 -0.000684228020488314 0 0.001119776386546709 -0.00068349368977244248 0 0.0010755089220850129 -0.00067562803896033859 0 0.0011142568485494923 -0.00068026358469923951 0 0.001119776386546709 -0.00068349368977244248 0 0.0010755089220850129 -0.00067562803896033859 0 0.0010813111209901222 -0.000684228020488314 0 0.0010601228020632567 -0.00068017294281121521 0 0.0010401645418324115 -0.00067560942181220157 0 0.0010601228020632567 -0.00068017294281121521 0 0.0010486319587858866 -0.00066811016487895963 0 0.0010755089220850129 -0.00067562803896033859 0 0.0010601228020632567 -0.00068017294281121521 0 0.0010486319587858866 -0.00066811016487895963 0 0.0010755089220850129 -0.00067562803896033859 0 0.0010486319587858866 -0.00066811016487895963 0 0.0010577155943432288 -0.00065959139312775979 0 0.0013453437039027119 -0.00056668395361712364 0 0.0012788516769750996 -0.00060404356148175439 0 0.0010577155943432288 -0.00065959139312775979 0 0.0010443782955971298 -0.00065181081074607863 0 0.0010666855006546431 -0.00065109566291854046 0 0.0015987790742870171 -0.00052023934421504918 0 0.001525295740679644 -0.0005185532161016723 0 0.0015265191469108381 -0.00055449139480036791 0 0.0010486319587858866 -0.00066811016487895963 0 0.0010577155943432288 -0.00065959139312775979 0 0.0010443782955971298 -0.00065181081074607863 0 0.001034522633347569 -0.00066476992311696834 0 0.0010486319587858866 -0.00066811016487895963 0 0.0010443782955971298 -0.00065181081074607863 0 0.0010723659646773938 -0.00060858651062596625 0 0.0010443782955971298 -0.00065181081074607863 0 0.0010666855006546431 -0.00065109566291854046 0 0.0010755089220850129 -0.00067562803896033859 0 0.0010577155943432288 -0.00065959139312775979 0 0.0010666855006546431 -0.00065109566291854046 0 0.0010755089220850129 -0.00067562803896033859 0 0.0010666855006546431 -0.00065109566291854046 0 0.0011142568485494923 -0.00068026358469923951 0 0.0010723659646773938 -0.00060858651062596625 0 0.0010666855006546431 -0.00065109566291854046 0 0.0011142568485494923 -0.00068026358469923951 0 0.0011142568485494923 -0.00068026358469923951 0 0.0012341044605617723 -0.00069510790241876952 0 0.001119776386546709 -0.00068349368977244248 0 0.0012341044605617723 -0.00069510790241876952 0 0.001119776386546709 -0.00068349368977244248 0 0.0011055248617540259 -0.00066794561219072463 0 0.0010723659646773938 -0.00060858651062596625 0 0.0011142568485494923 -0.00068026358469923951 0 0.0012341044605617723 -0.00069510790241876952 0 0.001119776386546709 -0.00068349368977244248 0 0.0011055248617540259 -0.00066794561219072463 0 0.0010708682266822379 -0.00067423285819574969 0 0.001119776386546709 -0.00068349368977244248 0 0.0010762802000787732 -0.00068096971391464845 0 0.0010708682266822379 -0.00067423285819574969 0 0.0010813111209901222 -0.000684228020488314 0 0.001119776386546709 -0.00068349368977244248 0 0.0010762802000787732 -0.00068096971391464845 0 0.0011055248617540259 -0.00066794561219072463 0 0.0010515703108223999 -0.00067009201371568067 0 0.0010708682266822379 -0.00067423285819574969 0 0.0011055248617540259 -0.00066794561219072463 0 0.0010655126158220446 -0.00067243613892220219 0 0.0010515703108223999 -0.00067009201371568067 0 0.0010528059158506084 -0.00070748983102511813 0 0.0012341044605617723 -0.00069510790241876952 0 0.0010906108566825228 -0.00067939700871579392 0 0.0012341044605617723 -0.00069510790241876952 0 0.0011055248617540259 -0.00066794561219072463 0 0.0010906108566825228 -0.00067939700871579392 0 0.0011055248617540259 -0.00066794561219072463 0 0.0010906108566825228 -0.00067939700871579392 0 0.0010655126158220446 -0.00067243613892220219 0 0.0010528059158506084 -0.00070748983102511813 0 0.0010906108566825228 -0.00067939700871579392 0 0.0010449626372706507 -0.0006772893101861041 0 0.0010449626372706507 -0.0006772893101861041 0 0.0010655126158220446 -0.00067243613892220219 0 0.0010381359062328775 -0.00067273191041270321 0 0.0010906108566825228 -0.00067939700871579392 0 0.0010449626372706507 -0.0006772893101861041 0 0.0010655126158220446 -0.00067243613892220219 0 0.0010513390690572715 -0.00063643967696486235 0 0.0010394738466682541 -0.00066419168746034327 0 0.0010357690631565446 -0.00066739054628660202 0 0.0010394738466682541 -0.00066419168746034327 0 0.0010449626372706507 -0.0006772893101861041 0 0.0010357690631565446 -0.00066739054628660202 0 0.0010449626372706507 -0.0006772893101861041 0 0.0010357690631565446 -0.00066739054628660202 0 0.0010381359062328775 -0.00067273191041270321 0 0.0010357690631565446 -0.00066739054628660202 0 0.0010278987463549359 -0.00067642222310505579 0 0.0010381359062328775 -0.00067273191041270321 0 0.0010278987463549359 -0.00067642222310505579 0 0.0010381359062328775 -0.00067273191041270321 0 0.0010243388236496698 -0.00067313766601767892 0 0.0010381359062328775 -0.00067273191041270321 0 0.0010515703108223999 -0.00067009201371568067 0 0.0010243388236496698 -0.00067313766601767892 0 0.0010655126158220446 -0.00067243613892220219 0 0.0010381359062328775 -0.00067273191041270321 0 0.0010515703108223999 -0.00067009201371568067 0 0.0010243388236496698 -0.00067313766601767892 0 0.0010259718862979954 -0.00067372451532401133 0 0.0010020619622351675 -0.00067344119697781209 0 0.0010515703108223999 -0.00067009201371568067 0 0.0010243388236496698 -0.00067313766601767892 0 0.0010259718862979954 -0.00067372451532401133 0 0.0010278987463549359 -0.00067642222310505579 0 0.0010243388236496698 -0.00067313766601767892 0 0.001005640633466501 -0.00067494161772148169 0 0.0010243388236496698 -0.00067313766601767892 0 0.001005640633466501 -0.00067494161772148169 0 0.0010020619622351675 -0.00067344119697781209 0 0.0010020619622351675 -0.00067344119697781209 0 0.00099083078326620238 -0.00067206461916039916 0 0.00096897957204603816 -0.00067028155188672068 0 0.001005640633466501 -0.00067494161772148169 0 0.0010020619622351675 -0.00067344119697781209 0 0.00096897957204603816 -0.00067028155188672068 0 0.0010259718862979954 -0.00067372451532401133 0 0.0010020619622351675 -0.00067344119697781209 0 0.00099083078326620238 -0.00067206461916039916 0 0.0010259718862979954 -0.00067372451532401133 0 0.0010171511500803492 -0.00067370924570758122 0 0.00099083078326620238 -0.00067206461916039916 0 0.0010259718862979954 -0.00067372451532401133 0 0.0010494887323825102 -0.00067769000068836885 0 0.0010171511500803492 -0.00067370924570758122 0 0.0010410097894710602 -0.00067784795613492935 0 0.0010494887323825102 -0.00067769000068836885 0 0.0010171511500803492 -0.00067370924570758122 0 0.0010410097894710602 -0.00067784795613492935 0 0.0010563887861129925 -0.00068154725828986813 0 0.0010494887323825102 -0.00067769000068836885 0 0.0010563887861129925 -0.00068154725828986813 0 0.0010494887323825102 -0.00067769000068836885 0 0.0010762802000787732 -0.00068096971391464845 0 0.0010494887323825102 -0.00067769000068836885 0 0.0010762802000787732 -0.00068096971391464845 0 0.0010708682266822379 -0.00067423285819574969 0 0.0010515703108223999 -0.00067009201371568067 0 0.0010259718862979954 -0.00067372451532401133 0 0.0010708682266822379 -0.00067423285819574969 0 0.0010259718862979954 -0.00067372451532401133 0 0.0010494887323825102 -0.00067769000068836885 0 0.0010708682266822379 -0.00067423285819574969 0 0.0014918476812613376 -0.00036802761592895291 0 0.0014970713182524402 -0.00035301259248002624 0 0.0014757230821295919 -0.00034692588171095044 0 0.0015084709253964574 -0.00035751996317076584 0 0.0014918476812613376 -0.00036802761592895291 0 0.0014970713182524402 -0.00035301259248002624 0 0.0015071325091653316 -0.00033987009838155321 0 0.0014970713182524402 -0.00035301259248002624 0 0.0014757230821295919 -0.00034692588171095044 0 0.0015186955476439387 -0.0004289274856584134 0 0.001336299507408843 -0.00046867642824869379 0 0.001533579116393556 -0.00051170508124315315 0 0.0013597257503055668 -0.0005655036439774538 0 0.0012391398059090942 -0.00063381362664851671 0 0.0010966171050296567 -0.00057965669545249768 0 0.0013597257503055668 -0.0005655036439774538 0 0.0012391398059090942 -0.00063381362664851671 0 0.0012391398059090942 -0.00063381362664851671 0 0.0012104393306534558 -0.000643127072641772 0 0.001103278912061096 -0.00063434341025328273 0 0.001336299507408843 -0.00046867642824869379 0 0.0013087147128108749 -0.00048283693675178763 0 0.001217262523911612 -0.00063771536178740056 0 0.0012104393306534558 -0.000643127072641772 0 0.0011645893528456418 -0.00069195944194109171 0 0.0012104393306534558 -0.000643127072641772 0 0.0011645893528456418 -0.00069195944194109171 0 0.001103278912061096 -0.00063434341025328273 0 0.0011645893528456418 -0.00069195944194109171 0 0.0012148719753887528 -0.00074527079468056899 0 0.0011812818995021407 -0.00083320213211688103 0 0.0014085596194830768 -0.00058319190928630244 0 0.001336299507408843 -0.00046867642824869379 0 0.0011645893528456418 -0.00069195944194109171 0 0.0010841485340938087 -0.00068793078272851558 0 0.0011812818995021407 -0.00083320213211688103 0 0.0012748453329507817 -0.00076755227503139828 0 0.001217262523911612 -0.00063771536178740056 0 0.0012148719753887528 -0.00074527079468056899 0 0.001217262523911612 -0.00063771536178740056 0 0.0011645893528456418 -0.00069195944194109171 0 0.0012148719753887528 -0.00074527079468056899 0 0.0010841485340938087 -0.00068793078272851558 0 0.0010349953501979992 -0.00068366081709411405 0 0.0010001664597901374 -0.0006779716238840013 0 0.0010841485340938087 -0.00068793078272851558 0 0.0010397597137113748 -0.00067946393132670699 0 0.0010349953501979992 -0.00068366081709411405 0 0.0010719000202656494 -0.00068622597452980326 0 0.001118599641946887 -0.00075104488198571013 0 0.0010841485340938087 -0.00068793078272851558 0 0.0010558490190929165 -0.00066133325176450503 0 0.0010397597137113748 -0.00067946393132670699 0 0.0010513390690572715 -0.00063643967696486235 0 0.001103278912061096 -0.00063434341025328273 0 0.0010558490190929165 -0.00066133325176450503 0 0.0011645893528456418 -0.00069195944194109171 0 0.0010841485340938087 -0.00068793078272851558 0 0.001103278912061096 -0.00063434341025328273 0 0.0010966171050296567 -0.00057965669545249768 0 0.0012391398059090942 -0.00063381362664851671 0 0.001103278912061096 -0.00063434341025328273 0 0.0010841485340938087 -0.00068793078272851558 0 0.001103278912061096 -0.00063434341025328273 0 0.0010558490190929165 -0.00066133325176450503 0 0.0010513390690572715 -0.00063643967696486235 0 0.0010357690631565446 -0.00066739054628660202 0 0.0010558490190929165 -0.00066133325176450503 0 0.0010357690631565446 -0.00066739054628660202 0 0.0010558490190929165 -0.00066133325176450503 0 0.0010397597137113748 -0.00067946393132670699 0 0.0010397597137113748 -0.00067946393132670699 0 0.0010187823325580761 -0.00067940076352032285 0 0.0010349953501979992 -0.00068366081709411405 0 0.0010278987463549359 -0.00067642222310505579 0 0.0010397597137113748 -0.00067946393132670699 0 0.0010187823325580761 -0.00067940076352032285 0 0.0010357690631565446 -0.00066739054628660202 0 0.0010278987463549359 -0.00067642222310505579 0 0.0010397597137113748 -0.00067946393132670699 0 0.0010187823325580761 -0.00067940076352032285 0 0.00099164323217928096 -0.00067322048857635373 0 0.0010077174433028736 -0.00067635531229051106 0 0.0010278987463549359 -0.00067642222310505579 0 0.001005640633466501 -0.00067494161772148169 0 0.0010187823325580761 -0.00067940076352032285 0 0.001005640633466501 -0.00067494161772148169 0 0.0010187823325580761 -0.00067940076352032285 0 0.00099164323217928096 -0.00067322048857635373 0 0.001005640633466501 -0.00067494161772148169 0 0.00099164323217928096 -0.00067322048857635373 0 0.00096897957204603816 -0.00067028155188672068 0 0.0009834350353496034 -0.00067257069697804434 0 0.0010077174433028736 -0.00067635531229051106 0 0.0010001664597901374 -0.0006779716238840013 0 0.00099164323217928096 -0.00067322048857635373 0 0.0009834350353496034 -0.00067257069697804434 0 0.0010077174433028736 -0.00067635531229051106 0 0.0010077174433028736 -0.00067635531229051106 0 0.0010349953501979992 -0.00068366081709411405 0 0.0010001664597901374 -0.0006779716238840013 0 0.0010187823325580761 -0.00067940076352032285 0 0.0010077174433028736 -0.00067635531229051106 0 0.0010349953501979992 -0.00068366081709411405 0 0.0012148719753887528 -0.00074527079468056899 0 0.0011812818995021407 -0.00083320213211688103 0 0.0012499345042780784 -0.00082103039519954544 0 0.0011812818995021407 -0.00083320213211688103 0 0.0012550154529342953 -0.00086788023751278474 0 0.0012499345042780784 -0.00082103039519954544 0 0.0011812818995021407 -0.00083320213211688103 0 0.0012550154529342953 -0.00086788023751278474 0 0.0012616332973253068 -0.00089745872076518306 0 0.0009834350353496034 -0.00067257069697804434 0 0.0010001664597901374 -0.0006779716238840013 0 0.00098797536170486494 -0.00067595813125599386 0 0.001118599641946887 -0.00075104488198571013 0 0.00090988210968758973 -0.00084977535215257391 0 0.0011812818995021407 -0.00083320213211688103 0 0.0012616332973253068 -0.00089745872076518306 0 0.0012349109725989693 -0.00094205304590308753 0 0.0013341755818599523 -0.00087956767007522614 0 0.0012616332973253068 -0.00089745872076518306 0 0.0012545366187526384 -0.00094703680236887008 0 0.0013341755818599523 -0.00087956767007522614 0 0.0012550154529342953 -0.00086788023751278474 0 0.0012499345042780784 -0.00082103039519954544 0 0.0013341755818599523 -0.00087956767007522614 0 0.0012550154529342953 -0.00086788023751278474 0 0.0012616332973253068 -0.00089745872076518306 0 0.0012870537355420188 -0.00059738924848054802 0 0.0007550218952083155 -0.00085299844709168734 0 0.0012870537355420188 -0.00059738924848054802 0 0.0014085596194830768 -0.00058319190928630244 0 0.0013341755818599523 -0.00087956767007522614 0 0.0012748453329507817 -0.00076755227503139828 0 0.0012499345042780784 -0.00082103039519954544 0 0.0012748453329507817 -0.00076755227503139828 0 0.0012148719753887528 -0.00074527079468056899 0 0.0012499345042780784 -0.00082103039519954544 0 0.00024968595127321496 -0.00092782785117654189 0 0.00035677863106825248 -0.00097996671416783823 0 0.00039922260712965928 -0.00084176506187154962 0 0.00024968595127321496 -0.00092782785117654189 0 0.00033216183011670219 -0.0011009295931434955 0 0.00035677863106825248 -0.00097996671416783823 0 0.00022270863430492958 -0.00097591676657726386 0 0.00066327964153629687 -0.0008937997168506971 0 0.00015641818926200355 -0.0010790618123438539 0 0.00024663488524454951 -0.0010290125879841808 0 0.00030655831990138095 -0.0011133767640870114 0 0.00024968595127321496 -0.00092782785117654189 0 0.00024663488524454951 -0.0010290125879841808 0 0.00033062511965372825 -0.0010918495333855135 0 0.00041786281927581735 -0.00087632740301013502 0 0.0007550218952083155 -0.00085299844709168734 0 0.0012616332973253068 -0.00089745872076518306 0 0.0012349109725989693 -0.00094205304590308753 0 0.0012545366187526384 -0.00094703680236887008 0 0.00090988210968758973 -0.00084977535215257391 0 0.0007550218952083155 -0.00085299844709168734 0 0.00077113278385651453 -0.00082842105303108427 0 0.0007510600782192012 -0.00082358532029703515 0 0.00076360721052107997 -0.00081254007937160732 0 0.0007550218952083155 -0.00085299844709168734 0 0.00066327964153629687 -0.0008937997168506971 0 0.00090988210968758973 -0.00084977535215257391 0 0.00066327964153629687 -0.0008937997168506971 0 0.00024663488524454951 -0.0010290125879841808 0 0.00030655831990138095 -0.0011133767640870114 0 0.00033062511965372825 -0.0010918495333855135 0 0.0009834350353496034 -0.00067257069697804434 0 0.00096695707008992687 -0.00067418018489053834 0 0.00097232520794047919 -0.00067089215943228169 0 0.00099594840754030725 -0.000657736427050693 0 0.00090988210968758973 -0.00084977535215257391 0 0.00066327964153629687 -0.0008937997168506971 0 0.00071783718000150007 -0.00082460490249753216 0 0.00033216183011670219 -0.0011009295931434955 0 0.00047394134148213594 -0.00097839361651404287 0 0.00035677863106825248 -0.00097996671416783823 0 0.00096709056814935882 -0.00067255590583579919 0 0.00097232520794047919 -0.00067089215943228169 0 0.00096604096457864909 -0.00067207153435346523 0 0.00096695707008992687 -0.00067418018489053834 0 0.00096709056814935882 -0.00067255590583579919 0 0.00097232520794047919 -0.00067089215943228169 0 0.00047394134148213594 -0.00097839361651404287 0 0.00035677863106825248 -0.00097996671416783823 0 0.00039922260712965928 -0.00084176506187154962 0 0.00096604096457864909 -0.00067207153435346523 0 0.00095977299082982933 -0.00066737807141754001 0 0.00092403569450139219 -0.00067607592967756751 0 0.00047394134148213594 -0.00097839361651404287 0 0.00062476775903182223 -0.00085216527109403621 0 0.00039922260712965928 -0.00084176506187154962 0 0.00071783718000150007 -0.00082460490249753216 0 0.00077573780160940958 -0.00075731729980324449 0 0.0009834350353496034 -0.00067257069697804434 0 0.00097232520794047919 -0.00067089215943228169 0 0.00095977299082982933 -0.00066737807141754001 0 0.00097232520794047919 -0.00067089215943228169 0 0.00096604096457864909 -0.00067207153435346523 0 0.00095977299082982933 -0.00066737807141754001 0 0.00099164323217928096 -0.00067322048857635373 0 0.0009834350353496034 -0.00067257069697804434 0 0.00095977299082982933 -0.00066737807141754001 0 0.00095977299082982933 -0.00066737807141754001 0 0.00096897957204603816 -0.00067028155188672068 0 0.00091100868880683681 -0.00066767347590086519 0 0.00099164323217928096 -0.00067322048857635373 0 0.00095977299082982933 -0.00066737807141754001 0 0.00096897957204603816 -0.00067028155188672068 0 0.00095977299082982933 -0.00066737807141754001 0 0.00092403569450139219 -0.00067607592967756751 0 0.00091100868880683681 -0.00066767347590086519 0 0.00081890818211535429 -0.00067319222575591524 0 0.00092403569450139219 -0.00067607592967756751 0 0.00091100868880683681 -0.00066767347590086519 0 0.00081890818211535429 -0.00067319222575591524 0 0.00063861391269202884 -0.00065785568883525798 0 0.00062476775903182223 -0.00085216527109403621 0 0.00082278381135214834 -0.00068369448156961436 0 0.00077573780160940958 -0.00075731729980324449 0 0.00081890818211535429 -0.00067319222575591524 0 0.00063861391269202884 -0.00065785568883525798 0 0.00069269078448626722 -0.00055697555938429651 0 0.00081890818211535429 -0.00067319222575591524 0 0.00082047199152708605 -0.0005768962101350743 0 0.00069269078448626722 -0.00055697555938429651 0 0.00063861391269202884 -0.00065785568883525798 0 0.00047157125707764547 -0.00068205669483688096 0 0.00053707978004041733 -0.00055226261971902607 0 0.00063861391269202884 -0.00065785568883525798 0 0.00053707978004041733 -0.00055226261971902607 0 0.00069269078448626722 -0.00055697555938429651 0 0.00062476775903182223 -0.00085216527109403621 0 0.00039922260712965928 -0.00084176506187154962 0 0.00047157125707764547 -0.00068205669483688096 0 0.00063861391269202884 -0.00065785568883525798 0 0.00062476775903182223 -0.00085216527109403621 0 0.00047157125707764547 -0.00068205669483688096 0 0.00039922260712965928 -0.00084176506187154962 0 0.00047157125707764547 -0.00068205669483688096 0 0.00035522262621121898 -0.0007259622267475524 0 0.00047157125707764547 -0.00068205669483688096 0 0.00041969240391561492 -0.00056211058897318272 0 0.00053707978004041733 -0.00055226261971902607 0 0.00047157125707764547 -0.00068205669483688096 0 0.00032965024255609182 -0.00062563964354500883 0 0.00041969240391561492 -0.00056211058897318272 0 0.00047157125707764547 -0.00068205669483688096 0 0.00035522262621121898 -0.0007259622267475524 0 0.00032965024255609182 -0.00062563964354500883 0 0.00035522262621121898 -0.0007259622267475524 0 0.00032965024255609182 -0.00062563964354500883 0 0.00023032676197421649 -0.00067828638837473228 0 0.00035522262621121898 -0.0007259622267475524 0 0.00023032676197421649 -0.00067828638837473228 0 0.00026140831113988906 -0.00079177997154455091 0 0.00032965024255609182 -0.00062563964354500883 0 0.00023032676197421649 -0.00067828638837473228 0 0.00020344502193219465 -0.00058262260466764937 0 0.00024968595127321496 -0.00092782785117654189 0 0.00039922260712965928 -0.00084176506187154962 0 0.00026140831113988906 -0.00079177997154455091 0 0.00017262847800104164 -0.00075204691699798647 0 0.00023032676197421649 -0.00067828638837473228 0 0.00026140831113988906 -0.00079177997154455091 0 0.00039922260712965928 -0.00084176506187154962 0 0.00035522262621121898 -0.0007259622267475524 0 0.00026140831113988906 -0.00079177997154455091 0 0.00016285306871168312 -0.00084288576756766744 0 0.00024968595127321496 -0.00092782785117654189 0 0.00026140831113988906 -0.00079177997154455091 0 0.00097519286170175254 -0.00065036327623099461 0 0.00098224235930297272 -0.00066558591095294893 0 0.0009499423174646808 -0.00066047473629503002 0 0.00097519286170175254 -0.00065036327623099461 0 0.0009499423174646808 -0.00066047473629503002 0 0.000943303345954402 -0.00064330067717306867 0 0.00097519286170175254 -0.00065036327623099461 0 0.001005414635735646 -0.00065872422652851184 0 0.00098224235930297272 -0.00066558591095294893 0 0.00097519286170175254 -0.00065036327623099461 0 0.001005414635735646 -0.00065872422652851184 0 0.00099451718726402253 -0.00062822463733322638 0 0.0010215211230956288 -0.00063366443291848918 0 0.0010269720010462619 -0.00065760622680416543 0 0.001005414635735646 -0.00065872422652851184 0 0.0010269720010462619 -0.00065760622680416543 0 0.001005414635735646 -0.00065872422652851184 0 0.0010301084894531432 -0.00067119350573796913 0 0.0010410097894710602 -0.00067784795613492935 0 0.0010301084894531432 -0.00067119350573796913 0 0.0010171511500803492 -0.00067370924570758122 0 0.001005414635735646 -0.00065872422652851184 0 0.0010301084894531432 -0.00067119350573796913 0 0.0010171511500803492 -0.00067370924570758122 0 0.00098224235930297272 -0.00066558591095294893 0 0.0010171511500803492 -0.00067370924570758122 0 0.00099083078326620238 -0.00067206461916039916 0 0.001005414635735646 -0.00065872422652851184 0 0.00098224235930297272 -0.00066558591095294893 0 0.0010171511500803492 -0.00067370924570758122 0 0.00098224235930297272 -0.00066558591095294893 0 0.00095756045949513268 -0.00066903615616101828 0 0.00099083078326620238 -0.00067206461916039916 0 0.00095756045949513268 -0.00066903615616101828 0 0.00099083078326620238 -0.00067206461916039916 0 0.00096897957204603816 -0.00067028155188672068 0 0.00095756045949513268 -0.00066903615616101828 0 0.00096897957204603816 -0.00067028155188672068 0 0.00091100868880683681 -0.00066767347590086519 0 0.00095756045949513268 -0.00066903615616101828 0 0.00091100868880683681 -0.00066767347590086519 0 0.0009499423174646808 -0.00066047473629503002 0 0.00091100868880683681 -0.00066767347590086519 0 0.0009499423174646808 -0.00066047473629503002 0 0.00089787486939117689 -0.00064126120692194048 0 0.00098224235930297272 -0.00066558591095294893 0 0.00095756045949513268 -0.00066903615616101828 0 0.0009499423174646808 -0.00066047473629503002 0 0.0009499423174646808 -0.00066047473629503002 0 0.000943303345954402 -0.00064330067717306867 0 0.00089787486939117689 -0.00064126120692194048 0 0.000943303345954402 -0.00064330067717306867 0 0.00089787486939117689 -0.00064126120692194048 0 0.00095402752013703737 -0.00061305242157121901 0 0.00081890818211535429 -0.00067319222575591524 0 0.00091100868880683681 -0.00066767347590086519 0 0.00089787486939117689 -0.00064126120692194048 0 0.00081890818211535429 -0.00067319222575591524 0 0.00089787486939117689 -0.00064126120692194048 0 0.00082047199152708605 -0.0005768962101350743 0 0.00089787486939117689 -0.00064126120692194048 0 0.00082047199152708605 -0.0005768962101350743 0 0.00090706177201918027 -0.00056926582111576458 0 0.00089787486939117689 -0.00064126120692194048 0 0.00090706177201918027 -0.00056926582111576458 0 0.00095402752013703737 -0.00061305242157121901 0 0.00095521736934956402 -0.00056223787313698398 0 0.00095402752013703737 -0.00061305242157121901 0 0.00099872246284687591 -0.00057098830667501094 0 0.00090706177201918027 -0.00056926582111576458 0 0.00095521736934956402 -0.00056223787313698398 0 0.00095402752013703737 -0.00061305242157121901 0 0.00097519286170175254 -0.00065036327623099461 0 0.00095402752013703737 -0.00061305242157121901 0 0.00099451718726402253 -0.00062822463733322638 0 0.00097519286170175254 -0.00065036327623099461 0 0.000943303345954402 -0.00064330067717306867 0 0.00095402752013703737 -0.00061305242157121901 0 0.0010215211230956288 -0.00063366443291848918 0 0.001005414635735646 -0.00065872422652851184 0 0.00099451718726402253 -0.00062822463733322638 0 0.0010215211230956288 -0.00063366443291848918 0 0.0010234340531711955 -0.00059954645190652344 0 0.00099451718726402253 -0.00062822463733322638 0 0.0010234340531711955 -0.00059954645190652344 0 0.00099451718726402253 -0.00062822463733322638 0 0.00099872246284687591 -0.00057098830667501094 0 0.00095402752013703737 -0.00061305242157121901 0 0.00099451718726402253 -0.00062822463733322638 0 0.00099872246284687591 -0.00057098830667501094 0 0.00095521736934956402 -0.00056223787313698398 0 0.00099872246284687591 -0.00057098830667501094 0 0.00094807610948182384 -0.00048816247922385021 0 0.00099872246284687591 -0.00057098830667501094 0 0.00094807610948182384 -0.00048816247922385021 0 0.0010327892735748287 -0.00044453851431069681 0 0.00094807610948182384 -0.00048816247922385021 0 0.00097463412648086099 -0.00029385561790748509 0 0.0010327892735748287 -0.00044453851431069681 0 0.00090706177201918027 -0.00056926582111576458 0 0.00094807610948182384 -0.00048816247922385021 0 0.00085244218319807782 -0.00050157064608214049 0 0.00090706177201918027 -0.00056926582111576458 0 0.00095521736934956402 -0.00056223787313698398 0 0.00094807610948182384 -0.00048816247922385021 0 0.00082047199152708605 -0.0005768962101350743 0 0.00090706177201918027 -0.00056926582111576458 0 0.00085244218319807782 -0.00050157064608214049 0 0.00082047199152708605 -0.0005768962101350743 0 0.00085244218319807782 -0.00050157064608214049 0 0.00070394841833853409 -0.00044910013782863736 0 0.00077981933098212632 -0.00040698592619325101 0 0.00070394841833853409 -0.00044910013782863736 0 0.00064211180979691182 -0.00034684749107266887 0 0.00085244218319807782 -0.00050157064608214049 0 0.00077981933098212632 -0.00040698592619325101 0 0.00070394841833853409 -0.00044910013782863736 0 0.00085244218319807782 -0.00050157064608214049 0 0.00077981933098212632 -0.00040698592619325101 0 0.00085458953715011681 -0.00036908026770760807 0 0.00094807610948182384 -0.00048816247922385021 0 0.00085244218319807782 -0.00050157064608214049 0 0.00085458953715011681 -0.00036908026770760807 0 0.00085458953715011681 -0.00036908026770760807 0 0.00072618587369371055 -0.00029799774424605523 0 0.00080176609895077767 -0.00022364973667967847 0 0.00077981933098212632 -0.00040698592619325101 0 0.00085458953715011681 -0.00036908026770760807 0 0.00072618587369371055 -0.00029799774424605523 0 0.00077981933098212632 -0.00040698592619325101 0 0.00072618587369371055 -0.00029799774424605523 0 0.00064211180979691182 -0.00034684749107266887 0 0.00072618587369371055 -0.00029799774424605523 0 0.00068457544190417675 -0.00020061293284122047 0 0.00080176609895077767 -0.00022364973667967847 0 -0.00087810672351862102 -0.0005082806384383978 0 -0.00096214709803652649 -0.00036354059177101081 0 0.00094807610948182384 -0.00048816247922385021 0 0.00085458953715011681 -0.00036908026770760807 0 0.00097463412648086099 -0.00029385561790748509 0 0.00080176609895077767 -0.00022364973667967847 0 0.00097463412648086099 -0.00029385561790748509 0 0.00088511580835223423 -0.00012935818709887634 0 -0.0027303450014509595 -0.00072307754037090582 0 -0.0027082245620773022 -0.00063008122627088864 0 -0.0028048822770785891 -0.00060228449753971691 0 -0.00087810672351862102 -0.0005082806384383978 0 -0.00080124890433563173 -0.00064877958027122066 0 0.00085458953715011681 -0.00036908026770760807 0 0.00080176609895077767 -0.00022364973667967847 0 0.00097463412648086099 -0.00029385561790748509 0 0.00028793012936190518 -0.00036788060274728932 0 0.00023946092440368927 -0.00044751858765494862 0 0.000171830790155015 -0.0003105331543439038 0 0.00023946092440368927 -0.00044751858765494862 0 0.00030334100425080527 -0.00052382017142527831 0 0.00033620900829045244 -0.00043701828463538157 0 0.00028793012936190518 -0.00036788060274728932 0 0.00023946092440368927 -0.00044751858765494862 0 0.00033620900829045244 -0.00043701828463538157 0 0.00015284386231114325 -0.0005057215284671884 0 0.00023946092440368927 -0.00044751858765494862 0 0.00030334100425080527 -0.00052382017142527831 0 0.00015284386231114325 -0.0005057215284671884 0 0.00020344502193219465 -0.00058262260466764937 0 0.00030334100425080527 -0.00052382017142527831 0 0.00032965024255609182 -0.00062563964354500883 0 0.00020344502193219465 -0.00058262260466764937 0 0.00030334100425080527 -0.00052382017142527831 0 0.00030334100425080527 -0.00052382017142527831 0 0.00041969240391561492 -0.00056211058897318272 0 0.00044275862596579083 -0.0004632728235919244 0 0.00032965024255609182 -0.00062563964354500883 0 0.00030334100425080527 -0.00052382017142527831 0 0.00041969240391561492 -0.00056211058897318272 0 0.00041969240391561492 -0.00056211058897318272 0 0.00044275862596579083 -0.0004632728235919244 0 0.00053707978004041733 -0.00055226261971902607 0 0.00030334100425080527 -0.00052382017142527831 0 0.00044275862596579083 -0.0004632728235919244 0 0.00033620900829045244 -0.00043701828463538157 0 0.00044275862596579083 -0.0004632728235919244 0 0.00033620900829045244 -0.00043701828463538157 0 0.00040734311313189942 -0.00038069151726462399 0 0.00028793012936190518 -0.00036788060274728932 0 0.00033620900829045244 -0.00043701828463538157 0 0.00040734311313189942 -0.00038069151726462399 0 0.00044275862596579083 -0.0004632728235919244 0 0.00040734311313189942 -0.00038069151726462399 0 0.00050951546231786009 -0.0003530804747282936 0 0.00044275862596579083 -0.0004632728235919244 0 0.00059119491665095508 -0.00045071433072912433 0 0.00050951546231786009 -0.0003530804747282936 0 0.00059119491665095508 -0.00045071433072912433 0 0.00064211180979691182 -0.00034684749107266887 0 0.00050951546231786009 -0.0003530804747282936 0 0.00044275862596579083 -0.0004632728235919244 0 0.00059119491665095508 -0.00045071433072912433 0 0.00053707978004041733 -0.00055226261971902607 0 0.00059119491665095508 -0.00045071433072912433 0 0.00053707978004041733 -0.00055226261971902607 0 0.00069269078448626722 -0.00055697555938429651 0 0.00059119491665095508 -0.00045071433072912433 0 0.00069269078448626722 -0.00055697555938429651 0 0.00070394841833853409 -0.00044910013782863736 0 0.00082047199152708605 -0.0005768962101350743 0 0.00069269078448626722 -0.00055697555938429651 0 0.00070394841833853409 -0.00044910013782863736 0 0.00059119491665095508 -0.00045071433072912433 0 0.00070394841833853409 -0.00044910013782863736 0 0.00064211180979691182 -0.00034684749107266887 0 0.00072618587369371055 -0.00029799774424605523 0 0.00064211180979691182 -0.00034684749107266887 0 0.00059204215473868398 -0.00023736411608279014 0 0.00068457544190417675 -0.00020061293284122047 0 0.00059204215473868398 -0.00023736411608279014 0 0.00060609496372896734 -0.00013867238889650726 0 0.00059204215473868398 -0.00023736411608279014 0 0.00054327390074454659 -0.0001683601888746437 0 0.00060609496372896734 -0.00013867238889650726 0 0.00072618587369371055 -0.00029799774424605523 0 0.00068457544190417675 -0.00020061293284122047 0 0.00059204215473868398 -0.00023736411608279014 0 0.00059204215473868398 -0.00023736411608279014 0 0.00054327390074454659 -0.0001683601888746437 0 0.00044027735981019551 -0.00021072029940151404 0 0.00059204215473868398 -0.00023736411608279014 0 0.00050951546231786009 -0.0003530804747282936 0 0.00044027735981019551 -0.00021072029940151404 0 0.00064211180979691182 -0.00034684749107266887 0 0.00059204215473868398 -0.00023736411608279014 0 0.00050951546231786009 -0.0003530804747282936 0 0.00029161808724080697 -0.00036289723911293913 0 0.00038848749267952746 -0.00020312935831677778 0 0.00028793012936190518 -0.00036788060274728932 0 0.00040734311313189942 -0.00038069151726462399 0 0.00044027735981019551 -0.00021072029940151404 0 0.00040734311313189942 -0.00038069151726462399 0 0.00050951546231786009 -0.0003530804747282936 0 0.00044027735981019551 -0.00021072029940151404 0 0.00034513912987744214 -0.00018513790666844783 0 0.00021883602420605199 -0.00020818295440879883 0 0.0002645366069308 -0.00010316058794066221 0 0.00021883602420605199 -0.00020818295440879883 0 0.00016338836565963187 -7.9521381591852748e-05 0 0.0002645366069308 -0.00010316058794066221 0 0.00028793012936190518 -0.00036788060274728932 0 0.00021883602420605199 -0.00020818295440879883 0 0.000171830790155015 -0.0003105331543439038 0 0.00028793012936190518 -0.00036788060274728932 0 0.00034513912987744214 -0.00018513790666844783 0 0.00021883602420605199 -0.00020818295440879883 0 0.00016047751814567281 9.3666691453428932e-05 0 0.0002539545646011334 5.9470045856215672e-06 0 0.00033729949405581432 0.0001638082769829044 0 0.00016047751814567281 9.3666691453428932e-05 0 0.0002539545646011334 5.9470045856215672e-06 0 0.00016338836565963187 -7.9521381591852748e-05 0 0.0002539545646011334 5.9470045856215672e-06 0 0.00016338836565963187 -7.9521381591852748e-05 0 0.0002645366069308 -0.00010316058794066221 0 0.0002539545646011334 5.9470045856215672e-06 0 0.0002645366069308 -0.00010316058794066221 0 0.00034587472934682103 -3.3073395960341135e-05 0 0.00034513912987744214 -0.00018513790666844783 0 0.00034587472934682103 -3.3073395960341135e-05 0 0.00040009484225881747 -3.3870515878954422e-05 0 0.00034513912987744214 -0.00018513790666844783 0 0.0002645366069308 -0.00010316058794066221 0 0.00034587472934682103 -3.3073395960341135e-05 0 0.00033264578347651827 -3.668052403201746e-05 0 0.00040489094509457149 0.00013264184769520032 0 0.0002539545646011334 5.9470045856215672e-06 0 0.00034587472934682103 -3.3073395960341135e-05 0 0.00033729949405581432 0.0001638082769829044 0 0.00039608256060840385 1.2570732546116314e-05 0 0.00040009484225881747 -3.3870515878954422e-05 0 0.00044863472287448282 2.5593331406043288e-05 0 0.00034587472934682103 -3.3073395960341135e-05 0 0.00039608256060840385 1.2570732546116314e-05 0 0.00034211118808237783 4.2870924130660242e-05 0 0.00034587472934682103 -3.3073395960341135e-05 0 0.00039608256060840385 1.2570732546116314e-05 0 0.00040009484225881747 -3.3870515878954422e-05 0 0.00038848749267952746 -0.00020312935831677778 0 0.00046470397683559989 -6.4876476217787582e-05 0 0.00054327390074454659 -0.0001683601888746437 0 0.00044027735981019551 -0.00021072029940151404 0 0.00053044627454217942 -9.2022395110120559e-05 0 0.00054327390074454659 -0.0001683601888746437 0 0.00053044627454217942 -9.2022395110120559e-05 0 0.00060609496372896734 -0.00013867238889650726 0 0.00053044627454217942 -9.2022395110120559e-05 0 0.00060609496372896734 -0.00013867238889650726 0 0.00061382917104802501 -5.9942215958960583e-05 0 0.00060609496372896734 -0.00013867238889650726 0 0.00061382917104802501 -5.9942215958960583e-05 0 0.00070612138494737648 -0.00010497874766548391 0 0.00061382917104802501 -5.9942215958960583e-05 0 0.00058476227741867837 3.3182275243704451e-05 0 0.00066303756703222814 -5.5538545955940056e-06 0 0.00053044627454217942 -9.2022395110120559e-05 0 0.00061382917104802501 -5.9942215958960583e-05 0 0.00058476227741867837 3.3182275243704451e-05 0 0.00046470397683559989 -6.4876476217787582e-05 0 0.00052019534278671382 3.6273682637567936e-05 0 0.00044863472287448282 2.5593331406043288e-05 0 0.00041025033911414526 8.7771271090023731e-05 0 0.00039091675060953101 4.9187915828503856e-05 0 0.00052019534278671382 3.6273682637567936e-05 0 0.00060100555352217606 0.00018114000393581615 0 0.00044863472287448282 2.5593331406043288e-05 0 0.00047060020741725367 0.00015585497948009117 0 0.00060211252922296474 0.00018563457418546063 0 0.00044863472287448282 2.5593331406043288e-05 0 0.00047060020741725367 0.00015585497948009117 0 0.00041025033911414526 8.7771271090023731e-05 0 0.00049571485575111208 0.00021102974122700846 0 0.00047060020741725367 0.00015585497948009117 0 0.00060211252922296474 0.00018563457418546063 0 0.00047060020741725367 0.00015585497948009117 0 0.00041025033911414526 8.7771271090023731e-05 0 0.00034020308992799248 0.00019205924487714088 0 0.00041990718360101928 0.00022814675791660831 0 0.00047060020741725367 0.00015585497948009117 0 0.00034020308992799248 0.00019205924487714088 0 0.00049571485575111208 0.00021102974122700846 0 0.00041990718360101928 0.00022814675791660831 0 0.00047060020741725367 0.00015585497948009117 0 0.00041025033911414526 8.7771271090023731e-05 0 0.00034020308992799248 0.00019205924487714088 0 0.00020210029571762157 0.00019297930244627576 0 0.00041025033911414526 8.7771271090023731e-05 0 0.000366961910852495 7.7534397720393938e-05 0 0.00033214454690279707 0.00013117635274479753 0 0.00060755031248350933 4.9179076732123515e-05 0 -0.0003552245498651203 8.76413438984275e-05 0 0.00020123453528840272 0.00021945283625431463 0 0.00034020308992799248 0.00019205924487714088 0 0.00020210029571762157 0.00019297930244627576 0 0.000366961910852495 7.7534397720393938e-05 0 0.00039091675060953101 4.9187915828503856e-05 0 0.00034211118808237783 4.2870924130660242e-05 0 0.00041025033911414526 8.7771271090023731e-05 0 0.000366961910852495 7.7534397720393938e-05 0 0.00039091675060953101 4.9187915828503856e-05 0 0.00039608256060840385 1.2570732546116314e-05 0 0.00044863472287448282 2.5593331406043288e-05 0 0.00039091675060953101 4.9187915828503856e-05 0 0.00039608256060840385 1.2570732546116314e-05 0 0.00039091675060953101 4.9187915828503856e-05 0 0.00034211118808237783 4.2870924130660242e-05 0 0.000366961910852495 7.7534397720393938e-05 0 0.00034211118808237783 4.2870924130660242e-05 0 0.00033214454690279707 0.00013117635274479753 0 0.00040489094509457149 0.00013264184769520032 0 -0.0003552245498651203 8.76413438984275e-05 0 0.00033729949405581432 0.0001638082769829044 0 0.00032318103019722186 0.00033930155853751834 0 0.000244356759207389 0.00025182741728129593 0 -0.0006328761069081015 0.00012744103983741093 0 -0.0003552245498651203 8.76413438984275e-05 0 0.00030719618408642842 0.00034913092242222515 0 0.00032318103019722186 0.00033930155853751834 0 0.000244356759207389 0.00025182741728129593 0 0.00012196415926166256 0.0002458755698884228 0 0.00030719618408642842 0.00034913092242222515 0 0.000244356759207389 0.00025182741728129593 0 -0.00020887168036678601 0.00011761411554896442 0 -0.0006328761069081015 0.00012744103983741093 0 -0.00069107916021088724 -3.4533843379093033e-05 0 -0.00084038837679391493 -0.00011854846196381543 0 -0.00072886292195646803 -0.00010454378019668785 0 0.00016047751814567281 9.3666691453428932e-05 0 0.00033729949405581432 0.0001638082769829044 0 0.000244356759207389 0.00025182741728129593 0 0.00012196415926166256 0.0002458755698884228 0 0.00016047751814567281 9.3666691453428932e-05 0 0.000244356759207389 0.00025182741728129593 0 -0.00096214709803652649 -0.00036354059177101081 0 -0.0010308041638239208 -0.0002608103495433482 0 -0.0028048822770785891 -0.00060228449753971691 0 -0.0028616593411985606 -0.00051332201594347319 0 -0.0027728780770239544 -0.00051201283612281698 0 -0.0027082245620773022 -0.00063008122627088864 0 -0.0028048822770785891 -0.00060228449753971691 0 -0.0027728780770239544 -0.00051201283612281698 0 0.00080176609895077767 -0.00022364973667967847 0 0.00088511580835223423 -0.00012935818709887634 0 0.00070612138494737648 -0.00010497874766548391 0 0.00068457544190417675 -0.00020061293284122047 0 0.00060609496372896734 -0.00013867238889650726 0 0.00070612138494737648 -0.00010497874766548391 0 0.00068457544190417675 -0.00020061293284122047 0 0.00080176609895077767 -0.00022364973667967847 0 0.00070612138494737648 -0.00010497874766548391 0 0.00070612138494737648 -0.00010497874766548391 0 0.00066303756703222814 -5.5538545955940056e-06 0 0.00078125561313852521 2.1172789726997294e-05 0 0.00061382917104802501 -5.9942215958960583e-05 0 0.00070612138494737648 -0.00010497874766548391 0 0.00066303756703222814 -5.5538545955940056e-06 0 0.00088511580835223423 -0.00012935818709887634 0 0.00070612138494737648 -0.00010497874766548391 0 0.00078125561313852521 2.1172789726997294e-05 0 0.00078125561313852521 2.1172789726997294e-05 0 0.00064622707058557068 7.9855727906807733e-05 0 0.00066877808030992936 0.00017163094414307184 0 0.00066303756703222814 -5.5538545955940056e-06 0 0.00078125561313852521 2.1172789726997294e-05 0 0.00064622707058557068 7.9855727906807733e-05 0 0.00058476227741867837 3.3182275243704451e-05 0 0.00066303756703222814 -5.5538545955940056e-06 0 0.00064622707058557068 7.9855727906807733e-05 0 0.00064622707058557068 7.9855727906807733e-05 0 0.00066877808030992936 0.00017163094414307184 0 0.00060211252922296474 0.00018563457418546063 0 0.00058476227741867837 3.3182275243704451e-05 0 0.00064622707058557068 7.9855727906807733e-05 0 0.00060211252922296474 0.00018563457418546063 0 -0.0028616593411985606 -0.00051332201594347319 0 -0.0029012608621047597 -0.00044820102345217386 0 -0.0028744779087293538 -0.00045504055451177692 0 -0.0028616593411985606 -0.00051332201594347319 0 -0.0028744779087293538 -0.00045504055451177692 0 -0.002840514237898308 -0.0004733044261242583 0 -0.0010308041638239208 -0.0002608103495433482 0 -0.0011587947334637185 -8.0385556196737278e-05 0 -0.0028925692661713534 -0.00043112576804786286 0 -0.0029012608621047597 -0.00044820102345217386 0 -0.0028744779087293538 -0.00045504055451177692 0 -0.0028648165725857393 -0.00044655529689581258 0 -0.002840514237898308 -0.0004733044261242583 0 -0.002814995613614413 -0.00045714920078256393 0 -0.0028648165725857393 -0.00044655529689581258 0 -0.0028744779087293538 -0.00045504055451177692 0 -0.002840514237898308 -0.0004733044261242583 0 -0.0028616593411985606 -0.00051332201594347319 0 -0.002840514237898308 -0.0004733044261242583 0 -0.0027728780770239544 -0.00051201283612281698 0 -0.0027728780770239544 -0.00051201283612281698 0 -0.002814995613614413 -0.00045714920078256393 0 -0.0027334721894154441 -0.00047752881624420462 0 -0.002840514237898308 -0.0004733044261242583 0 -0.0027728780770239544 -0.00051201283612281698 0 -0.002814995613614413 -0.00045714920078256393 0 -0.002814995613614413 -0.00045714920078256393 0 -0.0027698868121511749 -0.00045728061270775721 0 -0.0027334721894154441 -0.00047752881624420462 0 -0.0027698868121511749 -0.00045728061270775721 0 -0.0027161893632627835 -0.0004679352016123748 0 -0.0027334721894154441 -0.00047752881624420462 0 -0.0027374055844174598 -0.00045906494879660462 0 -0.0027698868121511749 -0.00045728061270775721 0 -0.0027161893632627835 -0.0004679352016123748 0 -0.0027374055844174598 -0.00045906494879660462 0 -0.0027161893632627835 -0.0004679352016123748 0 -0.0027145031046305521 -0.00047066514597283136 0 -0.0026635516928829022 -0.00047408368052050738 0 -0.0026147953431944313 -0.00040082326135421607 0 -0.0027161893632627835 -0.0004679352016123748 0 -0.0026551670502101121 -0.00047358176800107142 0 -0.0027145031046305521 -0.00047066514597283136 0 -0.0027161893632627835 -0.0004679352016123748 0 -0.0026551670502101121 -0.00047358176800107142 0 -0.0027334721894154441 -0.00047752881624420462 0 -0.0026551670502101121 -0.00047358176800107142 0 -0.0027334721894154441 -0.00047752881624420462 0 -0.0026846423478279913 -0.00055128314769346495 0 -0.0027728780770239544 -0.00051201283612281698 0 -0.0027334721894154441 -0.00047752881624420462 0 -0.0026846423478279913 -0.00055128314769346495 0 -0.0027082245620773022 -0.00063008122627088864 0 -0.0027728780770239544 -0.00051201283612281698 0 -0.0026846423478279913 -0.00055128314769346495 0 -0.0026551670502101121 -0.00047358176800107142 0 -0.0026846423478279913 -0.00055128314769346495 0 -0.0025964262446530658 -0.0005469028261367155 0 -0.0026551670502101121 -0.00047358176800107142 0 -0.0025964262446530658 -0.0005469028261367155 0 -0.0025250978366609792 -0.00046794236445059286 0 -0.0025964262446530658 -0.0005469028261367155 0 -0.0025779913256097067 -0.00063622926376427744 0 -0.0024814108491541626 -0.00055478282047566189 0 -0.0026846423478279913 -0.00055128314769346495 0 -0.0025964262446530658 -0.0005469028261367155 0 -0.0025779913256097067 -0.00063622926376427744 0 -0.0027082245620773022 -0.00063008122627088864 0 -0.0026846423478279913 -0.00055128314769346495 0 -0.0025779913256097067 -0.00063622926376427744 0 -0.0024814108491541626 -0.00055478282047566189 0 -0.0023490553357257303 -0.00055297837982732603 0 -0.0023983195971164512 -0.00066992585923924121 0 -0.0023490553357257303 -0.00055297837982732603 0 -0.0022881008161240138 -0.00063352878095569698 0 -0.0023983195971164512 -0.00066992585923924121 0 -0.0025779913256097067 -0.00063622926376427744 0 -0.0024814108491541626 -0.00055478282047566189 0 -0.0023983195971164512 -0.00066992585923924121 0 -0.0025964262446530658 -0.0005469028261367155 0 -0.0024814108491541626 -0.00055478282047566189 0 -0.0025250978366609792 -0.00046794236445059286 0 -0.0024814108491541626 -0.00055478282047566189 0 -0.0024161807670783405 -0.00045143780186142162 0 -0.0025250978366609792 -0.00046794236445059286 0 -0.0024814108491541626 -0.00055478282047566189 0 -0.0023490553357257303 -0.00055297837982732603 0 -0.0024161807670783405 -0.00045143780186142162 0 -0.0024161807670783405 -0.00045143780186142162 0 -0.0023916902347807527 -0.00037679781371118638 0 -0.0022865141089856633 -0.00043980744973535043 0 -0.0024161807670783405 -0.00045143780186142162 0 -0.0024640816155813328 -0.00037976230722689617 0 -0.0023916902347807527 -0.00037679781371118638 0 -0.0024161807670783405 -0.00045143780186142162 0 -0.0025250978366609792 -0.00046794236445059286 0 -0.0024640816155813328 -0.00037976230722689617 0 -0.0026551670502101121 -0.00047358176800107142 0 -0.0025250978366609792 -0.00046794236445059286 0 -0.0025471479247864584 -0.00035789627553079763 0 -0.0025250978366609792 -0.00046794236445059286 0 -0.0025471479247864584 -0.00035789627553079763 0 -0.0024640816155813328 -0.00037976230722689617 0 -0.0027089993821664783 -0.00045958051358601016 0 -0.0027374055844174598 -0.00045906494879660462 0 -0.0027145031046305521 -0.00047066514597283136 0 -0.0025471479247864584 -0.00035789627553079763 0 -0.0024640816155813328 -0.00037976230722689617 0 -0.0024537328456695363 -0.00029923581696291183 0 -0.0024685635636768131 -0.00028214271402286865 0 -0.0025471479247864584 -0.00035789627553079763 0 -0.0024537328456695363 -0.00029923581696291183 0 -0.0026175459931420415 -0.00052718610309277804 0 -0.0026147953431944313 -0.00040082326135421607 0 -0.0026175459931420415 -0.00052718610309277804 0 -0.0026118337142681191 -0.00048522747878012099 0 -0.0023916902347807527 -0.00037679781371118638 0 -0.0024537328456695363 -0.00029923581696291183 0 -0.0023405867268329128 -0.00031515441554133983 0 -0.0024640816155813328 -0.00037976230722689617 0 -0.0023916902347807527 -0.00037679781371118638 0 -0.0024537328456695363 -0.00029923581696291183 0 -0.0022931213966462475 -0.00039179213202723785 0 -0.0022639909990263248 -0.00049760164068556327 0 -0.0023916902347807527 -0.00037679781371118638 0 -0.0023405867268329128 -0.00031515441554133983 0 -0.0022865141089856633 -0.00043980744973535043 0 -0.0022579249712265195 -0.00056250337644500159 0 -0.0022716517325411679 -0.00056917587502933458 0 -0.0022435268940869985 -0.00053505636971009664 0 -0.0022716517325411679 -0.00056917587502933458 0 -0.0022556539427620046 -0.000548704996284957 0 -0.0022435268940869985 -0.00053505636971009664 0 -0.0022556539427620046 -0.000548704996284957 0 -0.0022337876895191172 -0.00053254268419784812 0 -0.0022435268940869985 -0.00053505636971009664 0 -0.0021517713336294247 -0.00037536861362095846 0 -0.0021162926706217743 -0.00038214049262049371 0 -0.0021485872440839601 -0.00039268160985516309 0 -0.002311894631142679 -0.00061031097825481437 0 -0.0022556539427620046 -0.000548704996284957 0 -0.0022298104765963059 -0.00053039125230159906 0 -0.0022556539427620046 -0.000548704996284957 0 -0.0022298104765963059 -0.00053039125230159906 0 -0.0021947942473047968 -0.00052224709213999983 0 -0.0022556539427620046 -0.000548704996284957 0 -0.0022337876895191172 -0.00053254268419784812 0 -0.0021947942473047968 -0.00052224709213999983 0 -0.0020986148078097951 -0.00050758806795541908 0 -0.0021808474431973071 -0.00047013757300224643 0 -0.0020849753223641178 -0.00050380880859360875 0 -0.0022298104765963059 -0.00053039125230159906 0 -0.0021947942473047968 -0.00052224709213999983 0 -0.0020849753223641178 -0.00050380880859360875 0 -0.0021947942473047968 -0.00052224709213999983 0 -0.0021555320343423882 -0.00054705789195190404 0 -0.0021947942473047968 -0.00052224709213999983 0 -0.0021555320343423882 -0.00054705789195190404 0 -0.0022346544206539275 -0.00054797258967052766 0 -0.0021555320343423882 -0.00054705789195190404 0 -0.0022346544206539275 -0.00054797258967052766 0 -0.0021727709614180954 -0.00061422950522229509 0 -0.0021555320343423882 -0.00054705789195190404 0 -0.0020869331894070925 -0.00056922584597278295 0 -0.0021727709614180954 -0.00061422950522229509 0 -0.0020849753223641178 -0.00050380880859360875 0 -0.0020226275301626468 -0.00054727438137003065 0 -0.0020869331894070925 -0.00056922584597278295 0 -0.0020849753223641178 -0.00050380880859360875 0 -0.0021555320343423882 -0.00054705789195190404 0 -0.0020869331894070925 -0.00056922584597278295 0 -0.0023490553357257303 -0.00055297837982732603 0 -0.0024161807670783405 -0.00045143780186142162 0 -0.0022865141089856633 -0.00043980744973535043 0 -0.0023490553357257303 -0.00055297837982732603 0 -0.0022865141089856633 -0.00043980744973535043 0 -0.0022346544206539275 -0.00054797258967052766 0 -0.0022639909990263248 -0.00049760164068556327 0 -0.0022385044633366443 -0.00054092137937895954 0 -0.0022337876895191172 -0.00053254268419784812 0 -0.0022435268940869985 -0.00053505636971009664 0 -0.0022346544206539275 -0.00054797258967052766 0 -0.0022337876895191172 -0.00053254268419784812 0 -0.0021947942473047968 -0.00052224709213999983 0 -0.0022346544206539275 -0.00054797258967052766 0 -0.0022346544206539275 -0.00054797258967052766 0 -0.0022881008161240138 -0.00063352878095569698 0 -0.0021727709614180954 -0.00061422950522229509 0 -0.0023490553357257303 -0.00055297837982732603 0 -0.0022346544206539275 -0.00054797258967052766 0 -0.0022881008161240138 -0.00063352878095569698 0 -0.0022881008161240138 -0.00063352878095569698 0 -0.0022266779255455281 -0.00069808900796089891 0 -0.0021727709614180954 -0.00061422950522229509 0 -0.0022266779255455281 -0.00069808900796089891 0 -0.0021468875783575564 -0.00069462748331334048 0 -0.0021673379518145327 -0.00080308113930657081 0 -0.0022266779255455281 -0.00069808900796089891 0 -0.0021727709614180954 -0.00061422950522229509 0 -0.0021468875783575564 -0.00069462748331334048 0 -0.0022881008161240138 -0.00063352878095569698 0 -0.0022266779255455281 -0.00069808900796089891 0 -0.0023346810207676206 -0.00076158143095959136 0 -0.0020869331894070925 -0.00056922584597278295 0 -0.0020306581092709099 -0.00059522801794771954 0 -0.0020820621375613252 -0.00064775523933542341 0 -0.0020306581092709099 -0.00059522801794771954 0 -0.0020820621375613252 -0.00064775523933542341 0 -0.0020039717175792328 -0.00064665038236254302 0 -0.0020226275301626468 -0.00054727438137003065 0 -0.0020869331894070925 -0.00056922584597278295 0 -0.0020306581092709099 -0.00059522801794771954 0 -0.0020820621375613252 -0.00064775523933542341 0 -0.0021727709614180954 -0.00061422950522229509 0 -0.0021468875783575564 -0.00069462748331334048 0 -0.0020869331894070925 -0.00056922584597278295 0 -0.0020820621375613252 -0.00064775523933542341 0 -0.0021727709614180954 -0.00061422950522229509 0 -0.0020820621375613252 -0.00064775523933542341 0 -0.0021468875783575564 -0.00069462748331334048 0 -0.0020740874969659177 -0.00073710614094755513 0 -0.0020820621375613252 -0.00064775523933542341 0 -0.002026278259027852 -0.00069872297274434518 0 -0.0020740874969659177 -0.00073710614094755513 0 -0.0019436477672518711 -0.00077431268310428948 0 -0.002026278259027852 -0.00069872297274434518 0 -0.0020740874969659177 -0.00073710614094755513 0 -0.0019436477672518711 -0.00077431268310428948 0 -0.001961763738162382 -0.00069938540120898819 0 -0.002026278259027852 -0.00069872297274434518 0 -0.0020820621375613252 -0.00064775523933542341 0 -0.002026278259027852 -0.00069872297274434518 0 -0.0020039717175792328 -0.00064665038236254302 0 -0.001961763738162382 -0.00069938540120898819 0 -0.002026278259027852 -0.00069872297274434518 0 -0.0020039717175792328 -0.00064665038236254302 0 -0.0019436477672518711 -0.00077431268310428948 0 -0.0020286275712093566 -0.00081907216172164943 0 -0.0020740874969659177 -0.00073710614094755513 0 -0.0019028882722524449 -0.00085870434370731213 0 -0.0019436477672518711 -0.00077431268310428948 0 -0.0020286275712093566 -0.00081907216172164943 0 -0.0020286275712093566 -0.00081907216172164943 0 -0.0020740874969659177 -0.00073710614094755513 0 -0.0021673379518145327 -0.00080308113930657081 0 -0.0021468875783575564 -0.00069462748331334048 0 -0.0020740874969659177 -0.00073710614094755513 0 -0.0021673379518145327 -0.00080308113930657081 0 -0.0021597747597754454 -0.00095741546601065648 0 -0.0020536959234369488 -0.00090354800021826605 0 -0.0021673379518145327 -0.00080308113930657081 0 -0.0020286275712093566 -0.00081907216172164943 0 -0.0020536959234369488 -0.00090354800021826605 0 -0.0021673379518145327 -0.00080308113930657081 0 -0.0019028882722524449 -0.00085870434370731213 0 -0.0020286275712093566 -0.00081907216172164943 0 -0.0020536959234369488 -0.00090354800021826605 0 -0.0019028882722524449 -0.00085870434370731213 0 -0.0018361715300310567 -0.00091042711242909761 0 -0.0020536959234369488 -0.00090354800021826605 0 -0.0021673379518145327 -0.00080308113930657081 0 -0.0022775515345081253 -0.00089610510612809135 0 -0.0023346810207676206 -0.00076158143095959136 0 -0.0022703519871709651 -0.0009321071054020437 0 -0.0023292304482895832 -0.00079294823143920257 0 -0.0022266779255455281 -0.00069808900796089891 0 -0.0021673379518145327 -0.00080308113930657081 0 -0.0023346810207676206 -0.00076158143095959136 0 -0.0021597747597754454 -0.00095741546601065648 0 -0.0021673379518145327 -0.00080308113930657081 0 -0.0022775515345081253 -0.00089610510612809135 0 -0.0023627458334713591 -0.0010040674048821462 0 -0.0022647506674080241 -0.00096310227447246783 0 -0.0024046213013403741 -0.00090954789570962488 0 -0.0023182268701320455 -0.00082725820033497364 0 -0.0024046213013403741 -0.00090954789570962488 0 -0.0025172487474030038 -0.00077569854624433287 0 -0.0022647506674080241 -0.00096310227447246783 0 -0.0023182268701320455 -0.00082725820033497364 0 -0.0024046213013403741 -0.00090954789570962488 0 -0.0024046213013403741 -0.00090954789570962488 0 -0.0025205730285694566 -0.00089316191795289475 0 -0.0025172487474030038 -0.00077569854624433287 0 -0.0023627458334713591 -0.0010040674048821462 0 -0.0024046213013403741 -0.00090954789570962488 0 -0.0024421326386506728 -0.00096873623819104544 0 -0.0024046213013403741 -0.00090954789570962488 0 -0.0024421326386506728 -0.00096873623819104544 0 -0.0025205730285694566 -0.00089316191795289475 0 -0.00252838390954176 -0.00098421202354211589 0 -0.0024421326386506728 -0.00096873623819104544 0 -0.0025205730285694566 -0.00089316191795289475 0 -0.00073775090874676774 -0.00076982283992505136 0 -0.00080124890433563173 -0.00064877958027122066 0 -0.00252838390954176 -0.00098421202354211589 0 -0.0026318184292992578 -0.00085849763367418285 0 -0.0025205730285694566 -0.00089316191795289475 0 0.0010562637873983724 -0.00056189305271559539 0 0.00099872246284687591 -0.00057098830667501094 0 0.0010327892735748287 -0.00044453851431069681 0 -0.0026318184292992578 -0.00085849763367418285 0 -0.0025205730285694566 -0.00089316191795289475 0 -0.0025172487474030038 -0.00077569854624433287 0 -0.0027303450014509595 -0.00072307754037090582 0 -0.0026318184292992578 -0.00085849763367418285 0 -0.0026245608287325203 -0.00072660127724132365 0 -0.0026318184292992578 -0.00085849763367418285 0 -0.0025172487474030038 -0.00077569854624433287 0 -0.0026245608287325203 -0.00072660127724132365 0 -0.0027082245620773022 -0.00063008122627088864 0 -0.0025779913256097067 -0.00063622926376427744 0 -0.0026245608287325203 -0.00072660127724132365 0 -0.0027303450014509595 -0.00072307754037090582 0 -0.0027082245620773022 -0.00063008122627088864 0 -0.0026245608287325203 -0.00072660127724132365 0 -0.0025779913256097067 -0.00063622926376427744 0 -0.0025172487474030038 -0.00077569854624433287 0 -0.0026245608287325203 -0.00072660127724132365 0 -0.0023182268701320455 -0.00082725820033497364 0 -0.0025172487474030038 -0.00077569854624433287 0 -0.0023983195971164512 -0.00066992585923924121 0 -0.0025779913256097067 -0.00063622926376427744 0 -0.0025172487474030038 -0.00077569854624433287 0 -0.0023983195971164512 -0.00066992585923924121 0 -0.0022881008161240138 -0.00063352878095569698 0 -0.0023346810207676206 -0.00076158143095959136 0 -0.0023983195971164512 -0.00066992585923924121 0 -0.0023292304482895832 -0.00079294823143920257 0 -0.0023921008767678891 -0.00067497379599892426 0 
</DataArray>
</PointData>
<CellData Scalars="region_id,cross_section_updated," Vectors="" Tensors="stress,">
<DataArray type="Float64" Name="region_id" format="ascii">
5 5 5 5 5 6 5 5 5 5 5 5 5 5 6 5 5 5 5 5 5 6 5 6 5 6 5 6 5 5 5 6 5 5 6 5 5 5 5 5 5 5 6 5 5 5 5 6 6 5 5 5 5 5 5 6 5 5 5 5 5 5 5 5 5 5 5 5 5 5 5 6 5 5 5 5 5 5 5 5 5 5 6 5 5 6 5 5 6 5 6 6 5 6 6 5 5 5 6 5 5 5 5 6 5 5 6 5 5 6 5 5 5 6 5 5 5 5 6 6 5 5 6 5 5 6 5 5 5 5 6 5 5 5 5 5 5 5 5 5 6 6 5 6 5 5 5 5 6 5 6 5 5 6 5 5 5 6 5 5 5 6 6 5 6 5 5 5 5 5 5 5 5 5 5 5 5 5 5 6 5 6 6 6 5 5 5 5 6 5 5 5 6 5 6 6 5 6 6 5 5 5 6 5 5 6 5 5 5 6 5 5 5 5 5 6 5 5 5 5 5 6 6 5 5 5 5 6 5 5 5 5 5 6 5 5 5 6 5 5 5 5 5 6 5 5 5 5 5 6 5 5 5 5 5 5 5 6 5 5 5 6 5 5 5 5 5 5 5 5 5 5 5 6 5 5 5 5 5 6 5 5 5 6 5 5 5 5 6 5 5 5 6 5 5 5 5 5 6 5 5 5 5 5 5 6 5 5 5 5 5 5 5 5 5 6 5 5 5 5 5 5 6 5 5 5 5 6 5 5 5 5 5 5 6 5 5 5 5 5 6 5 5 5 6 5 5 5 5 5 5 5 5 5 5 6 5 5 5 5 5 5 5 5 5 5 5 5 5 5 5 5 5 5 5 5 5 5 5 5 5 5 5 5 5 5 5 6 5 5 6 5 5 5 5 5 5 6 5 5 5 5 5 5 5 5 5 6 5 5 6 5 5 5 5 6 5 5 6 5 5 5 6 5 5 5 6 5 5 5 6 5 5 5 5 6 5 5 6 5 5 6 5 5 5 5 5 6 5 5 5 5 5 5 5 5 6 5 5 5 6 5 5 5 5 5 6 5 5 5 5 5 5 5 5 5 5 5 5 5 5 5 5 5 6 5 5 5 5 5 5 5 5 5 5 5 5 5 5 5 5 5 5 5 5 5 5 5 5 6 5 5 5 5 6 5 5 5 5 5 5 5 6 5 5 5 5 5 6 5 5 5 5 5 5 5 5 5 5 5 5 5 5 5 5 6 5 6 5 5 6 5 6 5 5 5 5 5 5 6 5 5 5 5 5 5 5 6 5 5 6 5 5 6 5 5 5 5 5 6 5 6 5 6 5 5 5 5 6 5 5 5 6 5 6 5 5 5 5 5 6 5 6 5 5 5 5 5 5 5 5 5 5 5 5 5 5 5 6 5 5 5 5 5 5 5 5 5 5 5 5 5 5 5 6 5 5 5 5 5 5 5 5 5 5 5 5 5 5 5 5 5 5 6 5 5 5 5 5 5 5 5 5 6 5 5 6 5 5 5 5 5 5 5 5 5 5 6 5 6 5 5 5 5 5 5 5 5 5 6 5 5 5 5 5 5 5 6 5 5 5 5 5 5 5 6 5 5 5 5 5 6 5 5 5 5 5 5 5 5 5 5 6 5 5 5 5 5 5 5 5 5 5 5 5 6 5 5 5 5 5 5 5 5 5 5 5 5 5 5 5 5 5 5 5 6 6 5 5 5 5 6 6 5 5 5 5 5 5 5 5 5 5 5 5 5 6 5 5 5 5 5 5 5 5 5 5 5 5 5 5 5 5 5 5 5 5 5 5 5 5 5 5 5 5 5 5 5 5 5 5 5 5 5 5 5 5 5 5 5 5 6 5 5 6 5 5 6 5 5 6 5 5 5 5 6 5 6 5 6 5 5 6 5 5 6 5 5 5 5 6 5 5 5 5 5 5 6 5 6 5 5 5 5 5 5 5 6 5 5 5 5 6 5 5 5 5 5 5 6 5 5 5 6 5 5 5 5 5 5 5 5 5 5 5 5 5 5 6 5 5 5 6 6 5 5 5 5 5 5 5 6 5 5 5 5 5 5 6 5 5 6 5 5 5 5 5 6 6 6 5 5 5 5 6 5 5 6 5 6 5 5 5 5 6 5 5 6 5 5 5 5 5 6 5 5 6 5 5 6 5 5 5 6 5 6 5 5 5 5 5 5 5 5 6 5 5 5 6 6 5 5 6 5 5 6 5 5 5 5 5 5 5 5 5 5 5 5 5 5 5 6 5 5 5 5 5 5 5 6 5 5 5 5 5 5 5 5 5 5 5 5 5 5 5 5 5 6 6 5 5 5 5 5 5 5 5 5 5 5 5 5 5 5 5 5 5 5 5 5 6 5 5 5 5 6 5 5 6 5 5 5 5 5 6 5 5 5 5 5 5 5 5 6 5 5 5 5 5 5 5 5 5 5 5 5 5 5 5 5 5 5 5 5 5 6 5 5 5 6 5 5 5 5 5 5 5 5 5 5 5 5 5 5 5 5 5 5 6 5 5 6 5 5 5 5 5 5 5 5 5 5 5 5 5 5 5 5 5 5 5 5 5 5 5 5 5 5 5 5 5 5 5 5 5 5 5 5 5 5 5 5 6 5 5 6 5 5 6 5 5 5 5 5 5 5 6 5 5 5 5 6 5 5 5 6 5 5 5 6 5 5 5 5 5 6 5 6 5 5 5 5 5 5 5 5 5 5 5 5 5 5 5 5 5 5 5 5 5 5 5 5 5 6 5 6 5 5 5 5 5 5 6 5 5 5 5 5 6 5 5 5 5 5 6 5 5 5 5 5 5 5 5 6 5 5 5 5 5 5 5 5 5 6 5 5 6 5 5 5 5 5 5 5 5 6 5 5 5 5 5 6 5 5 5 5 6 5 5 6 5 5 5 6 5 5 5 5 5 5 5 5 5 5 5 5 5 5 6 5 5 5 5 5 5 5 6 5 6 5 5 5 5 5 5 5 5 5 5 6 5 5 6 5 5 5 5 5 5 6 5 5 5 5 5 5 5 6 5 5 5 5 5 5 5 5 5 5 5 5 5 5 5 5 5 5 5 5 5 5 5 5 5 5 5 5 5 5 5 5 6 5 5 5 6 5 5 5 6 5 5 5 5 6 5 5 5 5 5 6 5 5 5 6 5 5 5 5 5 5 5 5 5 5 5 5 5 5 5 5 6 5 5 5 5 5 5 5 5 5 5 6 5 5 6 5 5 5 6 5 5 5 5 5 6 5 5 6 5 6 5 5 6 5 5 6 5 5 6 5 5 5 5 5 5 5 5 5 5 5 5 6 5 5 5 5 5 5 5 5 6 5 5 5 5 5 5 5 5 5 5 6 5 6 5 5 5 6 5 5 5 5 5 5 6 5 5 5 5 5 5 5 5 5 5 5 5 5 5 5 5 5 5 5 5 5 5 5 5 5 5 5 5 5 5 6 5 5 6 5 6 5 5 5 5 6 5 5 5 5 5 5 5 6 5 5 5 5 5 5 5 5 5 5 5 5 5 5 5 5 5 6 5 5 6 5 5 5 5 5 5 5 5 5 5 5 5 5 5 5 5 5 6 5 5 5 5 5 5 5 5 6 5 5 5 5 5 6 5 6 5 5 5 5 5 5 5 5 5 5 5 5 5 5 6 5 5 6 5 5 5 5 5 5 5 5 5 5 5 5 5 5 5 5 5 5 5 6 5 5 5 5 5 6 5 6 6 5 5 6 5 5 6 5 5 5 5 5 5 6 5 5 6 5 6 5 5 5 6 5 5 5 5 5 5 6 5 5 5 5 5 5 6 5 5 5 5 5 5 5 5 5 5 6 5 5 5 5 5 5 5 5 6 5 5 5 5 5 5 5 5 5 5 6 5 5 5 6 5 5 5 5 5 5 5 5 5 5 6 5 5 6 5 5 5 6 5 5 5 5 5 5 5 5 5 6 5 5 5 6 5 5 5 5 5 5 5 6 5 5 5 5 5 6 5 5 5 5 5 5 5 5 5 5 5 5 6 5 5 5 5 6 5 5 5 6 5 5 5 5 5 5 6 5 5 6 5 5 5 5 5 5 5 5 5 5 5 5 5 6 5 5 5 5 5 5 5 5 5 5 5 5 6 5 6 5 5 5 6 5 5 6 5 5 5 5 5 5 5 5 5 5 5 5 5 5 5 5 5 5 5 5 6 5 5 5 5 5 5 5 5 5 5 5 5 5 5 5 5 5 5 5 5 5 5 5 6 5 5 5 6 5 5 5 5 5 5 5 5 6 5 5 5 5 5 5 5 6 5 5 5 5 5 5 5 5 6 5 5 5 5 6 5 5 6 5 5 5 5 5 5 5 5 5 5 5 5 5 5 5 5 5 5 5 5 5 5 5 5 5 5 5 5 5 5 5 5 5 5 5 5 5 5 5 5 5 5 5 5 5 5 6 5 5 5 5 5 5 5 5 6 5 5 6 5 5 5 5 5 5 5 5 5 5 6 5 5 5 5 5 5 5 5 5 5 5 5 5 5 5 5 5 5 5 5 5 5 5 5 5 5 5 5 5 5 5 5 5 5 5 5 5 5 5 5 5 5 5 5 5 5 5 5 5 5 5 5 5 5 5 5 5 5 5 5 5 5 5 5 5 5 5 5 5 5 5 5 5 5 5 5 5 5 5 5 5 5 6 5 5 5 5 6 5 5 5 5 5 5 5 5 5 5 5 5 5 5 5 5 5 5 5 5 5 5 5 5 5 5 6 5 5 5 5 5 5 5 6 5 5 5 5 5 5 5 5 5 5 5 5 5 6 5 6 5 5 5 5 5 5 5 5 5 5 5 5 5 5 6 5 5 5 5 5 5 5 5 5 5 5 5 5 5 5 5 5 5 5 5 5 6 5 5 5 5 6 5 6 5 5 5 5 5 5 6 6 5 5 5 5 5 5 5 6 5 5 5 5 5 5 5 5 5 5 5 5 5 5 5 5 5 6 5 5 5 5 5 6 5 5 5 5 5 5 5 6 5 5 5 5 5 5 5 5 5 5 5 5 5 5 5 5 5 6 5 5 5 5 5 5 5 5 5 5 5 5 5 5 5 5 5 5 5 6 5 5 5 5 5 6 5 5 5 5 5 5 5 5 5 5 5 5 5 5 5 5 5 5 5 5 5 6 5 5 6 5 5 5 5 5 5 5 5 5 5 5 5 5 5 5 5 5 5 5 5 5 5 5 5 5 5 5 5 5 5 5 5 6 5 5 5 5 5 5 5 5 5 5 5 5 5 5 5 5 6 5 5 5 5 5 5 6 5 5 5 5 5 6 5 6 5 5 5 5 6 5 5 5 5 5 5 5 5 5 5 5 5 6 6 5 5 5 5 5 5 6 5 5 5 6 6 5 5 6 5 6 5 6 5 5 5 5 6 5 5 5 6 5 5 5 5 5 5 6 6 5 5 5 5 5 5 5 5 6 5 5 5 5 6 5 6 5 5 5 5 5 5 5 5 5 5 5 5 6 5 5 5 5 5 5 5 6 5 5 5 5 5 5 5 5 5 5 5 5 5 5 5 5 5 5 5 5 6 5 6 5 5 5 5 5 5 5 5 5 5 5 5 5 5 5 5 5 5 5 5 5 5 6 5 6 5 5 5 5 5 5 5 6 5 5 5 5 5 5 6 5 5 5 5 5 5 5 5 6 5 5 5 5 5 5 5 5 5 5 5 5 5 5 5 5 5 5 5 5 5 5 5 5 5 6 5 5 5 6 6 5 5 5 6 5 5 5 6 5 5 5 5 5 5 5 5 5 6 5 5 5 5 5 5 6 5 6 5 5 5 5 6 6 6 5 5 5 5 5 5 5 5 5 5 5 5 5 5 5 6 5 5 5 5 5 5 5 5 6 5 5 5 5 5 5 5 5 5 5 5 6 5 6 5 5 5 5 5 5 5 5 5 5 5 5 5 5 5 5 5 5 6 6 5 5 5 5 5 5 6 5 5 5 5 5 6 5 5 5 5 5 5 5 5 5 5 5 5 6 5 5 5 5 6 5 5 6 5 5 5 5 5 5 5 5 6 5 5 5 5 5 5 5 5 5 5 5 5 5 6 5 5 5 5 6 5 5 5 6 5 6 5 6 5 5 5 5 5 5 5 5 5 5 5 6 5 5 5 5 5 6 5 5 6 5 6 5 5 5 5 6 5 5 5 5 5 5 6 5 5 5 5 5 5 5 5 5 6 5 5 5 5 5 5 6 5 5 5 5 5 5 5 5 5 5 5 5 5 5 6 5 5 5 6 6 5 6 5 6 6 6 5 5 5 5 5 6 5 5 5 5 5 5 5 6 5 6 5 5 5 5 5 5 5 5 5 6 5 5 5 5 5 5 6 5 5 5 6 5 5 5 5 5 5 5 6 5 5 5 5 5 6 6 5 5 5 5 5 5 6 6 5 5 5 5 6 5 5 5 5 6 6 5 6 5 6 5 5 5 5 5 6 5 5 5 5 6 5 5 5 5 5 5 5 6 5 6 5 5 5 5 5 5 5 5 5 5 5 5 5 5 5 5 6 6 5 5 6 5 5 5 5 5 5 6 5 5 6 5 5 6 5 6 5 5 6 5 5 5 5 5 5 5 5 5 5 5 5 5 5 5 5 5 5 5 6 5 6 5 5 5 5 5 5 5 5 5 6 5 5 5 5 6 5 5 5 6 5 5 6 5 5 5 5 6 5 5 5 6 5 6 5 5 5 5 5 5 5 5 5 5 5 5 5 5 6 5 5 5 5 6 6 5 5 5 5 5 5 5 5 5 5 5 5 6 5 5 5 5 5 5 6 5 5 5 5 6 5 5 5 5 5 5 5 5 5 5 5 5 5 5 5 6 5 5 5 5 5 5 5 5 5 5 5 5 5 5 5 5 5 5 5 5 5 5 5 6 5 5 5 5 6 5 5 6 5 6 5 5 6 5 5 5 5 5 6 6 5 5 5 5 5 5 5 6 5 5 5 5 5 5 5 5 6 5 5 5 5 5 5 5 5 5 5 5 5 5 5 5 5 6 5 5 5 5 5 5 5 5 5 5 5 6 6 5 5 5 5 6 5 5 5 6 5 5 5 5 5 5 6 5 6 5 5 6 5 5 5 6 6 5 6 6 5 6 5 5 5 5 6 5 5 5 5 5 5 5 5 5 5 5 5 5 6 6 5 6 5 5 5 5 5 5 5 5 5 5 5 5 5 5 5 5 6 5 5 5 5 6 6 5 5 5 5 5 5 5 5 5 5 5 5 5 5 5 6 5 5 5 5 5 5 5 5 6 5 5 5 5 5 5 5 5 5 6 5 5 5 5 5 5 5 5 5 5 5 5 5 5 6 5 5 5 5 5 5 5 5 5 5 5 6 5 5 5 5 5 5 5 5 5 6 5 5 6 5 5 6 6 5 5 5 6 5 5 5 6 5 5 5 5 5 6 5 5 5 5 5 5 5 5 5 5 5 5 5 6 5 6 5 5 6 6 5 5 5 5 5 6 5 5 5 5 5 5 5 5 5 5 5 6 5 5 5 5 5 5 5 5 5 5 5 5 5 6 6 5 5 5 5 5 5 5 5 5 5 5 5 5 5 5 5 5 5 5 5 6 5 5 6 5 5 5 5 5 5 5 6 5 5 5 5 5 5 5 6 5 5 5 6 6 5 5 6 5 5 5 5 6 6 5 6 5 5 5 5 5 5 5 5 5 5 5 5 5 6 5 5 6 5 5 5 6 5 5 5 5 5 5 5 5 5 5 5 5 5 6 5 5 5 5 5 5 5 5 5 5 5 5 6 5 5 5 5 5 5 5 5 5 5 5 5 6 5 5 6 5 5 5 5 5 5 5 5 5 5 5 5 5 5 5 5 5 6 5 5 6 5 5 6 5 5 6 5 5 5 5 6 6 6 5 6 5 5 5 5 5 5 6 5 5 5 5 5 5 5 5 5 5 5 5 5 5 5 5 5 5 5 5 5 5 5 5 6 5 5 5 5 6 5 5 5 5 5 5 5 5 5 6 6 5 5 5 5 5 5 5 5 5 6 5 5 5 5 5 5 6 5 6 5 5 6 5 5 5 6 6 5 5 6 6 5 5 5 5 5 5 6 5 5 5 5 6 5 5 5 5 5 5 5 5 5 5 5 5 6 5 5 6 5 5 5 5 5 6 6 5 5 5 6 5 5 5 5 5 5 5 5 5 6 5 5 5 5 5 5 5 5 5 5 5 5 5 5 5 5 5 5 5 5 5 6 5 5 5 5 5 5 5 5 5 6 5 5 5 5 5 5 5 5 6 5 5 5 5 5 5 6 5 5 5 5 5 5 5 5 5 5 5 5 6 5 5 5 6 5 5 5 5 5 5 5 5 5 5 5 5 6 5 5 5 5 5 5 5 5 5 5 6 5 5 5 5 5 5 5 5 5 5 5 6 5 5 5 6 5 5 5 5 5 5 5 5 5 5 5 6 5 5 5 6 5 5 6 5 5 5 5 5 5 5 5 5 5 5 5 5 6 5 5 6 5 5 6 5 5 6 6 5 5 5 6 5 5 6 5 5 5 5 6 5 5 5 5 5 5 5 5 5 5 5 5 5 6 5 5 5 5 6 5 5 5 5 5 6 5 5 5 6 5 5 5 5 5 5 5 5 6 5 5 5 5 5 5 6 5 5 5 5 5 6 5 6 5 5 5 6 6 5 5 5 5 5 5 6 5 5 5 5 5 5 5 5 5 6 5 5 5 6 5 5 6 5 6 5 5 5 5 5 5 5 6 5 5 5 5 6 5 5 5 5 5 5 6 5 5 5 5 5 5 5 5 5 5 5 5 6 5 5 5 5 6 5 6 5 5 5 5 5 6 5 5 5 6 5 5 5 5 6 5 5 5 5 5 5 5 5 5 5 5 5 5 5 5 5 5 5 5 5 5 5 5 5 5 5 5 5 5 5 6 5 5 5 5 5 5 5 5 5 5 5 5 5 5 5 5 5 5 5 5 5 5 5 5 5 5 5 5 5 5 5 5 5 5 5 5 5 5 5 5 5 5 5 5 5 5 5 5 5 5 5 5 5 5 5 5 5 5 5 5 5 5 5 5 5 5 5 6 5 5 5 5 5 5 5 5 5 5 5 5 5 5 5 5 5 5 5 5 5 5 5 5 6 5 5 5 5 5 5 5 5 5 5 6 5 5 5 5 5 5 5 6 6 5 5 5 5 5 5 5 5 5 5 5 5 5 5 5 5 5 5 5 5 5 5 5 5 5 5 5 5 5 5 5 6 5 5 5 5 5 5 5 5 5 5 6 6 5 6 5 5 5 5 5 5 6 5 5 5 5 5 6 5 5 5 5 5 6 5 5 5 5 6 5 5 5 5 5 5 5 5 5 5 5 5 5 5 5 5 5 5 5 6 5 5 5 5 5 5 5 5 5 6 5 5 5 5 5 5 5 5 5 5 6 5 5 5 6 5 5 5 6 5 5 6 6 5 5 5 5 6 5 5 5 5 5 5 5 5 6 5 5 5 5 5 5 5 5 5 5 5 5 5 5 5 5 5 5 5 5 5 5 5 5 5 5 5 5 5 5 5 5 5 6 5 5 6 5 6 5 6 5 5 5 6 6 6 5 5 5 6 5 5 5 5 5 5 5 5 5 5 5 5 5 5 6 5 5 5 5 5 5 5 5 5 5 5 5 5 5 5 6 5 5 6 6 5 5 5 6 5 5 6 5 6 5 6 5 5 5 5 5 5 5 5 6 5 5 6 5 5 5 6 5 6 5 5 5 5 5 5 5 5 5 5 5 5 5 5 5 5 5 5 5 5 5 5 5 5 5 5 5 5 5 5 5 5 5 5 5 5 5 5 5 5 5 5 5 5 5 6 5 5 5 5 5 5 6 6 5 5 5 5 5 6 5 6 6 5 6 6 5 6 5 6 5 5 5 5 5 5 5 5 5 6 5 5 5 5 5 5 6 5 5 5 5 5 5 5 5 5 5 5 6 6 5 5 5 5 5 5 6 6 5 5 6 5 5 5 5 5 5 5 5 6 5 5 5 5 5 5 5 5 5 5 5 5 5 5 5 5 5 5 5 5 6 5 6 5 5 6 5 5 5 5 6 6 6 5 5 5 6 6 5 5 6 5 5 5 6 5 6 5 5 6 5 6 6 5 6 5 5 5 5 5 6 6 5 5 5 5 5 5 5 6 5 5 5 5 5 6 5 5 5 6 5 5 5 5 6 5 6 5 6 5 5 6 6 5 5 5 6 5 6 5 5 5 5 5 5 5 5 5 5 5 5 5 5 5 5 5 5 5 5 6 5 5 5 5 5 5 5 5 5 6 5 5 5 5 6 5 5 5 5 6 5 5 5 5 5 5 5 5 5 5 6 5 5 5 5 6 5 5 5 5 5 5 5 5 5 5 5 5 5 5 5 5 5 5 5 6 5 5 6 5 5 6 5 5 5 6 6 5 5 5 5 5 5 5 5 6 5 5 5 5 5 5 5 5 5 5 5 5 5 5 5 5 5 5 5 5 6 5 5 5 5 5 5 5 5 5 5 5 5 5 5 5 5 5 5 5 5 5 5 5 5 5 5 6 5 5 5 5 5 5 5 5 5 6 5 5 6 5 6 6 5 5 5 5 5 5 6 5 5 5 5 5 5 5 5 5 5 5 5 5 5 5 5 5 5 5 5 5 5 5 5 5 5 5 5 5 5 5 5 5 5 5 6 5 5 5 5 5 5 5 5 5 5 5 5 5 5 5 5 5 5 5 5 5 5 5 5 5 5 5 5 5 6 5 5 5 5 5 5 5 6 5 5 6 5 5 5 5 5 6 5 6 5 5 6 5 5 5 5 5 5 5 5 5 5 5 5 5 5 5 5 5 5 5 5 5 5 5 5 5 5 5 5 5 5 5 5 5 5 5 5 5 5 5 6 5 6 5 5 5 5 5 5 5 6 6 5 5 5 6 5 5 5 5 5 5 5 5 5 5 6 5 5 6 5 5 6 5 5 5 5 5 5 5 6 5 5 5 5 5 5 5 6 5 5 5 5 5 5 5 5 5 5 5 6 5 5 5 5 5 6 5 5 5 5 5 5 6 5 5 5 5 6 5 6 5 5 5 6 6 5 6 5 5 5 5 5 5 6 5 5 5 5 5 5 5 5 6 5 5 6 5 5 5 6 5 5 6 5 5 6 5 5 5 5 6 5 5 5 6 5 5 5 5 6 5 5 5 5 5 5 5 5 5 5 5 5 5 5 5 6 5 5 5 5 5 6 5 5 5 5 5 5 5 5 5 5 5 5 5 5 5 5 5 6 5 5 6 5 5 5 5 5 5 6 5 5 5 5 5 5 5 5 5 5 5 5 5 5 5 5 5 6 5 5 5 5 5 5 5 5 5 6 5 6 5 5 6 5 5 5 6 6 5 5 5 5 5 5 5 5 6 5 5 5 6 5 6 6 5 5 6 5 5 5 5 5 5 5 5 6 5 5 5 6 6 6 5 6 5 5 6 5 5 6 5 6 5 5 5 5 5 5 5 5 5 5 5 5 5 5 5 5 5 5 5 5 5 5 5 5 5 5 5 5 5 5 5 5 5 5 5 5 5 5 5 5 5 5 5 5 5 5 5 5 5 5 5 5 6 5 5 6 5 5 5 5 5 5 5 5 6 5 5 6 5 5 5 6 5 5 5 5 5 5 5 5 5 5 5 5 5 5 5 5 5 5 5 5 6 5 6 5 6 5 5 5 6 5 5 6 5 5 5 5 5 5 5 5 5 5 5 5 5 5 5 5 5 5 5 5 5 6 5 5 6 5 5 6 5 5 5 5 5 5 5 6 5 5 5 5 5 6 5 5 5 6 5 5 6 5 5 5 5 5 5 5 5 5 5 5 5 5 5 5 5 5 5 5 5 5 5 5 5 5 5 5 5 5 5 5 5 6 5 5 6 5 5 5 6 6 5 6 5 6 5 5 5 6 5 5 5 5 5 6 5 5 5 5 5 5 5 5 5 5 6 5 5 5 5 5 6 5 5 5 5 6 5 5 5 5 5 5 5 5 5 5 5 5 6 5 5 5 5 5 5 5 6 5 5 5 5 5 5 5 5 5 5 5 5 5 5 5 5 5 5 5 6 5 5 5 5 5 5 6 5 5 5 5 5 5 5 5 5 5 5 5 6 5 5 5 5 5 5 5 5 5 6 5 6 5 5 5 5 5 5 5 5 5 6 5 6 5 5 5 5 5 5 5 5 5 6 5 5 5 5 5 5 5 6 5 5 5 6 5 5 5 5 5 5 6 5 5 5 5 5 5 6 5 5 5 5 6 5 5 5 6 5 5 5 6 5 5 5 6 5 5 5 5 5 6 6 5 5 5 5 5 5 5 5 5 5 5 5 5 6 5 5 5 5 6 5 5 5 5 5 5 5 5 5 5 5 5 5 5 5 5 5 5 5 6 5 6 5 5 5 5 5 5 5 5 5 5 5 5 6 5 5 5 5 5 6 5 5 5 5 5 5 5 6 5 5 5 6 6 5 5 5 5 5 5 5 5 5 5 6 5 5 5 5 5 5 6 5 5 5 5 5 5 5 5 5 5 5 5 6 5 5 6 5 5 5 5 6 5 5 5 5 5 6 6 5 5 6 5 5 5 5 5 6 5 6 5 6 6 5 6 5 5 6 5 5 5 5 5 5 5 6 6 5 6 5 6 5 5 5 5 5 5 5 5 5 5 5 6 5 5 5 5 5 5 5 5 5 5 5 5 5 5 5 6 5 5 5 5 5 5 5 5 6 5 5 5 5 5 5 5 5 5 5 5 5 5 5 5 5 6 5 5 5 5 5 5 5 5 5 5 5 5 5 6 5 6 5 5 5 5 5 5 5 5 5 5 5 5 5 5 5 5 5 5 5 6 5 5 5 6 5 5 5 5 5 5 5 5 5 5 5 5 5 5 5 5 5 5 5 5 5 5 5 5 5 5 5 6 5 5 5 5 5 5 5 5 6 5 5 5 5 5 5 5 5 6 6 5 5 5 5 5 5 5 5 5 5 5 5 5 5 5 5 5 5 5 5 5 5 5 5 5 5 5 5 5 5 6 5 5 5 5 5 5 5 5 5 5 5 6 6 5 5 5 6 6 5 5 5 6 5 5 5 6 5 5 5 5 5 6 5 5 6 5 5 5 5 5 5 5 5 5 5 5 5 5 5 5 5 5 5 5 5 5 5 5 5 5 5 5 5 5 5 6 5 5 5 5 5 5 5 5 5 5 5 5 5 5 6 5 5 5 5 5 5 5 5 5 5 5 5 5 5 5 5 5 5 5 5 5 6 5 5 5 5 5 5 5 5 6 5 6 5 5 6 6 5 5 6 5 5 5 6 6 5 6 5 6 5 5 6 5 5 5 5 6 5 5 5 5 5 5 5 5 6 5 5 5 5 5 5 5 5 5 5 5 5 5 5 5 5 5 5 5 5 5 5 5 6 5 5 5 5 5 5 5 5 5 5 5 5 5 5 5 5 6 5 5 5 5 5 5 5 5 5 6 6 5 5 5 6 5 5 5 5 5 5 5 5 6 5 5 5 5 5 5 5 5 5 5 5 6 5 6 5 5 5 5 5 5 5 5 5 5 5 6 5 5 5 5 5 5 6 5 5 5 5 5 5 5 5 5 5 5 5 5 5 5 5 5 5 5 5 5 5 5 5 5 5 5 5 5 5 5 5 5 5 5 5 5 6 6 5 5 5 6 5 5 5 5 5 5 5 5 5 5 5 5 5 5 5 5 5 5 5 5 5 5 5 5 5 5 5 5 5 5 5 5 5 5 5 5 5 5 6 5 5 5 5 5 6 5 5 5 5 5 6 5 6 5 5 6 5 5 5 5 5 5 5 6 5 5 5 5 5 5 5 5 5 5 5 5 5 5 5 5 5 5 5 5 5 5 5 5 5 5 5 6 5 5 6 5 5 6 5 5 5 5 6 5 5 5 5 5 5 5 5 5 5 5 5 5 5 5 5 5 5 5 5 5 5 5 6 5 5 6 5 5 5 5 5 5 5 5 5 5 5 5 5 5 5 6 5 5 5 5 5 5 6 5 6 5 5 5 5 5 5 5 5 5 5 5 5 5 5 5 5 5 5 5 5 5 6 5 5 5 6 6 5 5 5 5 6 5 5 5 6 5 5 5 5 5 5 6 5 6 5 5 5 5 6 5 5 5 5 6 5 5 5 5 6 5 5 6 5 5 5 5 5 5 5 5 5 5 5 5 5 5 5 5 5 5 5 5 5 6 5 5 6 5 5 5 5 5 5 5 5 5 5 5 5 5 5 5 5 5 5 5 5 5 5 5 5 5 5 5 5 5 5 5 5 5 5 5 5 5 5 5 5 5 5 5 5 5 5 5 5 5 5 5 5 5 5 5 5 5 5 5 6 5 5 5 5 5 5 5 5 5 5 5 5 5 5 6 5 5 5 5 5 5 5 5 5 5 6 5 5 5 5 5 5 5 5 5 5 5 5 5 5 5 5 5 6 5 5 5 6 5 5 5 5 5 5 5 5 6 5 5 5 5 5 6 5 5 5 5 5 5 5 5 6 5 5 5 5 5 5 6 5 5 5 5 5 5 5 5 5 5 5 5 6 5 5 6 6 5 6 5 5 5 5 5 6 5 5 5 5 5 5 5 5 6 6 5 6 5 5 5 5 5 5 5 5 5 6 5 5 5 5 5 5 5 5 5 5 5 5 5 5 5 5 5 6 5 5 5 5 6 5 5 5 6 5 5 5 6 5 5 5 5 5 5 5 5 6 5 5 5 5 6 5 5 5 5 5 5 5 5 5 6 5 5 5 5 5 5 5 5 5 5 5 5 5 5 5 5 5 5 5 5 5 5 5 5 5 5 6 6 5 5 5 5 5 5 5 5 5 5 5 5 5 6 5 5 5 5 5 5 6 5 5 5 5 5 5 5 5 5 5 5 5 5 5 5 5 6 5 5 5 5 5 5 5 5 5 5 5 5 5 5 5 5 5 5 5 5 5 5 5 5 5 5 5 5 5 5 5 5 6 5 5 5 5 5 5 5 5 5 5 5 5 5 5 5 5 5 5 5 5 5 5 5 5 5 5 5 5 5 5 5 5 5 5 5 5 5 5 5 5 5 5 5 5 5 5 5 5 5 5 5 5 5 5 5 5 5 5 5 5 5 5 5 6 5 5 5 5 5 5 5 5 5 5 6 5 5 5 5 5 5 5 5 6 5 6 5 6 6 5 5 5 5 6 5 5 5 5 6 5 5 5 5 5 5 6 5 5 5 5 5 5 5 5 5 5 5 5 5 5 6 5 5 6 5 5 5 5 5 5 5 5 5 5 5 5 5 5 5 5 5 5 5 5 5 5 5 5 5 5 5 5 5 5 5 5 5 5 5 6 5 6 5 5 5 5 5 5 6 5 5 5 5 5 5 5 5 5 5 5 5 5 5 5 5 5 5 5 5 6 5 5 5 5 5 5 5 5 5 5 5 5 5 5 5 5 5 5 6 6 5 5 5 5 5 5 6 5 5 5 5 5 5 5 5 5 5 5 5 5 5 5 5 5 6 5 5 5 5 5 5 5 5 5 5 5 5 5 5 5 5 5 5 5 5 5 5 6 5 6 6 5 5 5 6 6 5 6 6 5 5 5 6 5 5 6 5 5 5 5 5 5 5 5 5 5 5 5 5 6 5 5 5 6 5 5 6 5 5 5 6 5 5 5 6 5 6 5 5 6 5 5 6 5 5 6 5 5 5 5 5 5 5 5 5 5 5 5 5 6 6 5 5 5 5 6 6 5 5 6 5 5 5 5 5 5 5 5 5 5 5 5 5 5 5 5 5 5 5 5 5 5 5 5 6 5 5 6 5 5 6 5 5 6 5 5 5 6 5 5 5 5 5 5 5 5 5 5 5 5 5 5 6 5 5 5 5 5 5 5 5 5 5 5 5 5 5 5 5 5 5 5 5 5 5 5 5 5 5 5 5 5 5 5 5 5 5 5 5 5 5 5 5 5 5 5 5 5 5 5 5 5 5 5 5 5 5 5 6 5 5 5 5 6 6 5 5 5 5 6 5 5 5 5 6 6 5 5 5 5 5 6 5 5 5 6 5 5 5 5 5 6 5 5 5 5 5 6 5 5 5 5 5 5 5 5 6 5 6 5 5 5 5 5 5 5 6 6 5 5 5 5 6 5 6 5 5 5 5 5 5 5 5 6 5 5 5 6 5 5 5 6 6 5 5 5 5 5 6 5 5 6 5 6 5 5 5 5 6 5 6 6 5 6 6 5 5 5 5 5 5 5 5 5 5 5 5 5 5 5 5 6 5 5 5 6 5 5 5 5 5 5 5 5 5 5 5 5 6 5 5 5 5 5 5 5 5 5 5 5 5 5 6 5 5 5 6 5 5 5 5 5 5 5 5 5 5 5 5 5 5 5 6 5 5 5 6 5 5 5 5 5 5 5 5 5 5 5 5 5 5 5 5 5 5 5 5 5 5 5 5 5 5 5 5 5 5 5 5 5 5 5 5 5 5 5 5 5 6 5 6 5 5 5 5 6 5 6 5 6 5 5 5 5 5 5 5 5 5 5 5 5 5 6 5 5 5 5 5 5 5 6 5 5 6 5 6 5 5 5 5 6 5 5 6 6 6 5 5 5 5 5 5 5 5 5 5 5 5 5 5 5 5 5 5 5 5 5 5 5 5 6 5 5 5 5 5 5 5 6 5 5 6 6 5 5 5 5 5 5 5 5 5 5 5 5 5 5 5 5 5 5 5 5 5 5 5 5 5 5 5 5 6 5 5 5 5 5 6 5 5 5 6 5 5 5 5 5 5 5 5 5 6 6 5 5 5 5 5 5 5 5 5 5 6 5 5 5 5 5 5 5 5 5 6 5 5 5 5 5 5 5 5 5 5 5 5 5 5 5 5 5 6 5 6 5 5 5 5 5 5 5 5 5 5 5 5 5 5 5 5 5 5 5 5 5 5 5 5 5 5 5 5 5 5 5 5 5 5 5 5 5 6 5 6 5 5 5 5 5 5 5 5 5 6 5 5 5 6 5 5 6 5 6 5 5 6 5 5 5 5 5 6 5 5 5 5 5 5 5 5 6 5 6 5 6 5 5 5 5 5 5 5 5 5 5 5 5 6 5 5 5 6 5 5 5 6 5 6 5 5 5 5 5 6 5 6 5 5 5 6 5 5 6 5 5 5 5 5 5 5 5 5 6 5 5 6 5 5 5 5 5 5 5 5 5 5 5 5 6 5 5 6 5 6 5 5 5 5 5 6 5 5 5 6 6 5 5 5 5 5 5 6 5 5 5 5 6 5 5 5 5 6 6 5 5 6 5 5 5 6 5 5 5 5 5 5 6 5 5 6 5 6 5 6 5 5 5 5 5 5 5 5 5 5 5 5 5 5 5 5 5 5 6 5 5 5 5 5 5 5 5 5 5 5 5 5 5 5 5 5 5 5 5 5 5 6 5 5 6 5 5 5 5 5 5 5 5 5 5 6 5 5 6 5 5 5 6 5 5 5 5 6 6 5 5 5 6 5 6 6 5 5 6 5 5 5 5 6 5 6 5 5 5 5 5 6 5 5 6 5 5 5 5 5 5 5 5 5 5 5 5 5 5 5 6 5 5 5 5 5 5 5 5 5 5 5 5 5 5 5 5 5 5 5 6 5 5 5 6 5 5 5 5 5 5 5 5 5 5 5 6 5 6 5 5 5 5 6 5 5 5 5 6 5 5 5 5 5 5 5 5 6 5 5 6 5 5 5 5 5 5 5 5 5 5 5 5 5 5 5 5 5 5 5 5 5 5 5 5 6 5 5 6 5 5 6 5 5 5 6 5 5 5 5 5 5 5 5 5 5 6 5 5 5 5 5 6 5 5 5 5 5 5 5 6 5 5 5 5 5 5 5 5 5 5 5 6 6 6 5 6 5 5 5 6 5 5 5 6 5 5 5 5 6 5 5 5 5 5 5 6 5 5 5 5 5 6 5 5 5 5 5 5 5 5 5 5 5 5 6 5 5 5 5 5 5 5 5 5 5 5 5 5 5 6 5 5 5 5 5 5 5 5 5 6 5 5 5 5 6 5 5 5 5 5 5 5 5 6 6 5 5 5 5 6 5 5 5 5 5 5 5 5 5 5 5 5 5 5 5 5 5 5 5 5 5 5 5 5 5 5 5 5 5 5 5 6 5 5 5 5 5 5 5 5 5 5 5 5 5 6 5 5 5 5 5 5 5 6 5 5 5 5 5 5 6 5 5 6 5 5 5 5 6 5 5 5 5 5 5 6 5 5 5 5 5 5 5 5 5 5 5 5 5 5 5 5 5 5 5 5 5 5 5 5 5 5 5 5 5 5 5 5 5 5 5 5 5 5 6 5 5 6 5 6 5 6 5 5 5 5 5 6 5 5 5 5 5 5 5 5 6 5 5 5 5 5 6 5 5 5 5 5 6 5 5 5 6 5 5 5 6 5 5 5 5 5 5 5 5 5 5 5 5 5 5 5 5 5 5 5 6 5 5 5 5 5 5 5 5 5 6 5 5 6 5 5 5 5 5 5 6 5 5 5 5 5 5 5 5 5 5 5 5 5 5 5 5 5 5 5 5 5 5 5 5 5 5 5 5 5 5 5 5 5 5 5 5 5 5 5 5 5 5 5 5 5 5 5 5 5 5 5 5 5 5 5 5 5 5 5 5 5 5 5 5 5 5 5 5 5 5 5 5 5 5 5 5 5 5 5 5 5 5 5 5 5 5 5 5 5 5 5 5 5 5 5 5 5 5 5 5 5 5 5 5 5 5 5 5 5 5 5 5 5 5 5 5 5 5 5 5 5 5 5 5 5 5 5 5 5 5 5 5 5 5 5 5 5 5 5 5 5 5 5 5 6 5 5 5 5 5 5 5 5 5 5 6 5 5 5 5 5 5 5 5 5 5 5 5 6 5 5 6 6 5 5 6 5 5 5 5 6 5 6 5 5 5 5 6 5 6 6 5 5 5 6 5 5 5 5 6 5 5 5 5 5 5 5 5 5 5 5 5 6 5 5 5 5 5 5 5 5 5 5 5 6 6 5 5 5 5 5 5 5 5 5 5 6 5 5 5 5 5 6 5 5 5 5 6 5 5 5 5 6 5 5 5 5 5 6 5 6 5 5 6 5 5 5 5 6 5 5 5 5 5 5 5 6 5 5 5 5 5 5 5 5 5 6 5 5 5 5 5 5 5 5 5 5 5 5 5 5 5 5 5 5 5 5 5 5 5 5 5 5 5 5 5 5 5 5 5 5 5 5 5 5 5 5 5 5 5 5 5 5 5 5 5 5 5 5 5 5 5 5 5 5 5 6 5 5 5 6 5 5 5 5 5 5 5 5 5 6 5 6 5 5 5 5 5 5 5 5 5 5 6 5 5 5 5 5 5 5 5 5 6 5 5 5 5 5 6 5 6 5 5 5 5 5 6 5 5 5 5 5 5 5 5 5 5 6 5 6 5 5 6 5 6 5 6 6 5 5 5 5 5 5 5 5 5 6 5 5 5 5 5 5 5 6 5 5 5 5 5 5 6 5 5 5 5 5 6 5 6 6 5 5 6 5 5 5 5 5 5 5 5 6 5 5 5 5 5 5 5 5 5 5 6 5 5 5 6 5 5 5 5 5 5 5 5 5 5 5 5 5 5 5 5 5 5 5 5 5 5 5 5 5 5 5 5 5 5 5 5 5 5 5 5 5 5 5 5 5 5 5 5 5 5 5 5 5 5 5 6 5 5 5 6 5 5 5 5 5 6 5 6 5 5 6 5 6 5 5 5 5 5 5 5 6 6 5 5 5 5 5 5 5 5 5 5 5 5 5 5 5 5 5 6 5 5 5 6 5 6 6 6 5 5 6 5 6 5 5 5 5 5 6 6 5 5 5 5 5 5 5 5 5 5 5 5 5 5 5 5 6 5 6 5 5 5 5 6 5 6 5 5 5 5 5 5 6 5 6 5 6 6 5 6 5 5 6 5 6 5 5 5 6 5 5 5 5 5 6 5 5 5 5 5 5 5 5 5 6 5 5 5 5 5 5 6 6 5 6 5 5 6 5 5 5 6 5 5 5 5 6 5 5 5 5 5 5 5 5 5 6 5 5 5 6 6 5 6 5 5 5 5 5 5 5 5 5 5 5 5 6 5 6 5 5 5 5 5 5 5 5 5 6 6 5 5 5 5 5 5 5 5 5 5 6 6 5 5 5 5 5 5 6 5 5 5 5 5 5 5 5 5 6 5 6 5 5 5 5 5 5 6 5 5 6 6 5 5 5 5 5 5 6 5 6 5 5 5 5 6 5 6 5 5 5 5 6 5 5 6 5 5 5 5 5 6 6 5 5 5 5 5 6 5 5 5 5 6 5 5 5 6 6 5 5 5 5 5 5 6 5 5 5 5 5 5 6 5 5 5 6 5 6 5 5 5 5 5 5 5 5 5 5 5 5 5 5 5 5 6 5 6 5 5 5 6 5 5 5 5 5 6 5 5 5 5 5 6 5 5 6 5 5 6 5 5 5 5 5 5 6 5 5 5 6 5 5 5 5 5 5 5 5 5 5 5 5 6 5 6 5 5 5 5 5 5 5 5 5 5 5 5 5 5 5 5 5 5 5 5 5 5 5 5 5 5 5 5 5 5 5 5 5 5 5 5 5 5 5 5 5 5 5 5 5 5 5 6 5 5 5 5 6 5 5 5 5 5 5 5 6 5 5 5 5 6 5 5 5 5 5 5 5 5 5 5 5 5 5 5 6 5 5 5 5 5 5 5 6 5 5 5 5 5 5 5 5 5 5 5 5 5 5 5 5 5 5 5 5 5 5 5 5 6 5 5 6 5 5 5 5 5 5 5 5 5 5 5 5 5 5 5 5 5 5 5 5 5 5 5 5 6 5 5 5 5 5 5 5 5 5 5 5 5 5 5 6 5 5 5 5 5 5 5 6 5 5 5 5 5 5 5 5 5 5 5 5 5 5 5 5 5 5 5 5 5 5 5 5 5 5 5 5 5 5 5 5 5 5 5 5 5 5 5 5 5 5 5 5 5 5 5 5 5 5 5 5 5 5 6 6 5 5 5 6 5 5 6 5 5 5 6 5 5 5 5 5 5 5 5 5 5 5 5 5 5 5 5 5 5 5 5 5 5 5 5 5 5 5 6 5 5 5 5 5 5 6 5 5 5 6 5 5 6 5 6 6 5 5 5 6 5 6 5 5 5 6 6 5 6 5 5 5 6 5 6 6 5 5 6 5 5 5 5 5 5 5 5 5 5 5 6 5 6 5 6 5 5 6 5 6 6 5 5 5 5 5 6 6 5 5 5 5 5 5 5 5 6 5 5 5 5 5 5 5 6 5 6 6 5 5 5 6 6 5 5 6 5 5 6 6 5 6 5 5 5 5 5 5 5 6 5 5 5 5 5 5 5 5 6 5 5 5 5 6 5 5 6 5 6 5 5 5 5 5 5 5 5 5 5 5 5 5 5 5 5 5 5 5 6 5 5 6 5 5 5 5 5 5 6 5 6 5 5 6 5 5 5 6 5 5 6 6 5 6 5 5 5 5 5 5 5 5 6 5 6 5 5 5 5 5 6 5 5 6 6 5 5 5 5 5 6 5 5 6 5 5 6 5 5 6 5 6 5 6 5 6 5 6 5 5 5 5 5 5 5 5 5 6 5 5 5 5 5 6 5 6 5 5 5 5 5 6 5 5 5 5 5 5 5 5 6 5 5 6 5 5 5 5 5 5 5 5 5 5 5 6 5 5 5 5 5 5 6 5 5 5 5 5 6 5 5 5 5 5 5 5 5 5 5 5 5 5 5 5 5 5 5 5 6 6 5 5 5 5 5 5 5 5 6 5 5 5 5 5 5 5 5 5 5 5 5 5 5 5 6 6 5 5 6 5 5 5 6 5 6 5 5 5 5 5 5 6 6 5 5 5 5 5 5 5 5 5 5 5 5 5 5 5 6 6 5 5 5 5 5 5 5 6 5 5 5 5 5 5 5 5 6 5 5 5 5 5 5 5 5 5 5 5 5 5 5 5 5 5 5 5 5 5 5 5 5 5 6 5 5 6 5 5 5 5 5 5 5 5 5 5 5 5 5 5 5 5 5 5 5 5 5 5 5 5 5 5 5 5 5 5 6 5 5 5 5 5 5 6 5 5 5 5 6 5 5 6 5 5 6 5 6 5 5 5 6 5 6 5 5 5 6 5 6 5 5 5 6 6 5 5 5 6 5 5 5 5 5 5 5 5 5 5 5 5 6 5 5 6 5 5 6 5 6 5 6 5 5 6 5 5 5 5 5 5 5 5 5 5 6 5 5 5 6 5 6 5 6 5 5 5 5 5 6 5 6 5 5 5 5 6 5 6 5 5 5 5 5 5 5 5 5 5 5 5 5 5 5 5 5 5 5 5 5 5 5 5 5 5 5 6 5 5 5 5 5 5 5 5 5 5 5 5 5 5 5 5 5 5 6 5 5 5 5 5 5 5 5 5 5 5 5 5 5 6 5 6 5 5 6 6 6 5 5 5 5 5 6 5 6 5 6 5 5 5 6 5 5 6 5 6 6 6 5 5 5 5 5 5 5 6 5 5 5 5 5 6 5 5 5 5 5 5 5 5 5 5 5 5 5 5 5 5 5 5 6 5 5 5 5 5 5 5 6 5 5 5 5 5 5 5 5 5 5 5 5 6 5 5 6 5 5 5 5 5 5 5 5 5 5 6 5 6 5 5 5 5 5 5 5 6 5 5 5 5 6 5 5 5 5 5 5 5 5 5 5 6 5 5 5 5 5 6 5 5 5 5 5 5 6 5 5 5 5 5 5 5 5 5 5 5 5 6 5 5 5 5 5 5 5 5 6 5 5 5 5 6 5 5 5 6 5 5 5 5 5 5 6 5 5 5 6 5 5 5 5 5 5 5 6 5 5 6 5 5 6 5 5 5 5 5 5 5 5 6 5 6 5 5 5 5 5 6 5 5 5 5 5 5 5 5 5 6 5 5 6 5 5 5 5 6 5 5 6 5 5 5 5 6 5 5 5 5 5 5 6 5 5 5 5 5 5 5 6 5 6 5 5 5 5 5 5 5 5 5 5 5 5 5 5 6 5 5 5 5 5 5 5 5 6 6 5 5 5 5 5 5 6 5 5 5 5 5 5 5 5 5 5 5 5 5 5 5 5 5 5 5 5 5 5 5 6 5 5 5 5 5 5 5 5 5 5 5 5 5 5 5 6 5 5 5 5 5 5 5 5 5 5 5 5 5 5 5 5 5 5 5 5 5 5 5 5 5 5 5 5 5 6 5 5 5 5 5 5 5 5 5 5 5 6 5 5 5 6 5 5 5 5 5 5 5 5 5 6 5 5 5 5 5 5 6 5 5 5 6 6 5 6 6 5 6 5 5 5 5 5 5 5 5 5 5 5 6 5 5 5 5 6 5 5 6 5 5 5 5 5 5 5 5 5 5 6 5 5 5 5 5 5 6 5 5 5 6 5 5 5 5 5 5 5 5 5 5 5 5 6 5 5 5 5 5 5 6 6 5 5 5 5 5 5 5 5 5 5 5 5 5 5 5 5 5 5 5 5 5 5 5 5 5 6 5 5 5 5 5 5 5 6 5 5 5 5 5 6 5 6 5 5 5 5 5 5 5 6 5 5 5 5 5 5 5 5 5 5 5 5 5 5 5 5 5 5 5 5 5 5 5 5 5 5 5 5 5 5 5 5 5 5 5 5 5 5 5 5 5 5 5 5 5 5 5 6 5 5 5 6 5 5 5 6 5 5 5 5 5 6 5 5 5 5 5 5 5 5 5 5 5 5 5 5 5 5 5 5 5 5 5 5 6 5 5 5 5 6 6 5 5 5 5 6 5 5 6 5 6 5 6 6 5 5 6 6 5 5 5 5 5 5 6 5 5 5 5 5 5 5 5 6 5 5 5 5 5 5 5 5 5 5 5 5 5 5 5 5 5 5 5 5 5 5 5 5 5 5 5 5 5 5 5 5 5 5 5 5 5 5 5 5 5 5 5 5 5 5 5 5 5 5 5 5 5 5 5 5 5 5 5 5 5 5 6 5 5 5 6 5 5 5 5 5 5 5 5 5 5 5 5 5 5 5 5 5 5 5 5 5 5 5 5 5 5 5 5 6 5 5 5 5 5 5 5 5 5 5 5 5 6 5 5 5 5 6 5 5 5 5 5 5 6 5 6 5 5 5 5 5 5 5 5 6 5 5 5 5 5 5 6 5 6 5 5 6 5 5 5 6 5 5 5 5 5 5 5 5 5 5 5 5 5 5 5 6 5 5 5 5 5 5 5 5 5 5 6 5 5 5 5 5 5 5 5 5 5 5 5 5 5 5 5 5 5 5 5 5 5 5 5 6 6 5 5 6 5 5 5 5 5 5 5 5 6 5 5 5 5 5 5 5 5 5 6 5 5 5 5 5 5 5 5 5 5 5 5 5 5 5 5 5 5 5 5 5 5 5 5 5 5 5 5 6 5 5 5 5 5 5 5 5 5 6 5 5 5 5 5 5 5 5 5 5 5 6 
</DataArray>
<DataArray type="Float64" Name="stress" NumberOfComponents="9" format="ascii">
-498.95299040351665 145.1313706594683 0 145.1313706594683 56.375088297890315 0 0 0 0 -255.89170169037607 23.623134264360996 0 23.623134264360996 -0.23511698149169313 0 0 0 0 -176.66023506299376 255.11497760002237 0 255.11497760002237 -177.54024107216264 0 0 0 0 -173.55650408586914 55.007058056593785 0 55.007058056593785 4.0658048740260426 0 0 0 0 -9.1130083255393401 -20.497881205432208 0 -20.497881205432208 -14.506313312913012 0 0 0 0 -0.018632293219887686 0.14863968863098265 0 0.14863968863098265 0.85679045864700687 0 0 0 0 -22.381350039660902 18.77308645247701 0 18.77308645247701 -7.845860737406035 0 0 0 0 -46.653743763970851 95.048219509134157 0 95.048219509134157 -54.235521609056832 0 0 0 0 -76.148252468001374 54.603155682201859 0 54.603155682201859 -68.24692879390075 0 0 0 0 -80.414924861337568 62.467249030881746 0 62.467249030881746 -0.99247824351800951 0 0 0 0 -15.630047104488767 -14.416297912614709 0 -14.416297912614709 -19.148680551511688 0 0 0 0 -85.042217045270263 20.435032847218352 0 20.435032847218352 0.0090453207419296366 0 0 0 0 -193.68263538990686 104.47269010123387 0 104.47269010123387 -6.0072584454718259 0 0 0 0 -5.4160839838441461 19.110653105323749 0 19.110653105323749 -22.324637437150997 0 0 0 0 -0.18117777274906643 -0.010842596993221321 0 -0.010842596993221321 0.011354354434766116 0 0 0 0 -89.542804154631085 24.554628298173203 0 24.554628298173203 -8.2134877751802513 0 0 0 0 -37.292219165534334 14.119743428748427 0 14.119743428748427 -6.7511671544149987 0 0 0 0 -0.96395631096288525 -0.077595193079746841 0 -0.077595193079746841 -0.00046470773817872487 0 0 0 0 -81.602770828822031 5.2536174880434343 0 5.2536174880434343 -13.268358257894858 0 0 0 0 -90.255156340666872 -21.365088511748887 0 -21.365088511748887 2.3451671922542765 0 0 0 0 -113.0391862418619 -2.1893068308979413 0 -2.1893068308979413 -0.027278143350710292 0 0 0 0 -0.49420292874453953 -0.15710931967882402 0 -0.15710931967882402 0.0086248221901891707 0 0 0 0 -1.8683687745506177 2.4038981082615063 0 2.4038981082615063 -8.6690495819791131 0 0 0 0 -0.29083029387442849 -0.090370000187398603 0 -0.090370000187398603 -0.13612621584642237 0 0 0 0 -46.389259821151427 -6.7183316437742082 0 -6.7183316437742082 -7.4722968129785698 0 0 0 0 -0.092400753366994159 -0.27545997848836734 0 -0.27545997848836734 -0.67780384453932463 0 0 0 0 -0.87333593703306178 -1.4211477979454807 0 -1.4211477979454807 -0.22617079837201004 0 0 0 0 -1.1925402769322986 -0.05015900651665639 0 -0.05015900651665639 0.32404803303777141 0 0 0 0 -6.1915351819334319 -5.3528426955292048 0 -5.3528426955292048 -3.1327327769464546 0 0 0 0 -52.900127752898698 -7.6060367249268328 0 -7.6060367249268328 -0.77299283413529452 0 0 0 0 -58.179679963311173 -9.3857416730960885 0 -9.3857416730960885 1.4614444990274755 0 0 0 0 -0.10082770151984377 -0.14096319958560954 0 -0.14096319958560954 -0.25604171768694367 0 0 0 0 0.14847227845621092 2.936150042805826 0 2.936150042805826 -0.82536226764929665 0 0 0 0 -35.421019243494811 12.172632682642785 0 12.172632682642785 -11.674428731961704 0 0 0 0 -0.27426022292613084 -0.048042743211674122 0 -0.048042743211674122 0.20860419131934382 0 0 0 0 -55.380363401278146 3.4089710722350834 0 3.4089710722350834 -4.5710102842904092 0 0 0 0 -11.175958352436282 8.0744388746566216 0 8.0744388746566216 -3.5759041746172713 0 0 0 0 -28.171548614343919 -3.1108585371779469 0 -3.1108585371779469 -10.122583682279135 0 0 0 0 -23.838794530096493 16.495597691727987 0 16.495597691727987 -10.856267257490561 0 0 0 0 -21.036216766633515 9.4204883909180026 0 9.4204883909180026 0.23946326599492096 0 0 0 0 -11.323575957437242 8.9561778363207889 0 8.9561778363207889 -1.3423743776878041 0 0 0 0 -19.017450552183618 -1.1756355930635269 0 -1.1756355930635269 17.777273245231655 0 0 0 0 -15.733832397536382 -0.41351311516389888 0 -0.41351311516389888 0.51870771471677402 0 0 0 0 -30.179465514805997 -11.805634863010368 0 -11.805634863010368 52.727187257523212 0 0 0 0 -21.987311127948487 20.375309179715984 0 20.375309179715984 57.668786591842917 0 0 0 0 -20.105359576386718 -19.1633993285405 0 -19.1633993285405 9.687623409215389 0 0 0 0 23.385934619444015 22.71732902318621 0 22.71732902318621 45.994066188427325 0 0 0 0 -0.092721284190226072 -0.18254980054210002 0 -0.18254980054210002 -0.12635394502110853 0 0 0 0 -0.14805072448650236 0.077501348167164252 0 0.077501348167164252 -0.014887725544107583 0 0 0 0 -38.921722343232432 -42.369154575981113 0 -42.369154575981113 -46.162417402050409 0 0 0 0 -89.873681529566966 1.4366779852774698 0 1.4366779852774698 6.505996536077717 0 0 0 0 -39.375339184611221 -33.263475343288633 0 -33.263475343288633 -25.219513769946261 0 0 0 0 27.426360299177759 9.5089432671371554 0 9.5089432671371554 -18.986494654623733 0 0 0 0 -101.17137397648185 -69.207065422585544 0 -69.207065422585544 53.980171411905516 0 0 0 0 -24.39394546778567 -3.9599959933975128 0 -3.9599959933975128 42.230813342981662 0 0 0 0 -14.121051386663474 -0.022048727321340778 0 -0.022048727321340778 0.5169348155246859 0 0 0 0 -83.309258978351863 -47.409342322619977 0 -47.409342322619977 70.765730579068105 0 0 0 0 -13.805966706448999 10.956819412128851 0 10.956819412128851 3.2377809599692569 0 0 0 0 -22.139925557082279 10.737311531479321 0 10.737311531479321 25.420040821377683 0 0 0 0 -13.607017411909055 -9.9439996898308465 0 -9.9439996898308465 20.907750042858424 0 0 0 0 -28.093104622503233 16.993559975173639 0 16.993559975173639 7.6822177232772049 0 0 0 0 -14.260752291620065 -25.883914337481272 0 -25.883914337481272 6.8770005369099181 0 0 0 0 -32.060673297392896 3.6932198530510618 0 3.6932198530510618 33.612237874625691 0 0 0 0 -14.369323901257303 3.6644549412746699 0 3.6644549412746699 0.19269787588393683 0 0 0 0 -53.264460181033428 -16.514662628370189 0 -16.514662628370189 -1.5701099064499857 0 0 0 0 3.4557619901497674 -14.81734339370189 0 -14.81734339370189 4.8809894155793856 0 0 0 0 3.199956503634894 -11.546334383355941 0 -11.546334383355941 -2.6746770445588766 0 0 0 0 -3.2239463336372864 -9.0425191342299058 0 -9.0425191342299058 -1.2118034223554446 0 0 0 0 -9.9517578425047759 -16.190670220230714 0 -16.190670220230714 27.65663471275559 0 0 0 0 -13.39839125421895 -17.865407094142654 0 -17.865407094142654 27.223640313211888 0 0 0 0 -9.3991963353410029 -18.965339958378522 0 -18.965339958378522 21.323952304449676 0 0 0 0 -3.067035372104975 -1.5689913932164332 0 -1.5689913932164332 1.3819790810281565 0 0 0 0 -11.310730899651389 9.1047224067006027 0 9.1047224067006027 36.728907582980355 0 0 0 0 -10.456645972897377 -2.8271102270695216 0 -2.8271102270695216 10.481611589168097 0 0 0 0 -23.977594856614814 -8.5271322964242131 0 -8.5271322964242131 15.581797151690438 0 0 0 0 -7.8028888255348647 -8.8258875563151378 0 -8.8258875563151378 -7.1517909819871193 0 0 0 0 -22.161853550995147 -26.723831731028469 0 -26.723831731028469 -7.3897320893085574 0 0 0 0 -4.0571764287378755 -13.450526811467874 0 -13.450526811467874 9.7865597916430733 0 0 0 0 -8.2960530405471218 14.022864236412715 0 14.022864236412715 8.2756765851896112 0 0 0 0 -4.1991913871788711 -19.721672075489607 0 -19.721672075489607 34.209627631941743 0 0 0 0 -498.55997209550151 70.256742872215753 0 70.256742872215753 72.257979710649408 0 0 0 0 10.521717074760545 -60.110656661514277 0 -60.110656661514277 -112.85659270973463 0 0 0 0 -0.71687902680321969 -0.67102224099473062 0 -0.67102224099473062 -0.96879911174605748 0 0 0 0 20.667521930055955 27.068328246529632 0 27.068328246529632 -0.62862928634092441 0 0 0 0 -61.809778959443065 -62.59812646707401 0 -62.59812646707401 -75.509469133742101 0 0 0 0 -1.338770002085198 -0.6383099516438242 0 -0.6383099516438242 -0.045872180208743278 0 0 0 0 -75.451068921427577 -77.904417078065137 0 -77.904417078065137 -74.985407792916334 0 0 0 0 -84.503641024715762 105.35458059350208 0 105.35458059350208 -146.72177079192269 0 0 0 0 -1.9365059865449403 -1.9181417033718109 0 -1.9181417033718109 -1.33647162079611 0 0 0 0 -17.595870869310602 -7.9365717005236434 0 -7.9365717005236434 6.8733936087769507 0 0 0 0 -7.8178727157362466 0.44212417491781286 0 0.44212417491781286 0.76620182804741888 0 0 0 0 -0.21364676998962295 -2.6414654543572293 0 -2.6414654543572293 3.0923780344272052 0 0 0 0 -22.717859803447482 -12.321145983355947 0 -12.321145983355947 10.331390698782684 0 0 0 0 -2.089007763328727 -0.71183153746583372 0 -0.71183153746583372 0.77135152070459634 0 0 0 0 -4.0234217735054223 0.95813729659521485 0 0.95813729659521485 -0.18932403764422656 0 0 0 0 -108.08591664433334 5.308885729061668 0 5.308885729061668 4.7489284913228538 0 0 0 0 -6.5373435327383049 0.29096407565741345 0 0.29096407565741345 2.3183204445918513 0 0 0 0 -8.5584805781072646 6.7635138665886885 0 6.7635138665886885 -15.990531313024107 0 0 0 0 -3.8279115509105281 2.9904763321986341 0 2.9904763321986341 -1.5184504952655471 0 0 0 0 -108.95999625079276 -5.8313723695028541 0 -5.8313723695028541 20.815214599187357 0 0 0 0 -499.26260598744437 101.83922059744945 0 101.83922059744945 61.652224476455167 0 0 0 0 51.863528998123002 22.162355014053556 0 22.162355014053556 -225.14811531240167 0 0 0 0 -499.40250025333262 -149.14509576680879 0 -149.14509576680879 -12.653677731344633 0 0 0 0 -1.6425882780672509 0.94256359670356638 0 0.94256359670356638 -1.0868091684776828 0 0 0 0 -47.755649981490478 54.547935127644131 0 54.547935127644131 3.8848352018200103 0 0 0 0 -21.241328714990232 10.836542069789143 0 10.836542069789143 5.2118132095789136 0 0 0 0 -0.97712557680391754 1.4931216320589229 0 1.4931216320589229 2.0187133761084537 0 0 0 0 -24.098063202632829 -28.848688016108451 0 -28.848688016108451 -7.5359679411573666 0 0 0 0 -15.73161795192209 8.710907973560154 0 8.710907973560154 -3.9350233408076178 0 0 0 0 -16.361025462599898 -0.059758578793990935 0 -0.059758578793990935 0.5683362825698508 0 0 0 0 -21.950538962719293 6.4258012828877114 0 6.4258012828877114 19.123488929468685 0 0 0 0 -16.358156358622182 12.527414509913886 0 12.527414509913886 10.814041855349046 0 0 0 0 -14.403434515776098 3.6758092816893502 0 3.6758092816893502 2.0375656886645537 0 0 0 0 -9.0570030944635924 1.3601098471084665 0 1.3601098471084665 0.71923034312614753 0 0 0 0 -145.50816283376844 19.349514703720104 0 19.349514703720104 11.712598483726691 0 0 0 0 -40.740342369094719 25.670193338963166 0 25.670193338963166 -24.312350292918882 0 0 0 0 9.1587123452263768 -1.4894691782306921 0 -1.4894691782306921 -15.279873627048175 0 0 0 0 -42.841020649863822 7.6008253483532826 0 7.6008253483532826 -5.6612442615342502 0 0 0 0 -1.4555102278850303 3.0944287109470174 0 3.0944287109470174 -4.3113650094944589 0 0 0 0 0.65739268747331536 -0.17951151782228081 0 -0.17951151782228081 -0.78686904318058404 0 0 0 0 -4.4753641276147391 -0.06476300803774393 0 -0.06476300803774393 -1.0642956480396508 0 0 0 0 -31.604325586974255 -5.5810496963827667 0 -5.5810496963827667 0.59100056537076284 0 0 0 0 -4.2664927078351269 -0.11444207719403554 0 -0.11444207719403554 -0.0063914145376762106 0 0 0 0 -26.951772154799755 11.61339322397488 0 11.61339322397488 -18.159362615549817 0 0 0 0 -132.33665170872882 86.68711259102848 0 86.68711259102848 -35.808964759557192 0 0 0 0 -1.5947009563320975 -0.13080542296817688 0 -0.13080542296817688 -0.080696014456657653 0 0 0 0 -142.52924256257029 -59.392328163684013 0 -59.392328163684013 -1.0968052223401514 0 0 0 0 -0.16547783924033865 -17.990834606712603 0 -17.990834606712603 6.9798754634219335 0 0 0 0 -43.803387967654999 -88.7887294136561 0 -88.7887294136561 -104.87898220314551 0 0 0 0 -101.47083207472133 -105.64611042743397 0 -105.64611042743397 43.364054606817056 0 0 0 0 -0.95913001915430129 -0.20137010924063325 0 -0.20137010924063325 0.014111812725897347 0 0 0 0 -105.84063210703789 32.617253268001569 0 32.617253268001569 -2.2612148775881264 0 0 0 0 -67.172938707648427 -4.7470501997194186 0 -4.7470501997194186 0.067970858985666766 0 0 0 0 -204.10016195095523 -40.451139368982865 0 -40.451139368982865 0.20929025851777538 0 0 0 0 -13.709909365508793 22.644715263588196 0 22.644715263588196 -83.91509424803192 0 0 0 0 -51.449120467719695 -9.6143697369689107 0 -9.6143697369689107 28.319690688532063 0 0 0 0 45.358211372291407 22.98143891977216 0 22.98143891977216 -15.041246438006823 0 0 0 0 -12.116090056659687 9.1735629589560261 0 9.1735629589560261 27.121941620226352 0 0 0 0 -16.340757968939215 -0.19154374910053207 0 -0.19154374910053207 2.3999047265500337 0 0 0 0 -12.480310759148779 7.5290024479716706 0 7.5290024479716706 2.3525240527990867 0 0 0 0 -1.717676484998881 0.26736907369693697 0 0.26736907369693697 0.51821517600469624 0 0 0 0 -5.0448474003107542 2.5065201657824367 0 2.5065201657824367 -0.37737634768288353 0 0 0 0 56.629558150818411 -14.975638110021254 0 -14.975638110021254 -66.618231340815925 0 0 0 0 -0.010306506603463994 0.085870515320245033 0 0.085870515320245033 0.073057949175347345 0 0 0 0 -4.6795606253654114 -0.060867251873538919 0 -0.060867251873538919 -0.83712463788167923 0 0 0 0 -30.833724151753813 3.3261114937233822 0 3.3261114937233822 4.2793997154379717 0 0 0 0 -6.4210074020811589 8.1490938091159819 0 8.1490938091159819 -0.003464399894517464 0 0 0 0 8.4341355795513664 1.1596026253733684 0 1.1596026253733684 0.800527176697722 0 0 0 0 -0.72641130842487556 0.16650151595822038 0 0.16650151595822038 0.015740910376866184 0 0 0 0 -1.8695057233308034 9.8749222771040817 0 9.8749222771040817 -1.4540504622247061 0 0 0 0 -2.7750722762605164 0.71480176283857944 0 0.71480176283857944 -0.19321323075497845 0 0 0 0 -4.8881858190798084 0.56182603871226888 0 0.56182603871226888 1.6193284804032828 0 0 0 0 -3.6134515601897874 0.81270362373710725 0 0.81270362373710725 -0.60279330991440006 0 0 0 0 -2.9237589847629337 -0.0033376393874338106 0 -0.0033376393874338106 0.32415668315057705 0 0 0 0 -4.2513838517247677 1.5689812641227974 0 1.5689812641227974 1.2736661665133511 0 0 0 0 -4.4788688859889589 1.6035699420689014 0 1.6035699420689014 1.2889808801824074 0 0 0 0 -5.7411813164308114 0.47234484294354218 0 0.47234484294354218 1.6290896080388961 0 0 0 0 -5.7735791403009671 2.6915732538161556 0 2.6915732538161556 -0.65954985311806857 0 0 0 0 -8.214662600257725 8.4784172786870613 0 8.4784172786870613 6.4325377380595583 0 0 0 0 -13.389124915302546 -0.88599981752699364 0 -0.88599981752699364 13.378969307913849 0 0 0 0 -9.3623646775249654 10.308703938948156 0 10.308703938948156 3.9726526191029734 0 0 0 0 -4.2237634353445479 3.3936255680612373 0 3.3936255680612373 -2.3781462329752854 0 0 0 0 -3.6587220538693348 0.50154531459750373 0 0.50154531459750373 -0.76211471541289977 0 0 0 0 -1.9946818310345407 2.1814157620904098 0 2.1814157620904098 -0.0051831217750049063 0 0 0 0 -4.9510327050709435 2.805481171138462 0 2.805481171138462 -1.4450793520979575 0 0 0 0 -6.6499058942372358 8.4688870567484855 0 8.4688870567484855 1.0295390093563128 0 0 0 0 -5.9884099989139941 15.785141049999652 0 15.785141049999652 -7.9220014602533411 0 0 0 0 6.8508430323672656 11.611253628048019 0 11.611253628048019 -9.2620707057467371 0 0 0 0 0.18886745693089324 7.728109288829387 0 7.728109288829387 0.53912263894784473 0 0 0 0 -2.1197597709960974 8.9048032854611847 0 8.9048032854611847 -8.3798700854633594 0 0 0 0 -26.276672574578697 24.471987365279062 0 24.471987365279062 -8.8488924143410941 0 0 0 0 -10.842860573872713 10.150214014073015 0 10.150214014073015 4.0191842613955941 0 0 0 0 -41.374592418676912 6.2503328013307282 0 6.2503328013307282 11.171820199592275 0 0 0 0 -29.588649643352255 -11.074485135487748 0 -11.074485135487748 6.4155737917790532 0 0 0 0 -23.481938059394452 2.361473389172204 0 2.361473389172204 13.230904677084254 0 0 0 0 -10.426031139606494 -12.154801809367768 0 -12.154801809367768 5.5127041622560569 0 0 0 0 -18.346253454568796 7.541948342698106 0 7.541948342698106 5.8862929128606538 0 0 0 0 -1.2877535937694322 -5.9733012585143657 0 -5.9733012585143657 5.9343945104362774 0 0 0 0 -2.6213996378537558 -5.6555189293144394 0 -5.6555189293144394 9.8027559350866795 0 0 0 0 -3.4326284198436312 -2.1061357786980288 0 -2.1061357786980288 4.9806097896916901 0 0 0 0 -1.2901378166873076 -3.2990937413558727 0 -3.2990937413558727 6.5474069152862739 0 0 0 0 -2.2586928300544713 -3.1003768925373585 0 -3.1003768925373585 3.1443432932908904 0 0 0 0 -1.0435329747442452 -1.7272374589579496 0 -1.7272374589579496 0.4160723133949577 0 0 0 0 -2.9427600028728591 -0.82141519783019257 0 -0.82141519783019257 0.66051268466442936 0 0 0 0 -3.6031668891664594 -2.403513929560205 0 -2.403513929560205 3.4374390045106225 0 0 0 0 -6.1310131359896332 -0.39560054993912297 0 -0.39560054993912297 -0.62289948383966642 0 0 0 0 -5.0028306752174103 -1.3856727802186555 0 -1.3856727802186555 0.0089787661276367059 0 0 0 0 -1.3743618134103599 -1.1749310032700784 0 -1.1749310032700784 3.0840865536095166 0 0 0 0 -2.1532977197890659 -0.48864947759084387 0 -0.48864947759084387 1.0720716001992892 0 0 0 0 -14.129176356138487 -0.40823351797052965 0 -0.40823351797052965 14.250755857785578 0 0 0 0 -0.34754900408734102 -3.3210176464762071 0 -3.3210176464762071 3.4382171117473597 0 0 0 0 -3.387104577741411 -1.0136325515780982 0 -1.0136325515780982 2.4562455696486722 0 0 0 0 -5.1708394327230707 -1.5256691572203138 0 -1.5256691572203138 3.4031457408549626 0 0 0 0 -8.5363565167826891 -2.1052651176022437 0 -2.1052651176022437 14.440207258159717 0 0 0 0 -3.4415760051412008 -1.6286626662461199 0 -1.6286626662461199 0.64037109530213143 0 0 0 0 -6.46051503817948 0.43332163803346124 0 0.43332163803346124 1.2978083081925482 0 0 0 0 -3.3751268340856768 -0.98478145403737471 0 -0.98478145403737471 1.9045844874473232 0 0 0 0 -7.4785836958522296 1.5480487963065066 0 1.5480487963065066 1.0066883422508144 0 0 0 0 -0.86339426874338443 -3.6568367420230077 0 -3.6568367420230077 1.2519042924800023 0 0 0 0 -9.408982808367 -9.2531994941136873 0 -9.2531994941136873 6.2820815889708683 0 0 0 0 -5.7397208639522432 -3.8537733536561518 0 -3.8537733536561518 9.1815474694403747 0 0 0 0 -11.089362721715588 -6.6792409486683937 0 -6.6792409486683937 17.899784622115931 0 0 0 0 -2.4250077209182805 -1.5576708129016197 0 -1.5576708129016197 2.6572853464324151 0 0 0 0 -15.411012775646668 2.0968388544793015 0 2.0968388544793015 9.0407938660663376 0 0 0 0 -16.908151876596094 -1.6195397216558831 0 -1.6195397216558831 14.949499078239569 0 0 0 0 -2.2729961755227848 -0.74873440290402016 0 -0.74873440290402016 0.17036643009546609 0 0 0 0 -6.6435125610460091 -0.18390581316380275 0 -0.18390581316380275 0.5661325072425597 0 0 0 0 -6.8670734755196463 -0.86931820225088385 0 -0.86931820225088385 -0.060265008075988502 0 0 0 0 -1.224986120038011 -0.0325615977933797 0 -0.0325615977933797 9.938511689294141e-05 0 0 0 0 -0.52731426423647321 -0.22041470081240888 0 -0.22041470081240888 -0.0084483193974127877 0 0 0 0 -3.9641005660341762 -0.80639797117295409 0 -0.80639797117295409 -0.037775498090069574 0 0 0 0 -5.5323769049427938 0.033229201704023187 0 0.033229201704023187 -0.00060402456066897087 0 0 0 0 -5.1841035930183352 -0.32967405092998614 0 -0.32967405092998614 0.14466216400940551 0 0 0 0 -3.0351415788154554 -0.73228406868049589 0 -0.73228406868049589 -0.48345855122679227 0 0 0 0 -6.0645228852945365 -1.2835740294545863 0 -1.2835740294545863 0.34699872339759241 0 0 0 0 -1.6072223803379231 0.034319072022324093 0 0.034319072022324093 0.24952883094681108 0 0 0 0 -3.321251474622386 -0.08321970708187762 0 -0.08321970708187762 0.14270627118036655 0 0 0 0 -3.5325578290294288 0.05775959108214427 0 0.05775959108214427 0.00033840867441665908 0 0 0 0 -1.5819629023644666 0.070479141980256593 0 0.070479141980256593 0.22501507895207398 0 0 0 0 -1.5825098240693478 -0.64966742255840226 0 -0.64966742255840226 -0.24130989864385616 0 0 0 0 0.12946201003978786 2.7904730056375087 0 2.7904730056375087 -0.80905509660206576 0 0 0 0 -0.096869326521300536 0.036492091345067812 0 0.036492091345067812 0.034736929683778367 0 0 0 0 -1.6370159133004876 -1.3955287312363449 0 -1.3955287312363449 -0.50133454712963754 0 0 0 0 0.90750497969384014 -3.189623288570731 0 -3.189623288570731 -3.4451947639451737 0 0 0 0 -2.2087916603595659 -2.2490349708537014 0 -2.2490349708537014 1.5711764632893139 0 0 0 0 -2.0962402293516789 -7.60093995763647 0 -7.60093995763647 2.7345099242670585 0 0 0 0 -1.5648180441421573 -12.445249439257065 0 -12.445249439257065 6.3410601305246654 0 0 0 0 -0.58359778803928464 -0.58777123518111907 0 -0.58777123518111907 -0.56538496171264452 0 0 0 0 -4.2486272370451843 -1.4440063381001353 0 -1.4440063381001353 2.5238320392514986 0 0 0 0 20.858949067336653 8.6172956230630291 0 8.6172956230630291 2.0927274345935301 0 0 0 0 29.2333829843883 -6.3412060533115948 0 -6.3412060533115948 8.2223132301070834 0 0 0 0 -2.317381363511231 -4.0642948536076648 0 -4.0642948536076648 8.7947826529109356 0 0 0 0 0.74609741172389477 -14.279716923272503 0 -14.279716923272503 19.513566108925303 0 0 0 0 -10.86298348126374 -0.11838160883447912 0 -0.11838160883447912 1.0150279987094264 0 0 0 0 -8.5736842342885211 -7.9886582556338226 0 -7.9886582556338226 16.358300289127072 0 0 0 0 -18.067598700181406 5.6290380861053109 0 5.6290380861053109 18.564514803476129 0 0 0 0 -2.7269873712575645 5.5462140765120012 0 5.5462140765120012 9.1071143090395026 0 0 0 0 -1.7505989750613331 0.26957860990281546 0 0.26957860990281546 0.16644364548560731 0 0 0 0 -15.156567602924042 11.110893876315686 0 11.110893876315686 11.963785911905745 0 0 0 0 -3.2048013055009505 1.5599566873340791 0 1.5599566873340791 13.427785209896342 0 0 0 0 -19.229253486041216 21.033492909054345 0 21.033492909054345 -5.455743087258611 0 0 0 0 -27.942406876052701 6.4368763484440592 0 6.4368763484440592 18.543706561831357 0 0 0 0 -29.846995579238865 48.139304860430656 0 48.139304860430656 -47.810354223832263 0 0 0 0 -0.23195457474322723 0.32200397214329168 0 0.32200397214329168 0.24681179060808395 0 0 0 0 -20.748798422919208 19.965136551064205 0 19.965136551064205 -6.9008576880358667 0 0 0 0 -15.251855023189819 14.572911937045376 0 14.572911937045376 -12.794023351372061 0 0 0 0 -10.142097982452924 18.969639871846312 0 18.969639871846312 -7.0229508086175656 0 0 0 0 4.2257763132802211 -11.191369274661128 0 -11.191369274661128 57.449402876960647 0 0 0 0 -17.555419236021862 25.106757214759426 0 25.106757214759426 -18.017621345197767 0 0 0 0 -0.34607848759129212 0.65594920542352142 0 0.65594920542352142 0.49419047732732779 0 0 0 0 -14.750126144670503 17.917380250969813 0 17.917380250969813 -8.0827782517704918 0 0 0 0 -10.2145673045884 6.1996512123894689 0 6.1996512123894689 -2.9764998855931708 0 0 0 0 -34.778055182814569 14.342137559209846 0 14.342137559209846 -3.7714274617769661 0 0 0 0 -26.934904518047915 24.351332693422819 0 24.351332693422819 -11.367889568110513 0 0 0 0 -21.394279350273791 18.632663344414709 0 18.632663344414709 -5.5611104515901388 0 0 0 0 -19.998640137297116 22.244556241087025 0 22.244556241087025 0.5138203676365265 0 0 0 0 -9.4473813062795671 5.3743776018343397 0 5.3743776018343397 -3.6605751892005856 0 0 0 0 -0.36537873865722048 -0.46761940478387753 0 -0.46761940478387753 0.21927164543101219 0 0 0 0 -15.953841628679584 19.605973988679239 0 19.605973988679239 -27.760698504692868 0 0 0 0 0.90116585416853923 -5.876522131907933 0 -5.876522131907933 -7.7798075854793751 0 0 0 0 -10.405169145587934 -3.2786000749668744 0 -3.2786000749668744 6.0013378305378424 0 0 0 0 -4.5894731570552523 -2.0880884857027944 0 -2.0880884857027944 3.2730654712802454 0 0 0 0 -5.6092090176516649 -1.5060367327203039 0 -1.5060367327203039 -24.480707744730495 0 0 0 0 -5.8681697031679505 17.31347159916163 0 17.31347159916163 -26.739378911286508 0 0 0 0 1.3535573689732701 13.382539005403117 0 13.382539005403117 -5.600385833059363 0 0 0 0 5.0348427350400016 -2.0440309549145468 0 -2.0440309549145468 -4.3958919087922368 0 0 0 0 -2.3828429632521875 5.9243726705640256 0 5.9243726705640256 -10.072409596755733 0 0 0 0 6.4142397406512828 3.057666886945924 0 3.057666886945924 -1.8604327216055481 0 0 0 0 1.2437331978253496 -3.2685983752864445 0 -3.2685983752864445 -8.9546195888540296 0 0 0 0 -23.266238527109635 -4.3818310369333062 0 -4.3818310369333062 -9.5230669435841264 0 0 0 0 -8.3599422394145222 5.3588918259275715 0 5.3588918259275715 -5.4333444608236405 0 0 0 0 -12.642661845283328 5.5764043917021127 0 5.5764043917021127 2.8051609090678085 0 0 0 0 3.4395605055869964 0.68262194423664369 0 0.68262194423664369 -5.6742309212621223 0 0 0 0 0.031553709212090553 0.90700898057245549 0 0.90700898057245549 0.84506889954774211 0 0 0 0 -4.0550950330107298 -58.205089280937386 0 -58.205089280937386 55.604854137781047 0 0 0 0 -9.7178914909109153 32.878720261658316 0 32.878720261658316 -4.638461350167006 0 0 0 0 -113.48358124412516 106.44830528981154 0 106.44830528981154 -87.03279235509801 0 0 0 0 16.801313141292667 -25.624678716020213 0 -25.624678716020213 -72.722475844698806 0 0 0 0 -117.58464422078214 20.555574589694174 0 20.555574589694174 77.54904117663591 0 0 0 0 0.88574190377217832 2.3384961379976632 0 2.3384961379976632 -0.15012832556542699 0 0 0 0 -30.83709352590995 2.4772117340065734 0 2.4772117340065734 80.320709846036152 0 0 0 0 0.48107134898009463 -2.8105672508765736 0 -2.8105672508765736 2.1043750975858302 0 0 0 0 -83.062306119848472 75.049171401072641 0 75.049171401072641 -61.839588476717552 0 0 0 0 0.1539793782671337 1.4231427385216655 0 1.4231427385216655 -5.168792166600312 0 0 0 0 77.896531185066124 59.419609116203958 0 59.419609116203958 10.988875704085558 0 0 0 0 -33.707470748357082 104.58407988717147 0 104.58407988717147 -2.6033406378244308 0 0 0 0 142.75571456115358 20.443147139234128 0 20.443147139234128 -58.132367892309858 0 0 0 0 -286.99221846681849 17.717810484461467 0 17.717810484461467 -15.404139010643974 0 0 0 0 -0.35786271202507614 0.61402377293335064 0 0.61402377293335064 0.39470807769075644 0 0 0 0 155.48878550547352 106.87783539349869 0 106.87783539349869 -97.373248392042001 0 0 0 0 -280.63998160759911 37.798415682190907 0 37.798415682190907 46.186306107170708 0 0 0 0 -85.272703622777044 38.539340782977348 0 38.539340782977348 -35.533592873317559 0 0 0 0 -0.81559608511308568 0.93598001147202048 0 0.93598001147202048 -1.0719807900326046 0 0 0 0 -102.30050768645833 -0.49064970787033957 0 -0.49064970787033957 -54.550456771237634 0 0 0 0 -37.981982118235464 -23.962503501650588 0 -23.962503501650588 -2.7015411426072546 0 0 0 0 -53.9528348877393 -7.8051860470707197 0 -7.8051860470707197 -7.8148788141563159 0 0 0 0 -117.29009409398077 -0.58504048531057862 0 -0.58504048531057862 2.9458877104978001 0 0 0 0 13.552365933122928 1.8959068133455048 0 1.8959068133455048 -9.76010069200629 0 0 0 0 -0.47211508793835311 3.147582272686634 0 3.147582272686634 -4.0371435066432628 0 0 0 0 8.2361731011042139 2.2456971555325254 0 2.2456971555325254 -24.434393106810035 0 0 0 0 -39.492086465055763 18.371442741644614 0 18.371442741644614 3.9568120355645533 0 0 0 0 -66.102711672156147 0.006849453487802748 0 0.006849453487802748 17.337649454379005 0 0 0 0 -67.238294355440303 4.0719982840081954 0 4.0719982840081954 4.3114827678747645 0 0 0 0 -119.56528529959178 6.132744201249352 0 6.132744201249352 8.4368820016259178 0 0 0 0 -58.13610932925917 -11.530229909085726 0 -11.530229909085726 -6.9239116743708564 0 0 0 0 0.016241620261279621 -0.029268015474197995 0 -0.029268015474197995 0.65105709355369878 0 0 0 0 112.99077015240618 58.454041672902321 0 58.454041672902321 1.6095598559620186 0 0 0 0 41.402083253644378 40.002408503832257 0 40.002408503832257 121.08896415787621 0 0 0 0 -87.851645390309841 -18.69082732625348 0 -18.69082732625348 -1.8476273000870407 0 0 0 0 -57.087507425669173 -23.429071715842042 0 -23.429071715842042 38.102675461594131 0 0 0 0 -22.285284750952997 18.393993261692785 0 18.393993261692785 71.867291652490451 0 0 0 0 38.85908223009028 58.529854054543094 0 58.529854054543094 17.183023865078695 0 0 0 0 0.33267153317228804 19.08948752102307 0 19.08948752102307 -18.313194545129221 0 0 0 0 -79.09449153416972 5.0403678558478475 0 5.0403678558478475 18.717143091603589 0 0 0 0 -75.326676429554936 -28.976773251345008 0 -28.976773251345008 46.068629049744487 0 0 0 0 -1.0919564345491999 1.3555610902481163 0 1.3555610902481163 -0.68280828418563311 0 0 0 0 -103.76158173228941 14.8848962967825 0 14.8848962967825 14.255736838239557 0 0 0 0 -101.81637445917045 -61.483047784047876 0 -61.483047784047876 -2.3048739922672326 0 0 0 0 21.585416269848793 -10.384133986156712 0 -10.384133986156712 -8.1322597193365596 0 0 0 0 -114.55637909197412 2.406546776595512 0 2.406546776595512 70.865912845544472 0 0 0 0 -84.173902440608799 4.5009358048071135 0 4.5009358048071135 21.768045637286846 0 0 0 0 -135.82009435486998 -31.619746109081959 0 -31.619746109081959 -28.201408459535116 0 0 0 0 -0.74835113204975556 1.0561082942797917 0 1.0561082942797917 2.0976187739231285 0 0 0 0 -194.15153160121099 64.425672599883654 0 64.425672599883654 -181.25449397545043 0 0 0 0 -155.49099440377995 -37.801103660593753 0 -37.801103660593753 5.578923241045004 0 0 0 0 116.75131512126245 -21.711881491093621 0 -21.711881491093621 -97.448188271993388 0 0 0 0 -259.39671192137575 50.897889916198523 0 50.897889916198523 -7.1450176759696831 0 0 0 0 -0.092020512922093012 0.17937141464318529 0 0.17937141464318529 -2.0570884564521306 0 0 0 0 225.28176720029478 41.548192886864229 0 41.548192886864229 -136.7327236240522 0 0 0 0 -266.68728807334264 29.379367381098689 0 29.379367381098689 170.29543424792303 0 0 0 0 -202.04699522632291 -95.952672161913654 0 -95.952672161913654 3.3951237775299319 0 0 0 0 219.62587848400835 -16.622139084955506 0 -16.622139084955506 -214.87154424663839 0 0 0 0 44.902384292927309 139.88588025670381 0 139.88588025670381 54.037105726910795 0 0 0 0 -32.134896195422698 5.1755713649551751 0 5.1755713649551751 -5.2611460924943572 0 0 0 0 -1.0783402586741886 1.6966314998024039 0 1.6966314998024039 -1.7608043950652115 0 0 0 0 -172.799402146793 118.78988932888797 0 118.78988932888797 168.48682822404777 0 0 0 0 -27.55734998004209 18.575009952100082 0 18.575009952100082 15.500865927256939 0 0 0 0 -77.814546371391771 -13.465818508644361 0 -13.465818508644361 -3.35070312326161 0 0 0 0 -157.06839716528339 -5.8965964254309426 0 -5.8965964254309426 12.451397283269898 0 0 0 0 -43.901456661882548 66.777961293800047 0 66.777961293800047 -23.023084875531936 0 0 0 0 -0.16777199859255987 0.59915239777118146 0 0.59915239777118146 -1.4733120131874691 0 0 0 0 -21.421520081150447 18.042026430120274 0 18.042026430120274 -15.544007324075096 0 0 0 0 -31.289055022369212 35.204444833602139 0 35.204444833602139 11.914161706896493 0 0 0 0 -25.554349678341168 40.751811294334928 0 40.751811294334928 11.434344984482777 0 0 0 0 -0.20092510505878636 0.1973027748907743 0 0.1973027748907743 0.4093032909841986 0 0 0 0 -34.405789788153925 48.143926668415368 0 48.143926668415368 -20.378490821964306 0 0 0 0 -27.624406111230201 26.722007825246799 0 26.722007825246799 2.8396639478391492 0 0 0 0 -16.425654746849432 37.1410498590853 0 37.1410498590853 11.79641493224608 0 0 0 0 -24.831271526141791 5.6905818121505032 0 5.6905818121505032 14.688859306121259 0 0 0 0 7.3065624917617242 -9.9960181751146706 0 -9.9960181751146706 6.2073943119220019 0 0 0 0 -23.680537868382999 5.6852726438485277 0 5.6852726438485277 12.197671659007312 0 0 0 0 -12.765430770192324 12.473308880522225 0 12.473308880522225 -21.094145069089642 0 0 0 0 -29.324872361752568 6.0335608163785395 0 6.0335608163785395 4.3655582539472277 0 0 0 0 -24.080104656827643 29.470053994799606 0 29.470053994799606 -23.322361190779631 0 0 0 0 -6.9160452314990835 24.523480605987427 0 24.523480605987427 -23.603733588582685 0 0 0 0 -0.19528554902466055 0.29306413841828416 0 0.29306413841828416 0.57360562634819989 0 0 0 0 -30.045077070045409 33.167837279897626 0 33.167837279897626 -11.043712125409428 0 0 0 0 -16.100255621056931 26.982293075391695 0 26.982293075391695 -29.001272926055123 0 0 0 0 -28.510801642184902 16.67055506645378 0 16.67055506645378 -1.9967611570362465 0 0 0 0 5.2481065869442318 21.987504247241255 0 21.987504247241255 -1.1778915894114732 0 0 0 0 -23.036726578557136 40.951628844049239 0 40.951628844049239 0.10112329888977456 0 0 0 0 14.237301700391981 13.72361111014996 0 13.72361111014996 -0.8796140270596311 0 0 0 0 -5.3963007417469271 22.413550823818269 0 22.413550823818269 18.048192985286278 0 0 0 0 -23.792037124234412 17.889935666285727 0 17.889935666285727 8.5052308972141759 0 0 0 0 2.9810783466630255 3.4056753458543234 0 3.4056753458543234 11.279863856488134 0 0 0 0 -29.632010694988821 -1.3518433439591035 0 -1.3518433439591035 88.284930829843518 0 0 0 0 -28.775280154281063 10.765174091105273 0 10.765174091105273 9.1979486500148084 0 0 0 0 -48.342495388827956 11.84261680883435 0 11.84261680883435 10.765680040254615 0 0 0 0 -33.023191699287054 4.716833225938819 0 4.716833225938819 2.6448353405623237 0 0 0 0 -19.854462164040797 22.156842722027775 0 22.156842722027775 -16.677903908281365 0 0 0 0 -23.871765030862662 15.130822212649662 0 15.130822212649662 -16.579051035232851 0 0 0 0 -34.874794821891555 27.307779542140352 0 27.307779542140352 -29.766794330196035 0 0 0 0 -40.208895353722028 12.605033885084044 0 12.605033885084044 -20.666746236090816 0 0 0 0 -38.007873462427597 4.0979700373438845 0 4.0979700373438845 -10.282354563891261 0 0 0 0 -22.622640490439153 14.064899913415843 0 14.064899913415843 -37.809664111244516 0 0 0 0 -23.137228409532327 18.997152381262765 0 18.997152381262765 -28.155385808236066 0 0 0 0 -21.780890746358637 -6.7942578420999098 0 -6.7942578420999098 -15.593402124302742 0 0 0 0 -22.557136094139423 -5.7808717193651802 0 -5.7808717193651802 2.0016594217987631 0 0 0 0 -33.339507146167307 -16.129596770521935 0 -16.129596770521935 8.2022410888833974 0 0 0 0 -14.605410380534522 -1.8579157931425243 0 -1.8579157931425243 29.889085233932519 0 0 0 0 -34.481304202017782 0.37299022773663637 0 0.37299022773663637 30.172262604963919 0 0 0 0 -27.788055220768001 1.7075476226653166 0 1.7075476226653166 3.1807819540183573 0 0 0 0 -37.67057762523973 -8.3381360603725625 0 -8.3381360603725625 31.760773497600894 0 0 0 0 -20.909949092774696 -6.6425581935710625 0 -6.6425581935710625 31.124155845061637 0 0 0 0 -21.359501602813907 -4.6830358359974298 0 -4.6830358359974298 23.291100211726246 0 0 0 0 -0.5189191108547675 -6.3966713573309164 0 -6.3966713573309164 23.191681779497117 0 0 0 0 -14.575988610443346 -19.539593434600306 0 -19.539593434600306 32.145543071852103 0 0 0 0 -0.47919389511434218 0.15270157606402179 0 0.15270157606402179 0.24298706091572309 0 0 0 0 -33.480525145576394 21.38543494706704 0 21.38543494706704 -3.3813018396356824 0 0 0 0 -44.896673173780073 5.3383211737027523 0 5.3383211737027523 7.524777798195089 0 0 0 0 -0.25638217441309408 0.11318686093646058 0 0.11318686093646058 0.3863796259010619 0 0 0 0 -25.397182299844644 4.0570878916689708 0 4.0570878916689708 6.8718903412195687 0 0 0 0 -7.3610066065248247 15.586242528882806 0 15.586242528882806 -2.3276282195994753 0 0 0 0 -23.6303365335948 11.024630416323115 0 11.024630416323115 -1.8928091713503647 0 0 0 0 -14.289047018044585 -6.6902227680925073 0 -6.6902227680925073 24.449417648077542 0 0 0 0 -7.7175278976119444 14.177056676782001 0 14.177056676782001 6.8979254439135786 0 0 0 0 -6.0545424986580656 4.1753914813330937 0 4.1753914813330937 13.146108588233346 0 0 0 0 -0.78618608711511939 0.11380183475095507 0 0.11380183475095507 0.2935837883998631 0 0 0 0 -8.5059302192221367 -0.15892786760332456 0 -0.15892786760332456 24.103463654401992 0 0 0 0 -7.6778026589295223 5.0429765356142013 0 5.0429765356142013 18.134825779491848 0 0 0 0 -18.789194000824864 3.772899147955286 0 3.772899147955286 28.762676980290735 0 0 0 0 -17.918866767149666 -2.1316558700892756 0 -2.1316558700892756 24.379413819510091 0 0 0 0 -15.038941964039623 5.004754969632188 0 5.004754969632188 25.924785859093674 0 0 0 0 -19.974308743183428 14.577181318910846 0 14.577181318910846 17.408404514710924 0 0 0 0 -31.635236344165605 -1.333264565242871 0 -1.333264565242871 36.543941929550442 0 0 0 0 -22.536893429268275 17.124591710457338 0 17.124591710457338 39.965385222086354 0 0 0 0 6.255042956014222 35.653462263703034 0 35.653462263703034 46.658253444806633 0 0 0 0 0.043949533133183394 -0.36427555544008072 0 -0.36427555544008072 0.78848933195221971 0 0 0 0 -11.856680964821862 7.7588565723872307 0 7.7588565723872307 4.3014022191005665 0 0 0 0 -104.99222188762906 22.779848083035141 0 22.779848083035141 54.792849793540924 0 0 0 0 -0.11090651284463959 -0.16915883952497524 0 -0.16915883952497524 1.555656963477555 0 0 0 0 -36.209593397194112 0.20990968531967269 0 0.20990968531967269 13.841242908071351 0 0 0 0 -25.520525762883608 2.2907517498941896 0 2.2907517498941896 2.8252442097593757 0 0 0 0 -24.157830352307428 21.184005614243745 0 21.184005614243745 -1.7128449153562997 0 0 0 0 -37.874038486923382 19.901603137770195 0 19.901603137770195 -1.2032882871326933 0 0 0 0 -0.47784488561036653 0.12088814555532679 0 0.12088814555532679 0.21518562157578019 0 0 0 0 -12.196366862816831 -25.720721747063394 0 -25.720721747063394 23.986493675330394 0 0 0 0 -70.860230052896441 -2.2485499260037898 0 -2.2485499260037898 2.5422328647713357 0 0 0 0 -0.45409814490769662 0.48715729250545081 0 0.48715729250545081 -0.11544482232014713 0 0 0 0 120.79737369515897 84.887371725601113 0 84.887371725601113 0.25144613078558109 0 0 0 0 -198.61075716211417 -41.583037961727698 0 -41.583037961727698 19.452938216412196 0 0 0 0 -18.102193725535471 -26.378034538863972 0 -26.378034538863972 4.0987612388562411 0 0 0 0 -3.2639497199474654 -0.96613174117967748 0 -0.96613174117967748 0.11398232208904382 0 0 0 0 -12.171350038992387 -13.762199309397914 0 -13.762199309397914 -16.566168052116382 0 0 0 0 -25.132244179923873 75.095455580723552 0 75.095455580723552 -7.8466764425561877 0 0 0 0 -15.778245335830206 -14.57349951180586 0 -14.57349951180586 26.778995353411688 0 0 0 0 -1.0473008862046136 -0.31089909041898167 0 -0.31089909041898167 -0.21063651053494237 0 0 0 0 32.280930564287701 -82.313672471515076 0 -82.313672471515076 -124.3696462367966 0 0 0 0 -47.053580306525873 -13.209359196123224 0 -13.209359196123224 17.508594015558288 0 0 0 0 -32.752919088211456 -1.3590322052744099 0 -1.3590322052744099 27.002920474463366 0 0 0 0 -0.16589907915065183 -0.34687640093411609 0 -0.34687640093411609 -0.43329121102125723 0 0 0 0 -2.6589439741401293 -11.211184110817442 0 -11.211184110817442 0.83072043289168107 0 0 0 0 -7.8961990943043929 -4.7009892356765448 0 -4.7009892356765448 4.9270161502911662 0 0 0 0 -22.628048452041185 -14.696895658570437 0 -14.696895658570437 4.5977975857483386 0 0 0 0 6.0497173685307644 -1.6706291449742636 0 -1.6706291449742636 -0.29557438126811775 0 0 0 0 -0.77649766969197564 -0.37924774324338806 0 -0.37924774324338806 0.13831610811674225 0 0 0 0 28.969795546414389 62.948880417681082 0 62.948880417681082 -30.227451858901233 0 0 0 0 -126.25214356511788 -108.44376562202628 0 -108.44376562202628 -30.949244917401714 0 0 0 0 -1.6564345264751204 -0.14765755356201105 0 -0.14765755356201105 0.20619277925029966 0 0 0 0 -498.95882381568208 -0.56900535720403245 0 -0.56900535720403245 70.55233640448175 0 0 0 0 -227.37072951477421 148.35495821254415 0 148.35495821254415 -96.871308617246342 0 0 0 0 -1.6301812506100468 -0.14468717746520454 0 -0.14468717746520454 1.4953371255953143 0 0 0 0 -6.1263942688892712 -2.3244143797862193 0 -2.3244143797862193 4.6377849250710028 0 0 0 0 -27.916251227712564 -10.568323098694322 0 -10.568323098694322 5.9177690781442394 0 0 0 0 -9.5461258165687468 10.367957594444022 0 10.367957594444022 29.775188300836405 0 0 0 0 -500.34673794670016 -58.521959682916247 0 -58.521959682916247 139.64038017413358 0 0 0 0 -435.16405899961501 -28.209136863993287 0 -28.209136863993287 80.742258675812025 0 0 0 0 -0.47434525656240289 0.19596890934614208 0 0.19596890934614208 0.51798925700490961 0 0 0 0 -19.400515919416648 -77.181528747648258 0 -77.181528747648258 -89.285073717063867 0 0 0 0 -261.84437550677194 -188.33812719868135 0 -188.33812719868135 -70.853014665151974 0 0 0 0 -491.99906602200645 -397.87544479854608 0 -397.87544479854608 -303.54986648096758 0 0 0 0 -93.90963369221754 -24.79216347327386 0 -24.79216347327386 37.687625429123074 0 0 0 0 -18.529965191337396 -42.459660109801035 0 -42.459660109801035 -35.759577081146901 0 0 0 0 -15.635419490400636 12.09647895967403 0 12.09647895967403 -39.671622219217141 0 0 0 0 12.086660737564216 10.708159978613931 0 10.708159978613931 -11.357775992073332 0 0 0 0 -10.066347382122785 -16.995676135925255 0 -16.995676135925255 3.4403002960741782 0 0 0 0 0.94445990297636229 -1.2228906103519996 0 -1.2228906103519996 1.8331724407967636 0 0 0 0 -5.7481305307792354 -11.608056944183897 0 -11.608056944183897 7.3352349974400148 0 0 0 0 -25.787655726432831 -17.101912406721304 0 -17.101912406721304 15.816105690351435 0 0 0 0 -6.0264425580626266 -36.816020116504234 0 -36.816020116504234 14.843662655932235 0 0 0 0 0.19561189311092519 -0.43478881012169346 0 -0.43478881012169346 0.71215177762141468 0 0 0 0 -0.15472550526828854 6.3979966953819964 0 6.3979966953819964 24.840068907496917 0 0 0 0 -15.772163838310917 -4.6362611351212166 0 -4.6362611351212166 -2.1695895000804057 0 0 0 0 12.168504972339178 -6.5387625750704785 0 -6.5387625750704785 -13.664672517882821 0 0 0 0 23.370260345965107 -19.181581955503873 0 -19.181581955503873 -9.903782663048986 0 0 0 0 -69.299288177400285 -2.6028168568877987 0 -2.6028168568877987 10.779865617800567 0 0 0 0 -0.16804844812345898 -0.30394498982573026 0 -0.30394498982573026 -0.17056711963352433 0 0 0 0 -51.064202121973949 -13.971625756982213 0 -13.971625756982213 5.5854323133402772 0 0 0 0 -54.360960699247016 -0.31758540528674573 0 -0.31758540528674573 2.7170943906075422 0 0 0 0 -24.82699698856959 -2.0034298044934502 0 -2.0034298044934502 2.3232045942391331 0 0 0 0 -61.821381184645361 9.3511709511857077 0 9.3511709511857077 133.14157449927967 0 0 0 0 -38.929391848159867 12.145857894060441 0 12.145857894060441 14.709953995857944 0 0 0 0 -28.919144159817733 2.8936355476026421 0 2.8936355476026421 4.6992690085262439 0 0 0 0 -35.110021700678772 -8.1475769946990795 0 -8.1475769946990795 -0.075992863341411976 0 0 0 0 -56.907473233795827 -9.2110356365950778 0 -9.2110356365950778 7.9210286878360074 0 0 0 0 -47.493149349533269 -3.4458863379688438 0 -3.4458863379688438 7.6321502468177016 0 0 0 0 -44.919402457810065 -9.9606381974961238 0 -9.9606381974961238 7.7342369746416466 0 0 0 0 -47.025958953114241 -4.1068198183542464 0 -4.1068198183542464 6.3375247589174251 0 0 0 0 -59.503680704407088 22.919460577748204 0 22.919460577748204 -9.7718016705171351 0 0 0 0 -50.434846549103895 -3.3711637231013558 0 -3.3711637231013558 6.3681328915102373 0 0 0 0 -68.287846126355362 -5.6604294855029949 0 -5.6604294855029949 7.0074746389593301 0 0 0 0 -136.87955040734232 -2.1861837584787054 0 -2.1861837584787054 4.4642760697893209 0 0 0 0 -73.681223294048777 2.7555757799042766 0 2.7555757799042766 -0.24914943369098808 0 0 0 0 -41.225833574291755 -1.4559454795241322 0 -1.4559454795241322 -141.28531768931748 0 0 0 0 -0.25515200998981058 -0.50689783319683102 0 -0.50689783319683102 -0.67801711946453946 0 0 0 0 -11.05708155915363 -16.224909125297579 0 -16.224909125297579 -3.5949873959498717 0 0 0 0 -27.713718448195323 -15.324842060118087 0 -15.324842060118087 9.9904897079982078 0 0 0 0 -27.030846488469251 -14.331369447849269 0 -14.331369447849269 -1.2229263375949131 0 0 0 0 -48.302172476760461 -19.226046282642443 0 -19.226046282642443 3.3840633886215272 0 0 0 0 -37.662126339869246 -8.7436419601790298 0 -8.7436419601790298 4.8354452500592444 0 0 0 0 -53.653763802072262 -28.671430202371329 0 -28.671430202371329 -17.076209321979178 0 0 0 0 -34.143180286253482 -7.7675667129184092 0 -7.7675667129184092 -12.900002473506049 0 0 0 0 17.032813013587202 1.918098028958191 0 1.918098028958191 -27.837611478994347 0 0 0 0 -15.095674907119246 -12.44975947345101 0 -12.44975947345101 -28.381553488320172 0 0 0 0 -4.4294250720358832 10.148293084200148 0 10.148293084200148 11.057981289219555 0 0 0 0 4.0167902231155495 -5.4238164659513899 0 -5.4238164659513899 -29.034210251319394 0 0 0 0 -4.6278855261025456 4.1485256005796316 0 4.1485256005796316 -20.328289928897178 0 0 0 0 -13.89781564992245 -14.317470429056343 0 -14.317470429056343 -45.051922112955594 0 0 0 0 -9.2456281625190968 -0.32668153434858027 0 -0.32668153434858027 9.1613029105822648 0 0 0 0 -1.7916632801170636 8.5297173622206088 0 8.5297173622206088 -20.669343501057512 0 0 0 0 -9.658158368209115 -3.9888421708497503 0 -3.9888421708497503 -16.57215957958573 0 0 0 0 -27.432129868810989 -13.774306150656116 0 -13.774306150656116 -13.432015478109207 0 0 0 0 -12.761459923092843 -10.838648708987634 0 -10.838648708987634 -28.59680308917342 0 0 0 0 -20.330320273849793 -1.7390829138968513 0 -1.7390829138968513 5.9982895238840115 0 0 0 0 -82.132589196338813 48.172021767264425 0 48.172021767264425 -50.733283429522203 0 0 0 0 -38.03754364532773 5.4934232881164213 0 5.4934232881164213 -73.895457168366306 0 0 0 0 0.47554620557360749 -23.787892387028222 0 -23.787892387028222 -47.5559688049442 0 0 0 0 -86.526746530496894 -52.998437162357014 0 -52.998437162357014 -34.602920050056809 0 0 0 0 -188.02608721365414 73.385054332047133 0 73.385054332047133 27.699182113022857 0 0 0 0 -1.0331764457233561 -0.73569771675580853 0 -0.73569771675580853 -0.435632292131646 0 0 0 0 -101.0146429392571 -28.823930654317337 0 -28.823930654317337 -21.011243639098552 0 0 0 0 -96.905322827041346 23.031800632184854 0 23.031800632184854 38.457701415203019 0 0 0 0 -27.605549586799498 10.251778302218966 0 10.251778302218966 -0.7381628103607909 0 0 0 0 -2.3298662502056686 79.528409613249551 0 79.528409613249551 27.493838523074452 0 0 0 0 -2.4040347278384644 1.0754985711423366 0 1.0754985711423366 -0.42255828978983256 0 0 0 0 6.0262807442695703 128.41777483118415 0 128.41777483118415 58.179846515637777 0 0 0 0 -35.243687957920883 14.939469231123553 0 14.939469231123553 74.075848076119087 0 0 0 0 42.271775919866741 25.23930271267011 0 25.23930271267011 37.351179995545962 0 0 0 0 -4.968864853033665 -0.34461833190636071 0 -0.34461833190636071 3.0044842973783261 0 0 0 0 -24.720879907668859 0.82341534889073387 0 0.82341534889073387 9.8754093116538115 0 0 0 0 -17.204444926147517 -5.5668432667876289 0 -5.5668432667876289 7.0451386068413058 0 0 0 0 -74.916489850572361 102.6396697039574 0 102.6396697039574 55.814494147176333 0 0 0 0 -1.7648245098874753 -1.960458738894248 0 -1.960458738894248 -1.5863489162553366 0 0 0 0 -3.6144029231891182 -12.397934822615127 0 -12.397934822615127 0.48808071740359082 0 0 0 0 -231.50559905583941 -147.29328437566778 0 -147.29328437566778 -287.04236911417775 0 0 0 0 -295.0731693786347 135.60918946819135 0 135.60918946819135 269.91225450386185 0 0 0 0 -262.49868596533287 -227.32426893963637 0 -227.32426893963637 -116.1209686294784 0 0 0 0 -12.594381928827715 1.1179847982353976 0 1.1179847982353976 -2.7725057251592489 0 0 0 0 -3.4824994527397628 -1.039177319066912 0 -1.039177319066912 -1.716184083013979 0 0 0 0 -16.440019090459828 4.0425511480752903 0 4.0425511480752903 3.9533849952141509 0 0 0 0 -17.803028728274512 5.7556663607495011 0 5.7556663607495011 4.028683074867935 0 0 0 0 -16.449024948701663 1.7692304642865453 0 1.7692304642865453 6.3888416425336345 0 0 0 0 -20.971344241503175 4.1485277792104966 0 4.1485277792104966 7.0816070645289528 0 0 0 0 -26.024635796493385 11.624842516212311 0 11.624842516212311 7.2775917380753583 0 0 0 0 -3.0447985801874893 -5.747739915725731 0 -5.747739915725731 4.9369027900086166 0 0 0 0 -22.803640145830286 6.22370755467648 0 6.22370755467648 6.2467363628052226 0 0 0 0 -31.997606956339951 0.96740973539866104 0 0.96740973539866104 11.235109030694275 0 0 0 0 -35.132414929552397 28.83027498993863 0 28.83027498993863 -25.225050826997403 0 0 0 0 -16.741137069398974 -18.578190796801096 0 -18.578190796801096 19.559968041386469 0 0 0 0 -112.57638713958295 2.0638372034227359 0 2.0638372034227359 64.172477987811135 0 0 0 0 -16.103700655257853 0.64765283215248814 0 0.64765283215248814 3.9769107239870891 0 0 0 0 -20.639411221962291 0.85197034857134213 0 0.85197034857134213 9.8692438501892639 0 0 0 0 -18.538615340428805 -1.4757925932677267 0 -1.4757925932677267 10.527802510283166 0 0 0 0 -17.244306537853845 -6.7846806340226777 0 -6.7846806340226777 -1.1919018960192016 0 0 0 0 -5.7469018086485448 1.4536674029399137 0 1.4536674029399137 -2.0905447540999376 0 0 0 0 -1.5677110083755874 1.9016321649968404 0 1.9016321649968404 -1.6363147822086892 0 0 0 0 -16.235423023477779 -11.265951507013511 0 -11.265951507013511 -12.637241235199813 0 0 0 0 -0.44956090540704174 0.031383381428206292 0 0.031383381428206292 -0.55138772159745375 0 0 0 0 -3.0106014590000996 -4.9932321602257801 0 -4.9932321602257801 17.438228120354921 0 0 0 0 6.7637470951103751 9.3067660919318058 0 9.3067660919318058 -2.4612573270206042 0 0 0 0 -2.6506895513564679 1.323002296264157 0 1.323002296264157 -0.55552426323089676 0 0 0 0 -14.092908084758164 5.8912720478245433 0 5.8912720478245433 12.048077909322444 0 0 0 0 0.73452640670794267 0.37079851595559354 0 0.37079851595559354 -0.76576139397847431 0 0 0 0 -14.455884398958005 4.2468649406174563 0 4.2468649406174563 5.4386602776830841 0 0 0 0 -20.458823329820916 4.9738905244695104 0 4.9738905244695104 9.4266279219897342 0 0 0 0 -35.512285337573303 -3.1965144350775745 0 -3.1965144350775745 5.7240611989672132 0 0 0 0 -21.685620754782576 19.228626980877785 0 19.228626980877785 1.6987058769939267 0 0 0 0 -25.391492149922669 -26.538938996204905 0 -26.538938996204905 -8.679789545497087 0 0 0 0 14.184632006452375 0.94096764067580807 0 0.94096764067580807 -27.194937193256823 0 0 0 0 0.28606290519556943 -0.058380621928197485 0 -0.058380621928197485 -0.67310668685645392 0 0 0 0 -183.64360169266229 107.48804812705056 0 107.48804812705056 -7.7422891182313407 0 0 0 0 -497.79790269085788 -15.01173850730955 0 -15.01173850730955 97.338270128399174 0 0 0 0 -109.74572795413951 -49.206522348175369 0 -49.206522348175369 4.0238759160498656 0 0 0 0 47.793235138096861 -6.5902270521079558 0 -6.5902270521079558 -34.260498291696813 0 0 0 0 14.480348545861489 -29.591620358443986 0 -29.591620358443986 -6.5585107376542808 0 0 0 0 -53.4441890316848 61.955139902452899 0 61.955139902452899 -19.076466618646787 0 0 0 0 -496.75011119393639 -50.180800076992725 0 -50.180800076992725 -3.987087166084379 0 0 0 0 -1.3795866916346142 0.43796123217533278 0 0.43796123217533278 -0.22677802267666167 0 0 0 0 -7.9605597048112031 14.008844403307503 0 14.008844403307503 -9.7902890146904635 0 0 0 0 -20.550146949075497 -8.5998735029545266 0 -8.5998735029545266 0.79998683140642513 0 0 0 0 -1.6869483230834756 0.53179907672687854 0 0.53179907672687854 0.10535239200881195 0 0 0 0 -499.79789079718103 -271.06664785252428 0 -271.06664785252428 -128.89837710239902 0 0 0 0 -364.93642210405142 -183.26641758414701 0 -183.26641758414701 -72.801295107926052 0 0 0 0 -3.0910325814021427 1.9796003009489773 0 1.9796003009489773 0.078110241398895969 0 0 0 0 -360.48288658577439 -146.50070211068825 0 -146.50070211068825 -33.575942686928812 0 0 0 0 -11.111256821704046 4.0611543765621114 0 4.0611543765621114 3.1558956428546372 0 0 0 0 -305.70172690012805 -163.74758633182176 0 -163.74758633182176 -33.56624501889155 0 0 0 0 -499.92708510328339 -165.83566658258485 0 -165.83566658258485 26.842886569230885 0 0 0 0 -400.31157940398225 -92.681978847019536 0 -92.681978847019536 55.228651997603691 0 0 0 0 -4.9780900527454435 1.5794989293231492 0 1.5794989293231492 -1.5154068645807075 0 0 0 0 -40.962440646191681 28.163617435183994 0 28.163617435183994 -35.427376280674594 0 0 0 0 -12.160792501453795 -5.1886645008924912 0 -5.1886645008924912 0.45663045545211189 0 0 0 0 -19.844336688357544 -14.499544552112184 0 -14.499544552112184 -3.2814877156968123 0 0 0 0 -3.2168218248098377 -1.4644450559986826 0 -1.4644450559986826 0.7083558255805158 0 0 0 0 -13.866109468828654 10.531523053578667 0 10.531523053578667 -32.189918049441019 0 0 0 0 -11.485078313024133 5.3953684216826332 0 5.3953684216826332 -21.293531345236488 0 0 0 0 -13.132385982446067 -3.4032097149445475 0 -3.4032097149445475 -3.4756513088663694 0 0 0 0 -16.761085488476056 -3.3850995439611951 0 -3.3850995439611951 -1.0169850545678489 0 0 0 0 -5.3455987349753968 2.3431668908400063 0 2.3431668908400063 -0.12008735019148033 0 0 0 0 -187.54961963691176 -0.83626842235241128 0 -0.83626842235241128 -19.972852759725363 0 0 0 0 -14.765796300804141 -1.1912062970513506 0 -1.1912062970513506 -1.0677580893680982 0 0 0 0 -15.256265484159712 -15.979022504893013 0 -15.979022504893013 32.376534929030427 0 0 0 0 -8.1240408198056802 -5.1388992092139567 0 -5.1388992092139567 -0.25343798666764311 0 0 0 0 -12.348461026568657 -9.9061913836988253 0 -9.9061913836988253 22.657421528790579 0 0 0 0 -4.9604219316438423 -0.33424644985308483 0 -0.33424644985308483 0.37990931176609943 0 0 0 0 -44.511559232557374 -9.6958419271681926 0 -9.6958419271681926 42.374454746067151 0 0 0 0 42.895756142130267 -45.346788725674472 0 -45.346788725674472 -7.9051992028516622 0 0 0 0 -26.652942746821282 -37.44622402329783 0 -37.44622402329783 85.485452566441907 0 0 0 0 -29.481939870251153 -22.27080007122364 0 -22.27080007122364 82.794892661311437 0 0 0 0 -220.66298435901717 -45.144633744481212 0 -45.144633744481212 -5.9011197137070965 0 0 0 0 -4.2845086797622294 -1.9036524846528282 0 -1.9036524846528282 -0.54854646018890962 0 0 0 0 49.245948356225199 -46.020136716088402 0 -46.020136716088402 99.465148441987594 0 0 0 0 -3.3229391543460114 -0.35158664117935867 0 -0.35158664117935867 1.1764007640365213 0 0 0 0 35.759018579818076 -109.88078206462147 0 -109.88078206462147 109.97989673271951 0 0 0 0 -22.023073579390257 -70.370399017442722 0 -70.370399017442722 138.53453115636415 0 0 0 0 -16.156230103622875 -50.985015752002056 0 -50.985015752002056 79.996930520636298 0 0 0 0 26.119061277663604 -68.75656467086857 0 -68.75656467086857 105.11599071364475 0 0 0 0 -56.770759068643201 -39.154636702629226 0 -39.154636702629226 108.12439264223237 0 0 0 0 -43.939473563840465 -17.461344843393441 0 -17.461344843393441 90.268813090008024 0 0 0 0 -55.622165438473985 -26.974059332407265 0 -26.974059332407265 101.42888667651748 0 0 0 0 -482.86941571628722 -111.56811587871036 0 -111.56811587871036 58.82910099508625 0 0 0 0 -717.4130353480823 84.917304687545041 0 84.917304687545041 28.703511243348849 0 0 0 0 -329.17497034537473 55.405978318779461 0 55.405978318779461 25.230410691570384 0 0 0 0 -500.0145817402622 -90.626232984746196 0 -90.626232984746196 33.254346127522453 0 0 0 0 -581.00471638528734 -143.32856304966842 0 -143.32856304966842 -0.32893021579339887 0 0 0 0 -417.98257593029348 -138.78105301238017 0 -138.78105301238017 67.695594165104069 0 0 0 0 -425.35608992430161 -64.247601698600448 0 -64.247601698600448 52.635363134479292 0 0 0 0 -499.95222334715027 -137.47536248236412 0 -137.47536248236412 -19.2456974687159 0 0 0 0 -1.2697152291267564 -0.99154587440806807 0 -0.99154587440806807 -0.43153896060208319 0 0 0 0 166.48945057333549 -181.91931460517469 0 -181.91931460517469 20.142691674129125 0 0 0 0 -133.84835613275982 -27.42271636229124 0 -27.42271636229124 50.991399500798238 0 0 0 0 -111.13862597389152 -229.73218892952806 0 -229.73218892952806 12.429905155366839 0 0 0 0 -104.89728696661541 -14.025054579572082 0 -14.025054579572082 96.997636436723752 0 0 0 0 -75.600048510340457 -68.549693172638399 0 -68.549693172638399 79.808314780763567 0 0 0 0 -104.85895339164563 -52.750506983620973 0 -52.750506983620973 -20.208029024422274 0 0 0 0 -209.2765308426865 -83.214527798669465 0 -83.214527798669465 19.670331144841171 0 0 0 0 -221.69957160787044 -42.06134103652694 0 -42.06134103652694 5.4794257611259951 0 0 0 0 -193.53946508299396 -21.170213120035413 0 -21.170213120035413 -33.380278106009008 0 0 0 0 -142.80275739215676 -21.588775841938052 0 -21.588775841938052 -33.376907330692248 0 0 0 0 -371.62192129447612 -47.04934683053321 0 -47.04934683053321 27.669029920562828 0 0 0 0 -373.71579324053801 -33.67408679679238 0 -33.67408679679238 83.855602281193597 0 0 0 0 -499.9716552808693 -82.354174752267639 0 -82.354174752267639 88.39883795124787 0 0 0 0 -62.074964807243305 32.450844249901635 0 32.450844249901635 -41.598431349503379 0 0 0 0 26.305858392465325 7.3376641179579281 0 7.3376641179579281 -26.148802347056083 0 0 0 0 -0.094488484355327529 0.20025157521147285 0 0.20025157521147285 -0.59704028930350439 0 0 0 0 -88.439673418854454 29.152087557073216 0 29.152087557073216 -27.584745979499854 0 0 0 0 -76.684194984130272 37.364923366015404 0 37.364923366015404 -40.546987050898636 0 0 0 0 -146.60887765360485 -14.883146238526281 0 -14.883146238526281 -40.999708790190432 0 0 0 0 -138.63520695457373 63.419916519139001 0 63.419916519139001 -24.171916597418502 0 0 0 0 -146.11561303126928 -3.1072244061134722 0 -3.1072244061134722 -68.182618395995789 0 0 0 0 -169.94671668727233 -5.1436116279800252 0 -5.1436116279800252 -12.244985151114918 0 0 0 0 -93.11349277600857 -6.1976713783875539 0 -6.1976713783875539 -18.026589930843635 0 0 0 0 -80.342604105019745 25.829890478473658 0 25.829890478473658 32.520831241652076 0 0 0 0 -108.39170649403354 -4.0630887259472708 0 -4.0630887259472708 23.705923850350871 0 0 0 0 -144.66629400391844 -0.17179563745110471 0 -0.17179563745110471 34.645109689553237 0 0 0 0 -103.01768155957643 -23.993826947156144 0 -23.993826947156144 48.250914853851654 0 0 0 0 -70.910544914858292 3.4816897080972424 0 3.4816897080972424 60.06731047980265 0 0 0 0 -53.189674253333578 35.416423438892522 0 35.416423438892522 87.012795147143237 0 0 0 0 -74.573599537493919 2.4558178958678383 0 2.4558178958678383 72.470552049878307 0 0 0 0 -35.054860669049276 61.589019757307476 0 61.589019757307476 68.892495107582874 0 0 0 0 -67.039141645774407 4.7248779026983101 0 4.7248779026983101 38.292741883369615 0 0 0 0 -15.285820699388523 79.136651889364487 0 79.136651889364487 44.7689371740328 0 0 0 0 12.25989697422483 36.022722741189938 0 36.022722741189938 79.643405642240069 0 0 0 0 -8.5191181610075351 3.2397966587803868 0 3.2397966587803868 0.18853222397934 0 0 0 0 3.9816251617062335 83.431184935084843 0 83.431184935084843 127.19081018176661 0 0 0 0 -4.0956096805593916 29.446890936837768 0 29.446890936837768 74.822235976261368 0 0 0 0 -81.766439711192106 -64.319855407815453 0 -64.319855407815453 -28.654614650076986 0 0 0 0 -88.345683530007591 -57.561141824664631 0 -57.561141824664631 -27.201807366811749 0 0 0 0 -66.940172553391449 -8.971115064270375 0 -8.971115064270375 81.980451887502483 0 0 0 0 -43.879776516583661 10.093869834208633 0 10.093869834208633 91.089779144659005 0 0 0 0 -92.234635741234797 -0.075436185550870505 0 -0.075436185550870505 89.973984387555419 0 0 0 0 -10.66047230159711 36.154556285973946 0 36.154556285973946 83.580405280863545 0 0 0 0 -43.28110746620905 12.674947908257618 0 12.674947908257618 80.601311245872608 0 0 0 0 -10.394084217756372 4.5650300399163708 0 4.5650300399163708 -0.52731399770773857 0 0 0 0 -50.229096188812946 -17.569206605548178 0 -17.569206605548178 78.792854131223308 0 0 0 0 -26.225358245112602 4.3985022250724359 0 4.3985022250724359 34.350484667121378 0 0 0 0 -12.804008719928994 4.6660327288863641 0 4.6660327288863641 -1.0226866361470637 0 0 0 0 -31.879348206075747 -10.297238002735755 0 -10.297238002735755 25.041761934225846 0 0 0 0 -19.473679442683533 8.3030870759155277 0 8.3030870759155277 13.480469753648904 0 0 0 0 -65.454582195691728 -56.624653980413846 0 -56.624653980413846 -15.046969638202313 0 0 0 0 -24.818142108510756 51.571939692248847 0 51.571939692248847 1.108967394958313 0 0 0 0 11.134520937973321 -39.129029014504425 0 -39.129029014504425 -44.423849005128318 0 0 0 0 -89.777137228127685 -51.827785293109287 0 -51.827785293109287 -44.012371791156227 0 0 0 0 -58.158755416483473 10.307866645660624 0 10.307866645660624 8.7095452242599549 0 0 0 0 -106.08688106472619 -18.843264460857029 0 -18.843264460857029 -50.128669789399396 0 0 0 0 10.468974134892051 51.834221493590576 0 51.834221493590576 71.924188475791041 0 0 0 0 -132.03028154916035 -105.53996683266843 0 -105.53996683266843 -49.272043808329215 0 0 0 0 -6.8775793507064371 3.4762499945354346 0 3.4762499945354346 -1.1436387375443644 0 0 0 0 -11.017092006462917 19.143819529801817 0 19.143819529801817 34.784204082643697 0 0 0 0 -10.585372763467509 5.9616325424940406 0 5.9616325424940406 -2.7008472345932018 0 0 0 0 -14.728342832024282 10.422102370373153 0 10.422102370373153 33.039750985932415 0 0 0 0 -29.39624556553008 5.6489267260227507 0 5.6489267260227507 44.953589341164616 0 0 0 0 -25.752449814012834 -2.3619250170085024 0 -2.3619250170085024 27.995985215348696 0 0 0 0 -21.513517626203111 -2.1929249016463217 0 -2.1929249016463217 25.457674124372943 0 0 0 0 -21.664719537669498 -1.7022826569163954 0 -1.7022826569163954 24.38302431624561 0 0 0 0 -20.808734542477396 3.3666718345396021 0 3.3666718345396021 24.706895184925656 0 0 0 0 -20.641379982879585 4.0790169596599171 0 4.0790169596599171 17.294985951254603 0 0 0 0 -15.463616424284737 8.2448756564012911 0 8.2448756564012911 8.6576183636827864 0 0 0 0 -15.439361405546379 6.0926543140983682 0 6.0926543140983682 8.4211559508637492 0 0 0 0 -16.247612760401523 -0.0068164411746662878 0 -0.0068164411746662878 4.0235804859198447 0 0 0 0 -14.280490740108689 7.9804586520189673 0 7.9804586520189673 -3.1055213628646925 0 0 0 0 -20.189468408454559 42.024356105543404 0 42.024356105543404 131.91049142928148 0 0 0 0 -24.415474730736605 -48.574673982143622 0 -48.574673982143622 87.089912367224741 0 0 0 0 110.34796653073681 -48.426673969202113 0 -48.426673969202113 84.130264585145142 0 0 0 0 149.39110566249656 -5.1382092530391219 0 -5.1382092530391219 55.183915429076478 0 0 0 0 123.37289165033235 60.225324190956258 0 60.225324190956258 30.672945830191566 0 0 0 0 -91.396854684035134 88.72356263606693 0 88.72356263606693 141.18146245799767 0 0 0 0 -12.714196413648093 8.551106238708158 0 8.551106238708158 -4.429115691002421 0 0 0 0 -8.8898196426780487 -70.387021603460084 0 -70.387021603460084 96.732174296972232 0 0 0 0 15.352829819750696 -72.53176834663418 0 -72.53176834663418 96.353918809353218 0 0 0 0 -195.94954501537723 -81.189426813907687 0 -81.189426813907687 35.657593006734388 0 0 0 0 -161.53413698694931 -60.362194176479306 0 -60.362194176479306 -24.604483000727328 0 0 0 0 -18.473161084486492 58.489246263478236 0 58.489246263478236 17.203906622389898 0 0 0 0 -36.416612615274062 -68.625850185333732 0 -68.625850185333732 -45.641231173501481 0 0 0 0 -85.645743948435438 -54.756205833523083 0 -54.756205833523083 -60.890665169205562 0 0 0 0 -5.4522506726167865 1.824881287653481 0 1.824881287653481 0.38732481351212411 0 0 0 0 -133.68579357322233 -138.0177727899428 0 -138.0177727899428 -93.722421580791917 0 0 0 0 -114.31091997562498 -69.186036884447958 0 -69.186036884447958 6.9506794482086747 0 0 0 0 -78.308545677514076 -26.162171892916238 0 -26.162171892916238 3.9820483222652001 0 0 0 0 -20.736575344702032 -33.5870995418191 0 -33.5870995418191 43.140660107544193 0 0 0 0 -27.891050437006015 11.468339619468082 0 11.468339619468082 80.033482464527083 0 0 0 0 -17.400981998658136 -0.10114743659725267 0 -0.10114743659725267 4.0014830780205104 0 0 0 0 -14.934158760173887 -2.2052402394537012 0 -2.2052402394537012 -9.6281712680521423 0 0 0 0 -19.658155017265017 -7.7322111220734087 0 -7.7322111220734087 18.500213592280204 0 0 0 0 -23.371285272810383 -0.40831548922233196 0 -0.40831548922233196 23.635055129293505 0 0 0 0 -20.651540361611296 -3.3420032287624508 0 -3.3420032287624508 18.977427610428549 0 0 0 0 -23.650494545789115 -0.15422326108148354 0 -0.15422326108148354 26.30341499520182 0 0 0 0 -19.379857846010054 -1.3720326042050601 0 -1.3720326042050601 7.8591317128850733 0 0 0 0 -24.586280042289673 10.15187805115292 0 10.15187805115292 40.24926274101648 0 0 0 0 -23.351158897696905 18.217968270920281 0 18.217968270920281 86.551697810729138 0 0 0 0 -16.67091223708394 4.5830121977052158 0 4.5830121977052158 28.87178960557182 0 0 0 0 -18.520625884599326 2.7457341319993986 0 2.7457341319993986 1.7285828238013892 0 0 0 0 -16.906296636004512 0.27596677933710367 0 0.27596677933710367 4.2371949529042539 0 0 0 0 -14.355726431193943 25.106243714601533 0 25.106243714601533 10.923601901446261 0 0 0 0 -0.59609371110582288 4.7940551278393855 0 4.7940551278393855 -15.306864828658888 0 0 0 0 28.526640548293472 16.681542656378213 0 16.681542656378213 27.109816402246707 0 0 0 0 -19.456706125952792 -4.8240597207160363 0 -4.8240597207160363 18.129787908281287 0 0 0 0 -19.115392548344971 -11.29918772529976 0 -11.29918772529976 23.699699580126548 0 0 0 0 7.8941620508055621 -38.670717925745954 0 -38.670717925745954 51.433986104021756 0 0 0 0 -15.76798786711106 -17.19096769391119 0 -17.19096769391119 20.863400681390658 0 0 0 0 33.102716753815912 8.8424218430564281 0 8.8424218430564281 3.604847437099636 0 0 0 0 4.9540524411213482 3.1272230010606563 0 3.1272230010606563 3.3049853018810609 0 0 0 0 -3.8749663433040951 13.213875606328571 0 13.213875606328571 52.781251485254643 0 0 0 0 12.868526550270872 -27.558340857139314 0 -27.558340857139314 47.069932014091023 0 0 0 0 -13.632660845799364 1.4495982790901962 0 1.4495982790901962 77.59279550841768 0 0 0 0 0.32941867594994889 0.19567170490096508 0 0.19567170490096508 0.50418801068670693 0 0 0 0 37.252029473606626 -9.4700865257767575 0 -9.4700865257767575 3.1605818431013404 0 0 0 0 8.0904654056139407 -14.240286034222805 0 -14.240286034222805 14.452139595338735 0 0 0 0 15.709383901727051 -0.9382003626233768 0 -0.9382003626233768 1.432234479231056 0 0 0 0 2.6236748182709562 2.1434879419737172 0 2.1434879419737172 5.25269231870422 0 0 0 0 -12.922465505421314 0.14106457145285844 0 0.14106457145285844 8.1709663406018933 0 0 0 0 4.3492603406033368 -3.7322370283314577 0 -3.7322370283314577 14.681532108944623 0 0 0 0 4.9248483481551375 -1.4134242290000429 0 -1.4134242290000429 2.1407670507573471 0 0 0 0 -15.195154242331114 10.526647141894031 0 10.526647141894031 43.77082922950342 0 0 0 0 -6.3634750500577866 -7.2253914502942962 0 -7.2253914502942962 49.175801324255076 0 0 0 0 -11.245030602245151 5.5598918072241759 0 5.5598918072241759 16.499537988415796 0 0 0 0 -8.5632482677883672 15.516254964528855 0 15.516254964528855 39.476285481439334 0 0 0 0 3.2536962474196116 24.748991375615546 0 24.748991375615546 -4.7850275580598236 0 0 0 0 -10.06427472949872 -4.7892957623638779 0 -4.7892957623638779 -5.6321937649145752 0 0 0 0 -4.2107652086701819 -7.9036416583579694 0 -7.9036416583579694 -6.2324603167210171 0 0 0 0 -12.138962028786864 -20.692075326352189 0 -20.692075326352189 -14.788931892006957 0 0 0 0 -6.1248212798800523 -8.9857330316125079 0 -8.9857330316125079 3.0549431085404422 0 0 0 0 -10.578031899853158 -19.878838550957109 0 -19.878838550957109 -3.7584558558003636 0 0 0 0 -18.051830830929248 -14.866150991024661 0 -14.866150991024661 3.7533412157797841 0 0 0 0 -4.2154895953171945 -16.073217798350043 0 -16.073217798350043 -1.7186120024287845 0 0 0 0 -4.9329938997373208 9.0788075834799269 0 9.0788075834799269 0.19232981118706638 0 0 0 0 -8.6950089018026269 -6.9872732041102266 0 -6.9872732041102266 2.8496430087760296 0 0 0 0 -37.805554648855335 1.7022104744190898 0 1.7022104744190898 0.64551225550815161 0 0 0 0 0.52122482511003909 -12.593471538911047 0 -12.593471538911047 0.91633235475141106 0 0 0 0 -4.0388764932795311 -11.520470454956211 0 -11.520470454956211 3.7095802683250128 0 0 0 0 15.939131164226865 -3.2228215086502541 0 -3.2228215086502541 1.6678274109441844 0 0 0 0 -3.2253845142744924 0.2644464467222285 0 0.2644464467222285 0.30810282694525887 0 0 0 0 -2.418154099691888 1.3040717095930603 0 1.3040717095930603 1.515609673150335 0 0 0 0 17.452867832774245 -2.3161157557657646 0 -2.3161157557657646 -3.128493778598795 0 0 0 0 13.563632040802077 4.9089073697218168 0 4.9089073697218168 3.4840551615496906 0 0 0 0 12.330883766002444 12.576264714026166 0 12.576264714026166 -3.6740732730717127 0 0 0 0 14.24679085806747 13.314067985977147 0 13.314067985977147 -6.1735543144792473 0 0 0 0 8.9479843960216385 19.647156546145538 0 19.647156546145538 -16.952224223307553 0 0 0 0 7.3744423590878796 10.170625146078066 0 10.170625146078066 -11.289822775295306 0 0 0 0 12.575610121574414 11.156502003199861 0 11.156502003199861 -13.614473695367678 0 0 0 0 17.879702561430349 -1.9371435641154164 0 -1.9371435641154164 -10.398070511663377 0 0 0 0 9.1003554689068551 93.933094523351002 0 93.933094523351002 75.766002426643936 0 0 0 0 91.223229380563907 135.39292817980865 0 135.39292817980865 82.777706968505498 0 0 0 0 31.25135304394189 38.630270963513908 0 38.630270963513908 73.038998800304284 0 0 0 0 43.041811986342736 119.0262475873074 0 119.0262475873074 128.24383155277599 0 0 0 0 -277.38237455918625 -261.2547263126761 0 -261.2547263126761 -146.91099574513245 0 0 0 0 -1.8419057818106452 0.5151306516105949 0 0.5151306516105949 0.064429344402737732 0 0 0 0 -90.69093356783651 -75.84075193378095 0 -75.84075193378095 -132.05403458317056 0 0 0 0 -253.56146558555793 -11.157666871547974 0 -11.157666871547974 -8.1900813668321746 0 0 0 0 -106.67640625884769 20.227519949809732 0 20.227519949809732 16.211828803605727 0 0 0 0 -33.849918118117785 -59.625439018217207 0 -59.625439018217207 -27.268189345668361 0 0 0 0 20.577086114944905 58.142721884308912 0 58.142721884308912 16.56993339230138 0 0 0 0 83.05877425269864 63.682819656096171 0 63.682819656096171 30.480076341739533 0 0 0 0 14.203424991890643 13.11243225234 0 13.11243225234 4.6834305649572912 0 0 0 0 38.470885358612577 44.635554017537288 0 44.635554017537288 42.350609965254648 0 0 0 0 -15.829167040918946 39.064303544974237 0 39.064303544974237 -16.506560621209246 0 0 0 0 -4.0754490879226069 20.096144292352051 0 20.096144292352051 0.3304443902021319 0 0 0 0 15.011222161987462 5.0348098149231078 0 5.0348098149231078 -52.271190493675562 0 0 0 0 -16.1372423628045 -23.646630632455839 0 -23.646630632455839 -46.714689696906561 0 0 0 0 -44.875306769846247 -15.406982610931351 0 -15.406982610931351 -27.429714798498907 0 0 0 0 -64.22974161242837 -45.257530326229073 0 -45.257530326229073 -51.430383199234363 0 0 0 0 -48.782791422915466 3.6497888322313408 0 3.6497888322313408 -78.418481480942319 0 0 0 0 -103.53658805634814 -24.26089309322861 0 -24.26089309322861 10.828248498186589 0 0 0 0 -56.222899695195792 -24.92498982759566 0 -24.92498982759566 -0.42282967592097975 0 0 0 0 -34.443893906906851 -19.944432813035753 0 -19.944432813035753 0.35106383026521826 0 0 0 0 -34.482691912931841 -19.967489636327258 0 -19.967489636327258 3.0808004894885812 0 0 0 0 -33.962322756486174 -18.2983136240546 0 -18.2983136240546 5.6138180641089832 0 0 0 0 -36.32682190880314 -7.0898504030128038 0 -7.0898504030128038 17.705480735976352 0 0 0 0 -46.225818681839883 8.4908987357633077 0 8.4908987357633077 28.377893336266879 0 0 0 0 -59.754743199796394 -17.803000149359036 0 -17.803000149359036 13.498788369670962 0 0 0 0 -6.0819109451485929 42.752455482771438 0 42.752455482771438 21.011929699239303 0 0 0 0 -43.957557770670746 9.6632601190088394 0 9.6632601190088394 18.267414488995968 0 0 0 0 -82.184539931090512 25.127539448272685 0 25.127539448272685 26.818098318034359 0 0 0 0 16.050320657232533 25.765249482167018 0 25.765249482167018 -30.47028210475499 0 0 0 0 12.522748850164703 14.582182840514832 0 14.582182840514832 2.7055204381443616 0 0 0 0 14.121726647539163 16.73305177822742 0 16.73305177822742 2.012856513788563 0 0 0 0 -7.843156684944006 8.5371631376580126 0 8.5371631376580126 7.9195270499218537 0 0 0 0 -4.6548554424871327 7.3984838482039947 0 7.3984838482039947 7.7527260265249218 0 0 0 0 -8.1327404591320374 6.1230349039556131 0 6.1230349039556131 8.1638693726497422 0 0 0 0 -20.938629689305344 7.5613026541106478 0 7.5613026541106478 10.890738011975145 0 0 0 0 -7.8606806998427601 13.909098272030008 0 13.909098272030008 11.929880788186097 0 0 0 0 -25.525956836514524 13.747930818037929 0 13.747930818037929 19.169870264514373 0 0 0 0 -32.088328910664131 -3.7458043744227894 0 -3.7458043744227894 15.767443725950727 0 0 0 0 -36.474074793762611 3.5639198434331547 0 3.5639198434331547 18.385018812136195 0 0 0 0 -29.024457623725709 -4.3413618495462885 0 -4.3413618495462885 11.741319243662474 0 0 0 0 -25.601276637556566 -1.6787885441077037 0 -1.6787885441077037 2.316943065796977 0 0 0 0 -26.150993359450695 1.7051274361447781 0 1.7051274361447781 11.249248707053841 0 0 0 0 -26.102539759592219 2.4649191134305397 0 2.4649191134305397 12.354386401865099 0 0 0 0 -20.704922314375096 5.3025048825208394 0 5.3025048825208394 13.623799687826022 0 0 0 0 -16.794612986267566 1.0076447710416687 0 1.0076447710416687 6.1275207963585672 0 0 0 0 -24.957689319902784 5.5449917696028024 0 5.5449917696028024 2.2260964253011934 0 0 0 0 -4.2601302123294316 0.35141413497863283 0 0.35141413497863283 0.078670735424796856 0 0 0 0 -14.635691755897369 1.4764010812287438 0 1.4764010812287438 6.2123950118409539 0 0 0 0 -29.926640624471474 5.7698750915908761 0 5.7698750915908761 6.3204228931583089 0 0 0 0 -8.9632209964106107 -5.4039304677723567 0 -5.4039304677723567 4.7630603878563722 0 0 0 0 -30.173269369123318 4.8579004264099979 0 4.8579004264099979 4.9568282970013797 0 0 0 0 -28.403020477375094 2.1584052985155324 0 2.1584052985155324 -0.78770677407851508 0 0 0 0 -18.850852167352748 3.6845448566508812 0 3.6845448566508812 0.93803977318477472 0 0 0 0 -26.218776463484346 3.6185026761460435 0 3.6185026761460435 2.6556454903976316 0 0 0 0 -25.442247662734076 3.1061016475643921 0 3.1061016475643921 1.7795819652535272 0 0 0 0 -6.4387098206310531 -2.1409977028715734 0 -2.1409977028715734 1.0121170313798895 0 0 0 0 -11.219793544271397 -1.9914634491129988 0 -1.9914634491129988 -2.9831436134961393 0 0 0 0 -12.251511843294793 -1.2494654622117025 0 -1.2494654622117025 -2.9996160635648219 0 0 0 0 -12.681290296898624 -1.6315474115890538 0 -1.6315474115890538 -2.0248954248040718 0 0 0 0 -12.342763692098742 0.77571371372516751 0 0.77571371372516751 -1.2539110667011641 0 0 0 0 -8.9539118007687257 1.1475925660171225 0 1.1475925660171225 -0.28693592509645682 0 0 0 0 -7.2825815992463276 -2.2556529363717175 0 -2.2556529363717175 -3.7979428594312594 0 0 0 0 -1.7947685036033851 -1.952144159045933 0 -1.952144159045933 -1.5047790247078521 0 0 0 0 -18.640462621211555 0.80177972396927544 0 0.80177972396927544 -3.0179952700227659 0 0 0 0 -0.39616070294421513 0.52984779431732987 0 0.52984779431732987 -0.25092791699655326 0 0 0 0 -20.438333312610666 -15.389101894267071 0 -15.389101894267071 7.8034842153548318 0 0 0 0 -31.301329716134205 6.0677023498460017 0 6.0677023498460017 -5.904251308703806 0 0 0 0 -1.3433695431355783 0.88608794486166609 0 0.88608794486166609 -2.096967751746535 0 0 0 0 -8.2449658659202214 -21.019770158802217 0 -21.019770158802217 -21.27549651809835 0 0 0 0 0.86503682772990942 9.2303255739804797 0 9.2303255739804797 4.3542607621268417 0 0 0 0 -0.29997756736651837 -0.20360911315067121 0 -0.20360911315067121 -1.1021262205251452 0 0 0 0 -6.3597258274417072 3.2874338844470685 0 3.2874338844470685 3.5968177576880862 0 0 0 0 -12.493660850771448 0.9445455913613614 0 0.9445455913613614 2.8144738896768331 0 0 0 0 -16.21285349417667 4.1771063825664214 0 4.1771063825664214 8.1414209016224959 0 0 0 0 -0.61710510879311187 33.194727842412533 0 33.194727842412533 9.6437292473021898 0 0 0 0 -16.416113767408905 3.3357024987723212 0 3.3357024987723212 0.76760751183194287 0 0 0 0 -7.8737274280119891 24.739044433115964 0 24.739044433115964 31.52653344200894 0 0 0 0 -2.3967298187532151 26.510901762973816 0 26.510901762973816 -5.1067725989078099 0 0 0 0 2.702513997589449 20.92960298898106 0 20.92960298898106 0.047897666495600788 0 0 0 0 -7.3009914829581248 19.172371230429178 0 19.172371230429178 7.7708838074507867 0 0 0 0 2.494315852480895 20.27031913394768 0 20.27031913394768 -0.29278072600720861 0 0 0 0 -30.701907785649496 9.42485883533368 0 9.42485883533368 3.5812379426201915 0 0 0 0 -5.2457233535391339 8.7220229922302615 0 8.7220229922302615 0.64839596419637813 0 0 0 0 -51.345434926172175 5.8244856033218184 0 5.8244856033218184 45.262301841004955 0 0 0 0 0.51246991556431754 3.2303542705593831 0 3.2303542705593831 -0.15936898443704248 0 0 0 0 -47.997963358907896 -12.007566345451039 0 -12.007566345451039 12.118559098810067 0 0 0 0 -37.409765735200153 6.7698506193661103 0 6.7698506193661103 11.530580331149622 0 0 0 0 -44.850720815350996 19.623288790374772 0 19.623288790374772 -3.5029668990743517 0 0 0 0 -36.420710858981465 4.2767818513288205 0 4.2767818513288205 1.2060147153783873 0 0 0 0 -14.325776711969411 -7.2463699772277721 0 -7.2463699772277721 9.13366928698224 0 0 0 0 -28.649785720559578 -7.366378693162611 0 -7.366378693162611 9.2198199888606496 0 0 0 0 -23.604927995380422 -5.4882008302605527 0 -5.4882008302605527 9.524064781894765 0 0 0 0 -6.7894310235678805 -6.8632447186048511 0 -6.8632447186048511 3.8455330934457108 0 0 0 0 -21.148824465209145 -6.6601409839347809 0 -6.6601409839347809 5.9955596973567822 0 0 0 0 -4.7651385534477129 -0.86367525646062404 0 -0.86367525646062404 2.7019971299035888 0 0 0 0 -8.6015042843840206 0.97824018262548407 0 0.97824018262548407 9.0094727058261981 0 0 0 0 2.8948722896381014 -12.771874103653772 0 -12.771874103653772 -4.9027267546144913 0 0 0 0 -1.3836004321906676 -0.55058359114409872 0 -0.55058359114409872 -0.27697571712911029 0 0 0 0 3.067079670556609 -8.0680282646449655 0 -8.0680282646449655 -14.873535883054934 0 0 0 0 -137.76303272179675 -16.70359467551863 0 -16.70359467551863 1.0926283782611392 0 0 0 0 -125.62497508889805 -13.733141511850931 0 -13.733141511850931 39.088412249788007 0 0 0 0 -52.828780327741697 -41.822245061606452 0 -41.822245061606452 -20.811616669694942 0 0 0 0 -54.383276189672415 12.090520812722275 0 12.090520812722275 37.440044122048675 0 0 0 0 38.151040257383784 50.565846805818438 0 50.565846805818438 8.6861812498916606 0 0 0 0 -3.460834506498895 -0.39004852205281526 0 -0.39004852205281526 2.9001038758586102 0 0 0 0 -74.750654224405821 72.593399898013502 0 72.593399898013502 26.011365507581331 0 0 0 0 -150.22747439312906 5.4584421761606023 0 5.4584421761606023 74.11922267302964 0 0 0 0 97.144516415672342 34.99863090067106 0 34.99863090067106 -37.74682918455639 0 0 0 0 0.17651235735805804 -0.66787709219515445 0 -0.66787709219515445 0.56037646035062316 0 0 0 0 -8.3133079433279704 12.066003728519831 0 12.066003728519831 -22.137109002862417 0 0 0 0 -13.582396387650647 79.734108160765388 0 79.734108160765388 13.061173003516387 0 0 0 0 3.6282271345260142 12.376307235365175 0 12.376307235365175 -40.659834684002021 0 0 0 0 -3.8945092510180075 -22.307698706536485 0 -22.307698706536485 -27.965025745748505 0 0 0 0 -15.421068584186656 -5.2836880595130253 0 -5.2836880595130253 25.703653685291783 0 0 0 0 -12.675990047027653 -17.595172688738899 0 -17.595172688738899 10.384481964184261 0 0 0 0 -12.95036555831291 70.977654096656181 0 70.977654096656181 -121.95659655984184 0 0 0 0 -13.34632649191667 64.927138003009929 0 64.927138003009929 -25.570328060882503 0 0 0 0 -160.22165129428566 -48.262333804652293 0 -48.262333804652293 43.233929630797384 0 0 0 0 15.661096892867306 69.835629930249752 0 69.835629930249752 -96.851717193012618 0 0 0 0 -144.60759166784538 51.639635742613024 0 51.639635742613024 -3.291688170587463 0 0 0 0 -138.59459190437349 32.368371392717052 0 32.368371392717052 -94.920228398990901 0 0 0 0 -164.5441734856887 18.96324970742927 0 18.96324970742927 26.725031843056414 0 0 0 0 -198.08969426366247 147.10840933303251 0 147.10840933303251 -36.225228654409335 0 0 0 0 -0.64809429002408514 0.52208679640723554 0 0.52208679640723554 -0.42262717880400835 0 0 0 0 -139.04469953743941 -63.300827801130801 0 -63.300827801130801 -29.492266579259478 0 0 0 0 -84.573764981052818 79.724823321244429 0 79.724823321244429 3.9478037865354594 0 0 0 0 4.8736818220181135 -27.170030030231118 0 -27.170030030231118 -18.278250252508002 0 0 0 0 -3.8018219176128323 -1.432160642651328 0 -1.432160642651328 0.8901200477175405 0 0 0 0 -1.4147136964827016 -0.62007972146539292 0 -0.62007972146539292 1.0254215056937492 0 0 0 0 -31.657584038942673 28.519993321836267 0 28.519993321836267 13.557136546686394 0 0 0 0 16.365794355921992 -55.825403969071118 0 -55.825403969071118 11.414995783088671 0 0 0 0 -18.671831101474311 26.322693644388309 0 26.322693644388309 -72.852881825421491 0 0 0 0 -84.622997346995533 57.186412475464238 0 57.186412475464238 -30.888038227844163 0 0 0 0 -81.491171133970852 27.388604813614052 0 27.388604813614052 -0.90056948340759391 0 0 0 0 -168.23458493826007 62.955175683477933 0 62.955175683477933 -6.2563914076060883 0 0 0 0 -104.73199621596677 152.33321435480713 0 152.33321435480713 -193.90910552220339 0 0 0 0 -1.8927838457540447 0.72822786742014456 0 0.72822786742014456 0.25035800759159199 0 0 0 0 -38.064761577973186 -56.300846554801183 0 -56.300846554801183 107.49398970009719 0 0 0 0 -168.05892038532613 60.894588485244981 0 60.894588485244981 16.369292691547116 0 0 0 0 -52.765047183272969 118.97285847615818 0 118.97285847615818 -39.505221200476171 0 0 0 0 -78.414771208469517 -28.908227874781343 0 -28.908227874781343 50.354275934247369 0 0 0 0 -21.520462528298197 -19.666366632490494 0 -19.666366632490494 -63.711984306011857 0 0 0 0 -16.648866499133874 2.8530821039808529 0 2.8530821039808529 -17.23481011749373 0 0 0 0 -3.360191955166373 -0.93501601884362717 0 -0.93501601884362717 0.13323454711196597 0 0 0 0 -19.538316142068538 11.262012107063228 0 11.262012107063228 -19.311403619864109 0 0 0 0 -19.190909397867358 9.0319906135379568 0 9.0319906135379568 -5.0129680786109247 0 0 0 0 -3.7228053474724052 -5.717756803706779 0 -5.717756803706779 0.12671101740083393 0 0 0 0 -13.46906648944946 -7.0809779281247067 0 -7.0809779281247067 -2.331576729844592 0 0 0 0 -15.693379714846742 -5.3763773262590107 0 -5.3763773262590107 1.4986511194230729 0 0 0 0 -16.589199718598138 2.3317160298127675 0 2.3317160298127675 -13.714267934581386 0 0 0 0 -16.126353017191377 1.1306293371269405 0 1.1306293371269405 3.9798373404338725 0 0 0 0 -19.441523933442511 -10.241753712763426 0 -10.241753712763426 -0.41782209167212159 0 0 0 0 -4.1029659243652592 0.2600082152495502 0 0.2600082152495502 0.057200759964606357 0 0 0 0 -5.1696745309203207 3.4226800545914271 0 3.4226800545914271 -0.4092415527468084 0 0 0 0 -3.7064005904720743 -6.2928109525648406 0 -6.2928109525648406 0.39036646497373689 0 0 0 0 -17.280464439031974 2.6164325180712664 0 2.6164325180712664 -5.0283173208944518 0 0 0 0 -16.87857441125152 -2.0252729696036056 0 -2.0252729696036056 -0.31652979905709344 0 0 0 0 -26.163072777645993 2.4591286387619959 0 2.4591286387619959 1.2215982914635219 0 0 0 0 -37.620271355570537 12.866142922412365 0 12.866142922412365 -4.238376009535358 0 0 0 0 -2.8817706864546837 -3.8151092561492561 0 -3.8151092561492561 -1.0076579877611396 0 0 0 0 -20.203768523837766 -5.2334369630561071 0 -5.2334369630561071 -8.6089276241933135 0 0 0 0 -26.775082716868837 3.151917845876639 0 3.151917845876639 2.3723394271832632 0 0 0 0 -3.8407913755120182 -0.015976668006972838 0 -0.015976668006972838 0.33215017257776464 0 0 0 0 15.335696880635112 -74.201705542563417 0 -74.201705542563417 4.0743278934631348 0 0 0 0 -0.55805840352333802 -0.50493005219356291 0 -0.50493005219356291 -0.31226561100194206 0 0 0 0 -76.907121503742815 32.710609979927654 0 32.710609979927654 16.389112098951955 0 0 0 0 57.69915375709752 -1.0633579540016456 0 -1.0633579540016456 -8.268894930892607 0 0 0 0 50.377398840231052 -34.087124265240739 0 -34.087124265240739 -1.5407466489575654 0 0 0 0 -52.070758270378633 -13.567887795582806 0 -13.567887795582806 3.1944261436438524 0 0 0 0 -0.11726083496545303 -0.024153982583309919 0 -0.024153982583309919 -0.21635372731906655 0 0 0 0 -60.86230155027306 13.398175885037205 0 13.398175885037205 4.2584412742281472 0 0 0 0 -28.779781932472929 6.2267212570703805 0 6.2267212570703805 17.500841311205193 0 0 0 0 -1.4942618732362158 -0.51740469483710605 0 -0.51740469483710605 -0.20340441880594884 0 0 0 0 -16.535287152695446 3.5531733878559066 0 3.5531733878559066 -7.6089712735121111 0 0 0 0 10.274597170519201 -18.491460482645266 0 -18.491460482645266 -0.068303808568657587 0 0 0 0 -3.9789439559586413 4.5270990214979889 0 4.5270990214979889 -0.30812637963754241 0 0 0 0 -34.366852364805993 -3.0114835726549813 0 -3.0114835726549813 -2.9806023754866828 0 0 0 0 -15.983272945496765 -21.904633179276402 0 -21.904633179276402 12.709942815292735 0 0 0 0 -1.2726619522415408 -1.3255915363821489 0 -1.3255915363821489 -1.0856718654528632 0 0 0 0 3.4417802308856835 -42.277057258143046 0 -42.277057258143046 22.071607237943226 0 0 0 0 -40.047857023395068 2.6039359390873074 0 2.6039359390873074 1.1494241633876072 0 0 0 0 -1.1064353479158071 -0.7958832890121188 0 -0.7958832890121188 0.13758327778846824 0 0 0 0 46.832260619434805 -51.630845904559067 0 -51.630845904559067 -0.50381108819397014 0 0 0 0 -1.1443479079423469 36.610010984070186 0 36.610010984070186 -33.395623861555919 0 0 0 0 -0.60167866789035607 -0.37316003174971346 0 -0.37316003174971346 0.15763075967410511 0 0 0 0 -80.878291451809218 49.083087335237565 0 49.083087335237565 16.756229638423633 0 0 0 0 -4.2670829215580852 -71.165136119690374 0 -71.165136119690374 -5.1698955137492248 0 0 0 0 -0.67485517678829865 -60.827682266919339 0 -60.827682266919339 -21.02673654523096 0 0 0 0 -0.74859715127838333 -0.92221508845140121 0 -0.92221508845140121 -0.096620953006169685 0 0 0 0 -1.356325257069102 -64.80667346441976 0 -64.80667346441976 8.2530162422608555 0 0 0 0 -1.0832894881928681 -1.662634842924092 0 -1.662634842924092 -1.9166887992192463 0 0 0 0 -0.1769834850603047 -55.916745669566751 0 -55.916745669566751 27.393078623412293 0 0 0 0 -6.3332446835479459 -4.9192170494243896 0 -4.9192170494243896 7.290981438718461 0 0 0 0 2.5011876663976409 1.8201899096147827 0 1.8201899096147827 -21.21190355056001 0 0 0 0 7.8541080461673118 -45.837469751122853 0 -45.837469751122853 37.472525131011025 0 0 0 0 -23.572518989635341 63.040809370710946 0 63.040809370710946 -32.556729883360731 0 0 0 0 -8.8363214203174039 -0.011481735936840209 0 -0.011481735936840209 -3.0039067750835216 0 0 0 0 -14.211167785108501 20.613268669513435 0 20.613268669513435 -6.7761692962131121 0 0 0 0 13.516734913841731 4.0552907586553815 0 4.0552907586553815 -9.3692843884265358 0 0 0 0 -1.3120485196357938 -0.78680163786387225 0 -0.78680163786387225 -0.68050891990521822 0 0 0 0 -28.621482980443716 23.141483670708624 0 23.141483670708624 19.196222218409012 0 0 0 0 -39.966807012948721 -4.5758134778054398 0 -4.5758134778054398 28.269978577466702 0 0 0 0 -38.386459452363056 7.9507952948275999 0 7.9507952948275999 -0.86676606668402201 0 0 0 0 -2.9848580195578061 -6.2825788388076216 0 -6.2825788388076216 -0.83889123158491075 0 0 0 0 -2.1677156872710679 -0.62747157904789308 0 -0.62747157904789308 0.42307163078708671 0 0 0 0 -42.481801828860796 10.236873305750976 0 10.236873305750976 8.5636560934577233 0 0 0 0 -16.961624102984047 -3.5624572794481164 0 -3.5624572794481164 -0.08380830999924882 0 0 0 0 -3.7161633523833544 -0.66887781476070485 0 -0.66887781476070485 -0.57682754812463577 0 0 0 0 -124.7407697491567 6.4687498867984914 0 6.4687498867984914 14.92135217056034 0 0 0 0 -25.736432099778085 11.967917160962372 0 11.967917160962372 -16.253260529264935 0 0 0 0 -4.5328110468117684 -6.9296182583005823 0 -6.9296182583005823 -0.43791010649265361 0 0 0 0 -57.720316519537818 -21.544827979665939 0 -21.544827979665939 0.80850692667547719 0 0 0 0 -38.14665487223499 -6.6390347382625663 0 -6.6390347382625663 -15.070372098850783 0 0 0 0 -16.819568985461501 -8.288916049469325 0 -8.288916049469325 15.600301244542397 0 0 0 0 19.526654771480025 -48.540012988275862 0 -48.540012988275862 -19.158638361295743 0 0 0 0 -15.466768357027973 -44.762058395689067 0 -44.762058395689067 15.59698876466507 0 0 0 0 -12.80854748502469 -0.21220719678455602 0 -0.21220719678455602 4.5690975273656704 0 0 0 0 -156.26999009824135 39.927510337637969 0 39.927510337637969 26.157157732824771 0 0 0 0 -102.07353638755421 -53.917124512243419 0 -53.917124512243419 -25.181547692222125 0 0 0 0 -109.11591701060843 77.519626218995171 0 77.519626218995171 -54.870038420080959 0 0 0 0 -17.792952035089002 6.1106335946558126 0 6.1106335946558126 -126.61048015252535 0 0 0 0 10.881587647614197 43.739348470432979 0 43.739348470432979 -42.430816928595178 0 0 0 0 -21.387434979402769 -2.5352621890595168 0 -2.5352621890595168 9.3745581467027144 0 0 0 0 -130.27340666187592 -5.6029781333110513 0 -5.6029781333110513 32.662420765635758 0 0 0 0 -91.720624644903864 -28.01484319620906 0 -28.01484319620906 7.1577384678755038 0 0 0 0 -96.073188365432998 -20.920186568567811 0 -20.920186568567811 38.683969972339156 0 0 0 0 0.21017097473909718 0.13699728674775447 0 0.13699728674775447 0.090720793489208723 0 0 0 0 -7.9830086260567441 -0.41000785839168286 0 -0.41000785839168286 -3.4302396418070114 0 0 0 0 -89.445120476791317 -40.542722177249757 0 -40.542722177249757 51.740459218754729 0 0 0 0 -95.087067258594288 -29.187047496286397 0 -29.187047496286397 41.690937398554169 0 0 0 0 -37.026267361208738 -26.76702314382997 0 -26.76702314382997 35.697111164794869 0 0 0 0 -49.396777629772771 57.254237528833215 0 57.254237528833215 136.34255955330701 0 0 0 0 32.635255360711767 11.7652919506416 0 11.7652919506416 7.1170710879289629 0 0 0 0 -183.91044746929038 -18.585965415910714 0 -18.585965415910714 58.818671001264022 0 0 0 0 -1.7808622972245427 1.0391975553749546 0 1.0391975553749546 -0.49248654230274386 0 0 0 0 22.712647142111791 117.62322888696299 0 117.62322888696299 -45.070302727461396 0 0 0 0 -116.1280718024982 88.154219105330299 0 88.154219105330299 -3.1879041255731977 0 0 0 0 59.413453853561919 52.091683205365129 0 52.091683205365129 -56.040909605650711 0 0 0 0 22.17930828503313 66.697356689457365 0 66.697356689457365 -61.522318736488444 0 0 0 0 -2.9506366427085595 54.493166159931434 0 54.493166159931434 -40.616989205409396 0 0 0 0 -7.321939155232144 75.809032621440153 0 75.809032621440153 -136.61890124105651 0 0 0 0 -176.58900943860294 69.060346711183499 0 69.060346711183499 -55.331145984913363 0 0 0 0 -151.34036656284496 13.081222820508355 0 13.081222820508355 -16.245414032845503 0 0 0 0 -10.677808511316698 99.888350361145697 0 99.888350361145697 4.3851279141011474 0 0 0 0 -137.57700850831208 -55.52331845415442 0 -55.52331845415442 52.569338146176619 0 0 0 0 -40.216157001240163 122.42578726339683 0 122.42578726339683 148.74798957821631 0 0 0 0 -408.82137979298511 93.526181991365902 0 93.526181991365902 43.438079270333589 0 0 0 0 -413.82454732599524 58.595369333532716 0 58.595369333532716 59.920701062502388 0 0 0 0 -500.05914500115705 92.706291229042364 0 92.706291229042364 108.51165180869322 0 0 0 0 -513.53988300945696 165.46443224545962 0 165.46443224545962 40.912624500862648 0 0 0 0 -496.98712179509533 -43.198390261864368 0 -43.198390261864368 151.23154624877998 0 0 0 0 -499.89088547141921 100.82742625431457 0 100.82742625431457 -57.656423307736517 0 0 0 0 -4.2932588560603389 2.1623238455859153 0 2.1623238455859153 -0.70353461773929604 0 0 0 0 -2.4545544051614119 1.1390248003586965 0 1.1390248003586965 -0.38036504648439434 0 0 0 0 -26.551418645967033 198.88239065117824 0 198.88239065117824 -43.965647121779149 0 0 0 0 -61.216420359802669 -38.396685387440193 0 -38.396685387440193 45.482814351623006 0 0 0 0 -160.32888345314132 33.273066347350891 0 33.273066347350891 -23.612570102954621 0 0 0 0 -191.13558193267818 111.1719290759566 0 111.1719290759566 0.33338727389389788 0 0 0 0 -165.45310855902858 29.189597343581312 0 29.189597343581312 -25.140083924045243 0 0 0 0 -458.40344719601921 38.89948165956497 0 38.89948165956497 8.4631233601313269 0 0 0 0 -437.28668116795893 160.07728689418997 0 160.07728689418997 20.396716000510192 0 0 0 0 -500.01282104035818 74.093367395635241 0 74.093367395635241 64.027694823323117 0 0 0 0 -393.06048079814764 31.676368776086917 0 31.676368776086917 72.818648301516504 0 0 0 0 -387.90415777977842 85.807017197394416 0 85.807017197394416 19.747873735358553 0 0 0 0 -499.89061780477437 7.3175988832702572 0 7.3175988832702572 80.501102316474103 0 0 0 0 -231.92992461964963 39.601768552108339 0 39.601768552108339 -32.400097572030461 0 0 0 0 -159.82626131315374 45.562499656852893 0 45.562499656852893 -41.481850812122836 0 0 0 0 -235.14335018695192 23.365623086561932 0 23.365623086561932 -0.33471743240221485 0 0 0 0 -239.87648606927632 6.4429366413792621 0 6.4429366413792621 0.29271334298442753 0 0 0 0 -238.04355478803973 -3.7103066812163235 0 -3.7103066812163235 -30.380574689045886 0 0 0 0 -183.17861643534889 18.141001400114686 0 18.141001400114686 -23.446910734144119 0 0 0 0 -181.02984418390156 20.150274233997802 0 20.150274233997802 -67.68718384501706 0 0 0 0 -181.29955168637423 7.9437686790465465 0 7.9437686790465465 -22.176121650449183 0 0 0 0 -189.44811759822824 27.418619094422915 0 27.418619094422915 -41.50880731426922 0 0 0 0 -196.12886317540037 -60.62406491212711 0 -60.62406491212711 -23.85742425677271 0 0 0 0 -0.60731047092085522 0.39570931835694534 0 0.39570931835694534 -0.31362554526321573 0 0 0 0 -11.019293783254852 63.391432894999795 0 63.391432894999795 -49.22560539128169 0 0 0 0 -17.47293243545937 -16.264663301007467 0 -16.264663301007467 -12.400694887801144 0 0 0 0 -19.875828297962698 -5.7923582637360944 0 -5.7923582637360944 11.733404604667697 0 0 0 0 -26.3020210050081 -26.3031399816036 0 -26.3031399816036 -0.59111192257572043 0 0 0 0 -0.33020114190314054 0.74640378822473696 0 0.74640378822473696 -1.3676377853951989 0 0 0 0 -35.760050294867142 -4.6790145618560501 0 -4.6790145618560501 5.4375136581148951 0 0 0 0 14.437296322668772 15.877162659534619 0 15.877162659534619 3.7491778543405943 0 0 0 0 -1.4847995854408094 1.0320885174549392 0 1.0320885174549392 -0.52281898284538686 0 0 0 0 -50.69364686851668 -35.562334167750876 0 -35.562334167750876 -25.37915482265576 0 0 0 0 -74.299395223770546 -33.937956256606675 0 -33.937956256606675 -23.04172362490625 0 0 0 0 -21.272955527318118 39.673652858292357 0 39.673652858292357 -0.56719178548172522 0 0 0 0 3.788160486286074 -29.031731343215142 0 -29.031731343215142 -2.4093181002831443 0 0 0 0 -20.537757519528 2.7065044070634086 0 2.7065044070634086 -1.0910278626056602 0 0 0 0 -1.4438617355687544 1.2635920334006752 0 1.2635920334006752 -0.53749203771194565 0 0 0 0 -45.821147720495446 -22.501958648723061 0 -22.501958648723061 -0.69899633088022206 0 0 0 0 -86.266623729349249 -33.479223646233734 0 -33.479223646233734 5.5384183123321264 0 0 0 0 -83.305584241572888 -49.912235200473546 0 -49.912235200473546 11.119828301282759 0 0 0 0 -81.104055969239425 -30.00288358183554 0 -30.00288358183554 -16.950842609037139 0 0 0 0 -58.085142022726359 18.012795915416412 0 18.012795915416412 -32.26366360540365 0 0 0 0 -96.726640202894032 9.9712359636397281 0 9.9712359636397281 -33.27369081885864 0 0 0 0 -75.543079386798127 -39.71937196098694 0 -39.71937196098694 -40.292307927444256 0 0 0 0 -123.54763023737701 -28.720780225907202 0 -28.720780225907202 -10.692947216796863 0 0 0 0 -1.4223380851761309 -0.49812404879293304 0 -0.49812404879293304 -0.10854046080231605 0 0 0 0 35.241543857681563 -37.732952441504722 0 -37.732952441504722 -94.44346018029762 0 0 0 0 -178.93069147013102 97.078891140404593 0 97.078891140404593 -50.488745208827211 0 0 0 0 -63.828402919420114 -26.488946032515628 0 -26.488946032515628 11.658637638087029 0 0 0 0 10.860310945329616 26.95395721029972 0 26.95395721029972 -71.0944128703469 0 0 0 0 -1.9595196954787752 24.734757999150929 0 24.734757999150929 -114.1410975287946 0 0 0 0 -17.50539159390064 1.1799867624941953 0 1.1799867624941953 -83.869334636268661 0 0 0 0 5.1010297269099283 7.3862093800332786 0 7.3862093800332786 -76.675634267520195 0 0 0 0 -125.8281337600547 -26.201693843516523 0 -26.201693843516523 -50.44709246134255 0 0 0 0 -46.329202136240838 -40.026612285193465 0 -40.026612285193465 -93.080632636251607 0 0 0 0 -161.55247430187865 58.777217723158685 0 58.777217723158685 -65.210743279742559 0 0 0 0 -92.159364922561053 -17.052441100610903 0 -17.052441100610903 -125.72944868128782 0 0 0 0 -81.321833121059171 17.215751473269833 0 17.215751473269833 -114.93079173215438 0 0 0 0 -199.3249703376157 29.537865474119222 0 29.537865474119222 -62.955683999364112 0 0 0 0 -119.7783813984679 53.523830788021854 0 53.523830788021854 -56.761426579751841 0 0 0 0 -41.053423696898335 18.025790663116261 0 18.025790663116261 -114.14188412920348 0 0 0 0 -99.303764929431964 77.223573060122661 0 77.223573060122661 -57.240102489771914 0 0 0 0 -24.547466749512751 49.701596151868046 0 49.701596151868046 -68.375894128167857 0 0 0 0 -142.00128973288975 134.27097052231068 0 134.27097052231068 -90.394230125844018 0 0 0 0 -131.4230395456957 68.89211537284524 0 68.89211537284524 -67.245102470182161 0 0 0 0 -86.280542416091521 91.047060602799647 0 91.047060602799647 -68.188324628408509 0 0 0 0 -83.078359241989517 21.137009923420482 0 21.137009923420482 -2.9717603958264647 0 0 0 0 -2.9218299826365488 -1.3284163071579869 0 -1.3284163071579869 -0.29249903531412036 0 0 0 0 13.380364430144255 -57.317166024992957 0 -57.317166024992957 6.8592865793732436 0 0 0 0 -132.68491625758639 55.045999835127134 0 55.045999835127134 -33.355851148602028 0 0 0 0 -51.048320084385523 68.236963651194259 0 68.236963651194259 -45.496782020031844 0 0 0 0 -2.9207621555422492 -1.2419666122513533 0 -1.2419666122513533 -0.13818590525382887 0 0 0 0 -26.491455260545081 -29.944873530544356 0 -29.944873530544356 22.827954187199623 0 0 0 0 -95.599639890070534 36.092434304668807 0 36.092434304668807 11.67985395318027 0 0 0 0 -92.963483278184952 2.3150579505551274 0 2.3150579505551274 34.837098804170211 0 0 0 0 -129.67741265081622 -5.5146179022796673 0 -5.5146179022796673 2.7833201588492216 0 0 0 0 -132.93262497019259 59.305429567986835 0 59.305429567986835 0.98109623919134492 0 0 0 0 -48.423107690892721 29.144650757661168 0 29.144650757661168 16.763761449764985 0 0 0 0 -17.846912299670748 -4.5945014060965992 0 -4.5945014060965992 5.1321340306777898 0 0 0 0 -79.550156883924501 7.9018627772960883 0 7.9018627772960883 10.999792942556567 0 0 0 0 -97.464797066302708 -23.052430950553941 0 -23.052430950553941 38.294234945424648 0 0 0 0 -104.24746342479739 44.836847699224876 0 44.836847699224876 2.8379834470512719 0 0 0 0 -131.34344989868441 35.995137881060799 0 35.995137881060799 24.56924350938516 0 0 0 0 -106.49885662180805 38.345520046020511 0 38.345520046020511 14.129472556300243 0 0 0 0 -97.107894587798455 22.113771553481847 0 22.113771553481847 28.028925443898572 0 0 0 0 -59.71429604239438 30.890831603748666 0 30.890831603748666 -10.076340099313825 0 0 0 0 -22.097794052161589 -14.438094393780517 0 -14.438094393780517 0.06799646795496983 0 0 0 0 -18.328411486809273 -9.4368154908845554 0 -9.4368154908845554 0.27670107928940979 0 0 0 0 -2.4126366348164652 -23.651293305424936 0 -23.651293305424936 16.436508983505973 0 0 0 0 -3.7039746960491584 0.47124347582172277 0 0.47124347582172277 6.4040649096477864 0 0 0 0 -3.9778195690529827 -2.8198591579932364 0 -2.8198591579932364 -2.0302581243877267 0 0 0 0 -80.765463998318637 35.863661294996731 0 35.863661294996731 -17.857807838358326 0 0 0 0 -81.566429155493097 33.066387256490202 0 33.066387256490202 -10.203886824311596 0 0 0 0 -1.5876992341204534 -0.96824569560777984 0 -0.96824569560777984 -0.7515144918536949 0 0 0 0 -6.4565021449870983 -50.111273833293012 0 -50.111273833293012 -144.65952335320048 0 0 0 0 -2.851661570590295 -26.650413194804173 0 -26.650413194804173 -85.656760412734911 0 0 0 0 -130.48526234073506 -142.73040230333527 0 -142.73040230333527 -184.20593765758986 0 0 0 0 30.820635323721945 7.0281630889215307 0 7.0281630889215307 -112.43400262931436 0 0 0 0 -1.5963234703103808 16.404830346584504 0 16.404830346584504 5.7489865680593368 0 0 0 0 -0.94096034925860295 -10.372215941207401 0 -10.372215941207401 -57.195259386656289 0 0 0 0 -10.376269650083032 4.1736686267665846 0 4.1736686267665846 -13.391147740579527 0 0 0 0 -46.526714284082345 23.471196147197809 0 23.471196147197809 -32.098164949141392 0 0 0 0 -182.39666798563485 -49.727880581497516 0 -49.727880581497516 -70.048824931964987 0 0 0 0 -142.98098026032494 84.126538077038163 0 84.126538077038163 -48.741068460793713 0 0 0 0 -309.81962617319186 48.737207688581748 0 48.737207688581748 -55.9981063902801 0 0 0 0 -176.86153249137624 -96.996950393681971 0 -96.996950393681971 -211.75042867986599 0 0 0 0 -249.23402763416561 -136.98514300878696 0 -136.98514300878696 -174.12453774307369 0 0 0 0 -96.775087305930356 82.446229898228694 0 82.446229898228694 -265.64352321829847 0 0 0 0 -35.467932257608481 52.594634863501142 0 52.594634863501142 -136.83863078023606 0 0 0 0 -81.210655059656347 7.6663363991885944 0 7.6663363991885944 -98.459956607005779 0 0 0 0 -72.495899660030773 21.758419646462926 0 21.758419646462926 -115.34537432267439 0 0 0 0 -21.029811638512911 -16.53096706030982 0 -16.53096706030982 -152.36144375067875 0 0 0 0 -11.661988547987903 35.149083855219146 0 35.149083855219146 -124.41017182004498 0 0 0 0 -46.099132441831898 54.26046739552919 0 54.26046739552919 -50.582228061241494 0 0 0 0 -25.995374395750332 28.60823353199055 0 28.60823353199055 -37.377220207859352 0 0 0 0 -39.492754644167235 53.16984725788268 0 53.16984725788268 -128.70877781068066 0 0 0 0 -95.002525042988054 31.600640645799217 0 31.600640645799217 -77.016684213675148 0 0 0 0 -274.96061434021431 54.121921130372584 0 54.121921130372584 -79.586562211525234 0 0 0 0 -132.86432738891745 -28.039319039992165 0 -28.039319039992165 -75.605613616534129 0 0 0 0 -154.86848075064108 -79.920623437114727 0 -79.920623437114727 -30.810252464082396 0 0 0 0 -124.52715411761437 36.715919360076612 0 36.715919360076612 -11.289750868817691 0 0 0 0 -54.559689666120903 -114.70610593799779 0 -114.70610593799779 192.34486968099259 0 0 0 0 -106.91963499759549 7.0073870076205367 0 7.0073870076205367 72.563223405095641 0 0 0 0 -32.657720512755986 5.8043281853655344 0 5.8043281853655344 -6.9874677556053086 0 0 0 0 -22.742273370907242 -71.658698866786779 0 -71.658698866786779 23.196581760948902 0 0 0 0 55.518007410923929 -49.474320158525643 0 -49.474320158525643 73.960880371659229 0 0 0 0 -38.740019388720611 30.916468608613741 0 30.916468608613741 100.84652682149294 0 0 0 0 -26.409839823467337 -4.9882202193046794 0 -4.9882202193046794 53.857208185339687 0 0 0 0 -62.708860560958783 53.94383740280125 0 53.94383740280125 40.131713961632158 0 0 0 0 -10.537021937986083 -12.534245486827729 0 -12.534245486827729 -59.150152574852655 0 0 0 0 -29.093540062802276 -26.215733410313874 0 -26.215733410313874 -50.899467485516936 0 0 0 0 1.1905246225378505 -49.403386766959443 0 -49.403386766959443 -92.415619977886706 0 0 0 0 -80.33092904419027 -156.86160885194249 0 -156.86160885194249 -89.779916492771235 0 0 0 0 13.392432988011933 -156.8315624000536 0 -156.8315624000536 -90.179015888407974 0 0 0 0 -0.86206302270998592 -0.1229067038462901 0 -0.1229067038462901 0.09710268303043712 0 0 0 0 -96.51657438021175 -22.702158432867577 0 -22.702158432867577 12.487463502259743 0 0 0 0 78.792980236614312 -90.147156810612046 0 -90.147156810612046 -50.408834178813152 0 0 0 0 -5.4054338617537354 -1.4862945110960257 0 -1.4862945110960257 -0.081465783169852202 0 0 0 0 -45.684035252937974 -12.537151558397795 0 -12.537151558397795 146.26165367795295 0 0 0 0 -168.76383388966406 152.13500009696889 0 152.13500009696889 -91.033469331047968 0 0 0 0 -2.1406958393011237 -0.63910984435902796 0 -0.63910984435902796 -0.22716883433141555 0 0 0 0 46.185067169301874 -109.18360781488889 0 -109.18360781488889 -29.240760874705984 0 0 0 0 -326.03953943691522 49.034793001848129 0 49.034793001848129 54.573804106470959 0 0 0 0 -60.926198770644078 57.057805406285524 0 57.057805406285524 -27.503738758982081 0 0 0 0 -131.28503418968148 46.588120050365262 0 46.588120050365262 41.286757336181608 0 0 0 0 -76.926371874287724 38.298760715297249 0 38.298760715297249 35.657975564548565 0 0 0 0 -70.790778348621188 0.60654261580788216 0 0.60654261580788216 22.555584736335049 0 0 0 0 -51.528482166174797 -4.7865995509778116 0 -4.7865995509778116 12.080260564189416 0 0 0 0 -0.5229293180080905 0.39276614876285265 0 0.39276614876285265 0.02381493778329169 0 0 0 0 -123.876884181685 -58.029649067832111 0 -58.029649067832111 -29.104898816312698 0 0 0 0 -99.193984560427907 85.979873090933665 0 85.979873090933665 115.30387393135561 0 0 0 0 -177.95414926832746 18.402318166259988 0 18.402318166259988 97.997449508913974 0 0 0 0 -18.289670646464842 -27.119200515637704 0 -27.119200515637704 122.31688984452751 0 0 0 0 -7.0356505112688303 -1.4064912913658474 0 -1.4064912913658474 0.35248367006827364 0 0 0 0 -7.2508587588181399 -12.017625627074722 0 -12.017625627074722 -0.79118339222026179 0 0 0 0 -11.619601191932361 -0.41669002810670008 0 -0.41669002810670008 0.45053885814002115 0 0 0 0 24.750600934877184 -40.181127356184561 0 -40.181127356184561 95.754456048003135 0 0 0 0 -2.1339680154237062 -0.99366393529835984 0 -0.99366393529835984 0.41051168671669469 0 0 0 0 15.216481483832922 -8.1402506477107863 0 -8.1402506477107863 86.212853663892474 0 0 0 0 -33.804988430195408 22.762956631079078 0 22.762956631079078 146.52899985920692 0 0 0 0 -19.24333703655725 -31.970848555754174 0 -31.970848555754174 120.54697370420399 0 0 0 0 -7.891396275302613 -2.3520007406505954 0 -2.3520007406505954 -0.034542524435959177 0 0 0 0 26.392182329422212 -45.634594906714028 0 -45.634594906714028 12.001280291709236 0 0 0 0 -10.562396972624811 10.7534928526768 0 10.7534928526768 102.97625067544232 0 0 0 0 117.67701501958845 26.620291218558634 0 26.620291218558634 -57.763754781788975 0 0 0 0 -118.63938735660668 109.88363768399142 0 109.88363768399142 -58.22945587301956 0 0 0 0 -12.1929555331335 -4.5723050820170101 0 -4.5723050820170101 6.87472348696474 0 0 0 0 0.31310378316340604 0.30659243937620673 0 0.30659243937620673 -0.32510600988022897 0 0 0 0 2.0704636588325229 4.8324889868893024 0 4.8324889868893024 12.480736937941646 0 0 0 0 -1.1452154458963051 -1.5670095260678787 0 -1.5670095260678787 0.09791460474316982 0 0 0 0 -15.49758190609424 32.130121163270431 0 32.130121163270431 78.554943815418483 0 0 0 0 -20.226779091228309 6.8518682690269657 0 6.8518682690269657 55.333507058329701 0 0 0 0 -29.610025152891922 58.287408355393325 0 58.287408355393325 -9.0867167679809882 0 0 0 0 -8.3961983045130637 37.724598392717965 0 37.724598392717965 -3.828951446145993 0 0 0 0 -114.56084247316085 29.020159536311894 0 29.020159536311894 10.154629477592692 0 0 0 0 -23.394678297979226 83.886368678329006 0 83.886368678329006 34.183727975215731 0 0 0 0 -104.36995548668983 33.145512636929084 0 33.145512636929084 10.822408326690038 0 0 0 0 -46.267461102900597 28.459340395600407 0 28.459340395600407 -16.549780451036213 0 0 0 0 -27.604338534982162 23.600427247474613 0 23.600427247474613 -50.848991023091457 0 0 0 0 -31.314347875060776 13.78647039063614 0 13.78647039063614 -76.809216442587513 0 0 0 0 -12.672936869809064 39.348291279271692 0 39.348291279271692 -75.954728772468343 0 0 0 0 -115.29864826420965 26.432269898961358 0 26.432269898961358 -15.589347834400314 0 0 0 0 -113.56814446818953 0.61219424295978797 0 0.61219424295978797 -7.8024569167907885 0 0 0 0 -129.19311607363306 32.655255714507803 0 32.655255714507803 7.1603419965824742 0 0 0 0 -146.71431774194116 43.489294724925116 0 43.489294724925116 58.069870050029976 0 0 0 0 -120.65562711901111 42.118782637770408 0 42.118782637770408 16.654312097285583 0 0 0 0 -104.84720225998342 47.289558928859684 0 47.289558928859684 17.583736504966737 0 0 0 0 -133.6483670749376 -37.049001953822994 0 -37.049001953822994 34.059017458388098 0 0 0 0 -166.1534820515044 19.20625052381763 0 19.20625052381763 31.133899112767267 0 0 0 0 -67.881630289650275 -48.752870407916134 0 -48.752870407916134 27.539489762429071 0 0 0 0 -149.19211656121888 -32.906931288653027 0 -32.906931288653027 42.909151089092347 0 0 0 0 -256.24409052926467 -117.48205012415985 0 -117.48205012415985 31.993844017538095 0 0 0 0 -184.88381455923263 55.750443360101372 0 55.750443360101372 63.653156115308434 0 0 0 0 -428.26265540949407 127.17801566839933 0 127.17801566839933 63.484061291496573 0 0 0 0 -408.55479095054307 85.351157749088088 0 85.351157749088088 -90.273712723667586 0 0 0 0 -3.7452603799473785 -0.80514633686984627 0 -0.80514633686984627 -0.12835860895348494 0 0 0 0 -80.572280553187284 232.72498169606996 0 232.72498169606996 -133.41757046953944 0 0 0 0 -2.7409505913820063 -0.24290071663226331 0 -0.24290071663226331 0.040563797483714081 0 0 0 0 -96.867390403049285 -82.367959164956005 0 -82.367959164956005 -22.307303322013013 0 0 0 0 -450.92953583618601 93.37396874306728 0 93.37396874306728 -22.085094460894197 0 0 0 0 2.9586441876095932 33.133001394668071 0 33.133001394668071 4.17673713887757 0 0 0 0 12.503209780221823 -13.63482618180501 0 -13.63482618180501 -24.612231167246819 0 0 0 0 -28.079652082948542 10.072412494187461 0 10.072412494187461 35.436898955910081 0 0 0 0 6.1217330742711056 -40.727430412250897 0 -40.727430412250897 47.611262499763541 0 0 0 0 0.13965223265505777 0.37351824534837563 0 0.37351824534837563 0.661511433332997 0 0 0 0 23.900059703351531 1.9702646532945778 0 1.9702646532945778 1.3115629237568101 0 0 0 0 -8.8950388966131868 3.8999296680829048 0 3.8999296680829048 40.659330084567557 0 0 0 0 -32.930714138041594 6.0914929966375553 0 6.0914929966375553 21.813309078852171 0 0 0 0 -1.6841846995862397 -8.3236114742629184 0 -8.3236114742629184 -17.235623337667448 0 0 0 0 25.093421777005688 -42.935983410158514 0 -42.935983410158514 -47.6453729768117 0 0 0 0 -0.52457946723148652 -0.55403068667000976 0 -0.55403068667000976 -0.55377556983184917 0 0 0 0 -25.678051313627748 1.162701181934267 0 1.162701181934267 14.872741217828093 0 0 0 0 -26.573757293042036 37.611492288252862 0 37.611492288252862 -3.5512663947204146 0 0 0 0 -30.58377502308349 63.080597373318625 0 63.080597373318625 -34.573928467833042 0 0 0 0 -39.236987583061818 43.001635682480014 0 43.001635682480014 -77.134376080897027 0 0 0 0 -49.018710957907842 82.911527886640258 0 82.911527886640258 -72.398225842579677 0 0 0 0 -0.36751363741053567 -0.45511705551783432 0 -0.45511705551783432 -0.81879817573277736 0 0 0 0 -0.27784817527776795 33.461628392639561 0 33.461628392639561 -58.440673792809122 0 0 0 0 -65.137600959038082 -1.0415564172246263 0 -1.0415564172246263 -3.4350558136573 0 0 0 0 -34.813354386526044 36.186852816865326 0 36.186852816865326 -15.720428619826563 0 0 0 0 -78.754382733964576 6.27816148179528 0 6.27816148179528 3.1782103308787555 0 0 0 0 -12.463904928250031 -2.0593641553022621 0 -2.0593641553022621 -2.714641564430849 0 0 0 0 0.48877000047468755 10.049946917025125 0 10.049946917025125 -20.956223086397017 0 0 0 0 -12.456443023623251 18.631624157025271 0 18.631624157025271 -17.668772327889997 0 0 0 0 -61.796437954409384 20.734418718322075 0 20.734418718322075 72.567170685838335 0 0 0 0 -4.0556124262032709 1.0663376376517015 0 1.0663376376517015 0.5396059433055036 0 0 0 0 -41.519330630767854 73.8948444999358 0 73.8948444999358 26.307643544707815 0 0 0 0 -69.654325808267458 102.30415166854436 0 102.30415166854436 -51.324542586615166 0 0 0 0 -72.476210982431212 129.58619177519176 0 129.58619177519176 -54.413570110564706 0 0 0 0 -234.39444919311336 214.96031897909967 0 214.96031897909967 -82.95119727886447 0 0 0 0 -324.4853379553694 27.769279359313515 0 27.769279359313515 1.558676260978018 0 0 0 0 53.818161684160941 116.3177210368957 0 116.3177210368957 -222.81241546886918 0 0 0 0 -221.48905460997958 195.98407772895803 0 195.98407772895803 -207.39047352646162 0 0 0 0 -293.98478405983315 225.74595136345584 0 225.74595136345584 -92.748253834483904 0 0 0 0 78.399707415843523 105.07535875944717 0 105.07535875944717 -65.012211727149179 0 0 0 0 0.021450581727487261 0.57309711973796773 0 0.57309711973796773 -1.3700581453692173 0 0 0 0 -84.872640070136185 -3.468850057915688 0 -3.468850057915688 64.428785808049497 0 0 0 0 -55.003163885810409 -54.066130346341652 0 -54.066130346341652 17.260289224747567 0 0 0 0 -0.60903947991278606 -0.39145653174996564 0 -0.39145653174996564 0.14502227679143687 0 0 0 0 -24.526108508297966 -27.883178966963214 0 -27.883178966963214 35.49428112866417 0 0 0 0 -73.956781242378383 -34.949193235966533 0 -34.949193235966533 -126.91951886035304 0 0 0 0 -20.095898322194898 38.019550119195912 0 38.019550119195912 -28.531988940136671 0 0 0 0 -89.51892407353489 109.44515550004931 0 109.44515550004931 -115.91258323006628 0 0 0 0 -233.48190460437854 -4.4033643812155958 0 -4.4033643812155958 -59.450050812765028 0 0 0 0 -47.528080738854896 13.48259151422242 0 13.48259151422242 -66.964650482430926 0 0 0 0 -323.56277946574664 58.862648766728356 0 58.862648766728356 54.883836379424622 0 0 0 0 -110.25061901852087 -74.720703065823898 0 -74.720703065823898 134.8804624076603 0 0 0 0 -2.3507696217985847 0.85254990826850674 0 0.85254990826850674 0.30969310643484854 0 0 0 0 -24.697772503692022 122.76690787283889 0 122.76690787283889 -173.00809454090796 0 0 0 0 0.31427818660222329 87.337608808457276 0 87.337608808457276 -95.340902736271431 0 0 0 0 -7.7239773590893037 53.555240885667899 0 53.555240885667899 -116.37720167754298 0 0 0 0 -18.404086905575923 69.90758483836359 0 69.90758483836359 -79.16099100199034 0 0 0 0 -1.4721033688240368 124.36755612161126 0 124.36755612161126 -33.83242783794276 0 0 0 0 -11.724391272910086 1.9209255353407104 0 1.9209255353407104 -0.26500602619348573 0 0 0 0 -4.7844921008468191 -0.64557448868504252 0 -0.64557448868504252 -65.278028797074029 0 0 0 0 -22.996192144015708 62.049735519539269 0 62.049735519539269 -62.97485374835162 0 0 0 0 -72.456338972534468 -20.836557460003348 0 -20.836557460003348 -201.07165157120338 0 0 0 0 -131.30618148176046 7.9486486261737355 0 7.9486486261737355 54.59165067066283 0 0 0 0 -4.4455215179560064 1.130025030007586 0 1.130025030007586 -0.18291709132637657 0 0 0 0 -42.556912055393695 125.3095667610425 0 125.3095667610425 -71.235756370131128 0 0 0 0 -145.93371789759476 245.6447754967711 0 245.6447754967711 -202.23360440125032 0 0 0 0 -2.4924755476744629 -0.93103012787497219 0 -0.93103012787497219 -0.21489417517729004 0 0 0 0 -377.95899564251567 185.92712124755056 0 185.92712124755056 -73.98138065028337 0 0 0 0 -82.751661619409106 67.363273987048004 0 67.363273987048004 -42.745720401125681 0 0 0 0 -364.11500160096421 -227.3270405291467 0 -227.3270405291467 -3.9191915616031565 0 0 0 0 -4.3719368891723054 -2.7136193785827718 0 -2.7136193785827718 -1.5339114009231112 0 0 0 0 -41.606728547240436 44.909836451024056 0 44.909836451024056 -38.980257793105061 0 0 0 0 -134.99494275813822 290.99513698580739 0 290.99513698580739 -86.479594868511413 0 0 0 0 -379.22755466068656 42.126255036612747 0 42.126255036612747 97.822141707610172 0 0 0 0 -158.4897930814659 21.355351084684685 0 21.355351084684685 62.734993952469381 0 0 0 0 -79.603050757592428 8.3933429629262832 0 8.3933429629262832 3.3280945832810147 0 0 0 0 -157.00182209157674 26.571703010380446 0 26.571703010380446 9.8974293564750724 0 0 0 0 -200.44022150724595 -59.862016260457835 0 -59.862016260457835 92.469466213922601 0 0 0 0 -28.686770543122293 42.119781472692452 0 42.119781472692452 78.754892174479664 0 0 0 0 17.150482742797067 -21.941322297717051 0 -21.941322297717051 1.5915710916303851 0 0 0 0 1.6820367289037677 28.246674138782055 0 28.246674138782055 -5.5588324836644496 0 0 0 0 -4.144879399557567 17.698588028770757 0 17.698588028770757 -6.377138450659686 0 0 0 0 -82.516391841328186 10.025958287078851 0 10.025958287078851 -109.35802083574927 0 0 0 0 -46.034812067568964 -16.332202657900581 0 -16.332202657900581 -21.767318606781554 0 0 0 0 -47.488263899047979 -5.7078262470352001 0 -5.7078262470352001 -99.402123667642684 0 0 0 0 -0.37258853638980227 -0.2232624700869108 0 -0.2232624700869108 -0.25307419439552703 0 0 0 0 -54.571538224153755 76.383168688021698 0 76.383168688021698 -105.18287738818877 0 0 0 0 -46.915254723111047 53.881151558544893 0 53.881151558544893 -52.71761722789568 0 0 0 0 -31.970780017347579 68.210920554565902 0 68.210920554565902 -66.977575617687023 0 0 0 0 -40.734258542532601 56.700789269247522 0 56.700789269247522 -75.438659539819554 0 0 0 0 -33.033361538096869 33.281098128524917 0 33.281098128524917 -58.737646848043255 0 0 0 0 -37.844788694448539 52.965318495068253 0 52.965318495068253 -71.025019239024743 0 0 0 0 7.2659232238211189 -2.468941147582683 0 -2.468941147582683 -8.1405818813838096 0 0 0 0 -3.4774739038718714 -2.6453238228671943 0 -2.6453238228671943 -2.0890975858725076 0 0 0 0 -27.997515040839971 32.140806187848909 0 32.140806187848909 -23.07491237013879 0 0 0 0 -1.3434874205074259 -0.97721396944061567 0 -0.97721396944061567 -0.83479519397049717 0 0 0 0 -25.278812658542392 -66.444680666785843 0 -66.444680666785843 -125.67125088048442 0 0 0 0 -151.41109606002829 20.319650193913006 0 20.319650193913006 -36.064500894380657 0 0 0 0 -152.47172391094153 -46.393228846679726 0 -46.393228846679726 -87.507626139052604 0 0 0 0 -75.03302479564536 -11.271430785108009 0 -11.271430785108009 -71.696168141223239 0 0 0 0 -71.232718263565403 22.375265916106926 0 22.375265916106926 -112.68335336482073 0 0 0 0 7.5831341475600311 69.119223515117227 0 69.119223515117227 -60.576264848617143 0 0 0 0 53.476405649414119 -83.612374077139577 0 -83.612374077139577 -187.24079103896133 0 0 0 0 -13.306304173483568 4.0681553611891133 0 4.0681553611891133 1.371027087511834 0 0 0 0 79.607520959045132 51.704139831994247 0 51.704139831994247 14.550097443021627 0 0 0 0 -39.544192648653734 20.949581931990167 0 20.949581931990167 20.314794874060567 0 0 0 0 -1.6279935687329856 0.34240946607808631 0 0.34240946607808631 1.6784713853699602 0 0 0 0 -59.716029619732126 17.259731646833657 0 17.259731646833657 65.735297979396194 0 0 0 0 -41.892367227513205 7.9618825817991592 0 7.9618825817991592 7.4165296071272309 0 0 0 0 -7.6955712422992555 -0.45528586453058106 0 -0.45528586453058106 0.81883928012089446 0 0 0 0 -147.809045629633 -108.48322748110722 0 -108.48322748110722 -72.136680423831308 0 0 0 0 -136.77064167250501 93.029058053953804 0 93.029058053953804 47.476049222363088 0 0 0 0 -227.07105483102578 -38.853200621425664 0 -38.853200621425664 -16.191715765636758 0 0 0 0 3.8830760691007526 8.1139795748466099 0 8.1139795748466099 -0.79657483739964619 0 0 0 0 -67.803582003370821 -97.642512097152931 0 -97.642512097152931 -31.035410756285501 0 0 0 0 -133.07525115048429 137.9369242712005 0 137.9369242712005 -113.55993537265545 0 0 0 0 -3.0465192053974768 -0.030295070070640584 0 -0.030295070070640584 -0.1979969661565526 0 0 0 0 -22.753928798852485 16.41046464105176 0 16.41046464105176 -11.290952576781649 0 0 0 0 -155.11793186018986 72.136488921306011 0 72.136488921306011 29.147573668729422 0 0 0 0 -297.03663550683359 67.138378365414411 0 67.138378365414411 30.899588101450831 0 0 0 0 -163.00365069012423 56.402362515926086 0 56.402362515926086 58.386396722939367 0 0 0 0 -160.0181156259905 33.930193868923425 0 33.930193868923425 32.310295166025412 0 0 0 0 -75.635765365150291 50.90911827439723 0 50.90911827439723 -18.469071066975687 0 0 0 0 -51.993599543369783 -2.0998672891042247 0 -2.0998672891042247 7.7149062169820866 0 0 0 0 -2.2387119041442265 -2.0488061436634588 0 -2.0488061436634588 2.7138978063199026 0 0 0 0 -0.22408280404556535 -2.3375009778303451 0 -2.3375009778303451 -7.2147116081531522 0 0 0 0 -21.656570151080814 1.2851655820541055 0 1.2851655820541055 -12.46426536000655 0 0 0 0 -21.138452787839924 28.134427665042608 0 28.134427665042608 -12.558321206088465 0 0 0 0 6.8770695006342066 13.924032210729209 0 13.924032210729209 -34.364970544354378 0 0 0 0 -22.045220519399663 34.116491233409135 0 34.116491233409135 -46.181723152600398 0 0 0 0 -71.423009529307819 -1.2739026627636463 0 -1.2739026627636463 -32.508830468525503 0 0 0 0 -22.648140945256273 12.270044834581654 0 12.270044834581654 -41.080517432543161 0 0 0 0 -216.17683505367859 79.295093122789524 0 79.295093122789524 16.77673689282399 0 0 0 0 -67.719494726985829 3.6604689302373608 0 3.6604689302373608 -136.47237011334329 0 0 0 0 -139.70048618640749 84.167149371235411 0 84.167149371235411 -84.060392425343565 0 0 0 0 -207.79287964325522 -68.657433595731902 0 -68.657433595731902 -53.148081224672097 0 0 0 0 -184.16240806689393 -26.324611560821459 0 -26.324611560821459 47.279645266786702 0 0 0 0 -52.549985581071269 -20.452450091018306 0 -20.452450091018306 20.414405545599834 0 0 0 0 -98.011686180087963 37.75957121621235 0 37.75957121621235 91.638351896728409 0 0 0 0 -79.825230882042888 -5.0565394820058032 0 -5.0565394820058032 -22.566426066910481 0 0 0 0 -88.278954426760265 -7.3998252152919832 0 -7.3998252152919832 17.549704107508433 0 0 0 0 -45.028559360598592 -30.598146275667403 0 -30.598146275667403 -25.140487126596213 0 0 0 0 -55.440457654653073 -11.953161333333156 0 -11.953161333333156 45.680111863819661 0 0 0 0 -28.929935750967161 -4.4321009054330602 0 -4.4321009054330602 17.368959696344433 0 0 0 0 -42.48694869839801 -26.518535147926286 0 -26.518535147926286 35.922075730498648 0 0 0 0 5.6926739870922916 7.6557528816611686 0 7.6557528816611686 -14.405769098045766 0 0 0 0 -19.603632293512419 -14.425328700808166 0 -14.425328700808166 9.3584322619905151 0 0 0 0 -19.06150864475012 -10.095953310805868 0 -10.095953310805868 5.9171930540130688 0 0 0 0 -24.449439490612349 -9.6782854938608125 0 -9.6782854938608125 26.771840627972836 0 0 0 0 -21.108683128993675 -21.848451068537024 0 -21.848451068537024 33.251202239193958 0 0 0 0 -36.65574525701777 -10.472719594953958 0 -10.472719594953958 26.802446075473995 0 0 0 0 -35.613957812943909 -5.5760484346032655 0 -5.5760484346032655 45.817878229993767 0 0 0 0 -25.048873750365601 0.39042758421089729 0 0.39042758421089729 26.284836675243866 0 0 0 0 -25.569983479639177 -3.2091592938199369 0 -3.2091592938199369 10.643289594386488 0 0 0 0 -34.988524164506998 2.4935570677175178 0 2.4935570677175178 28.067686192219071 0 0 0 0 -7.5035148616425431 16.033507596231686 0 16.033507596231686 20.05085650643133 0 0 0 0 -33.753207056778308 15.335123063829027 0 15.335123063829027 25.428871078326779 0 0 0 0 -0.28728588280076472 0.12133317514137687 0 0.12133317514137687 0.51514839004916846 0 0 0 0 43.904038144467449 59.523476954807052 0 59.523476954807052 48.111346468313002 0 0 0 0 -257.55628846047784 -21.714223018104661 0 -21.714223018104661 9.0528986397362132 0 0 0 0 -120.58442088708898 14.053130682770416 0 14.053130682770416 18.391843792442614 0 0 0 0 0.11270751519922939 0.1198548975390672 0 0.1198548975390672 1.3106090661077467 0 0 0 0 -186.47935649941974 48.436790730292273 0 48.436790730292273 4.9789885345878702 0 0 0 0 -20.070186788713727 11.855315076811053 0 11.855315076811053 -15.026519110520212 0 0 0 0 -21.370639742266576 -5.1587573471283577 0 -5.1587573471283577 6.6750897662083162 0 0 0 0 -5.4582969720549812 -0.14758253106144004 0 -0.14758253106144004 2.7324030530622716 0 0 0 0 -35.650873370176669 3.8351159924834519 0 3.8351159924834519 1.6271386110113326 0 0 0 0 -19.617133264564018 1.6546170491515682 0 1.6546170491515682 6.7354703556272852 0 0 0 0 -25.505225037308037 -2.1780618766668169 0 -2.1780618766668169 6.1853531128354007 0 0 0 0 -20.923711731881667 -3.22869845857565 0 -3.22869845857565 10.140761194500897 0 0 0 0 -20.351552113572609 -1.6359442592512812 0 -1.6359442592512812 4.7435635350518028 0 0 0 0 -21.079305420130368 1.568314004284332 0 1.568314004284332 1.0270176673514015 0 0 0 0 -35.570583647235253 13.554038311598617 0 13.554038311598617 -0.79717223343419619 0 0 0 0 -47.960592313125744 -0.4684816320048526 0 -0.4684816320048526 56.30845222776253 0 0 0 0 30.37512784311366 22.679125583701705 0 22.679125583701705 -33.596758126278701 0 0 0 0 -19.577395213485943 -0.53183063530207164 0 -0.53183063530207164 0.17705334473038192 0 0 0 0 -18.534847129612004 -0.55994909280558414 0 -0.55994909280558414 3.6222882094616318 0 0 0 0 -98.771743025339987 -21.348987979726026 0 -21.348987979726026 1.4083571222465707 0 0 0 0 -27.696733633928034 -5.4195980396645496 0 -5.4195980396645496 29.32850919290604 0 0 0 0 -22.236715606154576 15.90163586361075 0 15.90163586361075 8.2710606396931894 0 0 0 0 0.11940398832908627 -0.52321743988496761 0 -0.52321743988496761 0.023183399171663122 0 0 0 0 -20.111026991604376 8.9996583585314056 0 8.9996583585314056 -5.0759478827203566 0 0 0 0 -9.6623655061412137 -6.3610692723888747 0 -6.3610692723888747 -1.4904683718220895 0 0 0 0 -99.783182977879164 -15.533304368730704 0 -15.533304368730704 23.198356145077014 0 0 0 0 -155.15147275410436 29.699560577326338 0 29.699560577326338 33.061227282590039 0 0 0 0 -96.630869307069474 3.9999471831367472 0 3.9999471831367472 17.741450851591935 0 0 0 0 -182.79603026150926 1.7008190385595299 0 1.7008190385595299 34.116959918287421 0 0 0 0 -219.0640373455908 39.951467128631577 0 39.951467128631577 53.651852365232344 0 0 0 0 -163.35542836863442 17.871170440150763 0 17.871170440150763 16.231652438026686 0 0 0 0 -162.77899522494317 7.4491100305430109 0 7.4491100305430109 26.183295554480196 0 0 0 0 -100.33907898671168 6.1129114542341085 0 6.1129114542341085 -5.5198895423404792 0 0 0 0 -160.65519933637461 18.125771007571643 0 18.125771007571643 -48.458060478468951 0 0 0 0 -172.90020584871945 6.5900200564151987 0 6.5900200564151987 0.47950264064934345 0 0 0 0 -191.81736362066749 2.5439416203882956 0 2.5439416203882956 8.4255849584964153 0 0 0 0 -8.821265370648689 2.9587344192511864 0 2.9587344192511864 -8.0479604038556545 0 0 0 0 -353.41257880586818 3.3735819226999979 0 3.3735819226999979 10.17794519654035 0 0 0 0 -347.96462838056323 17.06454050179218 0 17.06454050179218 12.707657373805887 0 0 0 0 -2.3479762002465447 0.20498546726207145 0 0.20498546726207145 -0.96265039478721004 0 0 0 0 -189.66336660036905 25.892086940867443 0 25.892086940867443 -45.291003928859482 0 0 0 0 -294.01693212549799 50.196657574075516 0 50.196657574075516 -16.365198413398957 0 0 0 0 -170.78774423212872 -20.974634801631282 0 -20.974634801631282 -27.558743659903939 0 0 0 0 -80.70120577354578 -6.5895223370802398 0 -6.5895223370802398 -26.051817916823666 0 0 0 0 -87.208323856115385 13.060259827152322 0 13.060259827152322 -43.760665372124549 0 0 0 0 -112.70546218918389 -26.427796256563624 0 -26.427796256563624 -34.477399378590462 0 0 0 0 -81.91466317911545 10.923077849957792 0 10.923077849957792 0.69399403903867096 0 0 0 0 -22.171458547387374 -3.1066843308665284 0 -3.1066843308665284 -37.850718195487843 0 0 0 0 -22.025108681724078 0.99900812134389128 0 0.99900812134389128 13.837571426022805 0 0 0 0 27.949556764390763 13.384088560737666 0 13.384088560737666 -45.348219538660487 0 0 0 0 0.05101813521365095 -0.098476673166505435 0 -0.098476673166505435 -0.1973812919577318 0 0 0 0 -10.621631447489563 -7.1935434681670358 0 -7.1935434681670358 -7.0366670318520619 0 0 0 0 -4.6809427315629364 1.290162486764757 0 1.290162486764757 -1.684338467028283 0 0 0 0 0.095459258544302372 0.032954826750779986 0 0.032954826750779986 -2.9903587027696865 0 0 0 0 -0.20054051375336712 2.0099007101742927 0 2.0099007101742927 -8.8398891164915767 0 0 0 0 -8.0147891736310157 -1.0794727799203656 0 -1.0794727799203656 -0.59321083476277181 0 0 0 0 -4.4782906605769313 -3.6649566955301225 0 -3.6649566955301225 -4.2761123942560175 0 0 0 0 -0.66610951814924579 0.5017701968963042 0 0.5017701968963042 -4.1434818251531063 0 0 0 0 2.6890374100230474 8.2451275788435954 0 8.2451275788435954 -7.0147946844315641 0 0 0 0 -1.7252513572830139 -1.3835813182549259 0 -1.3835813182549259 -2.6563690242815028 0 0 0 0 -3.6518761081006232 0.2052300280965369 0 0.2052300280965369 -0.51070506798760107 0 0 0 0 -4.8488593831652906 -0.74472054496266082 0 -0.74472054496266082 -1.2210171106390817 0 0 0 0 -5.0904547255636317 4.1847361553606675 0 4.1847361553606675 -1.5186966886806204 0 0 0 0 -4.1524755936511717 0.73456224575009177 0 0.73456224575009177 -0.64699397844323414 0 0 0 0 -4.95848352754183 3.9221915720623883 0 3.9221915720623883 -1.1744873179136448 0 0 0 0 -3.730615327718624 0.41306374732221229 0 0.41306374732221229 -6.2348608901383393 0 0 0 0 0.87471354067125873 1.173307754153722 0 1.173307754153722 -2.8829818443745845 0 0 0 0 -12.263608699027827 7.166672541103253 0 7.166672541103253 -10.956701762328521 0 0 0 0 -1.6720784469892065 0.97070229261272445 0 0.97070229261272445 0.15824027285651709 0 0 0 0 -3.2108200947436671 -0.1962691094045681 0 -0.1962691094045681 -0.70797514076025436 0 0 0 0 16.812711640938687 -25.988837408545407 0 -25.988837408545407 -13.968804385059002 0 0 0 0 -0.56989416994338704 -0.20062400061198993 0 -0.20062400061198993 -0.17048930063775014 0 0 0 0 -5.2531440747598026 0.11371909607873931 0 0.11371909607873931 0.85775864106869903 0 0 0 0 -8.0382299369330212 -0.41341160039053193 0 -0.41341160039053193 2.9184967119274461 0 0 0 0 -4.3066476246762164 0.30930560169726595 0 0.30930560169726595 0.21783976334551552 0 0 0 0 -6.5231570834121158 -0.77053315030900649 0 -0.77053315030900649 2.5227656625895634 0 0 0 0 -7.024050479501966 -0.3096138106767512 0 -0.3096138106767512 2.5735213539790038 0 0 0 0 -1.1702996207404333 -2.2934684546260851 0 -2.2934684546260851 1.474040606110087 0 0 0 0 -7.011907797306776 -0.74498346515849789 0 -0.74498346515849789 2.9203259391767915 0 0 0 0 -7.912749925632852 -1.480852080927491 0 -1.480852080927491 2.8021569047707686 0 0 0 0 -5.8570471400735187 -2.5838347080342885 0 -2.5838347080342885 1.8813408496812372 0 0 0 0 -39.61480153883781 -36.325864467846742 0 -36.325864467846742 -23.414159762360555 0 0 0 0 -11.69433299721004 -6.1962168061992884 0 -6.1962168061992884 5.5897119978073988 0 0 0 0 -2.2152080460255092 10.844779538038551 0 10.844779538038551 5.5510824035841324 0 0 0 0 -32.078889584265198 7.750994654108581 0 7.750994654108581 8.179154803323172 0 0 0 0 -12.404812993161613 8.1036653339745044 0 8.1036653339745044 -6.0856801247119741 0 0 0 0 18.36524241445386 18.554628355696536 0 18.554628355696536 -0.69587902006435343 0 0 0 0 -4.5225324506409379 4.8408923162753865 0 4.8408923162753865 -7.0163060519012106 0 0 0 0 -167.28828149453534 114.63492741400388 0 114.63492741400388 -58.141801730826273 0 0 0 0 -168.86899311067498 126.51395461419602 0 126.51395461419602 -69.750706585600028 0 0 0 0 1.0339420423701586 0.45236336256290066 0 0.45236336256290066 -2.3432010400858152 0 0 0 0 -144.99267076891738 110.20583415172729 0 110.20583415172729 -67.138580587625825 0 0 0 0 -158.29247593552282 117.28731509033 0 117.28731509033 -67.980731578241603 0 0 0 0 -153.48357099101668 104.28476511431631 0 104.28476511431631 -91.00158300253679 0 0 0 0 -155.82061698996813 118.4491551257957 0 118.4491551257957 -86.620833484296327 0 0 0 0 -153.43650584908747 99.994655004316755 0 99.994655004316755 -67.661658037940015 0 0 0 0 3.5303677791716837 43.80505539634612 0 43.80505539634612 37.439021559095409 0 0 0 0 -92.801870586094083 20.958162417992526 0 20.958162417992526 89.685843112182965 0 0 0 0 -214.87288518555829 150.43293746483945 0 150.43293746483945 -69.01617785684391 0 0 0 0 0.25855631719095662 0.15122012461709744 0 0.15122012461709744 -1.5597219226363714 0 0 0 0 -53.550619305200598 -78.212909507265181 0 -78.212909507265181 -107.8361041572341 0 0 0 0 -131.72352060926096 105.04882804631421 0 105.04882804631421 -75.324857186513952 0 0 0 0 -196.68410251413661 94.451210680636621 0 94.451210680636621 -63.148588606675048 0 0 0 0 -141.97427707869974 117.87179564320381 0 117.87179564320381 -77.213143651423707 0 0 0 0 -123.71506865693254 76.112491725063194 0 76.112491725063194 -55.275791561185088 0 0 0 0 -110.44294515471483 101.3110569651849 0 101.3110569651849 -61.751682187213049 0 0 0 0 -159.88426808956319 94.602625954637915 0 94.602625954637915 -49.142167828827496 0 0 0 0 -248.07775106112058 138.0379540103354 0 138.0379540103354 -61.973523474012723 0 0 0 0 -149.76993604841118 124.66233818281898 0 124.66233818281898 -98.942611950041055 0 0 0 0 5.6671170593115221 6.6859020683707513 0 6.6859020683707513 -13.386592397074764 0 0 0 0 -0.26724164873731482 -0.06049939563079576 0 -0.06049939563079576 -0.33850355956658063 0 0 0 0 9.6406036657081131 -8.0970247291329542 0 -8.0970247291329542 -1.677162402799695 0 0 0 0 -2.903707273466825 -0.14504334655596951 0 -0.14504334655596951 0.72539969452769215 0 0 0 0 -19.992571709483855 24.500922015741821 0 24.500922015741821 -5.5395336651821481 0 0 0 0 -26.827105628487516 16.436252807707831 0 16.436252807707831 -9.2191635416737654 0 0 0 0 28.927129981631197 51.261050307227492 0 51.261050307227492 -72.072756365020268 0 0 0 0 -1.0049950750630856 0.2667034917554596 0 0.2667034917554596 -0.062347563752963575 0 0 0 0 -13.089374150287767 8.5956354248727393 0 8.5956354248727393 7.9498217086240857 0 0 0 0 -158.05477202853581 5.1416758380815821 0 5.1416758380815821 10.301651929651712 0 0 0 0 -95.213865210503172 51.609699491506262 0 51.609699491506262 -30.813583071887834 0 0 0 0 -53.835149672397165 -18.839579909098745 0 -18.839579909098745 -65.26926892157519 0 0 0 0 -148.00977953790152 -43.32098692382155 0 -43.32098692382155 -12.945854854139441 0 0 0 0 -234.12591663287003 107.75326873421614 0 107.75326873421614 -15.768369721507369 0 0 0 0 -1.3895431036233212 -0.42778225599747266 0 -0.42778225599747266 0.036002223421750523 0 0 0 0 27.110732380027002 -45.980669042503493 0 -45.980669042503493 -5.3479280595460637 0 0 0 0 -69.315030751033191 42.316179222831835 0 42.316179222831835 -39.663321683884774 0 0 0 0 -86.077744186784003 55.362212773780684 0 55.362212773780684 2.485722794748142 0 0 0 0 -113.75955591962884 86.727620622565496 0 86.727620622565496 -44.417009818829001 0 0 0 0 -76.776261042651015 75.718766650075196 0 75.718766650075196 -61.894975855778171 0 0 0 0 -121.58570751039042 76.947354923267028 0 76.947354923267028 -49.649380110879861 0 0 0 0 -141.74264193303407 -4.3247840945102922 0 -4.3247840945102922 -6.307254985953648 0 0 0 0 -78.030222301334106 13.274619814480673 0 13.274619814480673 -29.747259001016573 0 0 0 0 -157.35468078074518 44.817536122759265 0 44.817536122759265 -23.705766882632133 0 0 0 0 -148.60853077623324 41.817021915496582 0 41.817021915496582 -27.691585255139486 0 0 0 0 -128.08934600758948 92.060902784902169 0 92.060902784902169 -62.908222340954012 0 0 0 0 -119.17104282819582 81.048290136942427 0 81.048290136942427 -58.316096877326345 0 0 0 0 -137.79544048648131 87.114668793374562 0 87.114668793374562 -46.664290829536128 0 0 0 0 -151.90188911051155 99.439285368084541 0 99.439285368084541 -53.033839113905458 0 0 0 0 -152.0485713221351 108.74261007809793 0 108.74261007809793 -57.110991644274293 0 0 0 0 -162.95982011918022 107.37278747281647 0 107.37278747281647 -57.228275843855741 0 0 0 0 -167.84243428901391 101.70902210030596 0 101.70902210030596 -51.286209810844042 0 0 0 0 -162.88159539644403 105.27528984962481 0 105.27528984962481 -56.491664781358566 0 0 0 0 -200.88532789289093 93.223560824541323 0 93.223560824541323 -45.917236823087819 0 0 0 0 -193.7396738437219 63.779858313656725 0 63.779858313656725 -9.0387979946004862 0 0 0 0 -174.82502343527904 107.24609122182625 0 107.24609122182625 -53.28439725282135 0 0 0 0 -191.60528839342169 34.011010015992952 0 34.011010015992952 19.231177659054879 0 0 0 0 -167.42395116649095 30.018985401941393 0 30.018985401941393 24.461403429490588 0 0 0 0 -126.72593593503916 37.86402436116046 0 37.86402436116046 -9.8450048630790832 0 0 0 0 -118.33530232190503 -10.519830424679323 0 -10.519830424679323 36.001107426661292 0 0 0 0 -160.29730560440566 -64.816110443691343 0 -64.816110443691343 31.18609259974798 0 0 0 0 -251.86956773589372 112.7931385490576 0 112.7931385490576 -27.871333972470794 0 0 0 0 -197.16544015922204 100.57911818025948 0 100.57911818025948 -88.590704140020705 0 0 0 0 -299.75439046569409 97.854946629486335 0 97.854946629486335 -72.274788694434619 0 0 0 0 -308.19658476913469 119.85854267707408 0 119.85854267707408 -50.890486298040258 0 0 0 0 -1.0441391440619547 0.46638423188856271 0 0.46638423188856271 -0.31053835501819316 0 0 0 0 -71.400791618098083 89.231087810674239 0 89.231087810674239 -117.36989405694931 0 0 0 0 -18.015120702579452 6.9325119733778706 0 6.9325119733778706 -0.044548827433118277 0 0 0 0 -4.5960896166232494 3.3043255208270095 0 3.3043255208270095 -1.4592290451591496 0 0 0 0 -140.37546255595953 165.0055497121237 0 165.0055497121237 -187.65882687367412 0 0 0 0 -0.62057007024203159 0.7085850563123075 0 0.7085850563123075 -0.51606189154307025 0 0 0 0 -200.24893660572309 114.65412061583642 0 114.65412061583642 -97.19286122785752 0 0 0 0 -219.44175073294082 75.124133332354631 0 75.124133332354631 -60.327636914403172 0 0 0 0 -254.26540898714484 154.20804895976966 0 154.20804895976966 -82.668350042012264 0 0 0 0 -146.09506309470817 122.36329128732135 0 122.36329128732135 -108.84812637721923 0 0 0 0 -0.6585140441531685 0.82745264568337795 0 0.82745264568337795 0.42284620370134474 0 0 0 0 -6.3399174971224284 11.202689745104696 0 11.202689745104696 -3.8165282479055236 0 0 0 0 -154.3776674563851 8.0821667625077822 0 8.0821667625077822 -1.2831551005037856 0 0 0 0 -7.4749416761133034 0.12505827543265724 0 0.12505827543265724 -1.2969951964886368 0 0 0 0 -2.2542072080141224 10.980255373838531 0 10.980255373838531 -6.3414986742208725 0 0 0 0 -52.740792858797249 -1.3978581953747664 0 -1.3978581953747664 -113.38845784079365 0 0 0 0 -51.884904417063808 -11.246352884459611 0 -11.246352884459611 -0.90370025663667519 0 0 0 0 1.4636988278007266 6.2754632962616483 0 6.2754632962616483 -26.885944571015159 0 0 0 0 -0.99518623009386964 1.5323731467535371 0 1.5323731467535371 -3.5677838015875283 0 0 0 0 -389.33203392306086 154.53987554285428 0 154.53987554285428 -59.915341579942137 0 0 0 0 -152.75445859544743 17.360804322449411 0 17.360804322449411 -23.20161743128142 0 0 0 0 -207.76160527564753 148.13882107740403 0 148.13882107740403 -73.713049482629927 0 0 0 0 -235.75507620294229 154.32014824834377 0 154.32014824834377 -231.36423759621701 0 0 0 0 -141.31810157250766 -43.216537285381889 0 -43.216537285381889 -170.27175973678823 0 0 0 0 -315.91452783417117 15.256767402523167 0 15.256767402523167 -15.272251358227777 0 0 0 0 -104.50136669685435 -10.068097869590503 0 -10.068097869590503 -13.779441888708391 0 0 0 0 -143.90359658717875 -30.215003255870506 0 -30.215003255870506 -12.780918115551856 0 0 0 0 -146.3984625825824 -26.104675501986407 0 -26.104675501986407 46.942959289099463 0 0 0 0 -102.35738781000123 -26.694727898387818 0 -26.694727898387818 45.684974405735375 0 0 0 0 -135.26228738326949 18.430781483651117 0 18.430781483651117 42.518759633889431 0 0 0 0 -94.725446909877064 19.479908940553628 0 19.479908940553628 41.644599644803264 0 0 0 0 -88.026518368003963 31.679469066751153 0 31.679469066751153 110.2542680612986 0 0 0 0 -69.410027309986958 -16.211540698965145 0 -16.211540698965145 88.955034597275016 0 0 0 0 -102.44390775452234 -6.9937915060987734 0 -6.9937915060987734 89.648359775982044 0 0 0 0 -112.25508466482552 -0.38235954223671342 0 -0.38235954223671342 85.491227361607514 0 0 0 0 -166.90034563733298 66.615215450286769 0 66.615215450286769 127.90837083530937 0 0 0 0 0.71564524633650706 0.12705066443361368 0 0.12705066443361368 0.098699128632167232 0 0 0 0 -125.26070711935608 14.167503130255682 0 14.167503130255682 193.06156849307627 0 0 0 0 30.112423964583286 -13.773350992408496 0 -13.773350992408496 123.64006249173849 0 0 0 0 -13.505370709118282 -4.2158768857207489 0 -4.2158768857207489 -1.2030303549003283 0 0 0 0 -71.397597274286454 -0.080038392254323298 0 -0.080038392254323298 112.91888295152125 0 0 0 0 -86.39625430338765 65.639785980310535 0 65.639785980310535 -50.315669367781766 0 0 0 0 -44.233005762260291 0.5860884333735612 0 0.5860884333735612 49.951286625947787 0 0 0 0 -77.626040676392222 20.573561571152027 0 20.573561571152027 48.407771827863158 0 0 0 0 -112.16164652469433 -1.728369839515949 0 -1.728369839515949 36.577533497797958 0 0 0 0 -43.05845352684446 11.066257652901527 0 11.066257652901527 5.274236679070782 0 0 0 0 -53.507856731312131 24.062295257848405 0 24.062295257848405 65.337125726902286 0 0 0 0 -46.299694480811013 0.29139825706192823 0 0.29139825706192823 8.2371052441175152 0 0 0 0 -77.163090484866188 -19.386988076633401 0 -19.386988076633401 13.796297908323616 0 0 0 0 -65.834378483031287 -6.127914557044619 0 -6.127914557044619 14.745158313095089 0 0 0 0 -87.247773192535078 -38.86926754654624 0 -38.86926754654624 -19.333847385470619 0 0 0 0 -51.907990454598348 -40.360550458510971 0 -40.360550458510971 -11.560229749766791 0 0 0 0 -3.3142197891247633 3.1338033594433909 0 3.1338033594433909 -4.3019795070664486 0 0 0 0 -24.092985336457787 15.999477626562339 0 15.999477626562339 -10.716869043571819 0 0 0 0 -5.5052958959595344 22.887658323216897 0 22.887658323216897 -18.339437767084746 0 0 0 0 -16.160068954276994 20.968138323864736 0 20.968138323864736 -5.0816529343574075 0 0 0 0 -24.723528450665981 -25.183647080718913 0 -25.183647080718913 -19.694366567433008 0 0 0 0 -0.034142141720602925 -0.074441989634330241 0 -0.074441989634330241 -1.1381443254092476 0 0 0 0 -35.193775021007241 25.953872448044194 0 25.953872448044194 -14.704155191683867 0 0 0 0 8.0261572096471809 6.2837728946806521 0 6.2837728946806521 -42.617089001771546 0 0 0 0 -3.0328438836800728 6.4764446698604701 0 6.4764446698604701 -37.314830994829208 0 0 0 0 4.0840817629996309 25.4982099523545 0 25.4982099523545 -20.627314874006856 0 0 0 0 13.057197683061531 7.6834650278331083 0 7.6834650278331083 -3.0123012143064329 0 0 0 0 -5.6518910356580818 18.275474627351286 0 18.275474627351286 -4.9189399315349647 0 0 0 0 -3.4614385263193981 20.879555672408742 0 20.879555672408742 -4.4229966856116789 0 0 0 0 -23.115465261476857 9.0550587523240438 0 9.0550587523240438 61.183031655622813 0 0 0 0 -0.68231159487669757 0.18546332116257003 0 0.18546332116257003 0.10495906122171844 0 0 0 0 -12.813516003301174 14.847051747698458 0 14.847051747698458 54.068464084997458 0 0 0 0 25.627568300247276 14.525819891530176 0 14.525819891530176 80.782120569877634 0 0 0 0 8.7393954592748742 26.239747093034467 0 26.239747093034467 -2.0131055287115487 0 0 0 0 -12.133041585443607 -12.991287765871903 0 -12.991287765871903 96.825525707198267 0 0 0 0 -1.4449653136007328 35.946025362639716 0 35.946025362639716 -7.3036730537294261 0 0 0 0 -11.763448942201869 9.3143529353436545 0 9.3143529353436545 4.8763359882540023 0 0 0 0 -22.440933786452661 10.18297920735904 0 10.18297920735904 24.018034725191455 0 0 0 0 -2.5161454651440884 4.4421130823282349 0 4.4421130823282349 1.5247713554263291 0 0 0 0 -27.813230510626454 33.232515602335468 0 33.232515602335468 83.942906141762933 0 0 0 0 -16.18415364694647 9.9716267216443839 0 9.9716267216443839 60.458369568935382 0 0 0 0 -16.3038397378441 20.161668280373306 0 20.161668280373306 37.184654775129843 0 0 0 0 -26.501030202839502 -3.7063174819088545 0 -3.7063174819088545 -43.391346057799183 0 0 0 0 -59.927485957718091 28.082069071966771 0 28.082069071966771 27.38808410951583 0 0 0 0 -102.14811552948595 11.976377914174805 0 11.976377914174805 89.897055858170006 0 0 0 0 -13.653916586546984 28.31136666248176 0 28.31136666248176 -11.370782507346348 0 0 0 0 -77.246154911037593 55.793993411722568 0 55.793993411722568 -22.850534933596236 0 0 0 0 -14.584328250326507 23.069184218755254 0 23.069184218755254 -49.771927081834292 0 0 0 0 -7.1221479440137045 -37.757221391593703 0 -37.757221391593703 -88.409023926776626 0 0 0 0 -98.501634033068513 -43.142840195190786 0 -43.142840195190786 -43.844925200804937 0 0 0 0 -27.767793539103877 -65.067181674177618 0 -65.067181674177618 147.71561049513139 0 0 0 0 -17.173870705100853 -10.445217387310095 0 -10.445217387310095 -0.87418952956340945 0 0 0 0 -13.815998417998344 11.010060752390928 0 11.010060752390928 11.650411868446923 0 0 0 0 -0.24790822385794797 0.13274816227741848 0 0.13274816227741848 0.072653601019122688 0 0 0 0 -30.616960041355924 3.2060048175753764 0 3.2060048175753764 48.569179161425836 0 0 0 0 34.566044097740814 -43.977679992162621 0 -43.977679992162621 146.46842298290562 0 0 0 0 -20.455068627732313 -5.7965801641126973 0 -5.7965801641126973 0.06083757114969357 0 0 0 0 -55.697988139741938 -109.53876686984745 0 -109.53876686984745 190.60707214888259 0 0 0 0 -16.897848923594211 22.180709603922026 0 22.180709603922026 30.421637317002933 0 0 0 0 -30.636781570248786 40.114847574830037 0 40.114847574830037 69.206388965310225 0 0 0 0 49.768830200860066 -56.959354244481915 0 -56.959354244481915 100.850035444485 0 0 0 0 -18.583649691328901 -27.75739435208925 0 -27.75739435208925 37.195996348194058 0 0 0 0 -75.168331092558219 -31.204052396241309 0 -31.204052396241309 37.381485439798759 0 0 0 0 -39.646375876362072 10.021220821237193 0 10.021220821237193 43.561357423044683 0 0 0 0 -37.174510000251757 14.444989986600376 0 14.444989986600376 49.584745673632824 0 0 0 0 -47.4504147199832 41.506730500241076 0 41.506730500241076 19.927918460465207 0 0 0 0 -133.19878202317341 31.95844875567559 0 31.95844875567559 46.39168973920556 0 0 0 0 -55.358230022253338 105.74603473007062 0 105.74603473007062 -24.390449867265943 0 0 0 0 -124.92241278516576 243.57932840909535 0 243.57932840909535 -95.217264469558813 0 0 0 0 102.65211185262888 82.224301956756847 0 82.224301956756847 -35.468770530581637 0 0 0 0 -70.930629857378335 -98.44349795560214 0 -98.44349795560214 22.789994106614131 0 0 0 0 -289.64735600093263 -21.809084101128974 0 -21.809084101128974 64.937614796970394 0 0 0 0 -74.901025788425613 -21.228813711260671 0 -21.228813711260671 64.81938537078554 0 0 0 0 -5.6549176006228663 7.6588348865254829 0 7.6588348865254829 0.22163092604751 0 0 0 0 -31.440337664704202 17.833602315572762 0 17.833602315572762 38.659675881027511 0 0 0 0 -41.35859437547515 3.563827530214553 0 3.563827530214553 1.9863709302578627 0 0 0 0 -2.7492438434874593 0.51146512436167413 0 0.51146512436167413 0.67190982145889944 0 0 0 0 -32.164916052268381 8.7838677264294347 0 8.7838677264294347 -2.6729889460733602 0 0 0 0 -13.786567458272657 7.4781876212966836 0 7.4781876212966836 -3.1933415836754193 0 0 0 0 37.371688539355091 40.942432931850135 0 40.942432931850135 0.70619527006761018 0 0 0 0 -28.855512172493036 7.3248943727705864 0 7.3248943727705864 -2.7284298961899367 0 0 0 0 28.941686872156424 25.525906582443156 0 25.525906582443156 -13.258689334352084 0 0 0 0 -12.290421023997006 11.653252330586303 0 11.653252330586303 2.0622173556834951 0 0 0 0 83.652870598729351 -7.3179205288527669 0 -7.3179205288527669 5.1474691716590542 0 0 0 0 -1.871239855317711 3.6032426279461678 0 3.6032426279461678 0.082812738048483103 0 0 0 0 -5.3463581386573562 4.9269259869165651 0 4.9269259869165651 0.77093088425970602 0 0 0 0 -14.068071506391789 4.0622177122298524 0 4.0622177122298524 0.78761237832350162 0 0 0 0 47.271344689175748 1.5669157791607233 0 1.5669157791607233 -12.17031158613986 0 0 0 0 -15.939927473078299 1.7237721896042784 0 1.7237721896042784 1.2615375138041731 0 0 0 0 -31.28184662380545 -0.77908699188836295 0 -0.77908699188836295 3.4100402646054135 0 0 0 0 -14.216576528890641 0.91779755157347687 0 0.91779755157347687 -1.1374958682275746 0 0 0 0 -6.566911945651384 5.8920322237907783 0 5.8920322237907783 -0.12097439630199114 0 0 0 0 14.234882454182298 16.9602578977359 0 16.9602578977359 -0.0090907335005034895 0 0 0 0 -7.834977940450699 9.9260754674447611 0 9.9260754674447611 5.6448293821991911 0 0 0 0 3.2730909482243078 35.669015173752541 0 35.669015173752541 45.354284922933971 0 0 0 0 79.642482622406533 45.309720934806535 0 45.309720934806535 -9.0292522169702352 0 0 0 0 13.543727245187256 -5.3334690062146599 0 -5.3334690062146599 -44.20646086680577 0 0 0 0 6.7510141834700335 8.1669980589458966 0 8.1669980589458966 -10.256798487982996 0 0 0 0 -6.0805791568749434 4.8745565034905525 0 4.8745565034905525 0.41426720736525785 0 0 0 0 5.9851401627420273 11.072014016181242 0 11.072014016181242 17.921674689341952 0 0 0 0 -13.851724607724464 3.2272318680665677 0 3.2272318680665677 -0.35594117050340657 0 0 0 0 1.2454263690204073 0.37447644049831297 0 0.37447644049831297 -0.062329572398187753 0 0 0 0 -216.23733620925304 100.19951913950482 0 100.19951913950482 -16.100550909769908 0 0 0 0 -3.8107685448064288 -0.81061752401782172 0 -0.81061752401782172 -0.19556492849351537 0 0 0 0 -99.049761255875637 120.99147672272176 0 120.99147672272176 -126.96281144681703 0 0 0 0 -188.66833232591671 -87.627548809570484 0 -87.627548809570484 5.7367274527326799 0 0 0 0 90.367995994292869 -158.27826927113256 0 -158.27826927113256 -107.10607825004115 0 0 0 0 0.17999700645268035 -0.36791563163182506 0 -0.36791563163182506 0.15668246611609082 0 0 0 0 -58.933304583404606 -12.771510679939826 0 -12.771510679939826 29.445729073064044 0 0 0 0 6.3458636045397725 -22.665538580353505 0 -22.665538580353505 10.707749239035053 0 0 0 0 -132.10825820487298 22.596149140168862 0 22.596149140168862 45.926550622635489 0 0 0 0 -63.216564916907373 15.944839167466512 0 15.944839167466512 30.51856232333121 0 0 0 0 -49.833275883464921 66.935040311572578 0 66.935040311572578 -78.197252775102896 0 0 0 0 -30.418369895794967 22.42077203902306 0 22.42077203902306 -2.1307427152644323 0 0 0 0 -10.931551437888594 -1.0929669284577685 0 -1.0929669284577685 0.035766746964543766 0 0 0 0 -29.18296673898476 21.114890344523388 0 21.114890344523388 -8.9279859024655224 0 0 0 0 -20.022907941561243 13.856033943399147 0 13.856033943399147 -5.5607248140599808 0 0 0 0 -25.072132059738578 0.39169899111418971 0 0.39169899111418971 14.569660438905215 0 0 0 0 -23.144632217398453 2.2745793097096967 0 2.2745793097096967 7.8680061247587361 0 0 0 0 0.76415383503308476 77.116671978657195 0 77.116671978657195 17.110198873256763 0 0 0 0 -104.74243994569042 -17.595046202638855 0 -17.595046202638855 227.67569975183568 0 0 0 0 -16.082240950835121 -1.2684034859662723 0 -1.2684034859662723 0.12383030224080274 0 0 0 0 12.379137383089073 -55.298968710717872 0 -55.298968710717872 9.593021430787303 0 0 0 0 -173.29611869938071 -93.028313947029005 0 -93.028313947029005 2.6990918171748035 0 0 0 0 -280.68207940989305 11.801889037096316 0 11.801889037096316 86.629144436276647 0 0 0 0 -102.03691975408947 69.190562844896817 0 69.190562844896817 104.61355148480197 0 0 0 0 -20.675132023183778 77.896092171871373 0 77.896092171871373 -32.337951200785938 0 0 0 0 -390.63937714989879 60.849271847377167 0 60.849271847377167 106.19603788445374 0 0 0 0 -68.683374894785629 188.3962557027786 0 188.3962557027786 -255.73743167685552 0 0 0 0 48.338158376507522 -38.369444170753901 0 -38.369444170753901 -204.55247988039901 0 0 0 0 50.375354497415202 -83.958523318510188 0 -83.958523318510188 -60.60777408916465 0 0 0 0 -70.278173437359328 213.52117332778903 0 213.52117332778903 -68.438409184292823 0 0 0 0 -4.5212481327787586 -1.447945680734974 0 -1.447945680734974 -0.63662684177632833 0 0 0 0 0.6806314990417377 -23.398865621362745 0 -23.398865621362745 12.014346967034271 0 0 0 0 6.8519215313936002 -48.875109209723291 0 -48.875109209723291 -103.39949305585026 0 0 0 0 -30.223905115864 -37.94154047985046 0 -37.94154047985046 35.235489307025091 0 0 0 0 7.6528895040737552 -33.964425508431532 0 -33.964425508431532 22.832303548100754 0 0 0 0 24.640803609639306 -18.274906614162546 0 -18.274906614162546 12.262068866181153 0 0 0 0 -36.45490203310419 -62.613493125887203 0 -62.613493125887203 6.8679772289804077 0 0 0 0 36.525531710252835 -52.392408672530109 0 -52.392408672530109 0.54270253342679098 0 0 0 0 -16.745854780991067 -86.298370915558621 0 -86.298370915558621 154.59146819568707 0 0 0 0 -0.5348669867960929 -0.0005818656221165952 0 -0.0005818656221165952 3.807948917249758 0 0 0 0 -303.66935927178747 -63.991241198793716 0 -63.991241198793716 73.713995538197878 0 0 0 0 -70.788577216002523 23.235209295980777 0 23.235209295980777 -24.057164568485106 0 0 0 0 -176.72209972571727 63.66483766968895 0 63.66483766968895 35.576448193738052 0 0 0 0 76.630360719791497 -77.508031072769427 0 -77.508031072769427 -61.078527717464112 0 0 0 0 -61.603954262307525 -16.776230473360783 0 -16.776230473360783 -77.172745686835242 0 0 0 0 185.34538704188526 -9.1828950313123414 0 -9.1828950313123414 -105.99023034949096 0 0 0 0 90.773358127050415 -200.26749330633288 0 -200.26749330633288 47.158046893855044 0 0 0 0 21.642152059728687 114.71983158877686 0 114.71983158877686 -71.675274012550517 0 0 0 0 -143.40051475476685 112.32793740927116 0 112.32793740927116 -27.415174706743528 0 0 0 0 -72.075953501696858 -189.07213108935326 0 -189.07213108935326 68.640540545705832 0 0 0 0 0.94700239930059205 -1.1008986469662432 0 -1.1008986469662432 2.3603813146982278 0 0 0 0 -19.222610255699692 4.5652108388919146 0 4.5652108388919146 61.564594307973493 0 0 0 0 64.997751935931774 42.370178888620423 0 42.370178888620423 -1.4054874007427145 0 0 0 0 -95.409462073549548 41.88555284158025 0 41.88555284158025 63.167788518480748 0 0 0 0 0.055906051609751373 -0.49892222972330558 0 -0.49892222972330558 1.4627597856777492 0 0 0 0 -10.386314495150145 -42.534180752028455 0 -42.534180752028455 9.6714329171393398 0 0 0 0 -20.071293017106655 71.400805996178491 0 71.400805996178491 42.487173474282713 0 0 0 0 -21.211283923626979 -113.3982990590914 0 -113.3982990590914 52.00966098514715 0 0 0 0 -81.918664168458236 -94.743078844400841 0 -94.743078844400841 64.442232440895964 0 0 0 0 -24.029539553926043 -46.273229698829311 0 -46.273229698829311 19.825870589524698 0 0 0 0 -65.672218841811627 -6.4914304592458762 0 -6.4914304592458762 23.600822039419057 0 0 0 0 65.51604716919428 -69.479679106202155 0 -69.479679106202155 14.705953826140941 0 0 0 0 -6.6079150588038829 -91.662425168848188 0 -91.662425168848188 41.692509284014704 0 0 0 0 12.420890702504039 47.801256460349393 0 47.801256460349393 -4.8799634389318385 0 0 0 0 -19.913353610896593 -5.8691855494296306 0 -5.8691855494296306 -1.7001985747381525 0 0 0 0 -3.9757819294925607 -2.3646641486093571 0 -2.3646641486093571 7.3259220459936154 0 0 0 0 -23.774520968459456 -8.3826835329596179 0 -8.3826835329596179 -0.97290145919487259 0 0 0 0 -23.132290766001461 -6.814295378222198 0 -6.814295378222198 2.8376388479287016 0 0 0 0 -16.195992466990081 -4.1912808524727092 0 -4.1912808524727092 1.8643309128598622 0 0 0 0 -27.505664746125149 -4.9381665863440389 0 -4.9381665863440389 2.1496491423024509 0 0 0 0 -21.11507554084892 0.10829260750642788 0 0.10829260750642788 4.7535979124072583 0 0 0 0 -21.254279172168026 -24.701151467606394 0 -24.701151467606394 8.6525121229300908 0 0 0 0 1.9748444977934891 -5.9318775709093821 0 -5.9318775709093821 0.045632562567976098 0 0 0 0 -26.408960851731536 -17.893832887762869 0 -17.893832887762869 1.7844602095033508 0 0 0 0 -25.897618832506851 -22.677349880129896 0 -22.677349880129896 41.836567435886764 0 0 0 0 -15.217458463826915 4.733665775192776 0 4.733665775192776 11.57841433562885 0 0 0 0 -31.044374232285918 -39.410586576378023 0 -39.410586576378023 21.937511365373894 0 0 0 0 -28.657079127267934 -57.226618157105008 0 -57.226618157105008 134.93353494569533 0 0 0 0 -3.445738530401286 -53.890181802783331 0 -53.890181802783331 28.503287903352202 0 0 0 0 8.1641103906531498 -2.8038439827894308 0 -2.8038439827894308 -11.85327252006644 0 0 0 0 50.169113882369857 -82.908248072209972 0 -82.908248072209972 -121.59763484849645 0 0 0 0 5.7351882283546729 18.469281894948949 0 18.469281894948949 -108.18066394198964 0 0 0 0 0.15703734256382518 -0.25709384999203877 0 -0.25709384999203877 -0.50850362678418826 0 0 0 0 -13.248252024117392 -31.698469291644983 0 -31.698469291644983 -21.732331519372906 0 0 0 0 -334.31875174938068 -15.208459900911123 0 -15.208459900911123 34.786349620665078 0 0 0 0 -203.63768557630851 2.9900348595606232 0 2.9900348595606232 -28.140970156787262 0 0 0 0 -1.2622864778789555 -0.24446599039740846 0 -0.24446599039740846 0.1051326087227884 0 0 0 0 -286.55042536682777 148.77064858191386 0 148.77064858191386 -22.677447919178121 0 0 0 0 -102.74722239851599 -142.38570101850019 0 -142.38570101850019 143.7770005841619 0 0 0 0 -186.11655617789802 -66.87860665051835 0 -66.87860665051835 44.735234540289866 0 0 0 0 -253.40376506587745 -37.589672714853236 0 -37.589672714853236 72.531130550050193 0 0 0 0 -259.5532835258773 -15.444449063413231 0 -15.444449063413231 39.996317816626515 0 0 0 0 -263.68631738105069 -50.018984397425129 0 -50.018984397425129 32.379248881560812 0 0 0 0 -212.01665349221548 -62.390154723049818 0 -62.390154723049818 -8.4372457255976769 0 0 0 0 -0.2455254564685454 -6.2053974788703226 0 -6.2053974788703226 0.62369708296257809 0 0 0 0 -242.93286835579238 -25.372001968462371 0 -25.372001968462371 26.314632777965016 0 0 0 0 -322.3986392982988 24.639770771948548 0 24.639770771948548 -33.732045653881414 0 0 0 0 -215.45932199850176 -46.667460476629003 0 -46.667460476629003 13.42179930248858 0 0 0 0 -266.48460247561343 -155.61600521762034 0 -155.61600521762034 -63.852869305307649 0 0 0 0 -383.86358586716051 32.37365483088422 0 32.37365483088422 -17.261511320203226 0 0 0 0 1.1488657731548066 -1.4208047781608091 0 -1.4208047781608091 -1.518060403036336 0 0 0 0 -347.91706428566658 -58.960733555869666 0 -58.960733555869666 -24.419465811245573 0 0 0 0 -97.803728792729999 11.545973975631568 0 11.545973975631568 -62.819051362647542 0 0 0 0 -252.78123727819366 -33.980388985272612 0 -33.980388985272612 -24.515977418507191 0 0 0 0 -194.74428977188472 -31.006766347881012 0 -31.006766347881012 -92.761250458356471 0 0 0 0 -202.8790516529225 -32.365910317426938 0 -32.365910317426938 -27.938535835711264 0 0 0 0 -103.06495179342073 -6.347569332346211 0 -6.347569332346211 -14.463374160497096 0 0 0 0 -206.32569499095791 25.756994782359364 0 25.756994782359364 -12.029841196666212 0 0 0 0 -87.847282978584644 -8.9065582210442358 0 -8.9065582210442358 -24.576045503324167 0 0 0 0 -7.5546317995449499 6.7956200568966096 0 6.7956200568966096 -55.175511632686948 0 0 0 0 -7.3824522467048155 5.1824959543596378 0 5.1824959543596378 -40.138346176535265 0 0 0 0 0.83126179033661174 -5.3714842489648049 0 -5.3714842489648049 -33.488598249480077 0 0 0 0 0.5254739920837892 34.563359246042126 0 34.563359246042126 3.622881069140135 0 0 0 0 -0.4372413669029882 -0.0027001910985442468 0 -0.0027001910985442468 0.061925109971496431 0 0 0 0 -110.60042324131086 -6.3734108485378584 0 -6.3734108485378584 73.175173959401604 0 0 0 0 6.2871476782893296 28.769785656891372 0 28.769785656891372 -4.8374222242410028 0 0 0 0 -21.517090367864967 58.279234229083087 0 58.279234229083087 57.109369370790318 0 0 0 0 -6.0761152775103255 20.94770811885175 0 20.94770811885175 50.716592685738306 0 0 0 0 -2.786627122941848 0.59478539459860524 0 0.59478539459860524 0.14426817139561288 0 0 0 0 -4.9420612122448802 1.6486781617697943 0 1.6486781617697943 36.45656301769651 0 0 0 0 -5.4234337832426718 11.792869510083534 0 11.792869510083534 20.014079477605037 0 0 0 0 -73.407858486649275 -19.999012129173479 0 -19.999012129173479 34.091150254782633 0 0 0 0 -2.3852141990676792 -0.51753457971974637 0 -0.51753457971974637 0.34539252685125121 0 0 0 0 -19.37527456229509 -6.8145004222327543 0 -6.8145004222327543 110.54539639638966 0 0 0 0 -80.148814545370442 18.227874172763279 0 18.227874172763279 12.977537040392576 0 0 0 0 3.7027287326263831 -28.218631704129791 0 -28.218631704129791 -24.206642976580952 0 0 0 0 5.5894014442546904 -19.83828171764344 0 -19.83828171764344 12.568411783092643 0 0 0 0 20.715455538378592 -20.109192259338641 0 -20.109192259338641 -13.419991502964649 0 0 0 0 -27.034912894099762 4.3668449951567254 0 4.3668449951567254 2.8136162970679806 0 0 0 0 -7.340065748244875 5.3031133208884533 0 5.3031133208884533 -0.15470009439741206 0 0 0 0 54.286943519313354 33.59250012197667 0 33.59250012197667 -36.887266739538667 0 0 0 0 -13.87918231080144 1.2481019099594755 0 1.2481019099594755 -0.78017930651253664 0 0 0 0 -7.0633182130168279 3.981702474180604 0 3.981702474180604 0.61537780712134516 0 0 0 0 51.316537723123474 47.368216249684167 0 47.368216249684167 -104.25243986980726 0 0 0 0 -38.118351823783541 83.416887985297336 0 83.416887985297336 101.84623702048479 0 0 0 0 -8.650883133212119 13.508723902503164 0 13.508723902503164 -39.410339381278135 0 0 0 0 -51.362829752093603 28.974648390316034 0 28.974648390316034 -9.669610266430567 0 0 0 0 -66.599790422727892 -10.329920222977151 0 -10.329920222977151 -71.65734142903699 0 0 0 0 -373.74635107738402 192.82424317873225 0 192.82424317873225 -50.508298583294163 0 0 0 0 -276.20135347481664 -0.47521176344713467 0 -0.47521176344713467 4.0578928570220683 0 0 0 0 -208.82360489017992 114.64930713020368 0 114.64930713020368 -69.562150771042624 0 0 0 0 -360.92552066601456 -88.159526217624006 0 -88.159526217624006 -46.699019622022021 0 0 0 0 22.447641111004486 -66.116468126787424 0 -66.116468126787424 -66.797738097033147 0 0 0 0 -15.017207996699653 -188.52335794631762 0 -188.52335794631762 39.603970238825973 0 0 0 0 133.67544841993004 -235.99394883552884 0 -235.99394883552884 33.973353531974581 0 0 0 0 128.4402361788446 -94.531538598576361 0 -94.531538598576361 66.543432340725758 0 0 0 0 -1.7019370496863679 -1.2074388136143579 0 -1.2074388136143579 -1.0106469529092292 0 0 0 0 -151.42395016620515 34.703536809013059 0 34.703536809013059 -7.2282055262689937 0 0 0 0 -165.8251665536136 31.074730676712136 0 31.074730676712136 29.810818692909834 0 0 0 0 -207.48986156885076 66.659748488542618 0 66.659748488542618 -0.13371611074870771 0 0 0 0 -149.95936368038946 56.239388943797223 0 56.239388943797223 -12.680429531405821 0 0 0 0 -211.74854040837999 63.17451607089572 0 63.17451607089572 4.1342211793584056 0 0 0 0 -88.424335133306158 3.4336316167156724 0 3.4336316167156724 -4.5775199898388053 0 0 0 0 -202.27730443174187 106.06156611756302 0 106.06156611756302 -11.315144666981155 0 0 0 0 -72.689425661069464 32.935075693185382 0 32.935075693185382 4.2852729819467186 0 0 0 0 -159.62774484133115 -18.795898089629077 0 -18.795898089629077 14.758048176261298 0 0 0 0 -230.96478234646383 17.467279322359559 0 17.467279322359559 28.046081421195026 0 0 0 0 6.1917892851051874 -6.8964175490839636 0 -6.8964175490839636 -6.1973942429737576 0 0 0 0 -115.13891386440628 16.702905162223288 0 16.702905162223288 -10.147155033740773 0 0 0 0 0.62672023196155457 -5.8306631469099646 0 -5.8306631469099646 -0.01693663778295651 0 0 0 0 111.62981085782712 -49.154810392076115 0 -49.154810392076115 39.165905691873832 0 0 0 0 2.0311977130037171 -0.8763826655773066 0 -0.8763826655773066 -1.502731873552186 0 0 0 0 113.90365827161736 -114.23219684621206 0 -114.23219684621206 64.726523154752158 0 0 0 0 13.551503066317309 -23.447335824324256 0 -23.447335824324256 78.803286301118305 0 0 0 0 58.813756942650798 -125.92540072066714 0 -125.92540072066714 207.88158066440872 0 0 0 0 -1.0215256606154499 -0.79411240819013429 0 -0.79411240819013429 0.59102603628584971 0 0 0 0 259.68091729088337 -147.26020847387849 0 -147.26020847387849 71.016617514465366 0 0 0 0 28.569015098102682 -91.532305178464981 0 -91.532305178464981 225.8039374960365 0 0 0 0 -3.6430627759841521 -4.2989353172998062 0 -4.2989353172998062 -1.7880028180610112 0 0 0 0 -161.95304721923412 32.705794388891334 0 32.705794388891334 -7.5576537774323924 0 0 0 0 73.432239580599344 -155.106654050369 0 -155.106654050369 172.71758919183981 0 0 0 0 140.68593925639743 -89.816681240758783 0 -89.816681240758783 52.540597477872439 0 0 0 0 60.996134733428335 -162.9503900308261 0 -162.9503900308261 4.0499015864558601 0 0 0 0 8.0161145568999927 -34.700663623707662 0 -34.700663623707662 48.428510319611746 0 0 0 0 -143.28270910305764 33.128904984296248 0 33.128904984296248 60.338782718278594 0 0 0 0 -35.479201916499733 -104.1509407407931 0 -104.1509407407931 -49.537858610481265 0 0 0 0 -2.1736772923632088 15.100850484964155 0 15.100850484964155 79.541204573841014 0 0 0 0 -27.907439483522467 -0.69885401455383089 0 -0.69885401455383089 177.19559696539591 0 0 0 0 -81.148580712117109 -20.081709414447346 0 -20.081709414447346 120.50064866246817 0 0 0 0 -103.29744378216083 47.463910782241541 0 47.463910782241541 56.07837969209038 0 0 0 0 -135.76197687973399 -3.3078298215316977 0 -3.3078298215316977 89.242188439098953 0 0 0 0 -119.2708788956952 29.700402330113576 0 29.700402330113576 -2.6409956253764051 0 0 0 0 -177.42652213919064 34.121410731828561 0 34.121410731828561 53.776414229892083 0 0 0 0 -68.069944412871337 83.147348853434835 0 83.147348853434835 36.647397469408077 0 0 0 0 -118.7059495753565 90.862549381680026 0 90.862549381680026 49.438126932874994 0 0 0 0 -108.6480620503462 53.851343236990772 0 53.851343236990772 49.099419159469733 0 0 0 0 -141.69133430367947 -17.354363570805504 0 -17.354363570805504 26.778402294090768 0 0 0 0 -236.13062390451341 -19.773530516515393 0 -19.773530516515393 74.659482871293676 0 0 0 0 -137.37937003244315 -17.765734699540769 0 -17.765734699540769 34.230039486935027 0 0 0 0 -0.83529075981394385 0.65911005204537076 0 0.65911005204537076 3.9197330289795307 0 0 0 0 -140.43215791763214 36.784892554640749 0 36.784892554640749 -0.76931808043605088 0 0 0 0 -58.363956735334796 -42.204801591332966 0 -42.204801591332966 103.13520075723949 0 0 0 0 -106.36735230556769 26.498080195835598 0 26.498080195835598 74.971097880165416 0 0 0 0 -57.862869499107546 -52.256608610926492 0 -52.256608610926492 42.153599607541537 0 0 0 0 -14.281810409542231 -111.19965129258799 0 -111.19965129258799 98.140969616250686 0 0 0 0 107.74074521233342 -189.97655350518778 0 -189.97655350518778 46.496088544369513 0 0 0 0 -62.175857986143455 -15.697664956403969 0 -15.697664956403969 34.072286154013 0 0 0 0 -114.82302970193086 -106.92726854223386 0 -106.92726854223386 -48.952563690808347 0 0 0 0 -111.27881295291809 -48.778997340616201 0 -48.778997340616201 -19.629164404406694 0 0 0 0 -195.62730204742911 6.7140034340700652 0 6.7140034340700652 28.627137488367168 0 0 0 0 -145.59793227356568 15.898982765587169 0 15.898982765587169 30.26171696905099 0 0 0 0 -161.59978457262423 33.38392207830492 0 33.38392207830492 32.669389114666018 0 0 0 0 -353.00329691870866 -29.090798010256421 0 -29.090798010256421 44.352418290641936 0 0 0 0 -106.81833471978825 -9.8751602107495273 0 -9.8751602107495273 -40.101733495906473 0 0 0 0 -140.5743903342609 -17.918038521881542 0 -17.918038521881542 -9.6836012854915907 0 0 0 0 -113.47164006544745 8.2571646060015098 0 8.2571646060015098 -28.269549734129896 0 0 0 0 -54.044341939855258 34.388173910890551 0 34.388173910890551 -208.36073684743758 0 0 0 0 -154.53040424203482 -88.893252564450563 0 -88.893252564450563 -145.88594413928888 0 0 0 0 -75.936977803961781 89.310658016863954 0 89.310658016863954 -8.958443081043427 0 0 0 0 -61.090174085802573 6.2251907954771255 0 6.2251907954771255 17.857036697109308 0 0 0 0 -219.4154540493555 135.11682075840733 0 135.11682075840733 -63.638893489774546 0 0 0 0 -361.12696089462133 -47.976702950149701 0 -47.976702950149701 -8.1119575376353055 0 0 0 0 -127.45003186636313 127.39854981957615 0 127.39854981957615 50.607998801533562 0 0 0 0 -3.449498394090412 -0.049510328764399425 0 -0.049510328764399425 -0.022616686439799638 0 0 0 0 -53.247857133286743 -28.182512337892831 0 -28.182512337892831 -84.252960648669273 0 0 0 0 -128.20889909641664 -173.15753999619434 0 -173.15753999619434 -321.40528311105641 0 0 0 0 15.62309654435785 -123.69634402468412 0 -123.69634402468412 -155.69516710464234 0 0 0 0 -9.8211055470065105 0.23213782402622751 0 0.23213782402622751 0.29028712031260401 0 0 0 0 1.0238141401096073 19.437351896659713 0 19.437351896659713 24.762872248069357 0 0 0 0 -37.168250462087599 12.13855702278056 0 12.13855702278056 128.2667035632652 0 0 0 0 -31.210362633013574 23.387871721434895 0 23.387871721434895 19.16661577693614 0 0 0 0 -67.549733265217583 74.934350921286509 0 74.934350921286509 3.0699475022532496 0 0 0 0 -104.4780715333909 46.241842784636709 0 46.241842784636709 26.493449304448426 0 0 0 0 -155.10492203409012 26.197880039319625 0 26.197880039319625 36.77712812732895 0 0 0 0 15.852985253215593 57.109393667259916 0 57.109393667259916 -2.0393306451162085 0 0 0 0 -129.63682981408601 -7.3100764885575238 0 -7.3100764885575238 17.420815104554979 0 0 0 0 -0.12511827918292084 0.13093622136340244 0 0.13093622136340244 -0.096337718220599861 0 0 0 0 -58.910211992442783 32.996982346702339 0 32.996982346702339 18.696561685767946 0 0 0 0 -28.45317688574869 10.603115896217417 0 10.603115896217417 56.495322293792782 0 0 0 0 -31.773006912402707 -6.0321494844882579 0 -6.0321494844882579 37.213641210464715 0 0 0 0 -50.695077526346722 24.541056833521196 0 24.541056833521196 54.846502998670587 0 0 0 0 -10.202867004374639 16.854397411424458 0 16.854397411424458 55.891876799297975 0 0 0 0 -245.57635311705053 -62.171601185204707 0 -62.171601185204707 145.97809524000081 0 0 0 0 -30.681658601273739 -5.1645120013808707 0 -5.1645120013808707 90.488962023453922 0 0 0 0 -15.495076120523564 0.94006846097504759 0 0.94006846097504759 0.41335611811112594 0 0 0 0 -20.522572539306111 -13.502514792834464 0 -13.502514792834464 74.875948309947773 0 0 0 0 -29.143646581660505 -7.1190578293534372 0 -7.1190578293534372 72.577578150458294 0 0 0 0 -15.814537544261839 14.295523166372419 0 14.295523166372419 92.813095237519235 0 0 0 0 -14.471669227365055 -2.2235891972484012 0 -2.2235891972484012 76.652314814159467 0 0 0 0 50.319021082555992 36.986161681605552 0 36.986161681605552 99.839355967868983 0 0 0 0 -18.898374475411401 -26.646113334216381 0 -26.646113334216381 80.735787630323671 0 0 0 0 -23.191757291788235 7.4302616325274471 0 7.4302616325274471 127.67595080553613 0 0 0 0 -29.368256416899385 -15.337498779175576 0 -15.337498779175576 82.842886759443601 0 0 0 0 -19.056312620534008 2.9851323557912095 0 2.9851323557912095 0.47498457770500169 0 0 0 0 -4.0487351595584187 -19.833592682127289 0 -19.833592682127289 9.2326045784286634 0 0 0 0 -11.913420764994953 -4.2093150419549943 0 -4.2093150419549943 19.710553601044523 0 0 0 0 -23.099175236344308 48.326218323937908 0 48.326218323937908 95.044659399721013 0 0 0 0 -18.030915106201064 -26.287170949937135 0 -26.287170949937135 31.906075330963745 0 0 0 0 -3.7145489369045315 -0.65639100349406831 0 -0.65639100349406831 1.0944988627086478 0 0 0 0 -9.9957902120168001 -4.2600978401924721 0 -4.2600978401924721 1.854265086895893 0 0 0 0 29.313131244794931 45.713813544680946 0 45.713813544680946 54.001937528976811 0 0 0 0 -0.88617066937939981 0.11776036460458883 0 0.11776036460458883 0.12945315046759423 0 0 0 0 -2.5417470937754842 32.136618199571551 0 32.136618199571551 89.910757083666311 0 0 0 0 60.840635041823589 -36.289889836786486 0 -36.289889836786486 81.130015676252924 0 0 0 0 -3.712948071079154 -33.619051903660932 0 -33.619051903660932 138.28419558094282 0 0 0 0 -20.066431604331228 -1.6429463123278936 0 -1.6429463123278936 93.763922098061528 0 0 0 0 4.9909881055937149 -24.550279270216294 0 -24.550279270216294 85.147815062151537 0 0 0 0 15.23050457372301 -9.3619528953831548 0 -9.3619528953831548 65.641066968156224 0 0 0 0 -14.973802723387053 1.0354232922229443 0 1.0354232922229443 91.681084644213371 0 0 0 0 -1.5807211431274482 -19.649432939385221 0 -19.649432939385221 53.14392088965505 0 0 0 0 -6.9563808643979428 -14.860270433416193 0 -14.860270433416193 61.086362539909487 0 0 0 0 -4.3344034105466562 -8.6424889193692849 0 -8.6424889193692849 64.16585193969064 0 0 0 0 -9.6106018254904484 -14.274904185108269 0 -14.274904185108269 35.793595982137731 0 0 0 0 0.15017002556123771 -15.759608392997961 0 -15.759608392997961 36.019430884244542 0 0 0 0 -6.9232903255833662 -4.7377389963850334 0 -4.7377389963850334 30.600869764189383 0 0 0 0 11.731934768875362 -12.299827835407982 0 -12.299827835407982 33.005278204482423 0 0 0 0 6.5281744123603858 -6.1726965802148186 0 -6.1726965802148186 42.293553076653041 0 0 0 0 10.907457090779644 -16.500643272854006 0 -16.500643272854006 60.784843571715896 0 0 0 0 22.662068118009302 9.1152364720194754 0 9.1152364720194754 53.232481332492341 0 0 0 0 -32.567767592972814 -3.9672573217128395 0 -3.9672573217128395 73.13980195233529 0 0 0 0 0.80128321757001686 4.4009730038800541 0 4.4009730038800541 29.559573248454626 0 0 0 0 -7.5949718598167237 -2.2934123643227053 0 -2.2934123643227053 49.185564592664988 0 0 0 0 -26.771582833673165 -8.2603710883639216 0 -8.2603710883639216 8.8337160023683765 0 0 0 0 -16.72619674184898 7.0808036965081769 0 7.0808036965081769 32.197612981856501 0 0 0 0 -11.931739318468772 -15.461411357381156 0 -15.461411357381156 17.180249294895276 0 0 0 0 -2.8772483498323709 -7.426350079659187 0 -7.426350079659187 3.4274579620530048 0 0 0 0 -11.916040242491363 -11.3645889526681 0 -11.3645889526681 17.557594025437851 0 0 0 0 1.1202694353887637 -15.671621085265414 0 -15.671621085265414 17.81735358455569 0 0 0 0 -19.953015559678533 -4.2910961540597405 0 -4.2910961540597405 5.6194366024689693 0 0 0 0 -10.706263809480333 -12.70517829460074 0 -12.70517829460074 -0.70256972462046008 0 0 0 0 -19.11254298246422 -5.7349769603799299 0 -5.7349769603799299 -3.3968192309569787 0 0 0 0 -34.596324556084255 16.034351529895304 0 16.034351529895304 -6.3388936556553048 0 0 0 0 -42.779750224910458 1.7325781298165683 0 1.7325781298165683 -3.6706699053982477 0 0 0 0 -28.677563301473128 4.5368643558991515 0 4.5368643558991515 -8.2570113741510518 0 0 0 0 -16.298134159485926 -8.9811942309500719 0 -8.9811942309500719 -6.0179613969400698 0 0 0 0 -16.270726758568344 -7.0279772735015342 0 -7.0279772735015342 -3.0625116482272716 0 0 0 0 -22.493478175250857 -10.031801402992258 0 -10.031801402992258 -3.6024565284469041 0 0 0 0 -40.509889279494018 -6.5299628281087942 0 -6.5299628281087942 -3.1660354731156275 0 0 0 0 -38.476803842472691 -4.5654077948901657 0 -4.5654077948901657 4.9277296155236465 0 0 0 0 -46.239483268950607 -2.6418513422879579 0 -2.6418513422879579 -0.0042749504297543437 0 0 0 0 -38.728692761718321 -2.5276347987454826 0 -2.5276347987454826 -8.8355199213766547 0 0 0 0 -30.898702855879492 0.37212232846418947 0 0.37212232846418947 -8.5469571565885314 0 0 0 0 -59.882002004984315 2.7769009921155252 0 2.7769009921155252 -1.3035685100558285 0 0 0 0 -50.734851448252812 2.5027437540006261 0 2.5027437540006261 -1.7202609953626395 0 0 0 0 -57.664770464598405 -0.94780079735389455 0 -0.94780079735389455 -0.50511657969895041 0 0 0 0 -56.555554651766215 -1.716237049310493 0 -1.716237049310493 0.0028302796089826319 0 0 0 0 -57.436598422619227 -2.4095340777229604 0 -2.4095340777229604 -2.5379044879890271 0 0 0 0 -85.406090893578948 -2.9154550517749422 0 -2.9154550517749422 3.0677168641127301 0 0 0 0 -0.31165949677882843 0.41089407046939286 0 0.41089407046939286 -0.16074392469163348 0 0 0 0 -43.333570025684594 5.5842323184474587 0 5.5842323184474587 -7.6780297502574371 0 0 0 0 -59.774041980132097 2.1217155909160823 0 2.1217155909160823 2.140807771875064 0 0 0 0 -61.51447590581347 7.3801450658303418 0 7.3801450658303418 -8.7463914302134746 0 0 0 0 -71.792536154764093 6.0243164770720927 0 6.0243164770720927 7.715477516484567 0 0 0 0 -98.865020169489071 32.519034395770184 0 32.519034395770184 -9.5776857705265428 0 0 0 0 -113.68063191891542 53.399345102502281 0 53.399345102502281 -17.790807622764966 0 0 0 0 -92.6370790037181 43.638819175910925 0 43.638819175910925 9.2515428787538312 0 0 0 0 -260.9629632867086 73.598601820477683 0 73.598601820477683 -2.6351632593473511 0 0 0 0 -0.36122173063012042 0.23283778490712592 0 0.23283778490712592 -0.07536959667848192 0 0 0 0 -386.93916109103156 17.198698296263281 0 17.198698296263281 -1.105416826380156 0 0 0 0 -29.196829153246654 107.07070389453563 0 107.07070389453563 -81.235773338671919 0 0 0 0 -1.011685832768805 0.24513958050675022 0 0.24513958050675022 -0.028287626606536519 0 0 0 0 -3.1071191334121977 1.2634402080015921 0 1.2634402080015921 0.016185515295044445 0 0 0 0 -193.77321693861722 185.88527098056196 0 185.88527098056196 -118.57373000685929 0 0 0 0 -218.63149425349002 55.981268509463888 0 55.981268509463888 0.86315734959312707 0 0 0 0 -116.7822624658711 140.80017654143265 0 140.80017654143265 -53.20667299144462 0 0 0 0 -48.358088967364893 103.40038471093544 0 103.40038471093544 -88.650212723227 0 0 0 0 -81.373981420343625 73.011288605158668 0 73.011288605158668 -33.682508793676874 0 0 0 0 5.5013527098853956 32.173194245946632 0 32.173194245946632 -49.616784803023215 0 0 0 0 -113.18267098483193 11.754526302756195 0 11.754526302756195 114.58268922470722 0 0 0 0 4.1251980394408747 -4.9580620632596704 0 -4.9580620632596704 5.0130333313795186 0 0 0 0 12.79323176365142 -7.0123888532233218 0 -7.0123888532233218 -0.029826184576416292 0 0 0 0 -1.9322778959046971 -0.06417453483101454 0 -0.06417453483101454 0.1165291956937307 0 0 0 0 -257.27822583159286 -36.903021104334215 0 -36.903021104334215 -6.8680110466868314 0 0 0 0 64.448604122426332 -1.4543005808902261 0 -1.4543005808902261 -3.4741442783578869 0 0 0 0 -195.06622625286582 -10.534699487638154 0 -10.534699487638154 -1.3321774798837289 0 0 0 0 -127.92133247551828 12.261632638669699 0 12.261632638669699 -106.44108523767348 0 0 0 0 -163.18065600764317 31.47088695037969 0 31.47088695037969 17.549297761501887 0 0 0 0 -156.47151094359651 12.128507764514927 0 12.128507764514927 7.0750340779284748 0 0 0 0 -49.289420304869054 8.8051202042593815 0 8.8051202042593815 5.599439342613632 0 0 0 0 -49.309614616616926 7.2574558367073365 0 7.2574558367073365 22.468455470151781 0 0 0 0 -44.596861816249657 1.2697855791491612 0 1.2697855791491612 7.9465668325938266 0 0 0 0 -48.743052124669703 2.8901197343455269 0 2.8901197343455269 12.150223799486078 0 0 0 0 -48.013790595336559 2.4282049532100176 0 2.4282049532100176 0.87819725536097692 0 0 0 0 -53.599102653233786 -3.2391705136994151 0 -3.2391705136994151 -1.0162158693564092 0 0 0 0 -53.917903766526251 -2.2150653459963241 0 -2.2150653459963241 -3.7337743456065748 0 0 0 0 -41.201316931243127 5.0930456067071326 0 5.0930456067071326 0.25597978586464265 0 0 0 0 -36.630262960428809 9.8085805762752543 0 9.8085805762752543 5.1707196582934252 0 0 0 0 -45.32112372331494 5.5710918650530328 0 5.5710918650530328 4.1958838868536219 0 0 0 0 -39.772143250240333 8.3442516655668868 0 8.3442516655668868 8.8392733817233875 0 0 0 0 -41.167830506794417 18.419903337841529 0 18.419903337841529 7.4679958577192238 0 0 0 0 -38.418155634969253 16.33632273821183 0 16.33632273821183 9.0308627896035176 0 0 0 0 -44.359905518814344 12.6210190846154 0 12.6210190846154 8.0509845493320569 0 0 0 0 -51.954607305806348 9.5790114878515062 0 9.5790114878515062 20.471921810705037 0 0 0 0 -44.84131558230365 32.440036266352436 0 32.440036266352436 -6.0769669458912325 0 0 0 0 -70.332533784267071 24.120032895857399 0 24.120032895857399 23.081130171054426 0 0 0 0 -63.450380251313618 8.5575445257681331 0 8.5575445257681331 37.182151144700583 0 0 0 0 -49.126582077264061 6.6772315315547228 0 6.6772315315547228 26.610379143047933 0 0 0 0 -47.297733302432448 -7.7171636339642902 0 -7.7171636339642902 38.678604568206751 0 0 0 0 -55.285256754283182 3.4687273316163854 0 3.4687273316163854 32.630586547236703 0 0 0 0 21.849418458709806 24.035478809502962 0 24.035478809502962 27.155555216598742 0 0 0 0 -5.8246520828761277 18.994618328362463 0 18.994618328362463 51.498028550605881 0 0 0 0 -13.171752820735492 1.7111429709774373 0 1.7111429709774373 29.217604528861344 0 0 0 0 -10.251533143864435 12.807689069531273 0 12.807689069531273 35.454732487728997 0 0 0 0 -4.3879511692866799 16.659099488928966 0 16.659099488928966 37.980501288386293 0 0 0 0 -25.44314975612906 1.3662175614949632 0 1.3662175614949632 33.620112124430946 0 0 0 0 -25.626348197399921 3.0741207012966871 0 3.0741207012966871 47.974297333418725 0 0 0 0 -18.955238881862897 -12.285848906690518 0 -12.285848906690518 41.558662740237295 0 0 0 0 -13.053876786059391 11.108066404546614 0 11.108066404546614 66.860510637953425 0 0 0 0 -14.378734741869266 0.16350284811491633 0 0.16350284811491633 41.772360123100881 0 0 0 0 -8.2323770594339294 6.2804983227270128 0 6.2804983227270128 75.524290868351912 0 0 0 0 -8.8546615706618468 -2.7900978093785795 0 -2.7900978093785795 51.314004002071073 0 0 0 0 1.1086748067355074 15.203768837977918 0 15.203768837977918 49.124317779933335 0 0 0 0 -9.5680828245458542 -9.2329738612490786 0 -9.2329738612490786 53.21959849401901 0 0 0 0 -9.9539544007380982 -15.323279455103673 0 -15.323279455103673 39.715055766149106 0 0 0 0 -16.543762207234977 -4.245130818880952 0 -4.245130818880952 55.357136248841265 0 0 0 0 -16.138725115884881 -13.283837130080656 0 -13.283837130080656 39.056615331010796 0 0 0 0 -29.854979937994358 -13.978319729239871 0 -13.978319729239871 32.006523861110203 0 0 0 0 -26.981989649684692 -6.9184238681410655 0 -6.9184238681410655 38.325235185535185 0 0 0 0 -15.602014873271401 -14.881040275022997 0 -14.881040275022997 21.93903760900367 0 0 0 0 -23.294205425072505 -10.024331402968592 0 -10.024331402968592 11.212837004965436 0 0 0 0 -19.811206487331219 -16.39225087786911 0 -16.39225087786911 22.640008260726034 0 0 0 0 -13.6050930577494 -12.062658070866947 0 -12.062658070866947 9.9780679225702684 0 0 0 0 -6.4175204706734803 -14.823417452577296 0 -14.823417452577296 8.0091891714623387 0 0 0 0 -13.582091837064581 -15.346556378960194 0 -15.346556378960194 21.637133646705905 0 0 0 0 -7.0221716109772387 -17.400169677068675 0 -17.400169677068675 22.084571499773233 0 0 0 0 -39.571889203363753 -5.0318925750728365 0 -5.0318925750728365 23.447318620209863 0 0 0 0 -39.755143295051312 -5.0251883667403288 0 -5.0251883667403288 26.864125870546523 0 0 0 0 -25.800275835945286 -13.311421806489527 0 -13.311421806489527 17.851907933188556 0 0 0 0 -44.805524517720187 -0.82687878453473029 0 -0.82687878453473029 20.413583242399174 0 0 0 0 -32.749458096220678 -6.0367428379444785 0 -6.0367428379444785 8.4462484894310847 0 0 0 0 -40.363697827442593 -4.355331904545114 0 -4.355331904545114 9.458100843663054 0 0 0 0 -23.533288846014329 -6.8518692063253468 0 -6.8518692063253468 3.9340084915614426 0 0 0 0 -32.486193684439513 -7.9442313286836281 0 -7.9442313286836281 13.551315829063661 0 0 0 0 -18.924436034412793 -7.6265004249860091 0 -7.6265004249860091 3.9455608326564655 0 0 0 0 -30.51339666973945 -1.8800518407895819 0 -1.8800518407895819 3.5619233064502183 0 0 0 0 -30.221008259998484 -5.4418376937257102 0 -5.4418376937257102 4.5386105418663441 0 0 0 0 -14.125334888431098 -11.19122296100641 0 -11.19122296100641 2.0566290526842863 0 0 0 0 -13.2382393485168 -10.792784056113391 0 -10.792784056113391 6.999231698020246 0 0 0 0 -11.90262115283349 -16.07276338547652 0 -16.07276338547652 6.3512593109807796 0 0 0 0 -14.160890353256036 -11.027884775129104 0 -11.027884775129104 1.3064178541609124 0 0 0 0 -20.676991590800753 -11.959655430551205 0 -11.959655430551205 11.480990297945283 0 0 0 0 -18.23444694897762 -6.208005018278806 0 -6.208005018278806 -2.490066701643407 0 0 0 0 -6.5727413165732287 -4.8497341489504429 0 -4.8497341489504429 -3.7837990910409829 0 0 0 0 -17.311866967414971 -9.5458498125714613 0 -9.5458498125714613 -4.2034306693588785 0 0 0 0 -11.587720678941878 -12.2794901187532 0 -12.2794901187532 -3.8085994802037746 0 0 0 0 4.2731881394174707 -9.524024921503754 0 -9.524024921503754 -8.591715917468786 0 0 0 0 -9.5026468481937627 -16.110542304366852 0 -16.110542304366852 -3.7941010183996742 0 0 0 0 -9.994703236488931 -12.508375220046082 0 -12.508375220046082 -9.1947996866336261 0 0 0 0 5.9932363413499843 6.457644705975456 0 6.457644705975456 -4.3789887174885234 0 0 0 0 -16.61633174135568 -0.44515798713143084 0 -0.44515798713143084 -4.895098302275148 0 0 0 0 6.6168490668203503 -3.2851355120275922 0 -3.2851355120275922 0.0007208427013434993 0 0 0 0 3.1756467613959103 4.9580776036130541 0 4.9580776036130541 0.19264553616735958 0 0 0 0 -25.294163825099531 -3.4397203130260374 0 -3.4397203130260374 0.0028107842153258038 0 0 0 0 -26.382723172173428 0.30506174334837555 0 0.30506174334837555 1.6426395784820893 0 0 0 0 -0.13855530323958476 -0.037569389015601473 0 -0.037569389015601473 -0.0058679808707513374 0 0 0 0 -41.956033704951551 -4.5396113359142634 0 -4.5396113359142634 7.3471144231423935 0 0 0 0 -16.350293787316787 1.736449088022092 0 1.736449088022092 2.0383527846488221 0 0 0 0 -24.65022741703433 10.74305759571585 0 10.74305759571585 5.653839150100433 0 0 0 0 -40.319146257088505 2.3348042678860463 0 2.3348042678860463 8.0034082972217906 0 0 0 0 -0.15293378224135523 -0.020217635161825953 0 -0.020217635161825953 0.0040635539280978114 0 0 0 0 -42.253247460995226 -8.5967956166222077 0 -8.5967956166222077 -0.0020774769750816742 0 0 0 0 -43.109615804818532 -9.463439385672519 0 -9.463439385672519 2.9739850561987788 0 0 0 0 -53.833985125661457 -9.1365469461912063 0 -9.1365469461912063 3.3155566508783587 0 0 0 0 -45.741756651759715 -10.011902479087098 0 -10.011902479087098 2.1205966434601624 0 0 0 0 -46.776561269883587 -7.5875428074406805 0 -7.5875428074406805 -0.0033734145024741612 0 0 0 0 -41.223070873234974 -7.7855548971694208 0 -7.7855548971694208 0.61142618141913818 0 0 0 0 -45.577468045936257 -6.3766884528327008 0 -6.3766884528327008 7.1742366957435486 0 0 0 0 -50.259259877306249 -2.6188499335903641 0 -2.6188499335903641 6.3728439409643585 0 0 0 0 -45.519490412059042 -7.5172923664007083 0 -7.5172923664007083 -2.5381462095008267 0 0 0 0 -46.482224346033945 -1.6825743726549733 0 -1.6825743726549733 2.2435833171469319 0 0 0 0 -46.473456605544811 -1.2418101818494109 0 -1.2418101818494109 12.877262462231503 0 0 0 0 -40.366481217053661 -5.4208468213097518 0 -5.4208468213097518 3.3699831397317173 0 0 0 0 -60.889717944299264 -12.512240223397427 0 -12.512240223397427 -6.1311193842135836 0 0 0 0 -51.99758519428724 -7.488423900256727 0 -7.488423900256727 0.5648403621903928 0 0 0 0 -54.584031460473852 -4.1931938691977173 0 -4.1931938691977173 -2.7971291878033071 0 0 0 0 -54.172057859841516 -11.577201779355612 0 -11.577201779355612 -4.9269500435683398 0 0 0 0 -61.844556343266959 -11.834269968146707 0 -11.834269968146707 0.71055944957359074 0 0 0 0 -61.825312811012282 -11.150273777938544 0 -11.150273777938544 -6.8773094816799478 0 0 0 0 -62.878293742942333 -8.1037981316301764 0 -8.1037981316301764 -0.0018916602151205653 0 0 0 0 -85.932415930818024 -11.70531259021964 0 -11.70531259021964 0.0019741391690111776 0 0 0 0 -88.967979957222269 -12.872651042548771 0 -12.872651042548771 0.0335243611206959 0 0 0 0 -72.743031640024128 -12.799628885337258 0 -12.799628885337258 -6.143182553216505 0 0 0 0 -71.843130709345132 -15.055573584043188 0 -15.055573584043188 -1.0826015767083206 0 0 0 0 -77.511306672507999 -4.8526341511120181 0 -4.8526341511120181 6.0941841607450478 0 0 0 0 -82.045679733790166 -11.633333466408908 0 -11.633333466408908 0.0055176966122368193 0 0 0 0 -85.461925065317246 -10.347798461422336 0 -10.347798461422336 0.073094861108847553 0 0 0 0 -0.17229614749707167 0.04988070475273787 0 0.04988070475273787 0.056434905839027535 0 0 0 0 -113.17726462298924 -17.087430461160608 0 -17.087430461160608 3.4999414927872792 0 0 0 0 -61.09225911635076 -0.67176950422708748 0 -0.67176950422708748 -1.5849471167245575 0 0 0 0 -69.766354685089937 -9.7430499042764911 0 -9.7430499042764911 -1.7917099605054023 0 0 0 0 -84.84024236323603 -9.7578979618523842 0 -9.7578979618523842 1.9276406937878954 0 0 0 0 -88.032623096660245 -21.802072621718764 0 -21.802072621718764 -8.4123920275527695 0 0 0 0 -108.12495689886146 -18.39433948389857 0 -18.39433948389857 -1.9171075908172392 0 0 0 0 -84.733578596905318 -23.90226323873917 0 -23.90226323873917 -8.5197619236273958 0 0 0 0 -0.27800754032982056 0.16511641662744481 0 0.16511641662744481 0.13705972323942156 0 0 0 0 -82.916264887786383 -7.8761076501209653 0 -7.8761076501209653 0.4543931042725961 0 0 0 0 -71.931365436099441 -9.6117288283809188 0 -9.6117288283809188 -1.4510492748071364 0 0 0 0 -71.866993530908076 -16.108934402603005 0 -16.108934402603005 -9.8291779781170181 0 0 0 0 -86.426093469746775 -14.115196421942017 0 -14.115196421942017 -1.602735327218201 0 0 0 0 -65.258690551112522 -12.604120071987886 0 -12.604120071987886 -3.8799718535232302 0 0 0 0 -50.355806586049766 -3.5104944349499885 0 -3.5104944349499885 0.68739001536854971 0 0 0 0 -47.019060137688939 -3.5935142660493824 0 -3.5935142660493824 -4.4315278886574756 0 0 0 0 -84.01135845546014 -23.510774629604079 0 -23.510774629604079 -0.78324765129225327 0 0 0 0 -57.094754663350614 -23.611142024759825 0 -23.611142024759825 -4.7688986111381624 0 0 0 0 -63.9092176099266 -14.445123574901135 0 -14.445123574901135 -9.2250525426848071 0 0 0 0 -89.295107029040082 -13.658599066230309 0 -13.658599066230309 -6.967579807407164 0 0 0 0 -94.910691271898486 -14.714829427714495 0 -14.714829427714495 0.14648354374898176 0 0 0 0 -110.16697730366104 -26.031133805276191 0 -26.031133805276191 0.8358335768525329 0 0 0 0 -0.3268625539576302 0.26327292004304326 0 0.26327292004304326 0.070904884149238401 0 0 0 0 -88.627701327213799 -15.123213540935822 0 -15.123213540935822 -4.6291183519145456 0 0 0 0 -0.36658134005199905 0.37992679949993757 0 0.37992679949993757 -0.21721436318619819 0 0 0 0 -106.42885619979006 -10.79417253050952 0 -10.79417253050952 21.416466094627722 0 0 0 0 -149.98770795818746 -2.5883204343106314 0 -2.5883204343106314 21.343444595023428 0 0 0 0 -33.214023375054239 -33.623174185352866 0 -33.623174185352866 7.8895777533892151 0 0 0 0 -85.415745517388132 -20.264679570132671 0 -20.264679570132671 25.095451876796261 0 0 0 0 -41.763201302466769 0.94881361553636623 0 0.94881361553636623 15.48866204871949 0 0 0 0 -17.317804851809342 -14.198156531386843 0 -14.198156531386843 16.122493532818389 0 0 0 0 -31.379349417702542 0.79197027959714639 0 0.79197027959714639 0.19806217002662407 0 0 0 0 -87.440840387560911 -20.685975998070738 0 -20.685975998070738 6.7814834456880106 0 0 0 0 -98.596146330262854 12.333560221280848 0 12.333560221280848 -2.8702662808854367 0 0 0 0 -100.755339838297 36.262122282051699 0 36.262122282051699 25.590829596244873 0 0 0 0 -119.5673249229676 -0.16888690720315402 0 -0.16888690720315402 34.784882602764739 0 0 0 0 -80.904357494768419 -39.486934104691954 0 -39.486934104691954 -45.460197853250719 0 0 0 0 12.626066170563718 -8.4232547978416843 0 -8.4232547978416843 -47.873716177161057 0 0 0 0 -76.237569275713554 20.616528209980711 0 20.616528209980711 -36.490691880966182 0 0 0 0 -0.29049214874423157 -0.23427451111984254 0 -0.23427451111984254 -0.14663135717477976 0 0 0 0 -176.8041988565401 2.0919684944191186 0 2.0919684944191186 -3.0064130454453739 0 0 0 0 -122.13859438205736 -5.9723929456958205 0 -5.9723929456958205 -58.112473206144479 0 0 0 0 -124.23858958778146 -14.559998734753229 0 -14.559998734753229 -0.29684435609208748 0 0 0 0 -114.90583002139101 -23.902847007703425 0 -23.902847007703425 -1.4770178673997592 0 0 0 0 -100.56047413786791 -17.031149437788383 0 -17.031149437788383 -14.255781079629045 0 0 0 0 -126.00935123776662 -5.7993849060639979 0 -5.7993849060639979 7.728124590131273 0 0 0 0 -101.2804717698491 -2.0403704899446709 0 -2.0403704899446709 7.3497254738030549 0 0 0 0 -98.986918224070905 -18.098793167337302 0 -18.098793167337302 0.60300415579770394 0 0 0 0 -94.046090356669083 -8.3186173012606144 0 -8.3186173012606144 4.6900513449898291 0 0 0 0 -108.21586882809243 -12.664680929713967 0 -12.664680929713967 3.3621190937555987 0 0 0 0 -97.692056222027531 -13.541208766542246 0 -13.541208766542246 -0.27010986719665997 0 0 0 0 -97.78680922363128 -4.1305915323143916 0 -4.1305915323143916 4.4790229717619212 0 0 0 0 -94.686471453627746 -2.5953717017128604 0 -2.5953717017128604 4.5650807013175694 0 0 0 0 -97.921486298731907 -3.2206911571961427 0 -3.2206911571961427 4.5948154204908453 0 0 0 0 -93.07754755359565 -3.1544713829804101 0 -3.1544713829804101 3.3191528403052928 0 0 0 0 -90.321236562238482 -2.1299955714041019 0 -2.1299955714041019 1.3231608053511508 0 0 0 0 -91.600507915944036 -1.3447912514511593 0 -1.3447912514511593 2.3220192024944435 0 0 0 0 -90.012641797380638 -1.087830186683945 0 -1.087830186683945 2.3572062391977937 0 0 0 0 -96.745542154127179 2.4087416418828944 0 2.4087416418828944 5.0675477187917295 0 0 0 0 -85.352049079665449 3.8782919239217755 0 3.8782919239217755 -3.6955143531507062 0 0 0 0 -69.682726601251488 -0.95433565443889279 0 -0.95433565443889279 -3.1114841927840757 0 0 0 0 -0.7016743704146009 -0.45853839591615397 0 -0.45853839591615397 0.17893775913950105 0 0 0 0 -69.625602167057878 -1.4265201861816434 0 -1.4265201861816434 0.46750928283711346 0 0 0 0 -8.120598929011976 8.0113146468444327 0 8.0113146468444327 -11.010450108177011 0 0 0 0 -75.739770891863373 -8.9271030062880534 0 -8.9271030062880534 3.7429151142964088 0 0 0 0 -59.113752887729788 7.7323914433899503 0 7.7323914433899503 8.4112665827321962 0 0 0 0 -0.61790215154690387 0.35262408452720351 0 0.35262408452720351 0.74182047647020832 0 0 0 0 -89.881816786646596 -1.6054544546121345 0 -1.6054544546121345 1.9324161925325214 0 0 0 0 -0.054769244185397192 -0.091140832926377868 0 -0.091140832926377868 0.081006370814151268 0 0 0 0 -1.097151943577046 -1.7319279360757349 0 -1.7319279360757349 -2.5137530837538407 0 0 0 0 -7.3075801059185324 4.1621941545165271 0 4.1621941545165271 -4.4875562855015048 0 0 0 0 -90.282085542907225 -1.6078372302989941 0 -1.6078372302989941 3.1440495204071226 0 0 0 0 -7.0399183651861676 1.832802636688406 0 1.832802636688406 1.7096624881104958 0 0 0 0 -82.740633202372919 -5.6784227861970908 0 -5.6784227861970908 -0.32414680382131777 0 0 0 0 2.1543996568361763 -1.9200118343065569 0 -1.9200118343065569 -23.458971706444828 0 0 0 0 -0.35837775102153491 -0.20978818972837487 0 -0.20978818972837487 0.22807919077404296 0 0 0 0 -0.44880499527421591 0.64842492920535477 0 0.64842492920535477 0.18955982237028968 0 0 0 0 -89.901837900437386 -2.5770643448992754 0 -2.5770643448992754 1.3170958528169834 0 0 0 0 -94.325635813518602 -3.2702427804268961 0 -3.2702427804268961 3.3203818214632754 0 0 0 0 -90.876738438582834 -5.2993262024422139 0 -5.2993262024422139 3.6404466748894926 0 0 0 0 -90.725347308756682 -11.153405773408036 0 -11.153405773408036 -3.2880271878531069 0 0 0 0 -90.402803415770904 -8.8769488718956744 0 -8.8769488718956744 1.2026423902076164 0 0 0 0 -95.613437976870046 -4.8302145755546277 0 -4.8302145755546277 3.7177186060167937 0 0 0 0 -98.539649506270507 -9.6477226038083401 0 -9.6477226038083401 1.5814507411619427 0 0 0 0 -0.3885754350073487 0.36247850567003326 0 0.36247850567003326 -0.13620585295730125 0 0 0 0 -56.767559470212291 -21.761833627741041 0 -21.761833627741041 6.1531809538048208 0 0 0 0 -47.336502177266084 -0.772157020587386 0 -0.772157020587386 6.0786884281779265 0 0 0 0 -85.239881877305379 -9.7972566693064724 0 -9.7972566693064724 0.81352769459947794 0 0 0 0 -94.606442901698756 -4.217426594584186 0 -4.217426594584186 3.9968486369797152 0 0 0 0 -94.107567863120494 -4.414397371571809 0 -4.414397371571809 3.8186300735356395 0 0 0 0 -96.570670975208486 -5.8800592902475888 0 -5.8800592902475888 2.3498431360451124 0 0 0 0 -94.676082472733469 -3.589861355082554 0 -3.589861355082554 2.7293546235083515 0 0 0 0 -94.364455797111077 -5.1400877680443493 0 -5.1400877680443493 1.7686353915596844 0 0 0 0 -83.767258861733353 -6.1834734796881436 0 -6.1834734796881436 1.1141185454869014 0 0 0 0 -85.534449741837307 -7.4041965014851057 0 -7.4041965014851057 -2.6812759889758064 0 0 0 0 -84.629881330312855 -4.8757331558418109 0 -4.8757331558418109 2.7226875764687115 0 0 0 0 -93.90549661105797 -1.3182578187931471 0 -1.3182578187931471 0.46499476024027153 0 0 0 0 -94.044334782526448 -9.2275662562058152 0 -9.2275662562058152 1.8243104690753658 0 0 0 0 -94.242935183875034 -7.779549282332388 0 -7.779549282332388 -8.6558700072432195 0 0 0 0 -77.829073447751284 -9.8865140601260588 0 -9.8865140601260588 0.035862271997306294 0 0 0 0 -85.418663273547281 -6.2032505764581911 0 -6.2032505764581911 -0.0084200822870323551 0 0 0 0 -5.4641179847103558 0.69492635287900439 0 0.69492635287900439 3.2756104325731883 0 0 0 0 -0.30459586038145092 -0.03272331321943156 0 -0.03272331321943156 0.28627748798848296 0 0 0 0 -27.25190797784694 -8.9111390032527495 0 -8.9111390032527495 -6.7017451359395963 0 0 0 0 0.25192372773926763 -0.20523618433115409 0 -0.20523618433115409 -6.8353636069897821 0 0 0 0 -57.180657487406279 -7.1095255132773953 0 -7.1095255132773953 6.6284235045874809 0 0 0 0 -55.146743863035226 1.8549677674557437 0 1.8549677674557437 5.5235250325044944 0 0 0 0 -95.513291541154103 -5.5933290491123921 0 -5.5933290491123921 -1.6735893738519039 0 0 0 0 -0.1314869738161395 0.089007501982536041 0 0.089007501982536041 -0.063713171359049053 0 0 0 0 -103.6149531226547 -18.670980660068651 0 -18.670980660068651 -7.4806339821315859 0 0 0 0 -138.22196098477798 -13.489997101423491 0 -13.489997101423491 2.92286601998401 0 0 0 0 -113.30277652670338 -3.9901519499548979 0 -3.9901519499548979 1.2840801471073782 0 0 0 0 -105.89609648673286 -0.82112127871106111 0 -0.82112127871106111 -5.760350298806669 0 0 0 0 -86.049321947801218 -11.61489299662788 0 -11.61489299662788 0.024103704950339908 0 0 0 0 -27.051890059368816 19.290558460676309 0 19.290558460676309 -9.3267755794892899 0 0 0 0 -47.993498607820186 -5.7612171082192836 0 -5.7612171082192836 -3.4879062729483863 0 0 0 0 -0.054972819006327667 -0.042270684403117542 0 -0.042270684403117542 0.074014684810340042 0 0 0 0 -60.715188856189343 1.2396139848434586 0 1.2396139848434586 0.00058588092325723715 0 0 0 0 -86.099404070184391 -7.0310353139937298 0 -7.0310353139937298 5.6678597985340851 0 0 0 0 -79.004308808249334 -0.72864202049473903 0 -0.72864202049473903 3.9304602936534283 0 0 0 0 -59.153050927212462 -2.5292254907713101 0 -2.5292254907713101 1.2881448208092969 0 0 0 0 -79.158274087480095 -4.8460779202304831 0 -4.8460779202304831 8.0281598108204619 0 0 0 0 -80.090447026020229 -0.32213875183209861 0 -0.32213875183209861 1.8040937807892412 0 0 0 0 -59.349445215817468 -9.0788276177376162 0 -9.0788276177376162 2.9305881846666608 0 0 0 0 -106.11247398378691 11.619564150870787 0 11.619564150870787 2.8311026504542518 0 0 0 0 -96.513501187364454 9.1735649718947148 0 9.1735649718947148 1.2246460235542758 0 0 0 0 -95.583130143291783 -2.1751680688851973 0 -2.1751680688851973 9.7143345096275411 0 0 0 0 -103.5504859626526 12.864319967057497 0 12.864319967057497 0.52973514452880721 0 0 0 0 -91.420498183264954 5.6844725526298836 0 5.6844725526298836 0.012121187205215276 0 0 0 0 -103.28317110252465 2.5564726654874548 0 2.5564726654874548 3.0049628512834126 0 0 0 0 -99.520555990330195 5.7655737757039027 0 5.7655737757039027 -10.043428067591549 0 0 0 0 -99.965557411876262 11.565727069200577 0 11.565727069200577 -12.629777908830151 0 0 0 0 -112.03539863051628 18.549075753278636 0 18.549075753278636 4.9852144728411609 0 0 0 0 -55.446587840689972 4.7237545763308759 0 4.7237545763308759 -0.0020777056862285558 0 0 0 0 -0.23827021298877504 0.18924013767476922 0 0.18924013767476922 -0.4021317820398464 0 0 0 0 -140.97222849134414 15.739075919872626 0 15.739075919872626 12.043308906235978 0 0 0 0 -30.651132893244721 10.348082310654277 0 10.348082310654277 11.321394626261892 0 0 0 0 -25.775240745366318 2.9535749958547144 0 2.9535749958547144 11.989865277996346 0 0 0 0 -10.278442307717341 23.743028060373103 0 23.743028060373103 -22.653880786470125 0 0 0 0 -109.59031583987962 20.097763540377787 0 20.097763540377787 -16.647444976070403 0 0 0 0 -110.60336613937397 9.5671324048875412 0 9.5671324048875412 0.51918441054358766 0 0 0 0 -120.83271864660128 13.602917286496726 0 13.602917286496726 6.2458531744724155 0 0 0 0 -128.90858184914032 27.058757280976941 0 27.058757280976941 -2.385899650835789 0 0 0 0 -108.39733312548196 11.14366332759737 0 11.14366332759737 3.0130035972804095 0 0 0 0 -110.04634532555792 16.084127672565728 0 16.084127672565728 -3.4811258162546856 0 0 0 0 -106.301450196519 12.997891807022832 0 12.997891807022832 1.9177485383799748 0 0 0 0 -111.73186236306265 9.8664647801451224 0 9.8664647801451224 0.39052659723067507 0 0 0 0 -122.30505296856427 -1.5162027136729535 0 -1.5162027136729535 2.1476263087988343 0 0 0 0 -111.23785622229479 7.8550818005883656 0 7.8550818005883656 8.5730402164400097 0 0 0 0 -89.605331320766709 -18.646704923990661 0 -18.646704923990661 11.114531941998237 0 0 0 0 -97.800777172098606 1.495377073460844 0 1.495377073460844 -17.270522407869052 0 0 0 0 -102.64963500519298 7.7960933683990739 0 7.7960933683990739 0.57371986824539078 0 0 0 0 -31.052531702682472 -5.7335445620902181 0 -5.7335445620902181 -4.8411765269786429 0 0 0 0 -142.52196267171212 2.7662394860714281 0 2.7662394860714281 27.759696486986201 0 0 0 0 -0.02647116507503533 -0.039935117162297473 0 -0.039935117162297473 0.20028121659241882 0 0 0 0 -122.68257013579205 -1.9340267779082865 0 -1.9340267779082865 24.725652621682407 0 0 0 0 -133.45749837662515 -12.239831844169824 0 -12.239831844169824 51.649835667739126 0 0 0 0 -113.89868296627901 -68.154206553425027 0 -68.154206553425027 57.523606309231894 0 0 0 0 -137.58952508069706 -27.227732984407886 0 -27.227732984407886 -172.72170057915537 0 0 0 0 -37.285499600071489 -8.3324746550559041 0 -8.3324746550559041 3.6069397937109215 0 0 0 0 -0.19539454706093906 0.55975304699307316 0 0.55975304699307316 -0.62958403568492149 0 0 0 0 -118.28892602778433 -110.24525741104348 0 -110.24525741104348 -28.700811126504718 0 0 0 0 -28.523327755632636 -16.014608343930576 0 -16.014608343930576 -0.14205470115769003 0 0 0 0 -56.684642642827384 -61.489790155993724 0 -61.489790155993724 -101.87687039787249 0 0 0 0 -84.973877742519107 2.7103435586694005 0 2.7103435586694005 -21.147654872094378 0 0 0 0 -41.213634241976251 -29.990373630601987 0 -29.990373630601987 -41.346630735402428 0 0 0 0 -106.9546660114629 -48.925320052721148 0 -48.925320052721148 -40.261269514152531 0 0 0 0 -59.805746844653186 8.3151383401164622 0 8.3151383401164622 -33.473061087380188 0 0 0 0 -104.80889811532325 20.552227922333529 0 20.552227922333529 -21.110473941494888 0 0 0 0 -84.5486299923042 14.202754675878039 0 14.202754675878039 -26.39437310289955 0 0 0 0 -105.42074630160278 19.991620621813261 0 19.991620621813261 -30.939085837168371 0 0 0 0 -118.03668008401291 -2.305011181543378 0 -2.305011181543378 -34.627813769626592 0 0 0 0 -171.21567996566591 1.7450929969012456 0 1.7450929969012456 -12.530705951042677 0 0 0 0 -34.352356809655248 -37.477048060531047 0 -37.477048060531047 -20.720582199660981 0 0 0 0 -96.197734463519737 -40.601262214511593 0 -40.601262214511593 2.222774872762372 0 0 0 0 -136.65171364620983 12.712819495126068 0 12.712819495126068 5.5179088943321233 0 0 0 0 -80.83696915514156 -1.0836677968711399 0 -1.0836677968711399 7.5772899476291897 0 0 0 0 -106.82323331711814 6.7558292260879043 0 6.7558292260879043 7.3209876740006568 0 0 0 0 -85.753311273580039 -7.6190918858665828 0 -7.6190918858665828 6.330052487686558 0 0 0 0 -103.84030524053014 14.537032037120103 0 14.537032037120103 -1.5838910580230561 0 0 0 0 -108.0261815525464 17.631660233776252 0 17.631660233776252 -10.058909045474977 0 0 0 0 -103.70935004068087 10.607655095076305 0 10.607655095076305 -5.4753470721755946 0 0 0 0 -0.1026469523381822 -0.066168118555900435 0 -0.066168118555900435 -0.15306688571063476 0 0 0 0 -77.477583105472149 -4.9407016290797428 0 -4.9407016290797428 11.335459211544986 0 0 0 0 -45.302007931546541 -7.2896375356354799 0 -7.2896375356354799 9.9815120036497298 0 0 0 0 -0.10804071342252462 -0.019187283067871874 0 -0.019187283067871874 -0.048838814495910654 0 0 0 0 -50.239608150675807 -3.3687303046797887 0 -3.3687303046797887 6.9263176670532207 0 0 0 0 -39.8210343527644 -2.6164218843736879 0 -2.6164218843736879 0.0038984884038356536 0 0 0 0 -29.576755118898291 -7.5216476989550234 0 -7.5216476989550234 0.9437739534014602 0 0 0 0 -30.054094089566206 -14.983885391756258 0 -14.983885391756258 -0.51743340533977111 0 0 0 0 -45.486207619207562 -8.5565476038114774 0 -8.5565476038114774 1.818484132910609 0 0 0 0 -47.466669768842621 -29.453418036717423 0 -29.453418036717423 7.4396671573245232 0 0 0 0 -17.925161239389126 -12.616833049158034 0 -12.616833049158034 -0.88980567297532298 0 0 0 0 -22.784099414377124 -11.259462884326044 0 -11.259462884326044 0.30942882287365414 0 0 0 0 -11.57443443520242 -1.0672776565910758 0 -1.0672776565910758 1.3154670698066473 0 0 0 0 -10.999802890582941 0.15449146214974441 0 0.15449146214974441 2.7265011785074211 0 0 0 0 -18.000772230045641 -1.0400397557423213 0 -1.0400397557423213 3.5218516416367525 0 0 0 0 -20.157370503566199 -4.949025510018001 0 -4.949025510018001 -1.8083711855559628 0 0 0 0 -17.077813948049879 -6.6933825417013129 0 -6.6933825417013129 -1.1967702212480693 0 0 0 0 -23.458360783814896 -2.1269808521460569 0 -2.1269808521460569 -0.016195170250197396 0 0 0 0 -29.63716780802406 -7.0582178274683933 0 -7.0582178274683933 -1.9314449736092403 0 0 0 0 -27.844034098285192 1.4399676331488243 0 1.4399676331488243 -2.8001259662411924 0 0 0 0 -33.451110127847642 17.804321422845923 0 17.804321422845923 -13.865413592297644 0 0 0 0 -16.753705230097694 3.0967334941474913 0 3.0967334941474913 -6.108822973036566 0 0 0 0 -15.093280284989305 -1.6518361186583892 0 -1.6518361186583892 -2.8757886974947429 0 0 0 0 -23.633233136319177 3.1590252129319314 0 3.1590252129319314 7.723483945776433 0 0 0 0 -9.2757554327290563 3.6431029313956258 0 3.6431029313956258 4.7356042428493428 0 0 0 0 -14.607308047401602 4.4135384363048002 0 4.4135384363048002 8.8562845670651917 0 0 0 0 -2.3607912045081321 18.727611929032285 0 18.727611929032285 9.9919398814388956 0 0 0 0 -18.99442389309479 16.5022362741474 0 16.5022362741474 17.216474111222666 0 0 0 0 12.409011380466836 12.750098886197428 0 12.750098886197428 2.2950376888526396 0 0 0 0 -8.5430490227918199 5.2360106787361262 0 5.2360106787361262 8.4463508592986258 0 0 0 0 -4.9352534344084233 3.9557815430289294 0 3.9557815430289294 7.1978154428687837 0 0 0 0 -4.240023059406667 4.6824794235752094 0 4.6824794235752094 6.5278399067053119 0 0 0 0 -2.7537225003561616 1.3744353871557569 0 1.3744353871557569 2.8725543716417246 0 0 0 0 -12.286587444590623 -1.8757474316835978 0 -1.8757474316835978 6.4648488171839222 0 0 0 0 -6.2305544092378113 -1.3260626607896375 0 -1.3260626607896375 2.2450492712551391 0 0 0 0 -11.099585533313075 1.5824444625032688 0 1.5824444625032688 5.5810106503797012 0 0 0 0 0.12977903113747757 -0.080271592149884441 0 -0.080271592149884441 0.65638074571871019 0 0 0 0 -28.153713937696352 -3.6618413810295971 0 -3.6618413810295971 -0.38978666060302203 0 0 0 0 -8.3661938343357178 1.6101932231218012 0 1.6101932231218012 5.3207632871019372 0 0 0 0 -8.303920392814689 2.166309549440562 0 2.166309549440562 7.8513090135353378 0 0 0 0 4.7224534675260657 -8.2993704676213031 0 -8.2993704676213031 6.9934071554555048 0 0 0 0 -8.2830500947202381 -1.2073519190287438 0 -1.2073519190287438 7.183751429767014 0 0 0 0 -6.2416400220317882 1.145832821738102 0 1.145832821738102 6.3810983070111966 0 0 0 0 -6.999723026783613 1.8062539270388591 0 1.8062539270388591 10.843270426244628 0 0 0 0 -3.4315848553887918 -2.981690335713937 0 -2.981690335713937 13.924774230626909 0 0 0 0 -2.1593209139136889 -2.6133150941548173 0 -2.6133150941548173 8.2719468626285657 0 0 0 0 -2.6029015005733527 -3.7693431789510985 0 -3.7693431789510985 7.975687168571179 0 0 0 0 -10.837421193813498 1.6287672187370461 0 1.6287672187370461 8.3219575024519887 0 0 0 0 -6.8676162219962862 0.96396646153587473 0 0.96396646153587473 8.026523648990878 0 0 0 0 -15.017987490033192 -1.7286009305090002 0 -1.7286009305090002 5.4156312146762406 0 0 0 0 -7.7499586851517961 1.6635157952698338 0 1.6635157952698338 6.0903947765233797 0 0 0 0 -11.326833218150568 -3.0920798818616935 0 -3.0920798818616935 8.2795401919587341 0 0 0 0 17.010226665139726 -24.652490725803716 0 -24.652490725803716 2.4076778240209031 0 0 0 0 -0.41752701472165654 -0.31170847974680171 0 -0.31170847974680171 -0.12204228334055409 0 0 0 0 -0.57436309157856158 -6.4728915063878567 0 -6.4728915063878567 0.78906609527986959 0 0 0 0 -19.15749452140517 -29.067382885766978 0 -29.067382885766978 5.4014751887776962 0 0 0 0 3.3378090865426202 0.96014490119019325 0 0.96014490119019325 10.100325979811974 0 0 0 0 -62.072036378585835 23.661942091167219 0 23.661942091167219 7.2184501619586214 0 0 0 0 -70.775096237606704 15.67608113023546 0 15.67608113023546 9.441134966590397 0 0 0 0 -55.557872210983987 9.3025783106568678 0 9.3025783106568678 0.059773782279755494 0 0 0 0 -0.070242410201165187 -0.1058327326843127 0 -0.1058327326843127 -0.10419813929909416 0 0 0 0 -47.169435731024784 1.8589501311915453 0 1.8589501311915453 -38.184302167553923 0 0 0 0 -113.93268735015408 37.158692482551345 0 37.158692482551345 11.017396639534013 0 0 0 0 -109.00894252368562 -13.784895658607859 0 -13.784895658607859 31.030526846719255 0 0 0 0 -107.7356968553031 -71.253343278613045 0 -71.253343278613045 -28.391419233952291 0 0 0 0 -30.087177500890903 -23.142998511139446 0 -23.142998511139446 -27.285213931590931 0 0 0 0 -0.57728703570890616 0.19477149886337486 0 0.19477149886337486 -0.027138638897608924 0 0 0 0 -10.415080908333493 44.675495004479806 0 44.675495004479806 23.288274209641088 0 0 0 0 -0.53561936962453771 -0.69863795217451141 0 -0.69863795217451141 -0.6221441579131981 0 0 0 0 -35.353260022949598 -30.398152077692234 0 -30.398152077692234 -18.00331863987509 0 0 0 0 -83.988453767462488 28.419630009738 0 28.419630009738 3.9620475682623351 0 0 0 0 -0.92736865539700375 9.5785655981324425 0 9.5785655981324425 -20.458385166605865 0 0 0 0 -33.27471897812211 31.59164842083328 0 31.59164842083328 9.9615155673699292 0 0 0 0 -2.0472307522338724 -0.67317691875928531 0 -0.67317691875928531 -0.2682140505843052 0 0 0 0 0.23602676721179705 3.2159445135086457 0 3.2159445135086457 1.1422840950435216 0 0 0 0 -3.0420271305301867 3.0859995859142941 0 3.0859995859142941 1.1510391905043491 0 0 0 0 -8.7382945422741614 -3.4452109833040296 0 -3.4452109833040296 1.9499707203015069 0 0 0 0 1.9800282032829273 0.12175188820474347 0 0.12175188820474347 0.16024502341779012 0 0 0 0 -4.5831459573273605 -3.1365175451101632 0 -3.1365175451101632 5.4518370623000294 0 0 0 0 -9.619058522839623 -6.7133454391082505 0 -6.7133454391082505 -0.10303168373913874 0 0 0 0 -5.5634815723033171 0.19987558136790895 0 0.19987558136790895 -2.9806419179593586 0 0 0 0 -36.871814983947843 2.6821876133468834 0 2.6821876133468834 2.8152666989952877 0 0 0 0 -18.350941202133981 -15.167515654453524 0 -15.167515654453524 -9.3745686315169792 0 0 0 0 -18.522688018570307 -7.0311702153886504 0 -7.0311702153886504 -2.9379583235715927 0 0 0 0 -27.06561339275504 -9.7152307677932868 0 -9.7152307677932868 0.96148911033037621 0 0 0 0 -56.96308818250418 -13.998194748189519 0 -13.998194748189519 1.4518238568164179 0 0 0 0 -1.777049206240763 -0.31651534559489747 0 -0.31651534559489747 -0.25509888464626251 0 0 0 0 -1.6605693038641007 -0.67335277417474515 0 -0.67335277417474515 1.0594231552254256 0 0 0 0 -25.06430687217653 -5.9398941699956822 0 -5.9398941699956822 3.0285682713736151 0 0 0 0 -26.340122895140667 -3.2916847120429793 0 -3.2916847120429793 3.2206132861238075 0 0 0 0 -17.382711935933912 -8.1538504071119178 0 -8.1538504071119178 1.2521409860482891 0 0 0 0 -101.55899618920375 10.459719942714059 0 10.459719942714059 0.9616024547822235 0 0 0 0 -31.881311329916571 -16.588735663226998 0 -16.588735663226998 -10.036668916056442 0 0 0 0 -43.275379330658325 -25.803627689268183 0 -25.803627689268183 -17.338586060017519 0 0 0 0 -0.70729861911808456 -1.3645044381679288 0 -1.3645044381679288 -1.0321294172458098 0 0 0 0 -70.376815769410314 -55.810945872959906 0 -55.810945872959906 -39.557404879385103 0 0 0 0 -23.058337251912235 -14.544257888074668 0 -14.544257888074668 -11.067968649101886 0 0 0 0 -18.651060590550514 0.10584152677041914 0 0.10584152677041914 -6.429514195126103 0 0 0 0 -7.5769370973467289 -6.1827456822331976 0 -6.1827456822331976 -3.4495778106544255 0 0 0 0 -8.9604018700401085 -5.3088379665906444 0 -5.3088379665906444 -0.10936173108752278 0 0 0 0 -8.9063402455722098 -6.2521884752559345 0 -6.2521884752559345 0.36882127517128538 0 0 0 0 -33.458666881517274 -4.1132743692360236 0 -4.1132743692360236 -5.8802481011753116 0 0 0 0 -13.360390764325178 -5.5767465794151772 0 -5.5767465794151772 -2.0057775895424967 0 0 0 0 -17.313650422747742 -15.356612980939644 0 -15.356612980939644 -7.8668097419067635 0 0 0 0 -5.6978734501366493 -5.3647261511039694 0 -5.3647261511039694 -3.5806999133897293 0 0 0 0 -1.6158675039187074 -4.3401805573898855 0 -4.3401805573898855 -0.3258337427398601 0 0 0 0 -6.9251300960175115 -8.9141201387874371 0 -8.9141201387874371 -3.971787719088848 0 0 0 0 -38.645461299565795 -13.283505266430893 0 -13.283505266430893 -8.057895551046272 0 0 0 0 -42.273821997290725 -6.2794536561291352 0 -6.2794536561291352 -4.3909538807511126 0 0 0 0 -65.441490517515831 -18.07481332631329 0 -18.07481332631329 -0.58596985338090235 0 0 0 0 -51.259462727332902 -15.039682602353309 0 -15.039682602353309 -8.0721931848615895 0 0 0 0 2.1472020343725653 -8.2167421041718942 0 -8.2167421041718942 -7.6654648944915236 0 0 0 0 -46.283941569392482 1.1620040709912018 0 1.1620040709912018 -4.8165627244618463 0 0 0 0 -31.001732429398544 -10.49938899153517 0 -10.49938899153517 -7.2203423389547083 0 0 0 0 -47.910322642459505 -22.031536536040676 0 -22.031536536040676 -2.7609237291053432 0 0 0 0 -3.6735294780661452 -1.786914009868255 0 -1.786914009868255 -0.83186622443494684 0 0 0 0 -26.55130226551546 -8.8415887230095223 0 -8.8415887230095223 -0.023273115312349546 0 0 0 0 -37.402436251661129 -28.586094303640493 0 -28.586094303640493 -7.1398441425089914 0 0 0 0 -11.97493324779316 -10.341412674529693 0 -10.341412674529693 -4.4027833863478918 0 0 0 0 -23.937754776055954 -6.1618702760010819 0 -6.1618702760010819 -0.70533020882885467 0 0 0 0 -23.873563472228852 16.134029030230849 0 16.134029030230849 31.904080091864884 0 0 0 0 -23.034699293705671 -9.4105650573997082 0 -9.4105650573997082 -1.8609855346953736 0 0 0 0 -20.758504231438561 -3.6728621207655614 0 -3.6728621207655614 2.582283430665623 0 0 0 0 -12.651331093796884 -2.9997271273961239 0 -2.9997271273961239 2.3741537376968571 0 0 0 0 -20.554317476215147 -9.8984736832187536 0 -9.8984736832187536 2.1730360825640673 0 0 0 0 -18.824322035741716 -8.8508210852951379 0 -8.8508210852951379 -2.4024955456034149 0 0 0 0 -16.993460433648579 -17.307713241348438 0 -17.307713241348438 1.6349328751293797 0 0 0 0 -17.455380624187455 -17.83356000423737 0 -17.83356000423737 5.1108402563000936 0 0 0 0 -27.11383688391652 -8.8834175855017747 0 -8.8834175855017747 18.18017046280147 0 0 0 0 -20.925113033719299 -9.7885128414574183 0 -9.7885128414574183 11.257755034233014 0 0 0 0 -27.726950207355912 -18.278277683186388 0 -18.278277683186388 11.030450625925425 0 0 0 0 -46.997223670264248 -8.5157405959527921 0 -8.5157405959527921 27.573623571855009 0 0 0 0 -22.362418820339673 -4.1143371504476773 0 -4.1143371504476773 2.0044699303085634 0 0 0 0 -101.88239490870183 35.254574113469076 0 35.254574113469076 3.3915486928034255 0 0 0 0 -111.54650258116089 27.843767528316761 0 27.843767528316761 -4.1565426174854494 0 0 0 0 -131.73618268251084 12.228294062521655 0 12.228294062521655 4.6449528255219388 0 0 0 0 -144.61061732184135 31.249584673301534 0 31.249584673301534 -0.36137866371106853 0 0 0 0 -0.45981342787168344 0.016354934821514178 0 0.016354934821514178 -0.16950574021176579 0 0 0 0 -175.88451760712906 17.087709113909771 0 17.087709113909771 3.6941126845434269 0 0 0 0 -0.53542273973216226 -0.3682545854232373 0 -0.3682545854232373 -0.39686278106862161 0 0 0 0 -153.5438460631558 16.725471478672219 0 16.725471478672219 1.0769127009507713 0 0 0 0 -2.1346425483397979 -2.194943779024694 0 -2.194943779024694 -2.5847482222917506 0 0 0 0 -186.9769021342654 33.861219992433668 0 33.861219992433668 1.3429871952540395 0 0 0 0 -151.40714406365078 30.888664774829053 0 30.888664774829053 -10.515171136677537 0 0 0 0 -114.31776882710619 25.755840883121309 0 25.755840883121309 -8.9489131581588026 0 0 0 0 -105.95479979106358 7.2947974547240175 0 7.2947974547240175 0.69321169361373336 0 0 0 0 -104.99363194691614 7.4325352760438363 0 7.4325352760438363 -25.795844477095422 0 0 0 0 -76.147141258223201 31.731206139124033 0 31.731206139124033 -10.452145997457109 0 0 0 0 -65.409662255118747 7.311641081981378 0 7.311641081981378 -33.258291658391762 0 0 0 0 -33.331650262669427 42.465590733024065 0 42.465590733024065 2.2172863198271955 0 0 0 0 -187.22682987812004 65.568073637147137 0 65.568073637147137 41.439576386574913 0 0 0 0 -6.0058734510112117 -13.583413025039462 0 -13.583413025039462 -71.82443974011484 0 0 0 0 -0.63342610929395704 -0.5374856194355111 0 -0.5374856194355111 -0.50886942100751853 0 0 0 0 -198.13863887748084 25.230771045885476 0 25.230771045885476 66.686677115484713 0 0 0 0 -99.093931749921467 17.61969955763044 0 17.61969955763044 -15.242900560845015 0 0 0 0 -91.103601567810983 -39.438956516692599 0 -39.438956516692599 50.671975954781558 0 0 0 0 -38.591003949601145 -13.708885830678582 0 -13.708885830678582 -2.2458745767770552 0 0 0 0 -77.575607451854012 -35.410969231648608 0 -35.410969231648608 -8.9919214048437652 0 0 0 0 -30.925719114586627 -34.0413983251551 0 -34.0413983251551 -2.9237419933474484 0 0 0 0 -52.306763365550069 20.006110047730154 0 20.006110047730154 -14.203497787953449 0 0 0 0 -1.2496201359750749 -1.4398681023422704 0 -1.4398681023422704 -1.4486833289926142 0 0 0 0 -50.279062990994134 -9.1328153198787536 0 -9.1328153198787536 5.616996300794094 0 0 0 0 -10.259402355404745 9.9674072750837013 0 9.9674072750837013 -6.9925244120457819 0 0 0 0 18.642296388291584 -17.099867371490497 0 -17.099867371490497 -5.8890775494489844 0 0 0 0 18.462146192131456 -22.845734953285387 0 -22.845734953285387 9.3986304142727022 0 0 0 0 -46.952474571662606 -5.6876872334134987 0 -5.6876872334134987 15.805093965214326 0 0 0 0 -112.29854771316241 -10.782176026838528 0 -10.782176026838528 3.0283577571135538 0 0 0 0 -46.152489659558341 -1.1536940851748341 0 -1.1536940851748341 -43.481391099466236 0 0 0 0 -59.346817214702241 -5.295911039380087 0 -5.295911039380087 1.7299097522045486 0 0 0 0 -55.702859610742053 -1.0879640167398463 0 -1.0879640167398463 6.7543286323532357 0 0 0 0 -56.019619616730779 -6.4543987566131591 0 -6.4543987566131591 1.354038858752574 0 0 0 0 -43.53149626342929 5.9379836398396719 0 5.9379836398396719 7.2353769294205676 0 0 0 0 -58.897197963216513 2.240758292465415 0 2.240758292465415 13.713441080279608 0 0 0 0 -51.096145342893578 7.382180950578686 0 7.382180950578686 11.363087361834573 0 0 0 0 -47.494321915044566 3.1440259236628663 0 3.1440259236628663 0.89619658334299857 0 0 0 0 -38.267708927658532 -7.6428581747961744 0 -7.6428581747961744 8.5222585687008632 0 0 0 0 16.755100032412884 -15.996495383682941 0 -15.996495383682941 -3.109091929592978 0 0 0 0 11.311678594425757 4.6453521337751198 0 4.6453521337751198 13.800201486732021 0 0 0 0 -226.72179376438908 90.145090515114845 0 90.145090515114845 -25.095832744364678 0 0 0 0 -175.74241258227994 60.379433967080018 0 60.379433967080018 -44.589170280448194 0 0 0 0 -202.30512922560592 53.079777030306531 0 53.079777030306531 -34.615550571690335 0 0 0 0 -0.30101894251840378 -0.40240174054640931 0 -0.40240174054640931 -0.39643414038996561 0 0 0 0 -180.5145187029957 68.322740233719912 0 68.322740233719912 -24.238998510920695 0 0 0 0 -1.3425547143764121 -1.5503933885181596 0 -1.5503933885181596 -2.369693470824815 0 0 0 0 -119.52750370177273 25.211592015320871 0 25.211592015320871 2.6010082864132151 0 0 0 0 -47.499225096413284 41.640611520665431 0 41.640611520665431 -43.244432590944058 0 0 0 0 -130.23926482015304 43.110895865411045 0 43.110895865411045 -15.489652135815263 0 0 0 0 -125.02521033946323 17.778487222625397 0 17.778487222625397 7.5325705718678613 0 0 0 0 -141.05908152083794 38.049742629343918 0 38.049742629343918 -10.459312646319724 0 0 0 0 -141.48008096517333 17.457863663189794 0 17.457863663189794 12.735493853420223 0 0 0 0 -128.46180963986626 10.988444105732647 0 10.988444105732647 2.6798875785518845 0 0 0 0 -152.00416165619026 31.874441383567628 0 31.874441383567628 0.9896336083770807 0 0 0 0 -164.62472368250747 35.914020958407512 0 35.914020958407512 -5.8665263369541591 0 0 0 0 -164.50879297157371 68.462188831012483 0 68.462188831012483 -40.387598101938167 0 0 0 0 -149.0978567584425 43.431519887443223 0 43.431519887443223 -24.676155182352375 0 0 0 0 -179.29336433108983 8.4810222816102367 0 8.4810222816102367 -35.843329283360674 0 0 0 0 -204.50353483971048 -17.925008548696248 0 -17.925008548696248 -27.284860968265772 0 0 0 0 -242.69001264045619 47.98630657189198 0 47.98630657189198 -6.0946823603529046 0 0 0 0 -255.14912599010677 12.490597842833834 0 12.490597842833834 -46.561973120923682 0 0 0 0 -176.25886170820377 -15.785767866245893 0 -15.785767866245893 -49.706123970276046 0 0 0 0 -190.61067043778348 38.342076975222739 0 38.342076975222739 -117.88008967164754 0 0 0 0 -150.80482597380797 -35.45150910857361 0 -35.45150910857361 -6.6910800455265331 0 0 0 0 -169.80473776481995 -83.620556886571705 0 -83.620556886571705 -72.797824806974802 0 0 0 0 -149.05074172784953 -42.060721039349332 0 -42.060721039349332 -25.12261158613321 0 0 0 0 -39.723175831313711 -19.187335935391687 0 -19.187335935391687 -83.706042776447106 0 0 0 0 -36.874337063442908 -33.804158512933483 0 -33.804158512933483 -15.527109767847664 0 0 0 0 -0.53167714879093708 -0.11568489090159417 0 -0.11568489090159417 -0.38500296180917376 0 0 0 0 14.070538995189736 22.52680862683642 0 22.52680862683642 -1.3944022191417211 0 0 0 0 -0.35152629491612331 0.69655759327537581 0 0.69655759327537581 -3.3302549410525786 0 0 0 0 8.4577361122173897 -14.995175405679234 0 -14.995175405679234 -2.3495920310184175 0 0 0 0 -25.588800219083168 29.046417178117927 0 29.046417178117927 9.8916119897718993 0 0 0 0 -43.569289870782086 -40.862502959896773 0 -40.862502959896773 -14.228983544720712 0 0 0 0 -143.24591937705736 29.454638879319532 0 29.454638879319532 43.365045512030235 0 0 0 0 76.058291250865295 14.244958753636865 0 14.244958753636865 -38.247820976689127 0 0 0 0 54.963425874759196 -57.340712627673724 0 -57.340712627673724 -68.191027801823793 0 0 0 0 -76.136421294570027 -41.765958573647481 0 -41.765958573647481 -8.3827666296614325 0 0 0 0 -0.81579578602526936 0.58686870895601118 0 0.58686870895601118 -0.36052500436001278 0 0 0 0 -9.900058120052563 32.011111590379301 0 32.011111590379301 7.9696975395529535 0 0 0 0 -45.879063868440426 22.418024838576571 0 22.418024838576571 10.846795236902381 0 0 0 0 -84.18107109719358 13.583548249059945 0 13.583548249059945 12.91661333586103 0 0 0 0 -56.136086922973846 -94.536649242982861 0 -94.536649242982861 -72.079780533927988 0 0 0 0 -27.6180277347421 -36.308788524330396 0 -36.308788524330396 -1.5513272500377298 0 0 0 0 -19.14757088803708 -15.588885410587238 0 -15.588885410587238 -71.29776485817024 0 0 0 0 -0.20013679635857784 1.013519135691002 0 1.013519135691002 -2.8906502612293008 0 0 0 0 43.392328913587335 42.430146155052512 0 42.430146155052512 -28.23334174878255 0 0 0 0 11.975323212782314 -4.7613314292109692 0 -4.7613314292109692 -45.237365052608048 0 0 0 0 -28.300981154194233 -6.6622556107704387 0 -6.6622556107704387 -7.1209996572849263 0 0 0 0 -51.303330610044213 -25.561201222037482 0 -25.561201222037482 -20.744714640390953 0 0 0 0 9.963290337491344 22.893531050364231 0 22.893531050364231 15.189264636220571 0 0 0 0 -35.79137753023133 -15.413763978761722 0 -15.413763978761722 4.5032721671684612 0 0 0 0 -23.457502942845167 17.417216692934176 0 17.417216692934176 28.857487632471305 0 0 0 0 1.7466158771621849 7.1686539868998693 0 7.1686539868998693 2.9974765535425831 0 0 0 0 -0.22873372553640792 0.4107642253695154 0 0.4107642253695154 -1.0304058533108682 0 0 0 0 -51.770298639628891 -87.856634935108147 0 -87.856634935108147 -27.065086875812312 0 0 0 0 7.4420399073878798 -5.2333340916891302 0 -5.2333340916891302 29.878317736693361 0 0 0 0 -4.6493815015892324 -11.164773636012114 0 -11.164773636012114 44.623583665584306 0 0 0 0 147.84958305991677 -67.564756921367177 0 -67.564756921367177 -128.69237720215415 0 0 0 0 -26.789052390424331 1.8474706872995341 0 1.8474706872995341 103.02126589583483 0 0 0 0 -4.8092106206477183 26.157921788673718 0 26.157921788673718 2.4717885706971288 0 0 0 0 -26.375774377685957 -49.961706446085088 0 -49.961706446085088 13.586923168279881 0 0 0 0 -165.99280646431725 4.7614101903321213 0 4.7614101903321213 9.2407326789029156 0 0 0 0 -150.82398272383875 54.196200435642474 0 54.196200435642474 39.655538423749078 0 0 0 0 -269.30144152793173 32.03254458357894 0 32.03254458357894 35.670557684233273 0 0 0 0 -51.693196060134483 -15.492810597332749 0 -15.492810597332749 -23.600492044323488 0 0 0 0 -46.2197860025625 -29.616045098559354 0 -29.616045098559354 -6.6996379822753624 0 0 0 0 -44.06262243920537 -48.097169866120566 0 -48.097169866120566 -3.8506123706811195 0 0 0 0 -45.465540417018019 -36.839756010976316 0 -36.839756010976316 6.2670077876841788 0 0 0 0 -1.52406953224272 -34.191734181813217 0 -34.191734181813217 -6.0733349132226522 0 0 0 0 -50.11519293255742 -44.976295365411943 0 -44.976295365411943 -0.36544452700718466 0 0 0 0 -42.303341704422564 -11.798370989831369 0 -11.798370989831369 19.677023082453161 0 0 0 0 -35.294023720806763 -26.097358102838257 0 -26.097358102838257 11.523302213459829 0 0 0 0 -23.766720663323213 -28.839584498956128 0 -28.839584498956128 8.9995660048866739 0 0 0 0 -18.167398871260957 -22.954826173033553 0 -22.954826173033553 5.4344127689726918 0 0 0 0 -17.022243396158956 -24.732647778794671 0 -24.732647778794671 4.5001850426601777 0 0 0 0 -4.3673056521165563 -23.788863216461323 0 -23.788863216461323 -0.10676740081316893 0 0 0 0 -20.917402911525642 -22.177493424540444 0 -22.177493424540444 5.3553958482489179 0 0 0 0 -10.41148516461908 -19.779639017743193 0 -19.779639017743193 2.0172770331064385 0 0 0 0 -10.33681549830726 -26.20002267651671 0 -26.20002267651671 2.7250464213443593 0 0 0 0 -0.15432094997559709 0.074069476481890106 0 0.074069476481890106 0.16952816390314229 0 0 0 0 76.310484235186777 -11.22928675291223 0 -11.22928675291223 -31.832853755627184 0 0 0 0 -1.8258376178308282 -16.010603659799489 0 -16.010603659799489 5.5828360953032643 0 0 0 0 -47.117188768411324 -0.47166956446471886 0 -0.47166956446471886 -28.103111272207684 0 0 0 0 5.7674017587809594 -8.1269294469642741 0 -8.1269294469642741 -3.2511595869151675 0 0 0 0 4.224805299678744 -8.4160835672200172 0 -8.4160835672200172 -5.7620901739543564 0 0 0 0 -46.281776272853676 -8.471877743007326 0 -8.471877743007326 -16.85445909286409 0 0 0 0 -68.163744099977521 -44.770148670092567 0 -44.770148670092567 2.2371549060344478 0 0 0 0 -2.0289612621181732 -14.787159380980029 0 -14.787159380980029 -3.292613443799155 0 0 0 0 0.33292909342875188 -0.026805119443533698 0 -0.026805119443533698 0.13861029362121613 0 0 0 0 -33.222134912823094 -16.393496646157814 0 -16.393496646157814 -5.0754865960593634 0 0 0 0 -39.236289356159432 -14.725389869886158 0 -14.725389869886158 -2.2569442344124582 0 0 0 0 -7.4629003282425401 1.9408761639103886 0 1.9408761639103886 -5.8489199637609772 0 0 0 0 -4.4425212531478095 0.71688783786101595 0 0.71688783786101595 -0.70660610511422695 0 0 0 0 7.6679997762294079 -15.710675210829891 0 -15.710675210829891 -9.4357823084047823 0 0 0 0 -25.708026951189822 -1.1577087834176609 0 -1.1577087834176609 13.230479982142697 0 0 0 0 -66.518646932330739 -27.657344826802102 0 -27.657344826802102 -17.323046297701467 0 0 0 0 -38.760248268415125 -63.378965130159571 0 -63.378965130159571 -48.77856000880513 0 0 0 0 -13.566617079159187 -19.076026259938317 0 -19.076026259938317 -25.590020860067568 0 0 0 0 -12.266960769735306 -34.937800608550788 0 -34.937800608550788 -52.826961121441286 0 0 0 0 -37.221400948183145 -31.336764892706242 0 -31.336764892706242 -11.816133299834064 0 0 0 0 -5.06114384153625 -6.3228340352305281 0 -6.3228340352305281 -22.767248705987271 0 0 0 0 -26.791473403243799 8.5977127943359335 0 8.5977127943359335 76.535480320841884 0 0 0 0 -16.423993022953958 -5.1254386693687799 0 -5.1254386693687799 -1.2309494442479274 0 0 0 0 -114.41675502517319 -97.105570351810115 0 -97.105570351810115 74.408526292512477 0 0 0 0 -16.424922318525205 3.1636604109443738 0 3.1636604109443738 41.531391175813383 0 0 0 0 0.6798280575658282 29.242365116430634 0 29.242365116430634 37.030197441762795 0 0 0 0 -34.404740876164396 -50.192667679881325 0 -50.192667679881325 26.978363423646016 0 0 0 0 26.167132181842135 -17.696101473321747 0 -17.696101473321747 -45.318805815230689 0 0 0 0 -96.31513887764504 -61.784488719051183 0 -61.784488719051183 -0.64415349416094614 0 0 0 0 0.69528078327572729 0.87786945943432571 0 0.87786945943432571 0.17502212819015694 0 0 0 0 -87.583895280116849 -57.62282067920421 0 -57.62282067920421 -35.347039690301727 0 0 0 0 8.533135514451299 -4.3794438655081294 0 -4.3794438655081294 -2.6340758657177648 0 0 0 0 7.2510470094021002 -7.1881750395303428 0 -7.1881750395303428 -13.064689131181694 0 0 0 0 8.8547978145543311 -24.009091835633171 0 -24.009091835633171 -42.757320600494495 0 0 0 0 11.516337343146006 -59.429739920690849 0 -59.429739920690849 -29.879017604324872 0 0 0 0 -11.441097203764002 -18.37838792982734 0 -18.37838792982734 -27.381834250560132 0 0 0 0 -18.86734045324987 -6.1640037845452724 0 -6.1640037845452724 -1.2854013840706626 0 0 0 0 0.15193043396327255 -1.0791552666320279 0 -1.0791552666320279 -1.1624948064659855 0 0 0 0 -6.0060242592274449 -0.038872845919353693 0 -0.038872845919353693 0.22605063034815442 0 0 0 0 -74.676892603865781 -16.254708448429255 0 -16.254708448429255 -6.2218382418340354 0 0 0 0 -18.506177138845487 -37.756713374700269 0 -37.756713374700269 -78.471801337888792 0 0 0 0 -90.587809537517387 -31.192480128814623 0 -31.192480128814623 -37.368069295382497 0 0 0 0 -22.603170117250556 -25.100239284447071 0 -25.100239284447071 -19.820777964574518 0 0 0 0 -35.273771371207658 -43.898430671918618 0 -43.898430671918618 -43.683416363428023 0 0 0 0 -85.422951937578546 -47.14271165649393 0 -47.14271165649393 -9.7975372149016948 0 0 0 0 55.884266553814086 -2.7846244656371937 0 -2.7846244656371937 -21.068957017458615 0 0 0 0 -51.199360570205727 -48.075245246605476 0 -48.075245246605476 12.542967309483629 0 0 0 0 -39.819877923931017 -63.926042660629264 0 -63.926042660629264 -26.515153975710518 0 0 0 0 -11.510910658056787 4.0317921004286461 0 4.0317921004286461 56.384135023775571 0 0 0 0 24.596781943904716 137.11755791464833 0 137.11755791464833 84.498435796856938 0 0 0 0 -239.38205058206404 -55.534264936515797 0 -55.534264936515797 164.32729868382424 0 0 0 0 47.445115999737254 68.253104108600155 0 68.253104108600155 -76.219212067302578 0 0 0 0 18.35914385593037 -59.979829527164355 0 -59.979829527164355 -152.77995179811205 0 0 0 0 -208.22837048586007 -147.69682839756501 0 -147.69682839756501 -53.673114440495624 0 0 0 0 -0.90856351057243501 -1.4959470626282068 0 -1.4959470626282068 -2.6516461896886856 0 0 0 0 114.73788209995655 -62.104561526176568 0 -62.104561526176568 -137.79375196437141 0 0 0 0 -306.61842908590916 -2.5889071252083795 0 -2.5889071252083795 15.805380267887131 0 0 0 0 77.514092030578468 -104.43952828340343 0 -104.43952828340343 -121.46922928901131 0 0 0 0 91.015439174500898 -49.677508499598389 0 -49.677508499598389 -65.597588715302209 0 0 0 0 74.306510536337896 -80.491308499755149 0 -80.491308499755149 -122.3997550821025 0 0 0 0 35.492033644757612 -47.939271728252606 0 -47.939271728252606 -40.677101424566615 0 0 0 0 73.024691698201423 -16.600240841016081 0 -16.600240841016081 13.464246552494927 0 0 0 0 116.0037249436009 -21.924382317186868 0 -21.924382317186868 -67.563194087401669 0 0 0 0 -3.0985694190688449 -4.6534956611695701 0 -4.6534956611695701 -6.2872673682949261 0 0 0 0 175.72502310314667 -103.12238728504266 0 -103.12238728504266 -0.6518585116291149 0 0 0 0 -44.993944779345384 -29.864351409625726 0 -29.864351409625726 7.2185885320766374 0 0 0 0 -49.844090319576026 -12.513853691382451 0 -12.513853691382451 14.254690736946628 0 0 0 0 -109.15958741338818 4.3839138789909384 0 4.3839138789909384 10.372895438145918 0 0 0 0 -150.58286113569056 -84.036591174437234 0 -84.036591174437234 6.3401219851584756 0 0 0 0 -82.753721890581801 -44.186938698635913 0 -44.186938698635913 -4.6880797370251912 0 0 0 0 -76.990557225839893 -61.137839943050835 0 -61.137839943050835 8.6286249207026913 0 0 0 0 -39.973149905072205 -21.74036097216856 0 -21.74036097216856 -73.090815394945139 0 0 0 0 -34.137010834549073 -7.3742728395919954 0 -7.3742728395919954 -62.639563568632525 0 0 0 0 -56.368409887744747 -97.247431264479886 0 -97.247431264479886 -274.63794441977313 0 0 0 0 -129.62806899808947 86.634243416755169 0 86.634243416755169 18.43169588606969 0 0 0 0 -3.9506874196451349 -1.28193078323714 0 -1.28193078323714 -0.5248612261844664 0 0 0 0 -17.685680220743961 -12.470056637086486 0 -12.470056637086486 -111.82405451133616 0 0 0 0 -11.104083569980631 -3.449694437831341 0 -3.449694437831341 -0.92899424200243241 0 0 0 0 0.91948940160364145 26.618321985042257 0 26.618321985042257 -129.72311229140888 0 0 0 0 34.228457207656902 -14.310467505517977 0 -14.310467505517977 -67.622510871818491 0 0 0 0 -57.355559346535301 15.705670371134943 0 15.705670371134943 -62.496111044124063 0 0 0 0 11.766163392545423 -26.698861199561748 0 -26.698861199561748 -62.222959801418142 0 0 0 0 17.201253476926468 17.529323880109416 0 17.529323880109416 -22.6683288378822 0 0 0 0 74.558693236855106 -38.257521774260098 0 -38.257521774260098 -67.087260764748393 0 0 0 0 -25.375904871834791 15.85729452009474 0 15.85729452009474 -62.069240344999344 0 0 0 0 -29.637152761524703 -22.659598060074956 0 -22.659598060074956 -56.492539635019519 0 0 0 0 8.2997869200962668 -43.84630129421339 0 -43.84630129421339 -9.6743213679587257 0 0 0 0 78.486523299195142 11.194502709777424 0 11.194502709777424 1.0798436509393241 0 0 0 0 -30.291040080434868 2.5724584990503274 0 2.5724584990503274 2.8651527910677714 0 0 0 0 -235.20338113824255 -19.485943839095739 0 -19.485943839095739 23.432953438979553 0 0 0 0 -142.55912079055634 -96.429000744925247 0 -96.429000744925247 -57.26892121992023 0 0 0 0 -141.47153869917202 -68.585063120218933 0 -68.585063120218933 -37.293970544319066 0 0 0 0 -188.85264665503928 -31.185300444424954 0 -31.185300444424954 2.8256426193140669 0 0 0 0 -15.485149284759245 -12.167365144623773 0 -12.167365144623773 -8.9900551673618452 0 0 0 0 -30.947392862089146 0.29206338589528968 0 0.29206338589528968 4.4788605090523106 0 0 0 0 7.608982139636737 -39.659598833619661 0 -39.659598833619661 72.922246273085705 0 0 0 0 -0.44014187989474252 1.4457124379518866 0 1.4457124379518866 0.85176994016151886 0 0 0 0 -3.3776981940633064 -1.0605022982912116 0 -1.0605022982912116 2.6968806720629201 0 0 0 0 1.7920283203784493 -5.8343627101751281 0 -5.8343627101751281 43.849592564672321 0 0 0 0 -6.6108889569768507 -6.0086965922786248 0 -6.0086965922786248 52.711465044828856 0 0 0 0 -5.5549618280820141 -0.19271286707248692 0 -0.19271286707248692 74.769852482798569 0 0 0 0 -86.209670633417772 63.930469344734803 0 63.930469344734803 14.699295326887672 0 0 0 0 -31.681836252521634 -28.853888410638984 0 -28.853888410638984 80.71459458518126 0 0 0 0 -41.61317022021467 13.203491279306171 0 13.203491279306171 70.643331337567702 0 0 0 0 0.72273571917587986 -0.021202234367935446 0 -0.021202234367935446 -0.34675477696066653 0 0 0 0 62.153467588799685 -134.44637783991504 0 -134.44637783991504 -2.9691905851876363 0 0 0 0 -293.87518885393547 -88.820134296546541 0 -88.820134296546541 -5.5048294219872176 0 0 0 0 -68.502225682426797 128.92555079498717 0 128.92555079498717 -187.58668429035711 0 0 0 0 21.85022404373376 16.253213234263022 0 16.253213234263022 -77.501899917208263 0 0 0 0 74.275528042371661 44.289107318232283 0 44.289107318232283 -248.67532080901196 0 0 0 0 -0.8719097406748908 -0.78869281349253839 0 -0.78869281349253839 -0.91354400037903849 0 0 0 0 84.421852625067913 -14.325633207393452 0 -14.325633207393452 -190.63748625774349 0 0 0 0 -202.37967749854124 15.91091690819535 0 15.91091690819535 -33.915257784151009 0 0 0 0 21.607310326260006 21.591357652695237 0 21.591357652695237 -115.16946075712973 0 0 0 0 -1.6284579926523293 -28.181511483145492 0 -28.181511483145492 -191.55050732951057 0 0 0 0 -143.86138298288643 -0.57348301407967028 0 -0.57348301407967028 -83.063586400390136 0 0 0 0 -171.26807504516364 63.618006967477911 0 63.618006967477911 -224.47776357645699 0 0 0 0 -172.92474432083327 81.477553207085904 0 81.477553207085904 -179.94151978932291 0 0 0 0 -111.69864569127822 121.0995403680398 0 121.0995403680398 -193.04287491846458 0 0 0 0 -220.22190524167308 133.60941455518554 0 133.60941455518554 -26.593733107904995 0 0 0 0 -261.3931878885578 60.893845869229807 0 60.893845869229807 30.222335450855837 0 0 0 0 9.973931564472764 177.58623683369316 0 177.58623683369316 -20.067949185943519 0 0 0 0 29.716705912975158 -29.307395259127873 0 -29.307395259127873 -2.6956112524012781 0 0 0 0 -0.30223277636288515 0.21881719910628661 0 0.21881719910628661 0.033006718507185839 0 0 0 0 -29.383509221675922 -30.713470785281203 0 -30.713470785281203 -16.950590657007382 0 0 0 0 -2.9950868005762459 31.369271468511755 0 31.369271468511755 -76.258854444294499 0 0 0 0 -40.066025290831021 -1.6371476779698497 0 -1.6371476779698497 112.47396427197617 0 0 0 0 -11.750625819557172 16.428466975352308 0 16.428466975352308 -2.8588403328184739 0 0 0 0 -0.39890218774492325 -0.26921781537954281 0 -0.26921781537954281 0.68656742269974158 0 0 0 0 1.118715937473695 54.929246906948329 0 54.929246906948329 99.637595644939609 0 0 0 0 33.061547957244329 13.836956555614904 0 13.836956555614904 11.368354098334109 0 0 0 0 0.37261948753108953 -0.14887974507275503 0 -0.14887974507275503 0.467774751970915 0 0 0 0 55.844365734708845 -0.70154466655758796 0 -0.70154466655758796 2.2880687264421908 0 0 0 0 2.1938804337951296 2.0645030046624129 0 2.0645030046624129 53.500079408145211 0 0 0 0 55.315924341168113 13.711461750756488 0 13.711461750756488 -44.449617379750549 0 0 0 0 -114.30574700870238 -18.755378094305541 0 -18.755378094305541 22.348721614895567 0 0 0 0 -127.21875622722837 130.8378427166416 0 130.8378427166416 -192.19070975772865 0 0 0 0 -427.47166597635442 213.70823197786416 0 213.70823197786416 -6.8909493660485737 0 0 0 0 244.85466800717995 201.60250373671488 0 201.60250373671488 -169.31332543659678 0 0 0 0 -526.3654007080504 81.456370990911864 0 81.456370990911864 46.672410437524377 0 0 0 0 -0.47905838783184151 0.92014484245917316 0 0.92014484245917316 -2.1353939252907086 0 0 0 0 -269.92730781444334 11.181293375035381 0 11.181293375035381 57.054944706832742 0 0 0 0 -276.73621157199 155.68044200756276 0 155.68044200756276 -18.367938609618648 0 0 0 0 -314.63858450435691 134.56573391369116 0 134.56573391369116 -20.71738839441494 0 0 0 0 -1.8837331783106492 78.381939098269868 0 78.381939098269868 -79.385795276347039 0 0 0 0 -158.80627124934699 123.22027215204115 0 123.22027215204115 -9.9738477034044308 0 0 0 0 14.421144063653628 145.00440640082638 0 145.00440640082638 -139.67702379793025 0 0 0 0 120.44732268068401 48.586944206274488 0 48.586944206274488 -53.245561050216452 0 0 0 0 2.4888760097255727 108.43319697578988 0 108.43319697578988 51.31137627818498 0 0 0 0 -2.1088246292101758 49.204477726729465 0 49.204477726729465 24.513716126294185 0 0 0 0 26.771189401395532 40.621432659503171 0 40.621432659503171 105.72484908403624 0 0 0 0 -52.486323934407437 90.63855643897503 0 90.63855643897503 74.934425306167441 0 0 0 0 16.904150507319173 78.861592985869137 0 78.861592985869137 85.927043670204739 0 0 0 0 101.4696063950214 95.42085214721385 0 95.42085214721385 48.43578376388075 0 0 0 0 8.8838667056566081 0.40577024008888674 0 0.40577024008888674 -1.9045199952761962 0 0 0 0 8.9357930320079504 -9.799323320702058 0 -9.799323320702058 -19.276463388157026 0 0 0 0 36.345996810207907 3.0933847022798773 0 3.0933847022798773 -20.418015551750898 0 0 0 0 -14.176268678735369 91.031194388693535 0 91.031194388693535 177.52468326498229 0 0 0 0 14.180934236092071 -25.392773887916064 0 -25.392773887916064 20.321112002192081 0 0 0 0 3.2720975227456996 -0.7572197703035437 0 -0.7572197703035437 0.46774905415864221 0 0 0 0 -144.7369653059186 123.74059282961628 0 123.74059282961628 -94.954200923284446 0 0 0 0 -306.27789250348678 95.773459741654335 0 95.773459741654335 10.805965021885186 0 0 0 0 -279.93102041187012 44.103978547451476 0 44.103978547451476 -156.9037129118912 0 0 0 0 -0.03468860262619522 2.9082769999012541 0 2.9082769999012541 -4.8177600786586954 0 0 0 0 -13.822548927844764 59.454775647364585 0 59.454775647364585 -101.13142959528449 0 0 0 0 -0.61344886851485114 2.0611987703974313 0 2.0611987703974313 -1.556720894992013 0 0 0 0 -1.6647257996846747 -6.0729549557551081 0 -6.0729549557551081 -40.078065029266696 0 0 0 0 -3.3889312292866745 10.273985694467699 0 10.273985694467699 -6.2893956886457048 0 0 0 0 -167.40527075168757 -57.697237654442596 0 -57.697237654442596 -28.685379918351323 0 0 0 0 -272.70170358991527 45.21849045120814 0 45.21849045120814 -17.076888880682986 0 0 0 0 -151.52243622811875 5.2401224933617883 0 5.2401224933617883 19.299779688824998 0 0 0 0 -178.44657535974511 -22.671304232934887 0 -22.671304232934887 -2.8271676805021748 0 0 0 0 -5.8268206498905784 -0.4906587807758882 0 -0.4906587807758882 -5.3453982948720551 0 0 0 0 -128.95487813920136 -22.640304890230155 0 -22.640304890230155 7.5674177685198174 0 0 0 0 -111.34548474007215 22.917654303455073 0 22.917654303455073 17.604627891900151 0 0 0 0 -134.6022295453422 -19.625431507006809 0 -19.625431507006809 19.911327914525021 0 0 0 0 -162.4825807707457 2.5487769744450048 0 2.5487769744450048 5.4568751547981407 0 0 0 0 37.139164639747833 38.12276502602549 0 38.12276502602549 -152.85983218077047 0 0 0 0 40.472363549415604 15.429442101476525 0 15.429442101476525 -34.061701495805437 0 0 0 0 -4.2166475915837109 10.125596612710483 0 10.125596612710483 -4.302125444182777 0 0 0 0 46.900378249689311 30.062705636889632 0 30.062705636889632 -27.883877636041575 0 0 0 0 39.565085392232504 21.890664284252352 0 21.890664284252352 -12.449243846146032 0 0 0 0 30.032175107588955 38.12790973558117 0 38.12790973558117 8.7275847509235973 0 0 0 0 -2.6603685731734004 44.506624137273775 0 44.506624137273775 1.5629549391402406 0 0 0 0 18.694507516640442 62.637167719938645 0 62.637167719938645 -43.72479673114367 0 0 0 0 -19.682211638674517 -0.014165004526351055 0 -0.014165004526351055 0.5586611560602841 0 0 0 0 -17.805502130147033 43.740237803960241 0 43.740237803960241 82.674999394200228 0 0 0 0 -0.62340385600691661 29.500076274291189 0 29.500076274291189 18.257169118734879 0 0 0 0 -6.9356779168434191 9.0549133557383108 0 9.0549133557383108 -1.8972353749151334 0 0 0 0 -0.022096666667493992 0.42911241303372094 0 0.42911241303372094 -23.156979620998413 0 0 0 0 -3.2254721944674554 0.050743749653697989 0 0.050743749653697989 0.56941524085913531 0 0 0 0 -15.751134253874625 -7.0331730923120119 0 -7.0331730923120119 9.8896752924039362 0 0 0 0 -7.7196753208627342 -9.5457924022748664 0 -9.5457924022748664 9.5549114518973397 0 0 0 0 -24.824900432967524 -9.0931544059054783 0 -9.0931544059054783 15.607273765560137 0 0 0 0 -140.4618202149116 -22.167309151182625 0 -22.167309151182625 -26.187557194305725 0 0 0 0 -1.507449862662348 1.2182332462734875 0 1.2182332462734875 -0.44122036346066257 0 0 0 0 -140.63686451595095 -2.000864440909865 0 -2.000864440909865 14.078644768686598 0 0 0 0 -28.218447972217291 35.915802349450729 0 35.915802349450729 -35.375827115295095 0 0 0 0 -48.672073317738068 -44.246002683373547 0 -44.246002683373547 -51.557565147346395 0 0 0 0 -120.01509454284133 -59.214793278264303 0 -59.214793278264303 3.5363387122303038 0 0 0 0 -50.557241664788307 9.4109603158565491 0 9.4109603158565491 -66.067661985118846 0 0 0 0 -164.67164376461233 15.926124289515801 0 15.926124289515801 -21.294700798577935 0 0 0 0 -0.24991521501150515 0.21676798489084348 0 0.21676798489084348 -0.20935535357564672 0 0 0 0 -125.85509554034979 41.550722480717724 0 41.550722480717724 -34.475684604158651 0 0 0 0 -115.03713515277559 8.135512013931617 0 8.135512013931617 -35.878243588664134 0 0 0 0 -97.105829932883353 18.844962059133756 0 18.844962059133756 -46.847613888881249 0 0 0 0 -106.27635036878291 4.8241709566149673 0 4.8241709566149673 -49.458680580597118 0 0 0 0 -68.147696932250255 -18.146777044996149 0 -18.146777044996149 -58.954339919434474 0 0 0 0 -101.48713031604711 -30.930259210205957 0 -30.930259210205957 -43.243424258144756 0 0 0 0 -98.277677427791787 -24.435357659083721 0 -24.435357659083721 -50.769634349891781 0 0 0 0 -98.007635918645974 -50.939545629351386 0 -50.939545629351386 -62.187630820493951 0 0 0 0 -183.47118552626853 -28.890469279903815 0 -28.890469279903815 -45.410138744459694 0 0 0 0 -1.0703640200938054 -0.75393499254069596 0 -0.75393499254069596 -0.50985607251653342 0 0 0 0 -23.902478199081088 -75.800430656283439 0 -75.800430656283439 -40.792721239541606 0 0 0 0 -174.79952887376385 -50.461657971474715 0 -50.461657971474715 -45.044051895809105 0 0 0 0 -12.649106710554406 24.932159411246197 0 24.932159411246197 -45.33951531485549 0 0 0 0 -185.99020337385537 56.854596954469002 0 56.854596954469002 49.391178892045104 0 0 0 0 -118.28900522794333 -130.7195819268162 0 -130.7195819268162 4.6399341108688645 0 0 0 0 -101.12592056497306 34.542185341277865 0 34.542185341277865 14.143732195364848 0 0 0 0 -1.9263432946436509 -1.6444386246229428 0 -1.6444386246229428 -1.2565687411449105 0 0 0 0 -53.196196954614607 -4.5070549610843074 0 -4.5070549610843074 4.2865008513656448 0 0 0 0 -137.06338617033543 62.006047015831996 0 62.006047015831996 -14.621547190171938 0 0 0 0 -208.17244937262058 20.190058418694353 0 20.190058418694353 22.026578024511707 0 0 0 0 -148.35981535810606 23.65224599610162 0 23.65224599610162 19.60138206202987 0 0 0 0 -235.03003111510998 233.2616726494858 0 233.2616726494858 -30.292457165277959 0 0 0 0 -1.1456057324066933 -15.890797364613901 0 -15.890797364613901 -19.014104928654366 0 0 0 0 -498.95337765752629 128.63128379759746 0 128.63128379759746 91.589339153627336 0 0 0 0 -339.80448969816189 115.08430533776112 0 115.08430533776112 89.453338589528073 0 0 0 0 -306.77503948586491 -34.854337579471931 0 -34.854337579471931 9.0048432363276945 0 0 0 0 -192.09421141235907 32.775948754283988 0 32.775948754283988 -11.050060459160669 0 0 0 0 -108.39170126772115 -47.517215286385699 0 -47.517215286385699 -37.870341789691928 0 0 0 0 -152.7426818954973 -65.80844983827987 0 -65.80844983827987 14.448503424690955 0 0 0 0 -143.02009637184437 -51.68439605198094 0 -51.68439605198094 29.351002755895053 0 0 0 0 38.720151368719598 60.219965101105373 0 60.219965101105373 43.200775456095471 0 0 0 0 -5.2723343219264311 6.615479479236285 0 6.615479479236285 -6.0840825137029615 0 0 0 0 -104.88018979888875 -7.1870437369001952 0 -7.1870437369001952 14.742594660081014 0 0 0 0 -170.94680101148697 -18.717931648679141 0 -18.717931648679141 42.366284307290201 0 0 0 0 53.515746593148833 39.858149367241481 0 39.858149367241481 4.4506245836273592 0 0 0 0 -2.9337348997321291 1.2982668047896677 0 1.2982668047896677 0.44778417836854345 0 0 0 0 -1.2513787833602557 6.2799079641682436 0 6.2799079641682436 -4.7044613127129855 0 0 0 0 -336.88550316282635 -98.106110436032282 0 -98.106110436032282 -223.91818098742397 0 0 0 0 -3.2708856528660135 0.547268622410364 0 0.547268622410364 -2.8603474067395473 0 0 0 0 8.9998684765644157 101.8773605790778 0 101.8773605790778 94.242204830352932 0 0 0 0 -7.1290502709249246 6.4817507183022229 0 6.4817507183022229 -4.4910229943392777 0 0 0 0 -4.8032554384079456 3.9117635304309371 0 3.9117635304309371 -4.4564197219798487 0 0 0 0 -1.1160342371293854 2.9564010184696912 0 2.9564010184696912 -3.0269299207370874 0 0 0 0 -1.2387942244386068 0.91497021996610783 0 0.91497021996610783 -0.74969475844591216 0 0 0 0 -11.596156623283605 6.9783778951268687 0 6.9783778951268687 8.9233767052373878 0 0 0 0 -314.77179255326337 16.801694448111874 0 16.801694448111874 111.00062247215146 0 0 0 0 -191.40198003051273 -99.490878759310704 0 -99.490878759310704 114.44629688326614 0 0 0 0 -92.170944287596285 -106.39305496882619 0 -106.39305496882619 55.663025839155928 0 0 0 0 -1.99878183126566 0.1798944432240388 0 0.1798944432240388 0.13369791323485306 0 0 0 0 -54.35488232867101 147.59727130506508 0 147.59727130506508 -33.43898842844149 0 0 0 0 -130.25165656397803 199.84869168242903 0 199.84869168242903 -53.114095518596855 0 0 0 0 -10.368284141586628 11.215735481285492 0 11.215735481285492 -8.5443115425823635 0 0 0 0 -21.637457416485631 6.1072294176697142 0 6.1072294176697142 -1.9097714565955357 0 0 0 0 -16.144785336749919 6.0962010265208164 0 6.0962010265208164 -2.52143883641304 0 0 0 0 -22.19027123620981 8.6171644871877788 0 8.6171644871877788 -3.2014194897901689 0 0 0 0 -16.445699406725907 5.1722820612627061 0 5.1722820612627061 -17.179548257664237 0 0 0 0 0.20794950558275005 -0.50851588464035302 0 -0.50851588464035302 -2.443971508305899 0 0 0 0 -16.46778013858949 4.4380047889210044 0 4.4380047889210044 -8.4552991528178154 0 0 0 0 0.59380480213261677 2.9149733658838808 0 2.9149733658838808 -1.5081468544431988 0 0 0 0 -16.856573614965782 16.823036752110283 0 16.823036752110283 -10.824663834337798 0 0 0 0 -13.528009217614454 9.0186034431806092 0 9.0186034431806092 -6.6586530187134372 0 0 0 0 -21.69413324883044 -6.6854526338181017 0 -6.6854526338181017 -5.7740448816980461 0 0 0 0 -27.778731160226016 5.6489306911834092 0 5.6489306911834092 -1.8508420273947195 0 0 0 0 -68.633436623602393 80.09664410842538 0 80.09664410842538 -74.285472558762891 0 0 0 0 -185.26673705055146 124.97803239558957 0 124.97803239558957 -27.380442608352681 0 0 0 0 -142.12064151975756 22.042074728883893 0 22.042074728883893 -55.785580053767319 0 0 0 0 45.477477093301786 -7.8199834709957088 0 -7.8199834709957088 -55.531655614853435 0 0 0 0 -210.38888643477003 -92.491379292485817 0 -92.491379292485817 125.35164454601407 0 0 0 0 -2.0382276612451804 0.28012878794724205 0 0.28012878794724205 0.18529182254094917 0 0 0 0 -197.52361091420244 66.827453040664693 0 66.827453040664693 -31.183277045666877 0 0 0 0 -499.11463473122421 14.952998925357964 0 14.952998925357964 96.656784840964193 0 0 0 0 -499.1755943343469 333.58157490661006 0 333.58157490661006 -196.4058637994624 0 0 0 0 -190.07984212433621 75.201404564462905 0 75.201404564462905 -31.372204225424849 0 0 0 0 -143.02580749160916 122.4634913281046 0 122.4634913281046 -99.666286567204338 0 0 0 0 -10.24699794164917 4.1328104379797992 0 4.1328104379797992 24.4336666357529 0 0 0 0 -5.976237373924171 -0.18549322168752713 0 -0.18549322168752713 -0.71398249745174003 0 0 0 0 -114.80714760380579 -24.663938077316129 0 -24.663938077316129 36.923219026470932 0 0 0 0 -4.9276466328628885 20.875645563346801 0 20.875645563346801 -57.708305946849848 0 0 0 0 -26.558531052767648 -143.39172907532901 0 -143.39172907532901 -204.64332419533983 0 0 0 0 -2.2865901055898306 -0.21436678791838748 0 -0.21436678791838748 -0.43781416176103349 0 0 0 0 -498.65316798612162 -186.86229391302317 0 -186.86229391302317 20.31954135552223 0 0 0 0 -198.80806102957013 -8.1834142725623487 0 -8.1834142725623487 -0.16975975566349111 0 0 0 0 -13.645246821281034 -19.461373577905292 0 -19.461373577905292 -87.762367873123964 0 0 0 0 -26.104351989606585 7.19326004073646 0 7.19326004073646 0.027680461546483303 0 0 0 0 -76.611188448764096 -24.047728694994312 0 -24.047728694994312 4.0971109460280033 0 0 0 0 -55.400259321915655 -80.602857904741114 0 -80.602857904741114 -58.471065975325295 0 0 0 0 -36.524998248556585 10.850113633180932 0 10.850113633180932 -23.033416459826071 0 0 0 0 0.22643170816688496 0.0018635768169410483 0 0.0018635768169410483 -0.10397131371444354 0 0 0 0 -6.5061991098573344 -16.055518268913509 0 -16.055518268913509 -8.8090026770689338 0 0 0 0 -11.988635417088972 7.0429983075111675 0 7.0429983075111675 3.6327741251031966 0 0 0 0 -4.9146211784336629 4.2147457439889369 0 4.2147457439889369 4.316937053418652 0 0 0 0 -14.42319453945538 13.76728171481032 0 13.76728171481032 5.271872384678943 0 0 0 0 -8.4107012049971672 -0.73732460211797957 0 -0.73732460211797957 -18.568226844304803 0 0 0 0 -1.2521408630174022 0.78244599302746565 0 0.78244599302746565 0.031220413466359287 0 0 0 0 -9.2104396529971666 0.83873040631560158 0 0.83873040631560158 0.35954139168771215 0 0 0 0 -21.49056101460701 -0.65010212862753747 0 -0.65010212862753747 25.429210002238165 0 0 0 0 -32.328919862975454 21.618605286280257 0 21.618605286280257 50.44148929186548 0 0 0 0 -20.209756905358518 24.490078822019541 0 24.490078822019541 -12.481921469587235 0 0 0 0 -23.970398856719839 30.29917646372634 0 30.29917646372634 -11.895629254735184 0 0 0 0 -23.444924854207784 4.5265342128484605 0 4.5265342128484605 33.415158718131551 0 0 0 0 11.04376785637578 -27.08484889817737 0 -27.08484889817737 45.485817421869619 0 0 0 0 -2.2454606005300235 0.54459116398639651 0 0.54459116398639651 0.19857486468097585 0 0 0 0 -1.1843993479030885 0.39961050619558947 0 0.39961050619558947 -2.7209586649973865 0 0 0 0 -92.280635072766017 66.612141189156077 0 66.612141189156077 -78.03562014809421 0 0 0 0 -11.058995162729843 6.408230081388183 0 6.408230081388183 -1.7396012638516254 0 0 0 0 -11.811814023367333 6.0182252098686035 0 6.0182252098686035 -1.8744067478335182 0 0 0 0 -16.830394119260745 -1.467726274232291 0 -1.467726274232291 6.7081376538901623 0 0 0 0 -9.8100884558379917 -0.1315915964460288 0 -0.1315915964460288 1.2886912242934816 0 0 0 0 -9.7022511004606713 0.25313866529683082 0 0.25313866529683082 0.72888920523337219 0 0 0 0 -18.22355924526164 3.8637340594390253 0 3.8637340594390253 0.18624685643590055 0 0 0 0 -16.664807844987081 2.7193698627106642 0 2.7193698627106642 -1.198354537506475 0 0 0 0 -18.435705948892064 1.0351354282357761 0 1.0351354282357761 4.3314749605031011 0 0 0 0 -8.5235156232291018 -0.58839927044738793 0 -0.58839927044738793 1.570794578195104 0 0 0 0 -5.7459500887518509 0.4260313218271321 0 0.4260313218271321 0.74192868571976822 0 0 0 0 -8.5946960756118642 -1.0685641706369695 0 -1.0685641706369695 3.0609913031426803 0 0 0 0 -1.4589257625520133 -1.2073782726445539 0 -1.2073782726445539 0.58882987320100022 0 0 0 0 -15.16261957729148 -0.24646219928808932 0 -0.24646219928808932 -1.7682589295034177 0 0 0 0 -0.60585544870203734 -0.098654387654452336 0 -0.098654387654452336 -0.041698819687988324 0 0 0 0 -4.2279559299495304 -19.980386829280405 0 -19.980386829280405 -35.131604821797474 0 0 0 0 4.4989815510944027 -12.131720071166399 0 -12.131720071166399 5.1074320042243002 0 0 0 0 7.5370346179006447 1.6315356898169995 0 1.6315356898169995 -10.391802050963264 0 0 0 0 -20.855536894154284 15.082633265673916 0 15.082633265673916 -7.4784116827971658 0 0 0 0 -6.8050767426962011 2.5256918967028241 0 2.5256918967028241 -2.6654343196559349 0 0 0 0 -1.4470137345183094 0.19801339809183105 0 0.19801339809183105 0.30780199557451221 0 0 0 0 -7.1934379618451203 0.91460228464869053 0 0.91460228464869053 -2.2325053969924542 0 0 0 0 -12.08067045273674 -0.073602719041385489 0 -0.073602719041385489 0.83371212595575273 0 0 0 0 -18.445777321957394 8.7486887990482209 0 8.7486887990482209 -3.6913207360336022 0 0 0 0 -18.998265241357331 1.9534163538839329 0 1.9534163538839329 0.0017736070311429849 0 0 0 0 0.12984815187845822 0.0021776218511213585 0 0.0021776218511213585 0.052630304595318506 0 0 0 0 5.5585157510849967 -2.0214470746628224 0 -2.0214470746628224 -12.423696271051002 0 0 0 0 -16.46786884381072 3.251257524514211 0 3.251257524514211 -0.68754524932570305 0 0 0 0 -14.97778604094492 -3.489055889237862 0 -3.489055889237862 0.31116700098972538 0 0 0 0 -19.013291637154452 1.6791148666698943 0 1.6791148666698943 2.066516336304939 0 0 0 0 -19.045125542847018 0.9288015154242697 0 0.9288015154242697 0.004921316839894216 0 0 0 0 -20.882274056774804 -2.9661621639898978 0 -2.9661621639898978 0.7706575261590789 0 0 0 0 -27.427253305841077 1.7275370461769641 0 1.7275370461769641 2.1027510722635214 0 0 0 0 -0.14196015124564809 0.10643139915305611 0 0.10643139915305611 -0.054180592222457566 0 0 0 0 -20.252154533988687 -2.6016801764084185 0 -2.6016801764084185 0.26895819506848917 0 0 0 0 -0.067580510997235166 0.046593227514879487 0 0.046593227514879487 -0.047078983064223687 0 0 0 0 5.9062482235979132 6.7554242543566598 0 6.7554242543566598 -18.156862825267702 0 0 0 0 -36.90561021317626 -5.9594151168466531 0 -5.9594151168466531 -3.846501554120346 0 0 0 0 -43.222845104337466 -7.6091980062031155 0 -7.6091980062031155 0.50191166649571362 0 0 0 0 -55.11734962695482 14.688221476588252 0 14.688221476588252 -0.55137639429881879 0 0 0 0 -64.402561375947698 -37.648603746609922 0 -37.648603746609922 -40.291039489938704 0 0 0 0 33.165320352869458 29.618185200653308 0 29.618185200653308 -35.249996376465845 0 0 0 0 -8.9428018106427771 9.6025088444964961 0 9.6025088444964961 -16.412117404107306 0 0 0 0 6.3987057965041458 -16.054939372470116 0 -16.054939372470116 -70.263689810353071 0 0 0 0 -147.99304664169904 -20.407654716526231 0 -20.407654716526231 17.844737615030752 0 0 0 0 6.4389533659086737 0.034749767867703341 0 0.034749767867703341 -21.985159219133678 0 0 0 0 12.090127163879515 8.0891931693585768 0 8.0891931693585768 -19.42910448087196 0 0 0 0 9.8447713221758022 6.1970458697791795 0 6.1970458697791795 -5.0639026726433798 0 0 0 0 16.491104620217811 44.796641825609854 0 44.796641825609854 2.0870337644069359 0 0 0 0 14.949436936498387 12.660052501354791 0 12.660052501354791 -31.632489526821644 0 0 0 0 -4.8130779251659987 28.034773532153132 0 28.034773532153132 37.240420068562756 0 0 0 0 -10.641796367634015 -3.2233764185554037 0 -3.2233764185554037 3.662969851691571 0 0 0 0 -6.1930858791970493 -0.44778610168261945 0 -0.44778610168261945 -0.03432467557820762 0 0 0 0 0.15580547359990504 -0.99813518537184009 0 -0.99813518537184009 0.36170678266668371 0 0 0 0 -61.047708399142834 -217.14850472582728 0 -217.14850472582728 160.54497265347499 0 0 0 0 -38.876400062737503 119.540905975505 0 119.540905975505 -281.07001641805175 0 0 0 0 -4.0089528012261866 -3.574983540917275 0 -3.574983540917275 4.2120157960004629 0 0 0 0 -109.83232736816569 -16.982899639119985 0 -16.982899639119985 54.967753013815326 0 0 0 0 -86.737007082214404 -23.47409328147053 0 -23.47409328147053 56.791767085304294 0 0 0 0 -48.589596675858047 20.076082936796979 0 20.076082936796979 36.52583554734116 0 0 0 0 -106.59837595960812 30.284618043337954 0 30.284618043337954 34.955844482043744 0 0 0 0 -16.862663681928098 -2.8157037073735012 0 -2.8157037073735012 1.2811166906777771 0 0 0 0 -15.284449855412277 -6.4967829381533875 0 -6.4967829381533875 0.90032414063375654 0 0 0 0 -10.015994544740952 -3.8241144873198785 0 -3.8241144873198785 1.406342293170399 0 0 0 0 -57.844938880843983 -7.2079918312826408 0 -7.2079918312826408 60.698064928727476 0 0 0 0 -13.125021786603611 -0.92052223125674004 0 -0.92052223125674004 8.439113872363265 0 0 0 0 -11.293935617771758 -1.5022659148820543 0 -1.5022659148820543 1.3249586376314486 0 0 0 0 -6.6230634405983437 -2.5869082405303345 0 -2.5869082405303345 1.1129201720862767 0 0 0 0 -32.504971634196409 -49.387607290182288 0 -49.387607290182288 21.33383616435956 0 0 0 0 -10.489691274176529 -0.28468993113233232 0 -0.28468993113233232 2.9699029578956715 0 0 0 0 -11.563359402500282 2.2765840991315258 0 2.2765840991315258 1.6480910837195779 0 0 0 0 -13.575641021147078 2.2154465208074305 0 2.2154465208074305 0.79176723568653928 0 0 0 0 -20.854602920484467 4.8834738242569529 0 4.8834738242569529 -0.32868071984330527 0 0 0 0 -16.952331207154202 7.1012732370044205 0 7.1012732370044205 -0.039751118115418649 0 0 0 0 -2.2623979465275008 6.4732510962618797 0 6.4732510962618797 -4.2023465169411356 0 0 0 0 -21.749204667618073 5.7942863893430001 0 5.7942863893430001 1.8358445595736157 0 0 0 0 -25.527885466319276 7.4443469072834887 0 7.4443469072834887 1.1181691554611461 0 0 0 0 -15.247112486265905 3.2789265620067454 0 3.2789265620067454 -1.0237676857814222 0 0 0 0 -22.035589077544046 7.7342022336311516 0 7.7342022336311516 1.3051961218397992 0 0 0 0 -22.732359767595881 2.2175409459996445 0 2.2175409459996445 4.7080763009976181 0 0 0 0 -23.612334902280054 5.1865223460877132 0 5.1865223460877132 1.7034690431896706 0 0 0 0 -24.252157821195397 6.2660838436867152 0 6.2660838436867152 0.66139304705393442 0 0 0 0 -27.104940202820217 5.2208787715962899 0 5.2208787715962899 3.2032940272363248 0 0 0 0 -31.097110142440215 6.4098579878817645 0 6.4098579878817645 -0.62328730323451964 0 0 0 0 -33.159564011883049 6.9177018819657405 0 6.9177018819657405 0.61735312771816098 0 0 0 0 -1.8088140001427746 17.177883810799528 0 17.177883810799528 -19.819634199030588 0 0 0 0 -21.952082549330953 19.526759575098822 0 19.526759575098822 -11.998794142501879 0 0 0 0 -19.104992527261857 8.8061731374775718 0 8.8061731374775718 -8.9348842419094581 0 0 0 0 -28.645594578021701 17.749873939450822 0 17.749873939450822 4.323071109666671 0 0 0 0 -28.379917841069982 22.912644946346518 0 22.912644946346518 9.1545383602292532 0 0 0 0 -21.578925874509878 26.330351191104 0 26.330351191104 2.4300975120240764 0 0 0 0 -25.726243902179704 19.672784964020593 0 19.672784964020593 7.2750172145736087 0 0 0 0 -16.548443428673636 29.602084958227806 0 29.602084958227806 14.522741190606212 0 0 0 0 32.093067405206966 12.984754561823138 0 12.984754561823138 -1.163261361461764 0 0 0 0 -1.0259319756966274 0.60797002492294006 0 0.60797002492294006 -0.325854124865117 0 0 0 0 11.347340235996853 -0.89234411817983528 0 -0.89234411817983528 3.6029019993789007 0 0 0 0 3.1186496836878081 -0.44682944698670646 0 -0.44682944698670646 -1.7605686857969518 0 0 0 0 -21.310042554883694 13.261749678961678 0 13.261749678961678 -0.60924449352478405 0 0 0 0 -53.219530943159953 -15.571590940985743 0 -15.571590940985743 47.766187999925734 0 0 0 0 -39.840235127992855 38.447587810536561 0 38.447587810536561 35.009456497264182 0 0 0 0 19.537024887700682 15.332626032108692 0 15.332626032108692 11.162102268630633 0 0 0 0 25.068075805105764 27.494457907148899 0 27.494457907148899 11.117222638277781 0 0 0 0 -60.371620214451468 5.4570099472782658 0 5.4570099472782658 21.256289522116845 0 0 0 0 9.1466274757640349 52.930432542039853 0 52.930432542039853 34.855502617279853 0 0 0 0 -92.643340228845773 -37.803413462979734 0 -37.803413462979734 13.369277416187344 0 0 0 0 -37.96136652037876 -2.8314956182088054 0 -2.8314956182088054 -6.7187398002390637 0 0 0 0 -1.0469333271507537 1.4225890349855792 0 1.4225890349855792 -1.264264650946215 0 0 0 0 -38.216679238131292 5.4030870548059511 0 5.4030870548059511 26.001250338529928 0 0 0 0 -23.610119682370168 -7.6777656369962415 0 -7.6777656369962415 17.002442251726023 0 0 0 0 -32.568650409959446 -7.8681499942479149 0 -7.8681499942479149 25.916659732507924 0 0 0 0 -42.452811952702177 -31.924725140378726 0 -31.924725140378726 50.938296845528448 0 0 0 0 -18.607554078823028 -6.2864943270663591 0 -6.2864943270663591 6.671748872741305 0 0 0 0 -22.6607203842633 3.8147593143641387 0 3.8147593143641387 14.091635063906779 0 0 0 0 -21.24776677614409 11.961117999589987 0 11.961117999589987 24.043411678252141 0 0 0 0 -36.868716477632915 -4.8598139585994886 0 -4.8598139585994886 0.99639613519428849 0 0 0 0 -5.8978326533601866 1.6933037349101552 0 1.6933037349101552 -1.0440386488208864 0 0 0 0 -20.408593684896914 3.2975680823765572 0 3.2975680823765572 -9.1614610596587767 0 0 0 0 -27.296780094828136 -0.1554934236659733 0 -0.1554934236659733 -1.2846859166934337 0 0 0 0 -3.0614558031339607 -0.40209097387588955 0 -0.40209097387588955 -0.51243267335673204 0 0 0 0 -23.95565499868826 6.2849226533585068 0 6.2849226533585068 6.9877381378715882 0 0 0 0 -19.858345544813346 7.0875070666939735 0 7.0875070666939735 21.929982653601535 0 0 0 0 -15.245614469537031 11.623086541106076 0 11.623086541106076 2.035492711119673 0 0 0 0 -26.773989814520064 -26.527521425027999 0 -26.527521425027999 8.3515867144967615 0 0 0 0 -20.445266630808888 -5.4928467250269311 0 -5.4928467250269311 6.0524025497677743 0 0 0 0 -28.510556362132775 1.9124435081138245 0 1.9124435081138245 5.3127433308033574 0 0 0 0 -27.925220062104927 -1.8053148379586332 0 -1.8053148379586332 -3.0000525548124415 0 0 0 0 -27.945921436750723 -0.39109266759203365 0 -0.39109266759203365 1.399137452182913 0 0 0 0 -15.531248489514496 -2.0147707703448754 0 -2.0147707703448754 5.2615583944052444 0 0 0 0 -25.969638873016265 1.3548222301106287 0 1.3548222301106287 -0.29223733329509116 0 0 0 0 -16.741475985511844 -0.36587342297745717 0 -0.36587342297745717 1.4962291547869393 0 0 0 0 -25.523115217696613 -0.33299476668048555 0 -0.33299476668048555 10.389984147057589 0 0 0 0 -12.726423582867938 -1.3855990169636225 0 -1.3855990169636225 -3.6824383256059647 0 0 0 0 -22.207216439779586 -1.0228365130127628 0 -1.0228365130127628 0.46937648732719595 0 0 0 0 -13.458309470017412 -2.9043118307940823 0 -2.9043118307940823 -1.057070637444931 0 0 0 0 -18.517323898364339 -5.0371481019199713 0 -5.0371481019199713 -1.716115100407154 0 0 0 0 -6.2627159293515433 -0.56334918973620063 0 -0.56334918973620063 -12.166695118841176 0 0 0 0 -21.166531253576977 3.8231412216916372 0 3.8231412216916372 -6.6518927253602627 0 0 0 0 -8.971592100460839 -17.58561197024261 0 -17.58561197024261 -0.67572327613936523 0 0 0 0 -13.937805736837618 -2.410467667459983 0 -2.410467667459983 20.723167062080734 0 0 0 0 -12.841813437178189 -9.8451494398387318 0 -9.8451494398387318 2.1894009851971816 0 0 0 0 -4.0417375537290354 -8.0402866782450531 0 -8.0402866782450531 2.2547473877183375 0 0 0 0 -26.166703462306032 -8.5796790671201393 0 -8.5796790671201393 14.98389562961296 0 0 0 0 -23.661551090122884 -3.2228997873877603 0 -3.2228997873877603 18.045159718870082 0 0 0 0 -1.0662420323187689 52.349792019300253 0 52.349792019300253 0.36259823018423276 0 0 0 0 -1.4296546437690978 0.72707271020448339 0 0.72707271020448339 -0.22893653501919828 0 0 0 0 -26.117261572479038 -13.254000229979454 0 -13.254000229979454 20.375416445951885 0 0 0 0 -51.394370280992007 -35.643340465931033 0 -35.643340465931033 20.741776018207876 0 0 0 0 -0.87088720922838547 -12.389876939654442 0 -12.389876939654442 14.129005210040077 0 0 0 0 37.305625049499213 58.647736743057465 0 58.647736743057465 -32.93233734187811 0 0 0 0 -1.4217527732186284 0.83051322129034411 0 0.83051322129034411 -0.56999289529909636 0 0 0 0 -3.6605087378349239 1.1361207980566039 0 1.1361207980566039 -0.18451384058008297 0 0 0 0 -23.509827177906118 15.611982607553372 0 15.611982607553372 67.56302059831404 0 0 0 0 8.9115138165216194 -66.981156290243575 0 -66.981156290243575 -20.702691002824366 0 0 0 0 18.051624800802529 9.22411212280781 0 9.22411212280781 16.182727733729052 0 0 0 0 -80.993767529595061 219.3147083129266 0 219.3147083129266 9.8006510835184777 0 0 0 0 -226.1964672064496 104.76042245073933 0 104.76042245073933 -108.33279280789722 0 0 0 0 -5.211030158905487 -53.471990550370947 0 -53.471990550370947 -165.49693415414143 0 0 0 0 11.686604391028141 -262.03359433831446 0 -262.03359433831446 -8.4820157154317997 0 0 0 0 8.9812965356868517 -15.178480176477734 0 -15.178480176477734 36.148923130628788 0 0 0 0 10.837390396176488 21.450118449114427 0 21.450118449114427 -10.26878101143793 0 0 0 0 21.096501807475306 31.016879567274561 0 31.016879567274561 4.4857433953916939 0 0 0 0 -45.94163031485914 13.698532640922181 0 13.698532640922181 23.818291964880473 0 0 0 0 -23.775856939020741 44.612013476233642 0 44.612013476233642 20.391651582670704 0 0 0 0 -2.2209698549845527 0.41927648466297018 0 0.41927648466297018 -0.036733111498772841 0 0 0 0 -49.907259844316286 26.925997481686494 0 26.925997481686494 19.815491001864327 0 0 0 0 -14.55391999074709 35.803470454956937 0 35.803470454956937 16.772117242124978 0 0 0 0 -18.076043535354984 25.332720226380445 0 25.332720226380445 3.8251406232912473 0 0 0 0 -64.030344866067026 40.362086831487517 0 40.362086831487517 20.564341135169457 0 0 0 0 -85.129793155603693 -119.97101788636451 0 -119.97101788636451 40.356740253730877 0 0 0 0 -41.305330256345769 -62.119832533180016 0 -62.119832533180016 44.057500588257469 0 0 0 0 -1.1440661017141167 -0.38913972126896423 0 -0.38913972126896423 -0.10087087027619418 0 0 0 0 -30.149378950693063 -55.161120994347556 0 -55.161120994347556 -164.58611285554244 0 0 0 0 7.2946392823414499 9.2226469139013556 0 9.2226469139013556 -13.158025591105691 0 0 0 0 3.0331778696017864 1.4470965711837351 0 1.4470965711837351 12.202154496351966 0 0 0 0 -74.566596404138181 51.037038066325067 0 51.037038066325067 -38.567496946545418 0 0 0 0 -0.89321670708074663 -0.27480732581667411 0 -0.27480732581667411 -0.039391411909878216 0 0 0 0 -130.43218229127297 -51.263101844009178 0 -51.263101844009178 5.4952817854377116 0 0 0 0 -147.692769023859 22.093974983003466 0 22.093974983003466 13.781065953724337 0 0 0 0 -82.24001684005998 12.756840721403428 0 12.756840721403428 9.4273424912381572 0 0 0 0 -60.978797106832644 -26.075728530207016 0 -26.075728530207016 -0.11507759107949056 0 0 0 0 -94.125466639386104 -25.364086372577173 0 -25.364086372577173 15.27098182276093 0 0 0 0 -66.932911407506253 -5.9735968582014882 0 -5.9735968582014882 17.50776894119069 0 0 0 0 -56.420989691354237 -1.0203363565246577 0 -1.0203363565246577 13.534168966695788 0 0 0 0 -49.159057056327583 -11.248267700209844 0 -11.248267700209844 15.496310683046001 0 0 0 0 -16.754055395239448 3.4037328069027417 0 3.4037328069027417 4.9953617452301717 0 0 0 0 -57.317984233286552 31.595896504495144 0 31.595896504495144 -5.2841250402276385 0 0 0 0 -46.987016183637024 -2.1044708392939002 0 -2.1044708392939002 8.0183335339893631 0 0 0 0 -20.616050576401904 8.1169707570142755 0 8.1169707570142755 3.3505923452598894 0 0 0 0 -44.954220034907848 -6.5840700387450521 0 -6.5840700387450521 17.022965720314701 0 0 0 0 -38.926163659707527 0.086304666978488265 0 0.086304666978488265 0.00064537513799671833 0 0 0 0 -59.027137484905325 -7.9494132181305135 0 -7.9494132181305135 8.8882878675414556 0 0 0 0 -0.11636588882857524 0.046255991291658916 0 0.046255991291658916 -0.0095111942477795579 0 0 0 0 -9.2640266748430804 0.74213298877119516 0 0.74213298877119516 -0.0048799999616741859 0 0 0 0 -11.747745629563724 -6.0657414857031364 0 -6.0657414857031364 -0.0047495679702814261 0 0 0 0 -26.046502126213454 -8.9715730886464691 0 -8.9715730886464691 6.8586960674682338 0 0 0 0 -26.100068876012301 -9.5891698116463999 0 -9.5891698116463999 5.641471064131923 0 0 0 0 -29.472120979773536 -15.896730571504539 0 -15.896730571504539 10.534945870188478 0 0 0 0 -38.397421519057389 -3.3098352851209629 0 -3.3098352851209629 7.2364884256890498 0 0 0 0 -1.643836950079276 -3.6198068210406689 0 -3.6198068210406689 4.0360187451183371 0 0 0 0 -11.42829443939354 -12.909173485325756 0 -12.909173485325756 13.793865546088536 0 0 0 0 -14.409945370545756 -7.0908465792144693 0 -7.0908465792144693 3.8202059367218308 0 0 0 0 0.028919606447743718 3.7715550885774434 0 3.7715550885774434 5.0947933718932568 0 0 0 0 -7.7359844349339255 2.7220751184902761 0 2.7220751184902761 13.731338393931702 0 0 0 0 -0.92405238936134992 5.92271756422564 0 5.92271756422564 2.6652565888433202 0 0 0 0 -11.217239587887889 -1.8206387051966786 0 -1.8206387051966786 8.2197324981534905 0 0 0 0 -2.3363076554451254 -1.066728711944144 0 -1.066728711944144 -4.2855920497006252 0 0 0 0 -11.578132313456877 -10.690457870241012 0 -10.690457870241012 4.1584142249591425 0 0 0 0 -18.66579460803041 -13.765763915248272 0 -13.765763915248272 2.9639010322395727 0 0 0 0 -35.894754959175771 -37.219929514236249 0 -37.219929514236249 5.0813224095239207 0 0 0 0 34.384584141422238 -15.538678530020462 0 -15.538678530020462 -22.68869518248362 0 0 0 0 -115.44552701630892 1.3775673051509756 0 1.3775673051509756 -14.739154176317243 0 0 0 0 -61.881037746152288 -28.689041450440264 0 -28.689041450440264 7.3944198235976302 0 0 0 0 0.23695437870264868 -67.766475261230383 0 -67.766475261230383 -17.094994486397042 0 0 0 0 6.4269731621643587 10.179156406256233 0 10.179156406256233 5.101004681472638 0 0 0 0 17.767868431206807 7.6018217310943257 0 7.6018217310943257 -2.7946742603280521 0 0 0 0 -4.6452468980762873 2.3151601454586146 0 2.3151601454586146 -0.8050659258583448 0 0 0 0 -10.823889122499168 37.833193366296854 0 37.833193366296854 -1.4447847305391406 0 0 0 0 8.2561165430379333 21.358426073334385 0 21.358426073334385 -45.405687189726244 0 0 0 0 21.185372677085979 39.662659902905602 0 39.662659902905602 -45.361068777214541 0 0 0 0 -59.804546714083699 -84.981495444362395 0 -84.981495444362395 -160.50658089168155 0 0 0 0 -2.6105069246468524 -1.5587743910539977 0 -1.5587743910539977 1.8849854108787514 0 0 0 0 -7.8169547463330673 0.010395159570947499 0 0.010395159570947499 0.26669156768082303 0 0 0 0 -20.438501317003102 22.394638140682531 0 22.394638140682531 -12.599530844639844 0 0 0 0 -0.73026894169971435 -1.5368201475933994 0 -1.5368201475933994 0.86847678925745708 0 0 0 0 -8.0663436453924078 -0.087852037259338545 0 -0.087852037259338545 1.0046870016502503 0 0 0 0 -3.986843555819533 -0.31839031853939836 0 -0.31839031853939836 1.2511580197540386 0 0 0 0 -5.1382623221379617 -4.4585857255977146 0 -4.4585857255977146 -2.2554351473693544 0 0 0 0 -5.0615331673052424 -6.0173281895037007 0 -6.0173281895037007 -3.6246227424470412 0 0 0 0 -0.055425786824223167 -0.23444388284787721 0 -0.23444388284787721 0.059758710860327302 0 0 0 0 -1.4235802628027159 -3.7770206170133207 0 -3.7770206170133207 20.790966220536717 0 0 0 0 -0.88005189119212446 -6.3344159005959852 0 -6.3344159005959852 18.843620597093977 0 0 0 0 -4.1434020111155405 -3.7725207360332291 0 -3.7725207360332291 20.796914456729375 0 0 0 0 -5.1526701402990511 -3.1935243973526184 0 -3.1935243973526184 17.507958439747469 0 0 0 0 -5.8232272122550057 0.18505289088670551 0 0.18505289088670551 0.53813768152767594 0 0 0 0 -1.3537474579007025 0.40311352267844569 0 0.40311352267844569 -0.0028211819699181517 0 0 0 0 -0.42751499995956976 -0.044410644494533358 0 -0.044410644494533358 0.053441080721741474 0 0 0 0 2.2722668922833691 -5.4348630954062447 0 -5.4348630954062447 18.968523547378162 0 0 0 0 -4.7761535495301359 -4.3187274231573687 0 -4.3187274231573687 17.072580180556649 0 0 0 0 -3.0025592983001843 -2.2306423811321352 0 -2.2306423811321352 17.901281715393299 0 0 0 0 -2.8722679567472369 2.5112417919644812 0 2.5112417919644812 9.6710318579391412 0 0 0 0 1.3260083663190017 -5.6079250449443627 0 -5.6079250449443627 5.367186598515179 0 0 0 0 2.8381154825365229 -0.76711131603040705 0 -0.76711131603040705 1.5603095048044313 0 0 0 0 -1.1168216749119892 -7.7622884863469181 0 -7.7622884863469181 14.639995257673064 0 0 0 0 -0.06910112224211673 -0.023085195733186126 0 -0.023085195733186126 0.016986936668010096 0 0 0 0 4.610872887647929 -8.2783420724244046 0 -8.2783420724244046 -0.0031656836887373951 0 0 0 0 -7.4516721189629607 -9.0931403073998371 0 -9.0931403073998371 1.9460849189944636 0 0 0 0 -8.3880439502190711 3.2054434961767613 0 3.2054434961767613 2.5924323996889154 0 0 0 0 -58.815430432548609 -0.34269132317258166 0 -0.34269132317258166 6.2046335573269253 0 0 0 0 -41.583920622638288 -7.9018515513502301 0 -7.9018515513502301 0.0056376654988384315 0 0 0 0 -25.887780173288775 -7.1593244921453749 0 -7.1593244921453749 -4.8222879435648416 0 0 0 0 -8.7212954768083364 11.517622382757978 0 11.517622382757978 5.4578878349251312 0 0 0 0 0.54465306537531433 -3.5780230175821899 0 -3.5780230175821899 7.1646413574092378 0 0 0 0 -0.10010332249935772 -0.015661627902378683 0 -0.015661627902378683 0.044551885420653303 0 0 0 0 -33.984075957279856 -5.9507923627063803 0 -5.9507923627063803 1.5288998904963407 0 0 0 0 -42.771814636540512 -0.35965915858434983 0 -0.35965915858434983 -7.3623453312137173 0 0 0 0 -34.498752089770278 -7.5960497451924809 0 -7.5960497451924809 -3.7262377778988451 0 0 0 0 -43.118940092290359 -2.0855126151560235 0 -2.0855126151560235 8.3837610428180724 0 0 0 0 -53.433884042718475 -4.1433110892548495 0 -4.1433110892548495 5.3894442088213026 0 0 0 0 -42.774346595308089 3.3663898186265939 0 3.3663898186265939 2.2629498104065249 0 0 0 0 -34.788678393837472 -6.1690942241787212 0 -6.1690942241787212 -3.5338561372159205 0 0 0 0 -20.547278776770327 -21.040569847662852 0 -21.040569847662852 4.8145805110928173 0 0 0 0 -1.6804634197960695 -10.920327229832431 0 -10.920327229832431 -2.4085100078679176 0 0 0 0 -13.846940657624145 -14.234082815546472 0 -14.234082815546472 -2.8256182965363443 0 0 0 0 -32.893991618377186 -2.6759280316172465 0 -2.6759280316172465 -0.2308519669060729 0 0 0 0 -40.686568502466102 -6.3068914009169639 0 -6.3068914009169639 2.2030860844935205 0 0 0 0 -38.326889044288691 -4.1873553749452554 0 -4.1873553749452554 3.3868803913276793 0 0 0 0 -15.445317101967021 -13.336088146913307 0 -13.336088146913307 9.9721256537677618 0 0 0 0 -14.424813024397736 -6.9194331481135407 0 -6.9194331481135407 -1.763705204867307 0 0 0 0 -4.6526703794515925 8.677101315870118 0 8.677101315870118 20.322763075057736 0 0 0 0 -1.0744862739244496 0.8572715851637831 0 0.8572715851637831 -0.2871272695716669 0 0 0 0 -19.199137179821264 -7.7300384541435108 0 -7.7300384541435108 22.051666377122871 0 0 0 0 -19.165058523009066 -4.5453008550383345 0 -4.5453008550383345 8.3888585334857595 0 0 0 0 -13.2639841978189 -5.2805622517260673 0 -5.2805622517260673 3.602693533891113 0 0 0 0 -15.787842913980057 -10.582042192710716 0 -10.582042192710716 6.5749519267187111 0 0 0 0 -18.515817966333088 -11.100487565664089 0 -11.100487565664089 7.0794251538820845 0 0 0 0 -13.148725643746729 -7.3477544295115962 0 -7.3477544295115962 7.2765342648066849 0 0 0 0 -9.8792135423955187 -9.428167674849405 0 -9.428167674849405 2.7769130042786969 0 0 0 0 -11.265962323924214 -4.9033224385531291 0 -4.9033224385531291 1.4932741165216328 0 0 0 0 -14.993154065450653 -4.6901172366952153 0 -4.6901172366952153 2.7919025015793011 0 0 0 0 -16.50362221078467 -8.3387285181019308 0 -8.3387285181019308 2.9607511870579764 0 0 0 0 -21.712961699701737 24.800242754890476 0 24.800242754890476 19.726086856371808 0 0 0 0 -2.1305477365016561 -1.3433709316381623 0 -1.3433709316381623 0.8767749744875164 0 0 0 0 -0.87642102668733912 -2.334550557654488 0 -2.334550557654488 0.91098132911503937 0 0 0 0 -15.472594894388749 1.201104970342036 0 1.201104970342036 0.66387686537124146 0 0 0 0 -261.2691304324253 -46.292158378368413 0 -46.292158378368413 249.41341426065969 0 0 0 0 -53.677313041036541 3.7927945831560521 0 3.7927945831560521 18.428291839645112 0 0 0 0 -39.192297553709068 34.629120993457406 0 34.629120993457406 72.970292354873095 0 0 0 0 -2.0595462574491261 0.051778013610036311 0 0.051778013610036311 0.16617031298720747 0 0 0 0 -35.865046662174791 -4.4926108195210261 0 -4.4926108195210261 4.4999226749483547 0 0 0 0 -23.600514010644474 1.6394938909272412 0 1.6394938909272412 -4.2841259990836988 0 0 0 0 -18.226835966981525 -4.380684947903859 0 -4.380684947903859 2.0090571453763459 0 0 0 0 -1.8530366565724989 -3.9498900553723999 0 -3.9498900553723999 1.511999549250497 0 0 0 0 -21.474503226429078 -2.2357642460269176 0 -2.2357642460269176 2.7901906592155661 0 0 0 0 -31.837698499344697 10.765936746179563 0 10.765936746179563 -3.4878268391005349 0 0 0 0 -13.995335584349959 -5.2578326959288404 0 -5.2578326959288404 2.8321185064530709 0 0 0 0 -25.334391824580962 -0.65815734701271822 0 -0.65815734701271822 0.45026036391340085 0 0 0 0 -22.59039676114844 0.59431271601607705 0 0.59431271601607705 0.85775423664074424 0 0 0 0 -21.855787641723509 -5.839628720699011 0 -5.839628720699011 2.0463404349965231 0 0 0 0 -6.0309627996781412 -4.4472417439058063 0 -4.4472417439058063 -0.38545822614638348 0 0 0 0 -22.414943846144524 -0.4844253296566734 0 -0.4844253296566734 0.64239033226976971 0 0 0 0 -4.5785265411883662 -0.61138736576246799 0 -0.61138736576246799 2.3276579958755246 0 0 0 0 -18.04942647941607 -3.6462701463303668 0 -3.6462701463303668 0.2142896283916782 0 0 0 0 -22.919752550167686 -3.8292773974381689 0 -3.8292773974381689 1.5661190297745549 0 0 0 0 -17.384661035636508 -1.0822043076626726 0 -1.0822043076626726 0.90738700943287487 0 0 0 0 -18.717334379261956 -1.3784929899019751 0 -1.3784929899019751 2.9886387428364571 0 0 0 0 -18.02836016557012 -4.1618326528241596 0 -4.1618326528241596 1.9435100426773602 0 0 0 0 -22.047273515763663 -3.3170672262222638 0 -3.3170672262222638 -3.6607929854664008 0 0 0 0 -14.728555395308781 -1.1175593047348542 0 -1.1175593047348542 2.6555666219798368 0 0 0 0 -13.852040811904438 -0.46922090904845692 0 -0.46922090904845692 1.6963333607211002 0 0 0 0 -10.099322632372605 -2.888908934379117 0 -2.888908934379117 0.74005684936946636 0 0 0 0 -10.003424263851336 -4.12125771066132 0 -4.12125771066132 -0.59132603465810929 0 0 0 0 -14.41993829891814 -1.519703487421145 0 -1.519703487421145 1.8754185951531204 0 0 0 0 -13.085369917651406 -3.4253693226819451 0 -3.4253693226819451 0.63908757703416086 0 0 0 0 -7.4139616378089537 -5.0179201756236935 0 -5.0179201756236935 -1.0765469001252432 0 0 0 0 -19.285850814092555 -11.525019221508614 0 -11.525019221508614 -4.3767390964549122 0 0 0 0 -13.302210833524441 -3.3458288486705214 0 -3.3458288486705214 1.7454561185977582 0 0 0 0 -13.116058148643788 -2.986812236308424 0 -2.986812236308424 1.7287043784149319 0 0 0 0 -13.306088497698511 -2.7744031048946454 0 -2.7744031048946454 2.3247849160206897 0 0 0 0 -8.3932199689687934 2.0260538653516935 0 2.0260538653516935 1.9537683600251756 0 0 0 0 -20.313679075667096 8.5270834237994677 0 8.5270834237994677 7.7837158371199564 0 0 0 0 -21.32949280030698 3.7178379060610496 0 3.7178379060610496 7.9889322945331003 0 0 0 0 -19.55160246370906 10.695071605057819 0 10.695071605057819 13.529822420311802 0 0 0 0 -21.691179276650018 4.6281844703016759 0 4.6281844703016759 11.737367554404045 0 0 0 0 -29.036380559216923 5.7429415327287643 0 5.7429415327287643 23.093743432782958 0 0 0 0 -24.352088013327375 4.7540392739376784 0 4.7540392739376784 21.447925356885207 0 0 0 0 -32.438702776124046 9.686251069847458 0 9.686251069847458 18.597031552599674 0 0 0 0 -31.586830757276402 4.5974850304396568 0 4.5974850304396568 21.338196051250179 0 0 0 0 -24.474971571449714 -7.9977671498270411 0 -7.9977671498270411 16.971194331781703 0 0 0 0 -26.986737055695812 5.7948145443021986 0 5.7948145443021986 21.362327797661237 0 0 0 0 -35.339686489396627 -22.252756971732246 0 -22.252756971732246 11.337151849983542 0 0 0 0 -22.75103395689257 -37.134204314667024 0 -37.134204314667024 -38.549497344221919 0 0 0 0 -18.249097394738783 -2.8082065355622206 0 -2.8082065355622206 4.0716568794657633 0 0 0 0 -22.709986983807799 -2.6475021441437772 0 -2.6475021441437772 2.6820386877230309 0 0 0 0 -5.4231944323526804 -1.0564160026475662 0 -1.0564160026475662 -1.6325120596019334 0 0 0 0 -18.118223272482282 -0.61726428628037411 0 -0.61726428628037411 -2.2339690403605346 0 0 0 0 0.50303926141839916 0.48291188662483719 0 0.48291188662483719 1.0744157163776151 0 0 0 0 129.98458652479439 19.697585709981013 0 19.697585709981013 -33.123764790912446 0 0 0 0 -15.506109570402259 54.581312992329458 0 54.581312992329458 17.41967177969741 0 0 0 0 2.9668720577824388 7.3054009199304915 0 7.3054009199304915 20.548250848841235 0 0 0 0 91.376078853814761 117.67099090572538 0 117.67099090572538 -36.00694495902917 0 0 0 0 -154.7164346474492 117.41258841094168 0 117.41258841094168 57.217247887992926 0 0 0 0 -24.532869209921046 35.754936715617077 0 35.754936715617077 19.864079850316614 0 0 0 0 -203.72834362410867 -36.39717623107731 0 -36.39717623107731 33.163689153340272 0 0 0 0 -67.426399996924374 5.726673441917228 0 5.726673441917228 42.591448944700915 0 0 0 0 -86.406424652383976 -19.14552864963639 0 -19.14552864963639 27.748816257019826 0 0 0 0 -43.701264984279987 -11.078572052924756 0 -11.078572052924756 24.972260383296543 0 0 0 0 -52.473745980602416 6.6611303368127892 0 6.6611303368127892 25.971277562111027 0 0 0 0 -26.561981478355847 14.607064770883653 0 14.607064770883653 17.120568719064977 0 0 0 0 -23.728969324705758 13.238734295151062 0 13.238734295151062 17.077423360419743 0 0 0 0 -73.525837376867457 15.202746926628151 0 15.202746926628151 28.176555767982336 0 0 0 0 -35.997457939028209 17.230577784080651 0 17.230577784080651 27.932561032628655 0 0 0 0 -18.928662295937102 20.784837554355363 0 20.784837554355363 13.991304520606718 0 0 0 0 -2.8894084527111765 1.0991689985628081 0 1.0991689985628081 3.8327923421458205 0 0 0 0 -14.660593320108092 0.77342326701432285 0 0.77342326701432285 0.42884292513281252 0 0 0 0 -11.542703077823717 12.941901908281125 0 12.941901908281125 9.5751110033772875 0 0 0 0 -15.766619051433281 1.7333538868216465 0 1.7333538868216465 6.6926585011424322 0 0 0 0 -12.310880067162088 1.7981698684797038 0 1.7981698684797038 -4.0857626425495255 0 0 0 0 -2.1456477051445138 -0.43996846591475425 0 -0.43996846591475425 0.11487498035564148 0 0 0 0 -1.7969787588520383 -0.8231506390255614 0 -0.8231506390255614 0.35556926474719397 0 0 0 0 -19.39434183308731 -4.5748761494226073 0 -4.5748761494226073 20.930004020814522 0 0 0 0 -12.869891184032895 4.071396564132101 0 4.071396564132101 8.2284824957250748 0 0 0 0 -15.398903423034426 0.73100368985433306 0 0.73100368985433306 14.872878104023584 0 0 0 0 -25.904972615982842 -0.10458698027946411 0 -0.10458698027946411 1.4621998056900338 0 0 0 0 -26.513959803469334 4.2148989644040284 0 4.2148989644040284 12.751534227736101 0 0 0 0 -25.628324560114777 -10.95492126466781 0 -10.95492126466781 3.5252409905783679 0 0 0 0 -45.452534279558677 14.669289274918356 0 14.669289274918356 35.465940469948379 0 0 0 0 -28.686479553655772 -2.2218376157954935 0 -2.2218376157954935 32.733191626939742 0 0 0 0 31.538264078032171 -49.155391471120083 0 -49.155391471120083 37.363272890492226 0 0 0 0 9.4526556334021734 -7.1333159564803736 0 -7.1333159564803736 13.623254006560501 0 0 0 0 -26.73173934128863 -3.2985261684461875 0 -3.2985261684461875 23.068174584937879 0 0 0 0 -11.833940403103952 -25.256603112804328 0 -25.256603112804328 44.872470425892971 0 0 0 0 -38.267653572966083 -43.197379501413423 0 -43.197379501413423 95.638741812649641 0 0 0 0 -57.908721701827744 -4.5271783598666389 0 -4.5271783598666389 66.099061854138654 0 0 0 0 -16.327630891541958 22.272787507018506 0 22.272787507018506 29.335917105505587 0 0 0 0 -5.0077480942146018 0.94610976166331451 0 0.94610976166331451 -0.074039948308195269 0 0 0 0 -7.5834430268440656 37.202774279887876 0 37.202774279887876 61.204123538341719 0 0 0 0 -57.708932397397803 -26.518882135765807 0 -26.518882135765807 25.42439984044222 0 0 0 0 -35.461684811928535 -66.149288322219377 0 -66.149288322219377 -6.5630249261339486 0 0 0 0 -88.288084565400823 -71.429243951670628 0 -71.429243951670628 -8.6439096362009593 0 0 0 0 -89.429756324580012 -60.884757032839389 0 -60.884757032839389 -12.324074553279388 0 0 0 0 -83.550568770965356 -65.484134278986431 0 -65.484134278986431 -8.7456344909523978 0 0 0 0 -78.635260294358886 -49.963837026857618 0 -49.963837026857618 -7.4988395412255215 0 0 0 0 167.87014618005196 -11.247123095376992 0 -11.247123095376992 53.313076788449507 0 0 0 0 -1.8092708064694172 0.12314720132860124 0 0.12314720132860124 0.079140345253607025 0 0 0 0 -91.11737254399668 -53.92019152352259 0 -53.92019152352259 16.020448271085797 0 0 0 0 -114.046752619377 -32.995364718878136 0 -32.995364718878136 -2.9100505335613889 0 0 0 0 -12.01097996131557 163.724364092408 0 163.724364092408 12.798311144694253 0 0 0 0 -85.824587117101828 -52.12439106380603 0 -52.12439106380603 -70.873395143015841 0 0 0 0 -113.82040612156743 -8.4567271200517098 0 -8.4567271200517098 -38.805532650421128 0 0 0 0 -88.702315123847256 -24.094603056654393 0 -24.094603056654393 -29.854180243309656 0 0 0 0 -93.260096675860041 -47.661001332312026 0 -47.661001332312026 -41.84163275715099 0 0 0 0 -55.55620111363578 -59.302221124614675 0 -59.302221124614675 -44.276773702627679 0 0 0 0 -87.287758710819617 -93.898295372296388 0 -93.898295372296388 -69.438856189839157 0 0 0 0 -3.2101758239772451 1.0184554625429847 0 1.0184554625429847 0.51565935819603803 0 0 0 0 -101.07794740120016 -81.57523266961357 0 -81.57523266961357 -24.779633187810077 0 0 0 0 -78.647897593275957 -71.088677477972055 0 -71.088677477972055 -38.938845789434026 0 0 0 0 -21.504999643089832 -14.267595681600483 0 -14.267595681600483 39.240200261273515 0 0 0 0 39.824415689760826 73.816545927511925 0 73.816545927511925 83.512047571200696 0 0 0 0 8.9967720487957195 -23.350108801095132 0 -23.350108801095132 -8.6495460539100577 0 0 0 0 18.849058247166568 76.154012176257567 0 76.154012176257567 52.440474829056257 0 0 0 0 -55.793341320076706 12.806855364179455 0 12.806855364179455 -8.8972318033024749 0 0 0 0 -81.673819696118699 -37.432553297923164 0 -37.432553297923164 3.3085543711466698 0 0 0 0 -56.316563606123566 -30.907790778894903 0 -30.907790778894903 -4.1475980831323795 0 0 0 0 -115.75336889765867 -17.964008700673958 0 -17.964008700673958 20.774995011007377 0 0 0 0 -103.44116028841017 18.744584709275841 0 18.744584709275841 26.211199758921794 0 0 0 0 -64.613664410058391 -39.701062004027676 0 -39.701062004027676 -30.120329299523974 0 0 0 0 -84.135291131022313 27.446149414646925 0 27.446149414646925 -43.755431292696358 0 0 0 0 -204.11043208629144 -45.442597101380898 0 -45.442597101380898 -3.263561610477268 0 0 0 0 -1.3555600474922915 0.2263118515414817 0 0.2263118515414817 0.20067319700539876 0 0 0 0 -114.3919193021411 -138.264750072119 0 -138.264750072119 -152.90478214663312 0 0 0 0 -43.697757509979056 -3.400702374876289 0 -3.400702374876289 -18.873172838677192 0 0 0 0 -60.935605382382164 -53.75081895495839 0 -53.75081895495839 -39.981836824373431 0 0 0 0 -79.880874532936502 24.051868387707032 0 24.051868387707032 -12.0111403747228 0 0 0 0 -3.7606601984839472 29.968532399732737 0 29.968532399732737 18.455195772183401 0 0 0 0 12.947286475920919 8.1367567618078738 0 8.1367567618078738 -17.981834186672927 0 0 0 0 13.784430877081377 17.234955091035772 0 17.234955091035772 -14.669923361171072 0 0 0 0 27.730929942350031 -7.7544555223269072 0 -7.7544555223269072 -11.857817931915861 0 0 0 0 -1.713442162899355 11.530988928033395 0 11.530988928033395 -9.4164044799209705 0 0 0 0 -19.959771218235801 -18.488855519398271 0 -18.488855519398271 -32.734933807754658 0 0 0 0 23.833898044766102 -40.730434266840859 0 -40.730434266840859 -7.1879031999854703 0 0 0 0 -1.7064046015687975 -1.7237712399372809 0 -1.7237712399372809 -0.22551049263209988 0 0 0 0 90.883319000007759 -105.32762424164417 0 -105.32762424164417 33.380152225024176 0 0 0 0 -29.465161073473382 4.2144424456989782 0 4.2144424456989782 8.1089804477317102 0 0 0 0 -57.115509948785984 -37.786962285987329 0 -37.786962285987329 7.3230197171154003 0 0 0 0 -110.44145644436003 40.948052033489461 0 40.948052033489461 1.0575208362499779 0 0 0 0 29.73303117459227 -71.472628933147575 0 -71.472628933147575 44.145375108804203 0 0 0 0 1.597595009975521 7.3013914733956824 0 7.3013914733956824 24.00487205022273 0 0 0 0 -87.800988395369586 -21.403056833887661 0 -21.403056833887661 28.041036109546894 0 0 0 0 -18.614604329218309 6.9676438032516046 0 6.9676438032516046 13.915760786843464 0 0 0 0 -64.935952743111557 1.9654980889406772 0 1.9654980889406772 42.751249422601688 0 0 0 0 -1.2796652726335775 -0.69464566418158746 0 -0.69464566418158746 1.6687857298249211 0 0 0 0 7.5705451265762349 3.6293513708235707 0 3.6293513708235707 9.0981306076007513 0 0 0 0 6.8402942018237809 6.8349951018971069 0 6.8349951018971069 3.398980844663356 0 0 0 0 -1.0556447679285483 0.4938469544891122 0 0.4938469544891122 4.8848871553743418 0 0 0 0 7.746081260685969 -34.118723047305863 0 -34.118723047305863 31.988480087943259 0 0 0 0 3.0006763784858776 -12.5146321083174 0 -12.5146321083174 12.418234539497234 0 0 0 0 -1.3027189748765053 -1.4668687838082093 0 -1.4668687838082093 0.4079691796537579 0 0 0 0 -1.7305315985569791 -4.653680230281271 0 -4.653680230281271 3.5935909408151234 0 0 0 0 0.89232480485657106 -5.9166290946236444 0 -5.9166290946236444 5.8495910461778067 0 0 0 0 -2.3507786919819864 -6.8118807011373406 0 -6.8118807011373406 9.2220042596870826 0 0 0 0 -3.5145603395444596 -7.8809787050310263 0 -7.8809787050310263 13.561743383039357 0 0 0 0 0.33133139439910786 -5.6440460839904372 0 -5.6440460839904372 10.605129934942831 0 0 0 0 -15.821651858577752 -0.63629280730219762 0 -0.63629280730219762 16.990177282769082 0 0 0 0 -21.737725098774717 -5.3321120645133533 0 -5.3321120645133533 20.760271934339016 0 0 0 0 -4.0488727795336672 -7.5113764625426711 0 -7.5113764625426711 12.403860069510301 0 0 0 0 -9.3844719880961129 1.5465780069274233 0 1.5465780069274233 2.1645373960313083 0 0 0 0 -15.910223979259172 -8.2744220080992363 0 -8.2744220080992363 18.590777976029585 0 0 0 0 -3.0886530885472894 3.7266868337601409 0 3.7266868337601409 10.663913960367609 0 0 0 0 -0.33927241659057472 10.657120350431285 0 10.657120350431285 27.862394492596877 0 0 0 0 -1.7972643743032677 19.988136091876413 0 19.988136091876413 10.357316002373295 0 0 0 0 -5.8573608632046898 16.918693617272254 0 16.918693617272254 44.995371676151535 0 0 0 0 -7.5002545053661898 1.7156117824798782 0 1.7156117824798782 -0.23351376284790781 0 0 0 0 -4.3251708210345896 2.2066325595644116 0 2.2066325595644116 15.704809915274836 0 0 0 0 -12.677150399031234 -5.0708420268897498 0 -5.0708420268897498 23.538319958697457 0 0 0 0 -7.9023876095052401 -2.7100349264438819 0 -2.7100349264438819 15.63075563856637 0 0 0 0 -15.481353771012436 6.6982027359636049 0 6.6982027359636049 36.575418629252908 0 0 0 0 -14.500000697020369 -5.2246217149017866 0 -5.2246217149017866 3.8128000595768299 0 0 0 0 -17.676610291101269 2.6708994783466551 0 2.6708994783466551 15.083301928233141 0 0 0 0 -22.79669650327196 -10.641966191944334 0 -10.641966191944334 12.13294538508535 0 0 0 0 -14.961492285006898 1.6577246868487236 0 1.6577246868487236 16.093328283654387 0 0 0 0 -14.916409338801714 -1.8034235411484474 0 -1.8034235411484474 2.8914242877258403 0 0 0 0 -16.955314907630964 -4.6502402281055311 0 -4.6502402281055311 7.2161115800943207 0 0 0 0 -14.86408866414763 -2.2545978169127494 0 -2.2545978169127494 6.5174305441423712 0 0 0 0 -28.423509107275095 -6.9187809128382014 0 -6.9187809128382014 5.4466077617070141 0 0 0 0 -35.138359159213906 5.6376550386736426 0 5.6376550386736426 7.7966504986011387 0 0 0 0 -12.050079971916221 0.38402717365649863 0 0.38402717365649863 6.8432654324130038 0 0 0 0 -12.236354962145924 1.8799910174557226 0 1.8799910174557226 8.2358156542427423 0 0 0 0 -0.78604598700700024 -0.98098108286771701 0 -0.98098108286771701 2.6823905614269288 0 0 0 0 -8.7008865615230206 -4.8817268663120785 0 -4.8817268663120785 7.0373499841990679 0 0 0 0 -11.917083267794624 -12.448455425190559 0 -12.448455425190559 16.139955925511003 0 0 0 0 -10.046246125514354 -3.8139757293703873 0 -3.8139757293703873 7.2345998664317932 0 0 0 0 -1.4383045627521795 -3.8161883934260024 0 -3.8161883934260024 2.2452506818724913 0 0 0 0 -16.981819019963041 -9.9594749814100396 0 -9.9594749814100396 34.035704855634719 0 0 0 0 -34.278244866754903 -30.23712644380123 0 -30.23712644380123 10.266424063474688 0 0 0 0 -7.1773602915022821 -9.133831516819896 0 -9.133831516819896 8.5221339360462025 0 0 0 0 -1.1943759206105824 -14.935344086290911 0 -14.935344086290911 5.0372642865017951 0 0 0 0 -8.3899433441497422 -9.2699878124161046 0 -9.2699878124161046 11.562152969009162 0 0 0 0 -0.95573879271943341 -5.4945551150517229 0 -5.4945551150517229 11.624139593329396 0 0 0 0 -13.323645847148327 -13.702012069528678 0 -13.702012069528678 8.2530780780107307 0 0 0 0 -88.078874493859075 -30.462469276790046 0 -30.462469276790046 0.24333136001932587 0 0 0 0 -45.797384533418381 24.214183986028161 0 24.214183986028161 3.017124233309687 0 0 0 0 19.877263000530547 -22.121334086581669 0 -22.121334086581669 -1.5596416331482033 0 0 0 0 -22.789029196554111 -36.154097496124905 0 -36.154097496124905 -5.5365941613545147 0 0 0 0 -42.514330213160065 -18.204338628564528 0 -18.204338628564528 27.238469204992271 0 0 0 0 -81.777467125857584 -34.992320980139311 0 -34.992320980139311 23.061130779332302 0 0 0 0 14.093735376783115 40.994092006301855 0 40.994092006301855 32.703525075181915 0 0 0 0 -49.279286570110344 11.589737193586757 0 11.589737193586757 42.837741661447865 0 0 0 0 -45.419306284121831 1.5161907821187697 0 1.5161907821187697 -40.91597948751928 0 0 0 0 -144.73805355002241 -113.9877741402737 0 -113.9877741402737 -4.2082604956565888 0 0 0 0 -0.45153051426910551 0.3712006132500747 0 0.3712006132500747 -0.46381334961773568 0 0 0 0 71.963056802228948 63.316030998840972 0 63.316030998840972 4.7658702167498177 0 0 0 0 -52.668046718637925 46.372166154803779 0 46.372166154803779 14.957550646053605 0 0 0 0 -72.652404327483055 37.219251114738569 0 37.219251114738569 3.7681868607002116 0 0 0 0 -82.150496754150481 25.066651578862547 0 25.066651578862547 0.10359500044103243 0 0 0 0 -73.783179081823619 33.608525317929249 0 33.608525317929249 -60.136030827613595 0 0 0 0 -73.781406002757649 32.936801818670084 0 32.936801818670084 -20.215685273455065 0 0 0 0 -99.510823500467268 17.293177404883181 0 17.293177404883181 -4.7231193583219238 0 0 0 0 -62.775801366037285 21.841741596915881 0 21.841741596915881 -13.109650378477049 0 0 0 0 -70.358223991093837 37.858477709390954 0 37.858477709390954 -13.499426630597831 0 0 0 0 -89.173083372996189 12.466500091349658 0 12.466500091349658 -4.6562701072960238 0 0 0 0 -81.964657294562585 6.3013386010247814 0 6.3013386010247814 -11.045437140708145 0 0 0 0 -37.822573119019353 1.723597962023689 0 1.723597962023689 -10.664031542127304 0 0 0 0 -129.00234006613618 11.101738540609119 0 11.101738540609119 12.64009266721223 0 0 0 0 -0.55521904053380666 -0.40561100764983493 0 -0.40561100764983493 -0.026058602596847003 0 0 0 0 -0.19130180475648473 0.3741192038323109 0 0.3741192038323109 0.70209281339104002 0 0 0 0 -91.213067964314178 12.411758893226832 0 12.411758893226832 12.557243348136264 0 0 0 0 -47.131514292236261 -25.314833495184438 0 -25.314833495184438 -10.050374762727529 0 0 0 0 -38.983178746849717 31.526134746856677 0 31.526134746856677 17.777600081618658 0 0 0 0 -98.600712413178826 4.1625596178590882 0 4.1625596178590882 21.848998402828869 0 0 0 0 -95.398411394106006 14.507902450295887 0 14.507902450295887 -2.4902059775285323 0 0 0 0 -104.89345678760856 37.140799092611203 0 37.140799092611203 0.20611777742067261 0 0 0 0 -110.63494259884556 42.073129301053712 0 42.073129301053712 22.446707736920708 0 0 0 0 -63.530487219742895 12.431219187077239 0 12.431219187077239 27.718720529626353 0 0 0 0 -123.92021415446743 72.219339322878568 0 72.219339322878568 6.647261080008775 0 0 0 0 -156.53204816713151 46.188012759155413 0 46.188012759155413 22.60461946923472 0 0 0 0 -119.30001550317411 71.353318478159622 0 71.353318478159622 0.047096267871036712 0 0 0 0 -16.795572472235108 -13.414244753188768 0 -13.414244753188768 -42.978845894167421 0 0 0 0 -81.802698659614066 50.358237484041553 0 50.358237484041553 -4.6516847266930199 0 0 0 0 -85.131469730165009 124.6802743295605 0 124.6802743295605 -103.92077281110551 0 0 0 0 -165.76879437361549 -20.482250808307754 0 -20.482250808307754 -67.045615180071536 0 0 0 0 -237.68180645071334 99.959123558898909 0 99.959123558898909 3.1190327334366259 0 0 0 0 22.425742765128234 -1.4692110939804479 0 -1.4692110939804479 3.9064009739217056 0 0 0 0 -29.552594398869815 -15.058188073426635 0 -15.058188073426635 20.790084447396623 0 0 0 0 -52.564237806870551 58.298856373197395 0 58.298856373197395 -18.675305678285213 0 0 0 0 -125.86676561385411 60.702477827997427 0 60.702477827997427 -5.0625055596071888 0 0 0 0 -1.4771844096150524 0.86423378311078203 0 0.86423378311078203 -0.74055061730099592 0 0 0 0 -24.443155220993503 12.847442361041203 0 12.847442361041203 9.1941518154073094 0 0 0 0 -7.3694749921758103 9.4173940470202933 0 9.4173940470202933 7.8558240697332167 0 0 0 0 -4.1515525767064432 0.65606910263577234 0 0.65606910263577234 6.0699860498357188 0 0 0 0 -2.7020035690202349 -16.507982126705997 0 -16.507982126705997 17.935214860294025 0 0 0 0 -75.908341637845297 71.702830193060095 0 71.702830193060095 -33.60757305712373 0 0 0 0 -30.411128124033894 35.611561429795444 0 35.611561429795444 -20.339876657326954 0 0 0 0 -112.01981994674497 60.951613040180632 0 60.951613040180632 -34.358766327203853 0 0 0 0 -101.01136487563053 38.871314823417208 0 38.871314823417208 -10.862871031264262 0 0 0 0 -170.61426093579121 73.720319951266163 0 73.720319951266163 -2.9422454414319645 0 0 0 0 28.289350084320176 28.501263925375838 0 28.501263925375838 -23.426678463671237 0 0 0 0 -0.15977729671569263 -0.50483938379291793 0 -0.50483938379291793 -0.23580709665018773 0 0 0 0 -81.014914514587872 38.934387057145599 0 38.934387057145599 -10.867245854259078 0 0 0 0 -93.260037501046213 31.195783624812641 0 31.195783624812641 -14.926307468527369 0 0 0 0 -83.02541551955801 44.56040298216579 0 44.56040298216579 -26.398197951763393 0 0 0 0 -55.052395268140572 29.823507163442905 0 29.823507163442905 -13.702024447769219 0 0 0 0 -75.926650081366461 50.822421349574071 0 50.822421349574071 -22.273680611423536 0 0 0 0 -85.898021159449172 47.11882589457101 0 47.11882589457101 -22.90040420655842 0 0 0 0 -4.0973135298818306 -3.5707216673347304 0 -3.5707216673347304 1.5325703563515987 0 0 0 0 -0.96566490128924087 0.32588473617478186 0 0.32588473617478186 -0.045901450924754728 0 0 0 0 -16.324016279693751 24.938161085218141 0 24.938161085218141 -38.630645248295139 0 0 0 0 -78.00284634322179 16.707118303923096 0 16.707118303923096 4.1558142604770865 0 0 0 0 -81.773244877398724 22.259691163870603 0 22.259691163870603 -1.8671087181523944 0 0 0 0 -0.22249840156377942 -0.029819734546032706 0 -0.029819734546032706 -0.045464320549140069 0 0 0 0 -1.1450400064111044 1.1550816904353542 0 1.1550816904353542 0.7354875165619571 0 0 0 0 6.4205958165258039 20.228642973744599 0 20.228642973744599 -2.4732964460596634 0 0 0 0 7.132043254090604 32.078851711487076 0 32.078851711487076 104.50186817962972 0 0 0 0 -5.4568579608165546 1.0464039634380695 0 1.0464039634380695 2.5618004990073135 0 0 0 0 87.275301456220404 2.8876745329511522 0 2.8876745329511522 5.6422788650943261 0 0 0 0 -5.9710869720224764 5.5289302723578828 0 5.5289302723578828 -1.2090183807451353 0 0 0 0 -23.109827230203337 -7.1103872767656924 0 -7.1103872767656924 12.525041305628747 0 0 0 0 -32.702654606899159 33.23579505119308 0 33.23579505119308 -1.4610900226843455 0 0 0 0 -1.5699912377422507 1.3512911269284267 0 1.3512911269284267 -1.1564344653869814 0 0 0 0 -4.5929923731885474 3.5818808119045666 0 3.5818808119045666 -1.461277373175929 0 0 0 0 -60.184440239052037 3.8002464399847327 0 3.8002464399847327 9.1504309414335125 0 0 0 0 -4.695383348034575 0.46688748964410198 0 0.46688748964410198 5.1532583703284907 0 0 0 0 -4.6762445958815988 -7.9205505224939117 0 -7.9205505224939117 -2.6625858612543425 0 0 0 0 -3.9312871417960196 7.0813952119214605 0 7.0813952119214605 12.583392530653555 0 0 0 0 -16.538294111953292 6.0181291897212077 0 6.0181291897212077 16.443829311764546 0 0 0 0 -12.701609788125324 5.2017874716118087 0 5.2017874716118087 12.875808909426269 0 0 0 0 -3.956641005631182 14.55378472285142 0 14.55378472285142 14.634612147037501 0 0 0 0 -7.8060535420427186 9.9975050052777306 0 9.9975050052777306 18.203785136634338 0 0 0 0 7.1710945374752555 6.4263975614193782 0 6.4263975614193782 -16.040227057467632 0 0 0 0 24.521036557662228 36.352822171792056 0 36.352822171792056 -43.278184813776178 0 0 0 0 11.319238743024471 -1.2666362187262479 0 -1.2666362187262479 -1.7776220713149087 0 0 0 0 -12.421536177416783 18.212217603826133 0 18.212217603826133 3.6322238273427274 0 0 0 0 -3.786180481887186 67.676970350230022 0 67.676970350230022 -6.3612851721925097 0 0 0 0 -61.121043953478875 13.488403408157296 0 13.488403408157296 26.308715391727588 0 0 0 0 -17.626085988734076 7.8125337655090448 0 7.8125337655090448 14.888743992886475 0 0 0 0 -1.7939749750256322 0.83187285935581379 0 0.83187285935581379 -0.6405531085240731 0 0 0 0 -29.41732548976961 133.48578427912565 0 133.48578427912565 -157.91325275281432 0 0 0 0 -56.981974106433881 -33.150567989134629 0 -33.150567989134629 7.0795625482499558 0 0 0 0 0.16402985368490697 0.19947558930386933 0 0.19947558930386933 -1.0337104439139861 0 0 0 0 14.288564942985317 0.32974720973685678 0 0.32974720973685678 -71.557817868048389 0 0 0 0 0.77702941514417034 32.321659253335042 0 32.321659253335042 1.0327621254341537 0 0 0 0 -275.58714170111682 -43.595067482446375 0 -43.595067482446375 36.685953124962921 0 0 0 0 -3.7507206450812021 2.5865486033032674 0 2.5865486033032674 -1.4170707711935369 0 0 0 0 -499.56029825842324 -255.17577047263811 0 -255.17577047263811 -79.668638202461992 0 0 0 0 -289.10505582007863 -115.37399411715239 0 -115.37399411715239 10.98648292628863 0 0 0 0 -500.03186533592816 -100.18656145539424 0 -100.18656145539424 94.97284078073028 0 0 0 0 -55.367509664118188 101.18127387713682 0 101.18127387713682 11.188656830000895 0 0 0 0 -280.52491963210196 -86.579029856147656 0 -86.579029856147656 20.213796903458707 0 0 0 0 15.981759324015002 101.5176554052948 0 101.5176554052948 5.4466592201484758 0 0 0 0 -419.50251559192202 115.42749526780486 0 115.42749526780486 121.84115764846412 0 0 0 0 -450.64948790780363 -123.80438692675764 0 -123.80438692675764 28.876003149397832 0 0 0 0 -380.26301782230848 -10.306466914269912 0 -10.306466914269912 92.494032857118071 0 0 0 0 -499.89984938525652 -1.4049908891457619 0 -1.4049908891457619 -131.06423114858123 0 0 0 0 -549.87662654400901 13.343670481369546 0 13.343670481369546 -78.581366341567843 0 0 0 0 97.386689827352711 33.310253323740938 0 33.310253323740938 -105.5166167712373 0 0 0 0 -600.63992055492599 -130.54063611586503 0 -130.54063611586503 -29.678915246111615 0 0 0 0 -1.7498162827612944 1.6358907340951276 0 1.6358907340951276 -1.9386809694895293 0 0 0 0 85.77706070799286 89.720736822150343 0 89.720736822150343 -117.52682943449378 0 0 0 0 88.835700979021567 107.64918614804364 0 107.64918614804364 -17.909415818068737 0 0 0 0 63.362220139856618 62.141569813985569 0 62.141569813985569 -73.928099655211611 0 0 0 0 72.420383920692984 36.47682992308296 0 36.47682992308296 -70.43219347466092 0 0 0 0 -50.473075490612246 66.750803448846625 0 66.750803448846625 -32.375360842127833 0 0 0 0 40.0413451349159 70.325602592240386 0 70.325602592240386 -24.036689595236368 0 0 0 0 -37.412086716376507 44.74602635472155 0 44.74602635472155 -21.03789548994547 0 0 0 0 -57.184685574435207 6.0860732655635843 0 6.0860732655635843 19.668047647131971 0 0 0 0 14.227499017118134 39.910194393748952 0 39.910194393748952 -26.060991713190106 0 0 0 0 97.786530554162709 13.104182583565375 0 13.104182583565375 -53.537174237871341 0 0 0 0 18.20120609907849 22.575743998126427 0 22.575743998126427 -21.490219874466902 0 0 0 0 54.893163627329159 -7.2385875822250227 0 -7.2385875822250227 0.20406682426482803 0 0 0 0 -4.4232048098908052 4.7804232148727106 0 4.7804232148727106 -4.4374075345523174 0 0 0 0 46.098037177762308 103.38833017966931 0 103.38833017966931 26.312667917278162 0 0 0 0 24.414599702170563 -13.359052018333898 0 -13.359052018333898 -8.4532400181719822 0 0 0 0 -112.17571823703258 103.17295700157115 0 103.17295700157115 -29.786160226942457 0 0 0 0 -18.764857343160429 87.27835592761906 0 87.27835592761906 42.638947178225862 0 0 0 0 -243.50738033268578 -72.679427049075159 0 -72.679427049075159 -30.458024482734459 0 0 0 0 -246.03570834713429 -15.101297130541349 0 -15.101297130541349 -17.229238060317144 0 0 0 0 -500.12551748949227 15.435709174912187 0 15.435709174912187 79.373133503305112 0 0 0 0 -499.97149891162309 -42.511786199988713 0 -42.511786199988713 -18.8390432961383 0 0 0 0 -427.951788204693 30.029377539417819 0 30.029377539417819 52.396842722097738 0 0 0 0 -380.19832767460412 -124.28180099308555 0 -124.28180099308555 -29.865249351738385 0 0 0 0 -258.75395640286547 -54.738343447517579 0 -54.738343447517579 -35.075975495667755 0 0 0 0 -12.096050149991243 50.032507701092072 0 50.032507701092072 54.951285322154384 0 0 0 0 -4.6818106246633953 3.491904043672954 0 3.491904043672954 -2.3459296340072013 0 0 0 0 -246.34595613140186 -83.596039661360706 0 -83.596039661360706 -35.117426200691483 0 0 0 0 -307.87008460379366 -132.76485752301858 0 -132.76485752301858 -69.628786124575782 0 0 0 0 -1.8891823908106229 1.2541324855348055 0 1.2541324855348055 -1.1191922214973931 0 0 0 0 -500.1784784354129 98.149128554817821 0 98.149128554817821 -370.81253690665483 0 0 0 0 -688.60135950584981 -169.83455406731829 0 -169.83455406731829 -72.916947718489439 0 0 0 0 35.896308259507123 139.05922395069757 0 139.05922395069757 -186.74336843737677 0 0 0 0 -33.77598764276263 -13.214336800110345 0 -13.214336800110345 -13.141696074700121 0 0 0 0 -32.607576276382133 29.356190150545387 0 29.356190150545387 57.174615900775848 0 0 0 0 -31.026333710834251 -1.1162651543538118 0 -1.1162651543538118 35.843658171259449 0 0 0 0 -21.256352959818287 -14.65751111228775 0 -14.65751111228775 -22.251517585442002 0 0 0 0 -20.011150912585094 -16.160211169698655 0 -16.160211169698655 1.7998784759906812 0 0 0 0 -22.486888967885307 -2.5898627514404495 0 -2.5898627514404495 16.152677748665155 0 0 0 0 -20.051300397196201 0.21345084822650051 0 0.21345084822650051 17.984909743214075 0 0 0 0 -18.375775046078161 -0.41686627820718059 0 -0.41686627820718059 16.74772622368846 0 0 0 0 -8.6414805143576814 12.525418704906315 0 12.525418704906315 20.765108056332735 0 0 0 0 -12.429760025127507 3.6498181112849579 0 3.6498181112849579 1.6599512046971086 0 0 0 0 -4.3266568724538956 24.233715733008353 0 24.233715733008353 37.238174314257243 0 0 0 0 -1.8813564271295036 7.5574126582389454 0 7.5574126582389454 9.1745864104286738 0 0 0 0 31.305950923969704 27.049759105207841 0 27.049759105207841 16.336011604635928 0 0 0 0 -30.879700838378653 -40.584503624955033 0 -40.584503624955033 16.457236851144444 0 0 0 0 0.2672716174748464 -0.34936486960294211 0 -0.34936486960294211 -0.21213492879880613 0 0 0 0 -4.1488734720278444 11.238876763512053 0 11.238876763512053 6.7117925773162597 0 0 0 0 -20.308705290485705 23.529270175092961 0 23.529270175092961 9.7086932015957359 0 0 0 0 -2.0502400186078464 0.23545801569698499 0 0.23545801569698499 0.6164076213317311 0 0 0 0 -71.516742386677663 -1.5554998189723253 0 -1.5554998189723253 -40.144082988433524 0 0 0 0 -72.815178995751921 -3.613699520489849 0 -3.613699520489849 -19.490906852848994 0 0 0 0 -5.2595473849600767 4.9182235461978401 0 4.9182235461978401 -3.2316811020819558 0 0 0 0 -11.439861623448564 2.8282086038878731 0 2.8282086038878731 0.94822568188101286 0 0 0 0 -9.8984627105929519 11.676251452149522 0 11.676251452149522 5.6371633080150332 0 0 0 0 -2.3388734471147492 2.4616315609114015 0 2.4616315609114015 5.5523899209685297 0 0 0 0 0.023641016301553464 7.1550433897390917 0 7.1550433897390917 4.4637181827999282 0 0 0 0 -8.8002553090063884 7.034038572933639 0 7.034038572933639 4.4698174933496375 0 0 0 0 -15.335139620836799 -7.5404650073302264 0 -7.5404650073302264 0.05390250337390512 0 0 0 0 -58.373820066479766 -38.335520537362321 0 -38.335520537362321 -28.011328585838445 0 0 0 0 -6.7314276413436325 2.9459928043653187 0 2.9459928043653187 2.4179364466255557 0 0 0 0 -5.7609148077565857 3.0149808590317502 0 3.0149808590317502 0.66071117189167383 0 0 0 0 -4.6030790639317214 4.6462912829294201 0 4.6462912829294201 0.29910175985577947 0 0 0 0 -5.5706005497549995 0.70311816926044912 0 0.70311816926044912 2.5242429066026943 0 0 0 0 -10.061923069870273 0.64750619356599248 0 0.64750619356599248 1.8947848915591583 0 0 0 0 -92.063656453798103 -36.895749476366419 0 -36.895749476366419 -20.135692594544878 0 0 0 0 -70.906087879924598 -44.522147252932278 0 -44.522147252932278 -15.292197439660491 0 0 0 0 -81.17960808633643 -16.581966386084471 0 -16.581966386084471 -13.802890527885438 0 0 0 0 -51.406681303227742 -41.169863875755468 0 -41.169863875755468 -6.8598777558466537 0 0 0 0 8.0041007663812707 3.5794129941157067 0 3.5794129941157067 -14.869214489819967 0 0 0 0 -51.937951437113952 -33.906374997538819 0 -33.906374997538819 -34.823917884467932 0 0 0 0 -1.8340546323508384 0.29133299773905375 0 0.29133299773905375 0.78332179272244529 0 0 0 0 -66.037721664681158 -24.790158268470229 0 -24.790158268470229 1.2132516961117545 0 0 0 0 -60.720508573596817 -35.506264296765963 0 -35.506264296765963 -34.803509852894138 0 0 0 0 -65.163314057871048 -22.589155591976777 0 -22.589155591976777 -37.529192014981064 0 0 0 0 -93.848277363263151 -22.96022172877872 0 -22.96022172877872 -23.937619331683138 0 0 0 0 -102.59896220578958 -34.711037795665028 0 -34.711037795665028 -24.233015512548207 0 0 0 0 -153.96775042166701 24.435938356718747 0 24.435938356718747 -35.663552136297007 0 0 0 0 -278.95969201778826 6.0318917520256932 0 6.0318917520256932 16.779873559790431 0 0 0 0 -114.91818270058457 -7.4145429522331696 0 -7.4145429522331696 -29.846537158782155 0 0 0 0 -188.62141034052183 -49.935380092467881 0 -49.935380092467881 -11.339604258078367 0 0 0 0 -205.11720131267793 -18.469258678779333 0 -18.469258678779333 22.275908477118826 0 0 0 0 -314.82173928979046 -74.190769774209059 0 -74.190769774209059 14.763926952771776 0 0 0 0 -215.08436993083114 -60.589990504646195 0 -60.589990504646195 -43.859691668677762 0 0 0 0 -203.6358964389965 -101.03043699556514 0 -101.03043699556514 -30.717473675374386 0 0 0 0 -74.628477292621596 -52.966847415611603 0 -52.966847415611603 -44.067923470838295 0 0 0 0 -500.18296275307875 -83.463215161437532 0 -83.463215161437532 58.5792867427255 0 0 0 0 -347.06394509416782 5.9290991148298033 0 5.9290991148298033 59.637504028999935 0 0 0 0 -279.64646908368979 22.385877039021857 0 22.385877039021857 62.257473447595608 0 0 0 0 -498.91525680711493 91.792624645491955 0 91.792624645491955 83.57220975577134 0 0 0 0 -246.9079840069553 185.07377863021148 0 185.07377863021148 -17.028210177570887 0 0 0 0 -112.55350274371449 -6.7771238517580974 0 -6.7771238517580974 -23.821697315132077 0 0 0 0 -80.787902144490545 7.3710439069656104 0 7.3710439069656104 -25.795713527823604 0 0 0 0 -15.336041599984213 -44.200539569668081 0 -44.200539569668081 -2.7520654667410227 0 0 0 0 -5.2790557920015999 164.74117253744345 0 164.74117253744345 -33.128036041894859 0 0 0 0 -499.32478078597342 -108.20723414423922 0 -108.20723414423922 111.32365802865313 0 0 0 0 -1.789258943454648 0.75155761278771038 0 0.75155761278771038 -0.25116174287898957 0 0 0 0 -120.82046948693278 -22.839229042360401 0 -22.839229042360401 70.589029354898145 0 0 0 0 -208.30835477988239 -27.322347649299861 0 -27.322347649299861 74.896019441412349 0 0 0 0 -44.54645618350014 76.604202218187368 0 76.604202218187368 45.139867783287478 0 0 0 0 -73.39515361925578 93.969329314877768 0 93.969329314877768 153.53476613009272 0 0 0 0 -3.0326712593385849 1.5101742246661312 0 1.5101742246661312 -0.4457351131782345 0 0 0 0 10.530131469326534 75.747256213797101 0 75.747256213797101 -122.12231295215079 0 0 0 0 -230.9626799851776 111.0752807289997 0 111.0752807289997 50.907946945837537 0 0 0 0 -499.12514608628896 176.0956833167042 0 176.0956833167042 -21.436365927929842 0 0 0 0 29.516871783735041 115.40740270939118 0 115.40740270939118 13.276049563132347 0 0 0 0 -138.14926791264679 22.108662469895563 0 22.108662469895563 32.072192094105503 0 0 0 0 -78.800910077643493 77.453123280436444 0 77.453123280436444 -0.02260116671058654 0 0 0 0 20.137594127336797 43.73326933121961 0 43.73326933121961 -30.491578015238019 0 0 0 0 94.267576741082848 32.041703172554662 0 32.041703172554662 -34.328335468874499 0 0 0 0 -105.89157565328969 -46.264610539076841 0 -46.264610539076841 25.162963446650515 0 0 0 0 -1.199952676261308 0.75033948745621704 0 0.75033948745621704 -0.35901518572726021 0 0 0 0 0.032324651941032734 -0.23966255146724968 0 -0.23966255146724968 0.7805199038709727 0 0 0 0 -28.944605665299605 -25.046010083154329 0 -25.046010083154329 0.52540041809114157 0 0 0 0 -57.181524481660517 -42.57499068051245 0 -42.57499068051245 21.994318623746572 0 0 0 0 -89.26279403073022 -30.555556941658157 0 -30.555556941658157 20.035181602563227 0 0 0 0 -32.706337628265828 -17.147001235847014 0 -17.147001235847014 4.2038466462547035 0 0 0 0 -50.14131325499693 15.852105511371654 0 15.852105511371654 109.85868913720573 0 0 0 0 -59.307031605894736 -45.187520437081758 0 -45.187520437081758 -7.552680781870091 0 0 0 0 -62.252578682695457 -27.791194201031786 0 -27.791194201031786 20.784801407443791 0 0 0 0 -59.77118218987755 -34.273720858485738 0 -34.273720858485738 -33.216811011212684 0 0 0 0 -52.174680462609558 -37.987578474144883 0 -37.987578474144883 -32.806276910724236 0 0 0 0 -1.4680495631460015 -0.52990056304997246 0 -0.52990056304997246 1.008506574703866 0 0 0 0 -24.870224982830223 7.7849759955361151 0 7.7849759955361151 11.670177690191224 0 0 0 0 -58.791381353586985 -28.687763596997574 0 -28.687763596997574 -22.672796011723641 0 0 0 0 -59.330212246995757 -42.455225712348977 0 -42.455225712348977 -15.128150235106474 0 0 0 0 -11.579107043105523 -1.8756811831559048 0 -1.8756811831559048 1.9965287481563223 0 0 0 0 -3.9189711370124627 1.7478705460975323 0 1.7478705460975323 -10.073006081269796 0 0 0 0 -11.714527877515366 0.18270618265273697 0 0.18270618265273697 3.4758097612371444 0 0 0 0 -1.5337939851305171 -0.064886193359851241 0 -0.064886193359851241 1.7891825691586787 0 0 0 0 -15.90953432019478 19.244730115561872 0 19.244730115561872 6.3014835772153788 0 0 0 0 -5.7124964667975613 2.7870765199749696 0 2.7870765199749696 2.8762575588479988 0 0 0 0 -57.691459798037386 117.72505149547733 0 117.72505149547733 -26.044721584929967 0 0 0 0 -18.712608950585491 -23.109993298684685 0 -23.109993298684685 -1.474101835356592 0 0 0 0 -0.051640394680334545 -0.080908480690190743 0 -0.080908480690190743 0.29026179466911439 0 0 0 0 -87.675020589029373 -17.347904759565019 0 -17.347904759565019 19.999628089582405 0 0 0 0 40.363771599687425 8.2390032972155396 0 8.2390032972155396 -25.78989256220957 0 0 0 0 -8.3980371519843544 1.0795632479219535 0 1.0795632479219535 3.6551896404126865 0 0 0 0 -2.117336841060939 0.12632903658437655 0 0.12632903658437655 3.3890100211052805 0 0 0 0 -4.6849269793678676 0.99964276949407616 0 0.99964276949407616 3.5015855376179674 0 0 0 0 -8.3852357716893096 0.13541274528948399 0 0.13541274528948399 3.72649860221361 0 0 0 0 42.452652059852653 -12.890391625379008 0 -12.890391625379008 -10.597930420116882 0 0 0 0 -4.2202195088713079 -0.18109325599425574 0 -0.18109325599425574 3.3480005502011645 0 0 0 0 -1.2261188584097047 1.2587625336628046 0 1.2587625336628046 3.7885993150509019 0 0 0 0 -5.3426595536557215 -5.3267070577116193 0 -5.3267070577116193 5.8499752884253517 0 0 0 0 -51.571451066868121 -72.352181958497312 0 -72.352181958497312 -28.354940872914245 0 0 0 0 21.914844570489549 -26.199698956779724 0 -26.199698956779724 -7.0247531568241044 0 0 0 0 -27.160766329514445 48.024684315079661 0 48.024684315079661 6.2205902101344606 0 0 0 0 -280.78746189784442 71.160844796037509 0 71.160844796037509 -13.796618779467508 0 0 0 0 -165.60864550439419 119.45820393805604 0 119.45820393805604 -91.091046203780223 0 0 0 0 -1.7950667408235947 0.34204458894475032 0 0.34204458894475032 -0.64099155207382452 0 0 0 0 4.3502488146332325 50.205604940942976 0 50.205604940942976 -121.73868885469147 0 0 0 0 -9.3395134038210017 1.2369659886759337 0 1.2369659886759337 8.2346187210323478 0 0 0 0 -9.0948134893402823 -8.9699540561999243 0 -8.9699540561999243 12.131099678659666 0 0 0 0 -152.45209529235399 58.123081954987811 0 58.123081954987811 -14.313135123587017 0 0 0 0 -4.0737481567863743 -2.3927054551870475 0 -2.3927054551870475 -1.1651723133134251 0 0 0 0 -14.54466010042438 -0.92078816996746582 0 -0.92078816996746582 -9.6755600686547041 0 0 0 0 -20.406181845205083 -4.9517776801740183 0 -4.9517776801740183 11.344261393799314 0 0 0 0 -19.275777620519875 5.0602340777012387 0 5.0602340777012387 7.4557644641606373 0 0 0 0 -34.840708107913997 -9.2137765656813144 0 -9.2137765656813144 8.703149548437068 0 0 0 0 -67.799917785663638 -54.031484898454664 0 -54.031484898454664 -39.712836906291727 0 0 0 0 -112.9124147486948 -59.528612988160376 0 -59.528612988160376 4.5434122675495701 0 0 0 0 -89.579555113095921 -41.157732426113967 0 -41.157732426113967 -2.7743379428952721 0 0 0 0 -96.991855479392825 -35.198966505120467 0 -35.198966505120467 16.377379430541282 0 0 0 0 -47.836602488253789 3.7131090093306511 0 3.7131090093306511 28.141263878562427 0 0 0 0 -79.901981246182459 -41.238215713595196 0 -41.238215713595196 -0.5827773268256351 0 0 0 0 -31.715637752464318 -12.738083869145214 0 -12.738083869145214 -6.5523350540554475 0 0 0 0 -8.2450368479840108 -2.962440701021535 0 -2.962440701021535 -6.4003181397469007 0 0 0 0 0.20037464149819892 0.31170859900135106 0 0.31170859900135106 0.53691992426689517 0 0 0 0 -7.2333659112430269 -2.589291875557592 0 -2.589291875557592 -0.33503332037594191 0 0 0 0 -39.68539021620802 -3.7575016635738052 0 -3.7575016635738052 21.215961233999337 0 0 0 0 -0.75540090287684425 0.68834149811956102 0 0.68834149811956102 0.17745181620030781 0 0 0 0 -11.035288520267386 24.138267304978058 0 24.138267304978058 -4.766191103508163 0 0 0 0 -63.688701185257287 -34.347627148244044 0 -34.347627148244044 22.377826994938687 0 0 0 0 -60.909000983001533 34.535764261968268 0 34.535764261968268 -14.551429166584853 0 0 0 0 -27.748781058718578 10.152997956964441 0 10.152997956964441 -10.841274244695256 0 0 0 0 -3.8010045436099631 -3.1647750683366738 0 -3.1647750683366738 22.10033982519883 0 0 0 0 -0.91934154005757751 -1.1079498072818221 0 -1.1079498072818221 0.073258406538919907 0 0 0 0 -0.43171591188981195 -0.035271510431921005 0 -0.035271510431921005 5.4672236092235771 0 0 0 0 -23.120505466565419 10.078516678477882 0 10.078516678477882 16.95474227817067 0 0 0 0 5.7312280681624088 -47.62921781420151 0 -47.62921781420151 -2.8327656732187734 0 0 0 0 -202.70404611111962 25.464336808957427 0 25.464336808957427 -14.55955632123181 0 0 0 0 -0.29483328660253871 -0.23446446086484896 0 -0.23446446086484896 -0.45538171588653298 0 0 0 0 -136.78304551960537 -32.999889878905151 0 -32.999889878905151 -10.194284591642713 0 0 0 0 -196.02306680177981 -68.363204021456454 0 -68.363204021456454 -29.793774703960139 0 0 0 0 -134.1675765353321 -79.088349663106655 0 -79.088349663106655 -37.957750710376274 0 0 0 0 -112.49757444405554 -53.998780460209602 0 -53.998780460209602 -11.461094844908075 0 0 0 0 -121.55563630673305 -58.29076358872021 0 -58.29076358872021 9.8430788439241468 0 0 0 0 -143.57683535503611 -38.852402458912934 0 -38.852402458912934 3.1253025977350717 0 0 0 0 -93.996248251344696 -14.9995983819652 0 -14.9995983819652 13.07866901055985 0 0 0 0 -110.13429866007527 -55.359680390184309 0 -55.359680390184309 -39.149249809288449 0 0 0 0 -113.65726889315647 -57.64431455626206 0 -57.64431455626206 -2.455734357021953 0 0 0 0 -1.0964751062742364 0.24495132525179208 0 0.24495132525179208 0.6683559764828757 0 0 0 0 -146.69323387862596 -89.661535551226791 0 -89.661535551226791 -34.714940758871023 0 0 0 0 -115.42966137440771 -63.912135910430834 0 -63.912135910430834 -31.715963238329884 0 0 0 0 -34.314603776517743 -38.185158470150554 0 -38.185158470150554 -41.62933102020336 0 0 0 0 -106.917213846084 -61.174154188254306 0 -61.174154188254306 -29.315439659436777 0 0 0 0 -13.666342217654801 10.314228415805118 0 10.314228415805118 -15.428345698875674 0 0 0 0 -54.885383524550889 -27.799199852858692 0 -27.799199852858692 -34.533281488111299 0 0 0 0 -31.431332129191105 -1.7614877161173013 0 -1.7614877161173013 -20.889675071414899 0 0 0 0 -31.296518693510279 -6.0483705731099349 0 -6.0483705731099349 1.7271912025521488 0 0 0 0 -74.795632766431481 -23.666906428562925 0 -23.666906428562925 -22.479450753729679 0 0 0 0 -38.220674771492668 -29.842769904111265 0 -29.842769904111265 -33.248459934716664 0 0 0 0 -76.124759196741707 -51.895589039010247 0 -51.895589039010247 -51.405433999838806 0 0 0 0 -65.505224142810221 -19.987026082288992 0 -19.987026082288992 -29.552159469673597 0 0 0 0 -97.528957270307473 -32.11711424209696 0 -32.11711424209696 -43.466692162878871 0 0 0 0 -139.91467934333332 -31.231309244606223 0 -31.231309244606223 -28.449283844243723 0 0 0 0 -42.944349603735645 -25.037004918457342 0 -25.037004918457342 -47.715541794029377 0 0 0 0 -63.603509262729858 -37.656205576242257 0 -37.656205576242257 -45.744695091238555 0 0 0 0 -95.170704548593505 -15.615934794514779 0 -15.615934794514779 -53.173590609681014 0 0 0 0 -47.758261427537946 -16.65637661343942 0 -16.65637661343942 -68.937630990794332 0 0 0 0 -45.8562995873001 -25.267658900285866 0 -25.267658900285866 -70.042504796649155 0 0 0 0 -131.17086016259555 -23.57696980040555 0 -23.57696980040555 -45.511144335242193 0 0 0 0 -121.22311120598988 -32.615724060599518 0 -32.615724060599518 -46.639513929198415 0 0 0 0 -0.62729016946104554 0.088674598856922415 0 0.088674598856922415 0.40677414922831501 0 0 0 0 -102.0473063401862 22.871747187417384 0 22.871747187417384 6.9799537733879333 0 0 0 0 -175.86070575534814 -108.45510374148864 0 -108.45510374148864 -56.50561537770281 0 0 0 0 -123.21324695089288 -50.804412896703695 0 -50.804412896703695 5.1278243119696754 0 0 0 0 -181.32491552019337 -75.007070665855849 0 -75.007070665855849 1.5072500223968746 0 0 0 0 -190.14668623699492 58.44752399873466 0 58.44752399873466 -114.77268755219313 0 0 0 0 -72.389258646957842 7.6141611770375448 0 7.6141611770375448 -143.47423996272028 0 0 0 0 -280.20118178113466 23.090011459987458 0 23.090011459987458 -37.937314826755028 0 0 0 0 -300.34325180403857 178.59575012982589 0 178.59575012982589 -79.110447319493232 0 0 0 0 -30.287582771215455 -82.156596105267596 0 -82.156596105267596 -67.442480181360452 0 0 0 0 -1.2006382096218342 -0.77610905698259458 0 -0.77610905698259458 -0.78102004284637605 0 0 0 0 -181.4225895709933 107.12176796127176 0 107.12176796127176 -60.850133554908666 0 0 0 0 -208.69049673667359 110.71734285984985 0 110.71734285984985 -13.678633771984551 0 0 0 0 -115.19775188858443 -5.5440052755700719 0 -5.5440052755700719 -44.186808619881504 0 0 0 0 -54.015395961398099 49.616809006837798 0 49.616809006837798 1.5715206299856028 0 0 0 0 -103.86757881452286 56.549840462417819 0 56.549840462417819 -8.8150983323447178 0 0 0 0 -21.554121187427654 -40.59836206154813 0 -40.59836206154813 2.8056660452298274 0 0 0 0 -123.98162708858217 47.475001666885078 0 47.475001666885078 -2.7490767652259365 0 0 0 0 154.57143473740507 -103.45358628429312 0 -103.45358628429312 8.3398209227573261 0 0 0 0 -1.4726000357576536 -1.8014736227758092 0 -1.8014736227758092 -1.1910020168530631 0 0 0 0 -34.980239507468013 -34.758550265646022 0 -34.758550265646022 17.379888170885579 0 0 0 0 2.1452039473242621 -7.2974256880557959 0 -7.2974256880557959 49.567782980817441 0 0 0 0 -22.365982848783062 -74.499471357240992 0 -74.499471357240992 44.220484791674608 0 0 0 0 128.92622499894605 8.6132863213264272 0 8.6132863213264272 -57.967858231941705 0 0 0 0 79.004331219537107 -107.14171545990951 0 -107.14171545990951 -132.34683417097449 0 0 0 0 -99.526430926321154 -26.453374521625904 0 -26.453374521625904 -63.31517399945821 0 0 0 0 -1.0093906858832256 -0.0030826929600458186 0 -0.0030826929600458186 -0.099899316975105457 0 0 0 0 -24.316332123195025 0.59606853320315167 0 0.59606853320315167 -116.57630917683599 0 0 0 0 -101.5993006573658 17.484980622347763 0 17.484980622347763 -88.022736790005183 0 0 0 0 4.1117157935332216 -34.791489118958452 0 -34.791489118958452 -100.78927549754621 0 0 0 0 2.8318712985646926 -29.411059693579887 0 -29.411059693579887 -106.31363663487332 0 0 0 0 -7.5161653434606706 -30.861305830025685 0 -30.861305830025685 -96.230937688044378 0 0 0 0 0.37328499632349121 -41.615288006337096 0 -41.615288006337096 -84.230750739496443 0 0 0 0 -15.554032874248151 -55.495283971448089 0 -55.495283971448089 -150.67240364913255 0 0 0 0 -11.434872340335232 -4.396919845812846 0 -4.396919845812846 -122.45052884749566 0 0 0 0 -9.5449023836520155 -35.755521410861974 0 -35.755521410861974 -106.8259036621148 0 0 0 0 -6.1748478220797551 -40.394207671021491 0 -40.394207671021491 -100.60947963148544 0 0 0 0 -19.709640589938317 -1.0032060767966868 0 -1.0032060767966868 -79.728219332155959 0 0 0 0 -23.779096575869517 -14.830049302817315 0 -14.830049302817315 -49.336012413531535 0 0 0 0 -2.0513162680447596 0.26719466399829894 0 0.26719466399829894 -0.10778301737995122 0 0 0 0 -192.00038809085527 36.054804949482786 0 36.054804949482786 -93.741359069924783 0 0 0 0 75.851714430909851 -102.07542435537084 0 -102.07542435537084 -108.72643450900023 0 0 0 0 -209.85175858959792 -8.0488801263700793 0 -8.0488801263700793 17.429299300328466 0 0 0 0 -0.55340018520209355 -0.73122285948487864 0 -0.73122285948487864 -0.77629598357801255 0 0 0 0 128.40743410793036 -105.05457377362184 0 -105.05457377362184 -126.72119465927653 0 0 0 0 4.6925852372078225 -46.408404887236486 0 -46.408404887236486 -35.665064770319987 0 0 0 0 -117.16558858396002 -113.60274149432564 0 -113.60274149432564 -39.824901887153203 0 0 0 0 -108.40062584511088 -20.487558340002806 0 -20.487558340002806 20.37761632754291 0 0 0 0 -82.018170586365159 -38.227850431186084 0 -38.227850431186084 -35.679097768201018 0 0 0 0 -60.94365454052695 1.6547120128319079 0 1.6547120128319079 7.7951303491918225 0 0 0 0 -77.482115737168897 -20.043263263762242 0 -20.043263263762242 12.732649010332466 0 0 0 0 -87.011740228808776 2.3087028998990036 0 2.3087028998990036 17.552118891045382 0 0 0 0 -139.08241709442859 -24.744034002296246 0 -24.744034002296246 -2.4886874625599376 0 0 0 0 -51.166438558912887 -4.8578311564235719 0 -4.8578311564235719 -15.694514412207582 0 0 0 0 -25.819083961058709 20.503041914412918 0 20.503041914412918 -40.936387736198412 0 0 0 0 -86.209108591943277 21.335549185336447 0 21.335549185336447 -31.530819430591123 0 0 0 0 -1.1497315133007895 0.1131384872252239 0 0.1131384872252239 -0.059982209969337008 0 0 0 0 -148.82603788211145 -43.433257935267363 0 -43.433257935267363 -49.636239054512203 0 0 0 0 -85.065260682590633 -64.151949543048431 0 -64.151949543048431 -72.495750407833043 0 0 0 0 -115.30204702730771 -70.337318519760174 0 -70.337318519760174 -73.015448549852181 0 0 0 0 -76.94956914430486 9.9877213995141574 0 9.9877213995141574 -67.10572996730059 0 0 0 0 -114.84288442776506 -33.321991981098535 0 -33.321991981098535 -48.027571635842492 0 0 0 0 -80.474383544747752 56.905723343795692 0 56.905723343795692 2.9665583955516581 0 0 0 0 34.125539388440558 -11.338483174918604 0 -11.338483174918604 -15.794222918398873 0 0 0 0 -67.804900281889445 31.652451642437669 0 31.652451642437669 1.1550162412927989 0 0 0 0 75.17333469082314 21.12000876651085 0 21.12000876651085 -41.087275236654236 0 0 0 0 -62.693319216546115 -86.418067579814078 0 -86.418067579814078 -105.18952135953543 0 0 0 0 0.040914700218694477 0.24573388259633866 0 0.24573388259633866 -0.80025335771028727 0 0 0 0 -23.495415319970107 61.018764689268508 0 61.018764689268508 -18.584989627454291 0 0 0 0 -51.815281101666642 -54.657254555345162 0 -54.657254555345162 -46.766118682589877 0 0 0 0 -19.064894482726231 -54.794949461314332 0 -54.794949461314332 -110.30122943539209 0 0 0 0 -22.552048373124308 -23.684847577392361 0 -23.684847577392361 -104.38175252294175 0 0 0 0 -14.472571597382284 -40.640004780549361 0 -40.640004780549361 -69.636599196469206 0 0 0 0 -24.34463149437488 -28.942765734705631 0 -28.942765734705631 -69.203818631352675 0 0 0 0 -34.22934048308889 -24.036273330785434 0 -24.036273330785434 -71.229870581123919 0 0 0 0 -34.494791979009278 -29.98173199796463 0 -29.98173199796463 -42.755729365757361 0 0 0 0 -44.806408768646634 -26.78237851403162 0 -26.78237851403162 -22.641976453592406 0 0 0 0 -18.799055101047088 -14.709850810057901 0 -14.709850810057901 -45.893890611883137 0 0 0 0 -7.937943318471298 3.481288952641421 0 3.481288952641421 -26.392339634509824 0 0 0 0 -1.2902365943504233 0.30457354165764361 0 0.30457354165764361 -1.6740456979559717 0 0 0 0 -41.28638148482014 -20.223365365391516 0 -20.223365365391516 -8.9034192530566543 0 0 0 0 -10.245211148800081 -2.1533202786060883 0 -2.1533202786060883 -5.4928656011065868 0 0 0 0 34.697096104976751 9.3513993398567408 0 9.3513993398567408 -11.063396158080025 0 0 0 0 -1.2588281713594753 0.65563215210449499 0 0.65563215210449499 -0.15524670078506397 0 0 0 0 -0.58518004254437983 -0.71242871659946871 0 -0.71242871659946871 13.269801774073272 0 0 0 0 -12.259776990561477 -26.468703477017243 0 -26.468703477017243 -25.717762180725231 0 0 0 0 -23.609484711843834 -21.05244371321885 0 -21.05244371321885 -28.079031934357772 0 0 0 0 -26.801731537703745 -10.8155300871299 0 -10.8155300871299 8.3507262388143317 0 0 0 0 -0.83791578089767427 13.469074796318409 0 13.469074796318409 1.2695986059036386 0 0 0 0 12.916906200723133 -0.55505604695252941 0 -0.55505604695252941 5.8107827877036016 0 0 0 0 -16.705357383969385 -8.2698665779388421 0 -8.2698665779388421 -18.03494528626311 0 0 0 0 -36.275899283573494 -6.3361488904133552 0 -6.3361488904133552 -8.3416318187639718 0 0 0 0 -18.247257970645478 1.8947554940036753 0 1.8947554940036753 0.61564333696469475 0 0 0 0 11.689963640284077 14.043513757657649 0 14.043513757657649 -8.0071885863565058 0 0 0 0 -14.36297681576616 -8.2979165116058198 0 -8.2979165116058198 -0.071708039457462291 0 0 0 0 -5.7025926150650283 4.7197269770446422 0 4.7197269770446422 -2.5038085000043351 0 0 0 0 -16.971102838320803 6.0489491409058473 0 6.0489491409058473 -7.6646877449934436 0 0 0 0 0.092600129181846569 -7.0447879903249202 0 -7.0447879903249202 -6.9861773485739604 0 0 0 0 12.558106744099859 7.3445747544898268 0 7.3445747544898268 -13.518460774278651 0 0 0 0 1.1303706627106358 1.0430748619556751 0 1.0430748619556751 -1.00343108707958 0 0 0 0 -5.9279926377655556 13.406930522444412 0 13.406930522444412 -8.2468185203847497 0 0 0 0 -3.2915317701626918 -23.959411106570862 0 -23.959411106570862 -0.53201527899085477 0 0 0 0 -7.0902564553419056 -3.2022473424487887 0 -3.2022473424487887 0.33573005737419137 0 0 0 0 -13.760576091686346 -5.2816324724465176 0 -5.2816324724465176 -7.3708700814264887 0 0 0 0 -23.750163894660318 -2.0222941116097104 0 -2.0222941116097104 5.9073437593684019 0 0 0 0 -22.092538389017591 7.9372317102489163 0 7.9372317102489163 7.1078059727438756 0 0 0 0 0.49319464579639316 14.430545845502891 0 14.430545845502891 -9.3365580907900174 0 0 0 0 -193.68935785150325 -101.36960679729646 0 -101.36960679729646 34.159354323846514 0 0 0 0 -23.786289347935963 -95.449312235197112 0 -95.449312235197112 75.307549551383573 0 0 0 0 -44.584362014891667 -18.979929026033801 0 -18.979929026033801 31.240677229472112 0 0 0 0 -19.166461855460284 -114.25440017008667 0 -114.25440017008667 -155.31177143164697 0 0 0 0 45.052798022958996 16.588073769737818 0 16.588073769737818 30.501664074837223 0 0 0 0 -14.782285862129925 88.630574258898434 0 88.630574258898434 -217.91981315582828 0 0 0 0 -0.32769053107955415 -31.004367811555479 0 -31.004367811555479 30.850789825982304 0 0 0 0 221.54845674800481 -74.347850646888219 0 -74.347850646888219 -124.21673499242956 0 0 0 0 -62.092661338529524 -5.6444014954395456 0 -5.6444014954395456 12.326193596015202 0 0 0 0 0.18795486761758529 -0.24673605142959154 0 -0.24673605142959154 0.63970525394227296 0 0 0 0 -14.874556214896984 -35.439670864153804 0 -35.439670864153804 -16.273956033911986 0 0 0 0 -0.38637768884026968 -6.6606908606368611 0 -6.6606908606368611 -9.4633205323984342 0 0 0 0 -0.31378520768057871 -0.31367841587034972 0 -0.31367841587034972 0.38218061617971033 0 0 0 0 -27.470410383404896 -12.399505900418024 0 -12.399505900418024 4.0554150060325931 0 0 0 0 -13.747702504897461 -17.80780057352581 0 -17.80780057352581 36.047853397883955 0 0 0 0 -5.0381814959263274 -2.0885881587692978 0 -2.0885881587692978 2.8603441969504608 0 0 0 0 -14.120088978494181 -8.3690341860988688 0 -8.3690341860988688 48.649729675697017 0 0 0 0 -4.8249938537010166 -1.2393308258268974 0 -1.2393308258268974 1.8713177022315364 0 0 0 0 -5.5149484416055259 -1.8035791105478811 0 -1.8035791105478811 2.8840931659443427 0 0 0 0 -6.141370845312875 -1.7091882370090636 0 -1.7091882370090636 1.7363046828517741 0 0 0 0 85.850714599873072 -80.704593091982048 0 -80.704593091982048 12.493023672135678 0 0 0 0 17.343691765113363 -13.551305261361108 0 -13.551305261361108 31.906465780126723 0 0 0 0 -29.825436818926846 -59.60918688153447 0 -59.60918688153447 45.38564753919627 0 0 0 0 -6.2235518406416537 -4.7920340106642545 0 -4.7920340106642545 0.66142964281206706 0 0 0 0 -12.478331391625716 -12.508109802869619 0 -12.508109802869619 2.5588939317594992 0 0 0 0 -24.048529293719639 -10.968146694217669 0 -10.968146694217669 9.7247516666330505 0 0 0 0 -2.3570212616835642 -0.1635631548135601 0 -0.1635631548135601 2.687069148934472 0 0 0 0 -12.365095412317533 5.0568669475961254 0 5.0568669475961254 4.8528042903444373 0 0 0 0 -35.382169685072995 2.0926101151897054 0 2.0926101151897054 6.6658095578695269 0 0 0 0 -8.4115961116765448 1.4991555208475882 0 1.4991555208475882 1.5407838993710685 0 0 0 0 -4.5584116424158765 10.765074666237638 0 10.765074666237638 -3.5683691299666433 0 0 0 0 -1.0712043688815576 0.055930657941098083 0 0.055930657941098083 -0.096678902257803845 0 0 0 0 -0.89948280758096644 -6.7484282593031075 0 -6.7484282593031075 -2.791930415232053 0 0 0 0 -4.4939760581653445 2.2295747153437304 0 2.2295747153437304 -22.898008035513953 0 0 0 0 -22.047005980790118 17.039099504363652 0 17.039099504363652 -9.7319592309361909 0 0 0 0 -19.013655531464792 -15.866588044664084 0 -15.866588044664084 1.2461773160969187 0 0 0 0 -30.229878671633742 16.20793180956591 0 16.20793180956591 4.0966690728664048 0 0 0 0 -2.9262851869043516 -7.4962019696750932 0 -7.4962019696750932 9.8751152236141309 0 0 0 0 -5.5513407035349474 0.97557024728282116 0 0.97557024728282116 18.659191211593566 0 0 0 0 -4.3643123994388588 -8.8710600594599498 0 -8.8710600594599498 30.128647245206622 0 0 0 0 -19.995594428571849 -3.186060861904096 0 -3.186060861904096 23.246892053272589 0 0 0 0 9.6701055566927607 22.051714359452205 0 22.051714359452205 37.465149214034398 0 0 0 0 -13.211304232122302 18.079229773240812 0 18.079229773240812 -21.99123355014553 0 0 0 0 -8.3350109002794852 9.1678387051708157 0 9.1678387051708157 -7.443521916565885 0 0 0 0 -10.920614146626804 1.0856093627867267 0 1.0856093627867267 2.05733491678631 0 0 0 0 -1.1120325100228234 0.1824380768170728 0 0.1824380768170728 0.70359696578568021 0 0 0 0 -10.031386562262355 -0.20142856911311213 0 -0.20142856911311213 1.3423186320537184 0 0 0 0 -16.273372285581559 11.557108635966827 0 11.557108635966827 -4.8654403976057381 0 0 0 0 -31.75432342419424 -4.6845438556576653 0 -4.6845438556576653 53.981482327064327 0 0 0 0 -12.703052768379735 2.9933170525722588 0 2.9933170525722588 2.3583702700638014 0 0 0 0 -0.10196474996483595 -0.097933818226520364 0 -0.097933818226520364 0.33259026064736896 0 0 0 0 -43.478381498825911 3.2634355843829326 0 3.2634355843829326 64.57704524827659 0 0 0 0 -49.433121732711527 -14.038159059035678 0 -14.038159059035678 5.314507117718108 0 0 0 0 13.872753885837596 -12.891007304062668 0 -12.891007304062668 -53.963203513739131 0 0 0 0 -31.340858828156115 27.753049749509842 0 27.753049749509842 91.672238646219427 0 0 0 0 -17.318641552388783 -52.886706495624495 0 -52.886706495624495 -37.08211940127876 0 0 0 0 -0.48762700094672695 0.11991959205420644 0 0.11991959205420644 0.0057552308522708095 0 0 0 0 -25.65601706707406 -18.166531019180667 0 -18.166531019180667 -6.6275214486448135 0 0 0 0 14.715740082726995 -22.318413143786898 0 -22.318413143786898 -0.97155406191882321 0 0 0 0 -23.933963043578956 -39.563233924576025 0 -39.563233924576025 60.066294987607421 0 0 0 0 0.11688353913533778 -0.2112715951591515 0 -0.2112715951591515 1.1136226747549727 0 0 0 0 52.536737077244766 -10.540286420450627 0 -10.540286420450627 11.167957845872934 0 0 0 0 -8.1365067160767239 43.434992636212087 0 43.434992636212087 82.372075450045017 0 0 0 0 -27.369421632528201 2.9115333787129032 0 2.9115333787129032 4.3533621119009922 0 0 0 0 -17.216968261620195 35.85506895140287 0 35.85506895140287 7.2237620878167874 0 0 0 0 -33.631287968236791 19.382426872049763 0 19.382426872049763 4.5217843405052349 0 0 0 0 5.4949909743602916 13.59900288853251 0 13.59900288853251 -21.254842179191769 0 0 0 0 5.6253556752769782 1.8739871998023716 0 1.8739871998023716 0.70278613930952361 0 0 0 0 -12.756158431972608 1.1620701226125902 0 1.1620701226125902 20.404455436652995 0 0 0 0 -0.28500844356333621 0.047881613231212095 0 0.047881613231212095 0.007591062782447755 0 0 0 0 -16.350118947801889 17.596170997500792 0 17.596170997500792 -20.943389524499011 0 0 0 0 -43.930618547303425 14.667920741061522 0 14.667920741061522 21.726790078595513 0 0 0 0 -3.9343696370742691 1.1494485611251548 0 1.1494485611251548 0.83496196739019979 0 0 0 0 1.1233528353070596 2.2241523553838078 0 2.2241523553838078 0.50979861557769368 0 0 0 0 -23.456520530227806 -7.1243221862693815 0 -7.1243221862693815 4.383461177388881 0 0 0 0 -24.425716314518013 -10.446478753636569 0 -10.446478753636569 22.302759495506777 0 0 0 0 -1.4600424688818414 0.18541412661987478 0 0.18541412661987478 0.14359759518867021 0 0 0 0 -3.8799520997594268 11.523995372937039 0 11.523995372937039 51.177107542697399 0 0 0 0 -3.6552775305832927 -2.417564914726074 0 -2.417564914726074 24.23491396284129 0 0 0 0 -6.9270112520673592 -4.6701536559216095 0 -4.6701536559216095 21.792216269855345 0 0 0 0 -2.4450836127133471 2.0902261020695505 0 2.0902261020695505 15.988256579447295 0 0 0 0 -2.2292908933924878 5.9443141013242524 0 5.9443141013242524 6.0953985811082703 0 0 0 0 -2.0198601014395892 0.30612757252502143 0 0.30612757252502143 0.063836450588268479 0 0 0 0 -5.9797378853415921 3.9101385205671875 0 3.9101385205671875 30.814813516191037 0 0 0 0 -0.76075407063992362 0.057812308171629967 0 0.057812308171629967 -0.027109208568577153 0 0 0 0 -1.6159115229229428 -0.62957359536034119 0 -0.62957359536034119 2.5379818041388944 0 0 0 0 0.24543606825642428 3.5357229722769148 0 3.5357229722769148 -4.4332045112296328 0 0 0 0 -0.34333718923275569 3.7693687594091614 0 3.7693687594091614 1.9007333304391523 0 0 0 0 -1.1776194290262292 0.2639232761293997 0 0.2639232761293997 0.42385438229955347 0 0 0 0 -2.3874510150895998 0.51197967115384757 0 0.51197967115384757 0.4714158030054606 0 0 0 0 -1.3888195746685597 3.3358521749941588 0 3.3358521749941588 3.9313592349570854 0 0 0 0 0.014056756386480629 2.5858111447276997 0 2.5858111447276997 0.52066774202899069 0 0 0 0 -3.91642825123904 1.5197841245837367 0 1.5197841245837367 2.8611123416584405 0 0 0 0 -1.1585663861077649 2.5234652691745154 0 2.5234652691745154 2.9528412979841505 0 0 0 0 -0.33636007039507376 -0.27747560304974428 0 -0.27747560304974428 1.4622819049637883 0 0 0 0 -1.236410742750877 3.2729084804502122 0 3.2729084804502122 9.4150334162058016 0 0 0 0 0.43404568141995936 -0.49647188070879822 0 -0.49647188070879822 0.41193747989081725 0 0 0 0 -42.760319084236698 -16.240441550640924 0 -16.240441550640924 -5.3571100836675214 0 0 0 0 16.762515017918304 112.74438749668529 0 112.74438749668529 32.220478836539002 0 0 0 0 -94.353657118480442 33.667090856971576 0 33.667090856971576 60.654964120678173 0 0 0 0 -85.318830047062875 98.042167436164902 0 98.042167436164902 66.796731984842552 0 0 0 0 -154.69395222476669 37.253643926265951 0 37.253643926265951 -3.3901801845164954 0 0 0 0 -119.83111118251054 -1.2555990911857364 0 -1.2555990911857364 -20.883865103287803 0 0 0 0 -86.92437132422674 63.421260909284072 0 63.421260909284072 6.5441328587884442 0 0 0 0 -57.538603047019933 7.896556576240215 0 7.896556576240215 -20.727109452697249 0 0 0 0 -25.087129581627778 58.185201686095134 0 58.185201686095134 -5.9288262205305458 0 0 0 0 0.15042617333534825 0.70438833538411993 0 0.70438833538411993 1.1929423412120601 0 0 0 0 -44.15272114326936 7.1022320503300449 0 7.1022320503300449 -0.15407667785677859 0 0 0 0 -39.689479238514423 -3.265274871400635 0 -3.265274871400635 9.4737461101487952 0 0 0 0 -1.0633689172777849 0.50505508390189391 0 0.50505508390189391 2.0143093640614325 0 0 0 0 -1.6064640032552577 1.0196900548471031 0 1.0196900548471031 1.5308000203615402 0 0 0 0 -1.7351766988736017 -0.070092308936182235 0 -0.070092308936182235 3.6300353041418703 0 0 0 0 -14.241684134094157 -10.804938547058242 0 -10.804938547058242 -5.234728906626124 0 0 0 0 -0.30250575272560898 0.9734414970585612 0 0.9734414970585612 0.65656316876110254 0 0 0 0 103.91028374399502 1.1622474248165009 0 1.1622474248165009 -42.108408850495543 0 0 0 0 -0.71434434748183673 -0.14900910585933991 0 -0.14900910585933991 0.78429625666654279 0 0 0 0 -21.887549715880596 14.188538750044387 0 14.188538750044387 5.7866885457385138 0 0 0 0 -34.125948504064127 -33.050978656178728 0 -33.050978656178728 -16.185397666298712 0 0 0 0 -130.01745048266548 -19.150224304421137 0 -19.150224304421137 -46.09294039824681 0 0 0 0 -80.063998161833297 16.849171803492496 0 16.849171803492496 -117.76981496775257 0 0 0 0 -80.875445054063675 3.075021646563826 0 3.075021646563826 -51.216813462123838 0 0 0 0 -113.43167974065091 -23.953242173941348 0 -23.953242173941348 -72.866400836946013 0 0 0 0 -100.49141821150033 72.346463543994616 0 72.346463543994616 -143.64839139872387 0 0 0 0 -0.18145717843288534 0.054247544499359632 0 0.054247544499359632 0.14811060099996254 0 0 0 0 -126.03029901821992 -55.004752525578311 0 -55.004752525578311 68.44549279461728 0 0 0 0 -137.86232471217136 58.68815745805918 0 58.68815745805918 -58.154673346694324 0 0 0 0 -111.03151751322548 18.668500148777895 0 18.668500148777895 -3.2754789728515163 0 0 0 0 -67.853693687488885 9.0472236992345572 0 9.0472236992345572 -8.4077553676736159 0 0 0 0 -0.93315071236912406 -0.080480863693680682 0 -0.080480863693680682 1.467258632592602 0 0 0 0 -38.197697157449056 20.971521441309562 0 20.971521441309562 -6.406253031127136 0 0 0 0 -83.093476023128005 16.966260939622913 0 16.966260939622913 12.669615225557791 0 0 0 0 -1.4650084993513701 -2.1561075194600221 0 -2.1561075194600221 10.213131632125481 0 0 0 0 -2.7120897844005185 -0.55550572294139045 0 -0.55550572294139045 9.0507027738205466 0 0 0 0 -5.0480963445677389 -7.4335736705213336 0 -7.4335736705213336 19.211768682405761 0 0 0 0 1.4242765380322453 -7.6405354509783194 0 -7.6405354509783194 9.4225003645787719 0 0 0 0 -0.59552467273514553 -0.38962302462795551 0 -0.38962302462795551 0.80987037718255106 0 0 0 0 7.8004533380950534 -17.189428264077065 0 -17.189428264077065 19.403398705617178 0 0 0 0 -69.756487875340099 -5.2857731990375285 0 -5.2857731990375285 -7.9423749388473652 0 0 0 0 35.409820936584765 -52.746656156843954 0 -52.746656156843954 35.729376746504499 0 0 0 0 -6.4724425961746874 -8.508571940686025 0 -8.508571940686025 25.061195327715104 0 0 0 0 -18.772819596855584 14.857965162895674 0 14.857965162895674 31.920018533512959 0 0 0 0 -0.92192007293488132 -0.74954668008253122 0 -0.74954668008253122 14.357547194802294 0 0 0 0 -3.7503700896809278 -6.371713168735706 0 -6.371713168735706 14.42283257651016 0 0 0 0 -5.6059144150183329 -6.2859745489090812 0 -6.2859745489090812 18.96398625777438 0 0 0 0 -10.034263627133441 -8.0833767481747216 0 -8.0833767481747216 19.36907419766198 0 0 0 0 -5.6866238362089234 -7.2715572079897299 0 -7.2715572079897299 11.036893245160456 0 0 0 0 -9.8363110033301382 -0.5666510867710528 0 -0.5666510867710528 25.171084829378714 0 0 0 0 -21.857026399454298 -11.633114875037176 0 -11.633114875037176 7.7481813411414535 0 0 0 0 0.20979896224879191 -0.058037967927225154 0 -0.058037967927225154 -0.21250364535796262 0 0 0 0 4.8630008282525523 -0.46490232449284408 0 -0.46490232449284408 3.2739036901565237 0 0 0 0 -3.4430760409185268 -4.9179638882265895 0 -4.9179638882265895 9.9599655025038718 0 0 0 0 -10.346673272585804 -0.15947298053762893 0 -0.15947298053762893 10.070590802084489 0 0 0 0 -7.3789966644592937 5.6601412779536791 0 5.6601412779536791 17.199926029809504 0 0 0 0 -5.2214260322888801 1.2310860839058755 0 1.2310860839058755 -0.092507452811291302 0 0 0 0 -3.3750434600406152 -1.2902481680625399 0 -1.2902481680625399 -3.9472560692220888 0 0 0 0 -6.9102690961025832 2.7191750980433422 0 2.7191750980433422 -0.7049941583393482 0 0 0 0 -13.892925135544488 1.490977257907506 0 1.490977257907506 6.3674903383912245 0 0 0 0 -27.884287148750445 14.286506786712323 0 14.286506786712323 6.6410673141741157 0 0 0 0 -73.700154659788723 -36.598845423669459 0 -36.598845423669459 -16.564473359810371 0 0 0 0 -61.163828922006815 -63.628134400137725 0 -63.628134400137725 -74.967027906155778 0 0 0 0 -146.45953411942969 -86.178953090023782 0 -86.178953090023782 -43.097124827896977 0 0 0 0 -1.9682427829365734 0.29653153572863111 0 0.29653153572863111 -0.037718833978106041 0 0 0 0 -88.718475698597558 -96.929837104849369 0 -96.929837104849369 -98.841626721088161 0 0 0 0 -152.93745917959632 -173.4792546298068 0 -173.4792546298068 -129.93379263617101 0 0 0 0 -78.830712361218104 16.379784156980584 0 16.379784156980584 -77.386462588789357 0 0 0 0 -0.74634175486271381 0.21570884847956373 0 0.21570884847956373 0.14713037756291258 0 0 0 0 -261.03294999606464 -112.28749005630108 0 -112.28749005630108 -12.008036068655294 0 0 0 0 -266.41663250255579 -72.265649255786016 0 -72.265649255786016 -45.416593736088885 0 0 0 0 -115.81368939690174 -120.90131220827672 0 -120.90131220827672 -47.888445485379833 0 0 0 0 -156.24370123152084 -71.18492882721479 0 -71.18492882721479 -39.796062052316522 0 0 0 0 -1.2530844989849141 0.40669925430819021 0 0.40669925430819021 0.47136832167334641 0 0 0 0 -142.08138977837299 -59.306679045017617 0 -59.306679045017617 -13.044348493240932 0 0 0 0 -168.62989036024533 -62.137645555557611 0 -62.137645555557611 -43.929817324481547 0 0 0 0 -153.81403786276974 -66.398094836263539 0 -66.398094836263539 -57.127950844380393 0 0 0 0 -167.32782035509308 -76.129092568476111 0 -76.129092568476111 2.9546774698221299 0 0 0 0 -53.598668949122157 -7.6341441528573952 0 -7.6341441528573952 39.529274192410696 0 0 0 0 20.420823571384744 25.327096842370665 0 25.327096842370665 1.0278962532552498 0 0 0 0 -99.559997941456231 4.903925631047656 0 4.903925631047656 31.596623215435898 0 0 0 0 7.2030134470303437 -28.83579491762795 0 -28.83579491762795 -14.712855809938077 0 0 0 0 -134.03800642696183 -83.353865924580347 0 -83.353865924580347 -7.5869378313667823 0 0 0 0 -45.937668016838984 -13.617542015490358 0 -13.617542015490358 -30.320675433461361 0 0 0 0 -155.30299447713378 -45.784173185207074 0 -45.784173185207074 -72.426453634800282 0 0 0 0 -162.27371673986568 -86.988955196165136 0 -86.988955196165136 -58.135430385764138 0 0 0 0 -130.64876932481525 -79.309196272864654 0 -79.309196272864654 -72.965358817291985 0 0 0 0 -174.3275382908123 -18.819948875580252 0 -18.819948875580252 -108.15806901169219 0 0 0 0 -301.80316611624698 -50.548254398407458 0 -50.548254398407458 -36.020786845763325 0 0 0 0 -203.28801559636099 -58.469241562594831 0 -58.469241562594831 -20.343533401254319 0 0 0 0 -190.84346676190307 -71.51266165058928 0 -71.51266165058928 -39.135696253925687 0 0 0 0 -140.5081229938362 -78.402817909902154 0 -78.402817909902154 -63.940642203459703 0 0 0 0 -167.87966231021483 -52.429057122188269 0 -52.429057122188269 -75.289114766261875 0 0 0 0 -164.29080694683387 -66.140566458419428 0 -66.140566458419428 -35.276412154016555 0 0 0 0 -161.9318926526513 -64.897246220318578 0 -64.897246220318578 -46.143166906809256 0 0 0 0 -179.54272728633714 -65.215124086162064 0 -65.215124086162064 -27.649094855181733 0 0 0 0 -183.17568069589248 -45.514108839360446 0 -45.514108839360446 -24.339812948469643 0 0 0 0 -188.3388956672452 -76.986885192376505 0 -76.986885192376505 -42.430687375778135 0 0 0 0 -142.86147491677548 -31.461361668160677 0 -31.461361668160677 -21.148329011956264 0 0 0 0 -182.74184551404096 -69.225180710339259 0 -69.225180710339259 -33.943021907183265 0 0 0 0 -217.81989647359023 -63.368640941966774 0 -63.368640941966774 37.207507728112631 0 0 0 0 -123.17529028738772 -41.160782475259403 0 -41.160782475259403 -134.78234721047195 0 0 0 0 -167.62884095530899 -126.18821569722427 0 -126.18821569722427 -85.263212697443308 0 0 0 0 -161.24457799639958 -90.463608643572726 0 -90.463608643572726 -18.134103872922083 0 0 0 0 -0.42254252372781309 -0.2343129309839691 0 -0.2343129309839691 0.31408985502776954 0 0 0 0 -276.44299021780967 12.836621245146461 0 12.836621245146461 -2.4376531818373053 0 0 0 0 -237.19696559123031 -73.899858274800479 0 -73.899858274800479 -21.721538691033771 0 0 0 0 -172.41241196043018 -30.390767324326152 0 -30.390767324326152 -0.1178100554346031 0 0 0 0 -121.29367163216352 44.658477521012031 0 44.658477521012031 -2.3768079686497572 0 0 0 0 -160.8672574450668 -52.190096531415293 0 -52.190096531415293 -13.364680498073966 0 0 0 0 -153.64912267371938 -39.666928834116497 0 -39.666928834116497 -25.0693086802452 0 0 0 0 -159.88788980284858 -60.321627757420913 0 -60.321627757420913 -29.270910093578628 0 0 0 0 -131.22056425471692 -44.284394918404445 0 -44.284394918404445 -13.334526592463675 0 0 0 0 -142.2623162255677 -30.917366051852586 0 -30.917366051852586 -2.1715601728648437 0 0 0 0 -95.61674385837523 -13.303531423170341 0 -13.303531423170341 2.4054571725935858 0 0 0 0 -124.55002654517853 -40.856127380600753 0 -40.856127380600753 -6.5766009760212114 0 0 0 0 -114.94527692111456 -47.663112207798036 0 -47.663112207798036 -4.5865634840303926 0 0 0 0 -100.43100160202061 -10.724206040674815 0 -10.724206040674815 2.9810313022871071 0 0 0 0 -107.29187240625151 -2.645527966330306 0 -2.645527966330306 5.5332960966695381 0 0 0 0 -81.564562586123429 7.8798643080141915 0 7.8798643080141915 3.1005497261593558 0 0 0 0 -68.064259032968948 -4.0081876648424029 0 -4.0081876648424029 -1.5190559646708834 0 0 0 0 -88.111859339117473 10.244967059171174 0 10.244967059171174 0.72383149413849779 0 0 0 0 -76.920700634287186 8.7305595228976074 0 8.7305595228976074 -21.66021512111287 0 0 0 0 -77.540760310967016 18.437124182244546 0 18.437124182244546 -27.699977816638693 0 0 0 0 -84.891610748636595 33.990498122758694 0 33.990498122758694 -59.056351170177777 0 0 0 0 -57.880949768625214 -0.93084678469018911 0 -0.93084678469018911 -43.045257410586373 0 0 0 0 -60.274587367804088 0.4891436741511157 0 0.4891436741511157 -33.976753474029522 0 0 0 0 -68.657306046505255 12.480298659635935 0 12.480298659635935 -52.340099754190149 0 0 0 0 -73.839075274932839 -12.59516800888106 0 -12.59516800888106 -39.752809901336903 0 0 0 0 -79.230782964180435 6.4029998089004039 0 6.4029998089004039 -53.909213998216131 0 0 0 0 -53.21218440802113 -15.228929842335695 0 -15.228929842335695 -20.149080835192628 0 0 0 0 -73.103716934268505 -9.1291924526458104 0 -9.1291924526458104 -21.767757983461578 0 0 0 0 -96.144956822891572 -8.6607367287987742 0 -8.6607367287987742 -10.001098585091242 0 0 0 0 -71.868701137414405 -0.51464371719641733 0 -0.51464371719641733 -12.541641618028223 0 0 0 0 -105.9672543298675 -35.038639048995222 0 -35.038639048995222 -4.7859580269041047 0 0 0 0 -66.163741418907193 -35.818673094474278 0 -35.818673094474278 -11.611504456595849 0 0 0 0 -77.406043529242652 -36.68269704996974 0 -36.68269704996974 -11.564715823092911 0 0 0 0 -60.174902950647265 -41.477114408357295 0 -41.477114408357295 -6.2655951026987822 0 0 0 0 -95.113233650260327 -50.371215971958868 0 -50.371215971958868 -0.88741875526220682 0 0 0 0 -59.445749182265388 -51.550622943064162 0 -51.550622943064162 -4.8340004625068467 0 0 0 0 -65.223824654470491 -37.188737195354634 0 -37.188737195354634 9.2132297738420306 0 0 0 0 -52.807381038729773 -28.109493982731419 0 -28.109493982731419 -1.0198165462921125 0 0 0 0 -42.34149248181393 -43.105108855610013 0 -43.105108855610013 16.750545299218441 0 0 0 0 -10.788951363935666 -15.828118089116936 0 -15.828118089116936 -10.963090430121206 0 0 0 0 60.331588042813109 -9.8456223070076874 0 -9.8456223070076874 7.3765632785437472 0 0 0 0 -42.808830918078002 7.4681665876860244 0 7.4681665876860244 14.379738783444324 0 0 0 0 -26.571512260775265 -1.3843224034770305 0 -1.3843224034770305 -3.7458371199571303 0 0 0 0 -75.977440636804204 0.4047172680589739 0 0.4047172680589739 -3.0815759158175169 0 0 0 0 -53.618636960713729 3.1446766548927201 0 3.1446766548927201 -28.585002296993082 0 0 0 0 -45.969693172964298 -18.2435481423833 0 -18.2435481423833 -24.708257669301844 0 0 0 0 -52.295176594595432 -15.039155195740648 0 -15.039155195740648 -9.7483416044985916 0 0 0 0 -41.623880112264033 -16.741433480416404 0 -16.741433480416404 -22.200316610555547 0 0 0 0 -129.44084581714776 -91.371592171306077 0 -91.371592171306077 -5.4676527920385922 0 0 0 0 -104.41654843068272 -88.435962885692092 0 -88.435962885692092 -23.734164903165485 0 0 0 0 -102.07528870898068 -63.726589770857245 0 -63.726589770857245 -3.1699264164569101 0 0 0 0 -85.43254947740428 -67.014067933584059 0 -67.014067933584059 -9.2103675744879325 0 0 0 0 -128.23574699868254 -68.190595305773627 0 -68.190595305773627 -1.9187772264413212 0 0 0 0 -111.70330364735608 -65.355668002217769 0 -65.355668002217769 -4.0280539124669446 0 0 0 0 -129.83203084032078 -95.114558841398789 0 -95.114558841398789 -7.5183000489892464 0 0 0 0 -160.09170171683286 -95.427376641789081 0 -95.427376641789081 4.7540447714082319 0 0 0 0 -164.17362080538643 -89.943873655907453 0 -89.943873655907453 10.343878496876954 0 0 0 0 -189.66313455653494 -77.060732911827245 0 -77.060732911827245 4.1130082160464383 0 0 0 0 -152.85274412679735 -64.365138937100994 0 -64.365138937100994 -2.7916394497118517 0 0 0 0 -150.0625159574729 -65.844120758816018 0 -65.844120758816018 -3.3594651073752679 0 0 0 0 -151.12446343206557 -68.106953582548584 0 -68.106953582548584 -7.491928025327212 0 0 0 0 -155.82457784786902 -52.356352863017833 0 -52.356352863017833 -4.8327910119910937 0 0 0 0 -179.24253972182896 -59.820534094806206 0 -59.820534094806206 -9.6913668290578983 0 0 0 0 -157.73549658174534 -61.759648714232767 0 -61.759648714232767 -38.366056271342416 0 0 0 0 -172.0362406295402 -73.534496193970909 0 -73.534496193970909 -13.9476532955469 0 0 0 0 -177.21210800377628 -102.81272205754433 0 -102.81272205754433 18.051542838473782 0 0 0 0 -135.4713981825364 -120.09491895829139 0 -120.09491895829139 -73.705542596673638 0 0 0 0 -220.37721606016271 -70.622759148407198 0 -70.622759148407198 3.9426659858823854 0 0 0 0 -3.8614387598810049 1.1970091897421937 0 1.1970091897421937 0.36669794942171924 0 0 0 0 -65.088502023840761 -43.385828053032668 0 -43.385828053032668 -0.78040890316513867 0 0 0 0 -96.508880237869903 -12.679033362680229 0 -12.679033362680229 84.738094310942998 0 0 0 0 -148.16698561297392 -113.23380274931949 0 -113.23380274931949 44.272748145370933 0 0 0 0 -84.922931335549094 -48.778040473182671 0 -48.778040473182671 9.9852724492877982 0 0 0 0 -167.89284024604331 -110.56952316609514 0 -110.56952316609514 19.938676266262231 0 0 0 0 -164.36235698445671 -92.334206573600397 0 -92.334206573600397 19.053572249597934 0 0 0 0 -161.70965169120268 -113.70090725626287 0 -113.70090725626287 -5.46754220834233 0 0 0 0 -160.43884096440851 -105.86869103698341 0 -105.86869103698341 4.0022314652477746 0 0 0 0 -187.35598100129766 -47.382214576490476 0 -47.382214576490476 18.587878041421177 0 0 0 0 -129.91500993264549 -93.775785358426589 0 -93.775785358426589 3.0319339918908099 0 0 0 0 -193.8671383408828 -77.640991586060565 0 -77.640991586060565 -1.0965394630402159 0 0 0 0 -206.10254371787744 -86.476504642689548 0 -86.476504642689548 2.3976889025840951 0 0 0 0 -227.31736437508198 -67.528601534040149 0 -67.528601534040149 -4.0408047418354158 0 0 0 0 -219.4897133624674 -133.73054833085288 0 -133.73054833085288 -28.095849821207405 0 0 0 0 -150.08401400165394 -116.28853826358446 0 -116.28853826358446 -24.904145495286119 0 0 0 0 -169.2766157590147 -100.72072055505467 0 -100.72072055505467 -10.335664169386813 0 0 0 0 -402.85854640418626 -34.829105206979527 0 -34.829105206979527 34.127630745566897 0 0 0 0 -500.10483309556338 51.15440744493344 0 51.15440744493344 98.176874222072783 0 0 0 0 -231.11522194579914 -56.325482141749745 0 -56.325482141749745 19.710367400022534 0 0 0 0 -211.3850268530858 12.49807255125927 0 12.49807255125927 17.179021058738456 0 0 0 0 -314.70254881401684 73.69814460589069 0 73.69814460589069 18.45141526165277 0 0 0 0 -312.09920017068646 103.96531206742054 0 103.96531206742054 101.72793988205797 0 0 0 0 -498.16145946236622 168.42453500233836 0 168.42453500233836 107.22653930288112 0 0 0 0 -175.23261359318235 218.14630484217952 0 218.14630484217952 91.513187528878063 0 0 0 0 -2.1330312354774019 0.54354764884652162 0 0.54354764884652162 0.15329367325641657 0 0 0 0 -24.904548169208113 94.442841544506734 0 94.442841544506734 18.112842521633787 0 0 0 0 -36.078435171119224 -94.726230559869677 0 -94.726230559869677 47.130811851770147 0 0 0 0 -499.09968544076219 -222.12839687098725 0 -222.12839687098725 -13.002503394640653 0 0 0 0 -164.43753628624268 -120.43528339390119 0 -120.43528339390119 5.5363455199561233 0 0 0 0 -499.98102146817212 -54.545700304186511 0 -54.545700304186511 153.76630730804192 0 0 0 0 -274.96444375647707 -8.5932495356204939 0 -8.5932495356204939 131.95404638714282 0 0 0 0 -247.00811391921411 70.660088933519475 0 70.660088933519475 63.641885510561579 0 0 0 0 -150.80134975176531 74.034426549846714 0 74.034426549846714 138.15604283618154 0 0 0 0 -71.094261600336722 -33.130578456991771 0 -33.130578456991771 79.032288666702513 0 0 0 0 -244.83839867042502 -161.83199785140567 0 -161.83199785140567 -76.764085748509245 0 0 0 0 -1.7715044463554666 0.56794482238460908 0 0.56794482238460908 0.054501628039789418 0 0 0 0 -30.032807737712119 159.23937674815033 0 159.23937674815033 114.0242057967348 0 0 0 0 -204.65958624769235 67.935691688696039 0 67.935691688696039 111.68637251819342 0 0 0 0 44.019271300995797 127.64002636748458 0 127.64002636748458 14.044144802213594 0 0 0 0 -90.714403188601864 90.088693596264392 0 90.088693596264392 -43.958206449836169 0 0 0 0 -86.765315842770633 70.768222950096273 0 70.768222950096273 21.17981298528656 0 0 0 0 102.57316378015707 106.72383930382215 0 106.72383930382215 -7.2627496829302913 0 0 0 0 -102.49438978846456 45.547884477126388 0 45.547884477126388 -18.460757213100663 0 0 0 0 -0.015183236397704691 0.079070049590659774 0 0.079070049590659774 0.70538177108389077 0 0 0 0 -0.038329094458545931 -0.011443388503299623 0 -0.011443388503299623 2.7204306617836895 0 0 0 0 -16.968795990090712 3.3730526034562018 0 3.3730526034562018 -18.915309807882203 0 0 0 0 -39.818147447799532 3.7174050969050239 0 3.7174050969050239 3.5232940026342305 0 0 0 0 -48.269644528387971 45.476683595813832 0 45.476683595813832 -64.503552919056119 0 0 0 0 -66.292314011517647 42.769885150469975 0 42.769885150469975 -37.913823176199529 0 0 0 0 -41.561643459906463 5.3126648074920979 0 5.3126648074920979 -7.6449943837023966 0 0 0 0 -108.69190494923896 94.352574786191468 0 94.352574786191468 -72.208578627413189 0 0 0 0 -103.30429824298722 101.05256591031559 0 101.05256591031559 -77.210284145752141 0 0 0 0 -23.599415349969263 42.114117996346494 0 42.114117996346494 -114.7302228731628 0 0 0 0 -307.91329436698743 257.52963827605191 0 257.52963827605191 -116.87598355243196 0 0 0 0 -567.20800204167449 89.563885142541679 0 89.563885142541679 -19.531563646454114 0 0 0 0 -305.38187133553038 145.32480807656944 0 145.32480807656944 -7.691038026469279 0 0 0 0 -499.84299795976858 90.169900296506768 0 90.169900296506768 105.39375957925934 0 0 0 0 -132.71362560946773 42.156271694132712 0 42.156271694132712 20.477902237181425 0 0 0 0 -307.13674770976286 135.57228966063278 0 135.57228966063278 -18.127651277563871 0 0 0 0 -11.928694023159551 -0.24131799425504141 0 -0.24131799425504141 -5.6429010797657213 0 0 0 0 -3.3575121724767314 -10.646504114223063 0 -10.646504114223063 -12.439294222321678 0 0 0 0 -4.7253779524016863 -2.7135692491800683 0 -2.7135692491800683 -3.174669407651777 0 0 0 0 0.76258427974698861 -3.3988563042309465 0 -3.3988563042309465 -4.0060492250261177 0 0 0 0 -11.557156986418704 -2.3362342272120031 0 -2.3362342272120031 1.9299351801383864 0 0 0 0 -1.0111636969575102 -1.8002905167619332 0 -1.8002905167619332 -4.6430651643950114 0 0 0 0 -16.376469277687647 -8.6711855012470096 0 -8.6711855012470096 1.3474108626423345 0 0 0 0 -22.611754975934673 -12.260046336307994 0 -12.260046336307994 0.0087204475066187115 0 0 0 0 -36.947386696032481 -12.090347734259581 0 -12.090347734259581 6.6258608013778257 0 0 0 0 -61.975843054477082 -18.641764931023545 0 -18.641764931023545 13.941486733918623 0 0 0 0 -43.56416577470236 2.6439262787546625 0 2.6439262787546625 23.728387078013384 0 0 0 0 -39.346066710812011 -0.72294877494334742 0 -0.72294877494334742 26.41487357467247 0 0 0 0 -22.412663527598852 -13.053744210242826 0 -13.053744210242826 2.4083121239992806 0 0 0 0 -21.444473526342335 -6.2979738368371727 0 -6.2979738368371727 23.58817185800126 0 0 0 0 -45.511419707039749 0.79279570206813332 0 0.79279570206813332 42.073939300352322 0 0 0 0 -50.913734054925953 4.1988435657261221 0 4.1988435657261221 23.615509284440122 0 0 0 0 -4.8964668041080586 4.4158764777528177 0 4.4158764777528177 10.779120166066491 0 0 0 0 -0.26959765663517032 0.0016657838154934268 0 0.0016657838154934268 -0.30030342689539591 0 0 0 0 -100.18362379523023 -49.446577276335006 0 -49.446577276335006 -24.576698898112909 0 0 0 0 -38.077007046031213 -29.535348577239859 0 -29.535348577239859 -14.869278798816822 0 0 0 0 -46.930772705563868 -6.7167119762204948 0 -6.7167119762204948 -20.73909279714195 0 0 0 0 -8.6985640918646823 -20.792045149696804 0 -20.792045149696804 -36.466882504982777 0 0 0 0 -5.9442713295557041 -24.766336886586629 0 -24.766336886586629 -70.034774118808173 0 0 0 0 -83.982763280705512 -63.788158727516418 0 -63.788158727516418 -33.519947199652279 0 0 0 0 -30.327137716454672 7.5661689632013918 0 7.5661689632013918 -3.4852323207268228 0 0 0 0 -94.650230063411072 -65.07676207307145 0 -65.07676207307145 -39.560232047175873 0 0 0 0 3.7029961720108986 -5.9338084139557168 0 -5.9338084139557168 -57.638939217314487 0 0 0 0 -10.234145682872622 -9.4867719804436774 0 -9.4867719804436774 -5.1486681429669261 0 0 0 0 -0.58405958743883346 -2.68224899486456 0 -2.68224899486456 -0.90912920791016338 0 0 0 0 -0.19825209223536433 -0.098627331690847697 0 -0.098627331690847697 -0.023091504556768783 0 0 0 0 -56.087528630197539 -32.498167082318332 0 -32.498167082318332 77.738554592928494 0 0 0 0 -8.9131988357288385 -2.2032022791870118 0 -2.2032022791870118 0.033053219911840181 0 0 0 0 -8.042808327874809 0.93319226478593009 0 0.93319226478593009 5.8126768753540858 0 0 0 0 -19.645979185741453 18.231227115125023 0 18.231227115125023 13.359008599351711 0 0 0 0 -8.4423694408833398 -5.7029085966099728 0 -5.7029085966099728 7.5249744923226558 0 0 0 0 17.450631722476828 -1.1534868618797134 0 -1.1534868618797134 -7.6555019757044249 0 0 0 0 -7.4885851956423721 -0.7338413813479292 0 -0.7338413813479292 0.016729603358228928 0 0 0 0 -13.566872315397632 8.7189391268005778 0 8.7189391268005778 57.280553770530815 0 0 0 0 -7.3523261336154455 -2.1821157501073971 0 -2.1821157501073971 -0.037364499563381358 0 0 0 0 2.0115851744831161 -4.8310351204391395 0 -4.8310351204391395 -6.7532590335410987 0 0 0 0 -1.3166819599455266 28.694796492318474 0 28.694796492318474 19.896975244271744 0 0 0 0 -1.8722016588480983 1.5095679552742922 0 1.5095679552742922 14.921797002385659 0 0 0 0 -2.3865124535136601 5.6490620194911116 0 5.6490620194911116 12.111153386801561 0 0 0 0 -1.1544877684955281 7.8451616429986757 0 7.8451616429986757 20.475694057460167 0 0 0 0 -5.2224938025820542 -1.981203205453149 0 -1.981203205453149 -0.30124748601031964 0 0 0 0 9.0305853056052001 36.527290747160805 0 36.527290747160805 -24.761199099714947 0 0 0 0 -4.991220803669421 -47.683224453116047 0 -47.683224453116047 -22.621001232552164 0 0 0 0 -89.35751782067382 3.7759281784848895 0 3.7759281784848895 7.600502656624144 0 0 0 0 2.8751053689884429 -4.723505147283646 0 -4.723505147283646 8.1770712886931278 0 0 0 0 -7.0423030663414465 -3.8407034074928106 0 -3.8407034074928106 36.687378563320522 0 0 0 0 -1.2373866422362028 -0.77076051257056832 0 -0.77076051257056832 0.31360649846216493 0 0 0 0 36.123880196648315 16.375951117779408 0 16.375951117779408 -10.21090412428282 0 0 0 0 -17.9566759158472 14.710520799089842 0 14.710520799089842 11.398006792249134 0 0 0 0 4.0409080287554389 0.37296393904375691 0 0.37296393904375691 37.626306240595682 0 0 0 0 -17.614619765102361 12.062084742755538 0 12.062084742755538 31.623449851923851 0 0 0 0 -0.25534377351339188 -0.092910629641110631 0 -0.092910629641110631 0.39872559779286032 0 0 0 0 -5.2201045934480135 4.8765176755112378 0 4.8765176755112378 24.659041863497578 0 0 0 0 0.65462889390710188 -9.0195576356813945 0 -9.0195576356813945 14.492095221107945 0 0 0 0 -45.088556786508434 1.0875807764652166 0 1.0875807764652166 -21.474018618371645 0 0 0 0 -15.601405036045435 -37.371515908971489 0 -37.371515908971489 -20.657038182728343 0 0 0 0 7.8784873152144428 -27.090647559059562 0 -27.090647559059562 -20.763473440844791 0 0 0 0 39.345482332109896 -6.9309596789933607 0 -6.9309596789933607 -17.356161706800407 0 0 0 0 10.215987929448602 -17.636991397241815 0 -17.636991397241815 -18.577650220512012 0 0 0 0 16.090568516989151 -21.376480830023581 0 -21.376480830023581 -25.017667964265115 0 0 0 0 21.7906174961754 -13.619850965112533 0 -13.619850965112533 -17.450621717666309 0 0 0 0 11.679975102264507 -16.467209661721668 0 -16.467209661721668 -19.105574549700272 0 0 0 0 -5.4342300320640788 -26.449487725968254 0 -26.449487725968254 -17.878766535087621 0 0 0 0 10.828158502430597 -9.2562032948303852 0 -9.2562032948303852 0.28854918599040502 0 0 0 0 -7.3240045808524883 -6.6823061204338501 0 -6.6823061204338501 -0.040500211319368873 0 0 0 0 -15.242425247113715 10.918718837447557 0 10.918718837447557 31.845155001265823 0 0 0 0 -9.9889947440206015 17.329845052738875 0 17.329845052738875 30.025626461250113 0 0 0 0 18.560033536611627 20.766406176054005 0 20.766406176054005 20.972098979305088 0 0 0 0 -71.776306541562008 9.9264815450814723 0 9.9264815450814723 29.248392274876892 0 0 0 0 9.768463722785782 -38.613680696728338 0 -38.613680696728338 -7.6446302630025116 0 0 0 0 31.683862202933597 24.872793009432201 0 24.872793009432201 -12.99747634647963 0 0 0 0 0.30627491119731953 -0.38680879995893136 0 -0.38680879995893136 0.62591922544010115 0 0 0 0 -9.8025343572080601 0.051689109214237305 0 0.051689109214237305 19.10589104316881 0 0 0 0 -13.068608910471994 -6.8598046758732636 0 -6.8598046758732636 6.1867343797258627 0 0 0 0 -9.1789378235234835 -3.4628236981285454 0 -3.4628236981285454 2.5360366324261463 0 0 0 0 -10.809616409595037 2.79915353586523 0 2.79915353586523 8.2502130853318931 0 0 0 0 1.937446740346104 0.82714014161796001 0 0.82714014161796001 -2.819520119455774 0 0 0 0 -9.1330490690816077 -0.29128030807891037 0 -0.29128030807891037 -5.2753472694607808 0 0 0 0 -4.4898403961187796 -7.2492710389302601 0 -7.2492710389302601 -0.929259002482695 0 0 0 0 -9.3008080130193775 -5.4565343913574225 0 -5.4565343913574225 6.0614146664863711 0 0 0 0 -1.147438781730898 -1.3640963214083257 0 -1.3640963214083257 -3.8812214645238328 0 0 0 0 -0.29851089660060204 -0.083374835204219622 0 -0.083374835204219622 0.57215839490162201 0 0 0 0 -8.5704342669405378 1.2859494112487937 0 1.2859494112487937 5.2053830487418509 0 0 0 0 6.0282102788069096 2.2652440286709634 0 2.2652440286709634 4.5287209267848425 0 0 0 0 3.554718607572795 -19.06764047197359 0 -19.06764047197359 35.072042856173766 0 0 0 0 4.5071409651058616 -14.13600453694086 0 -14.13600453694086 11.044419083608091 0 0 0 0 -25.506564140789123 -14.57953148004276 0 -14.57953148004276 29.643497554279747 0 0 0 0 -31.021909951408816 -8.2172229888515176 0 -8.2172229888515176 24.059241638515005 0 0 0 0 -14.466140075805015 2.9952917191271808 0 2.9952917191271808 31.339717531782526 0 0 0 0 -4.5844237071351017 5.6811013685659759 0 5.6811013685659759 21.141509494565071 0 0 0 0 33.03765060921387 -6.7171587129434442 0 -6.7171587129434442 -60.50371531983933 0 0 0 0 -22.264191998023307 2.1509327352709988 0 2.1509327352709988 70.807280770491502 0 0 0 0 -10.524480591505235 5.2430021182025843 0 5.2430021182025843 2.3083332077424181 0 0 0 0 -11.44056377841116 -1.7261917550613362 0 -1.7261917550613362 20.952139916867281 0 0 0 0 -83.198745469966525 35.808126024670628 0 35.808126024670628 22.237758653297306 0 0 0 0 -2.7760351845099649 2.3913584095048463 0 2.3913584095048463 18.906883338637044 0 0 0 0 -0.65356383052004219 0.12285958441917888 0 0.12285958441917888 0.1451100293604568 0 0 0 0 -5.8934718641157815 44.681137317279422 0 44.681137317279422 29.449870796625419 0 0 0 0 -29.64382370189378 32.921213411170754 0 32.921213411170754 -0.29160686767977495 0 0 0 0 -6.1357656901654991 11.800769738212168 0 11.800769738212168 4.1347531167546094 0 0 0 0 -1.1274803507265965 0.810618904761915 0 0.810618904761915 0.043218484666642354 0 0 0 0 6.5037317235728551 -20.67262053573404 0 -20.67262053573404 34.091071653058975 0 0 0 0 -9.13818896637531 3.9515709639617853 0 3.9515709639617853 -7.3360468991186281 0 0 0 0 -2.2358145307126094 0.53165090317365493 0 0.53165090317365493 -0.52526551117057707 0 0 0 0 -11.274459920929143 3.9933882915532943 0 3.9933882915532943 3.5520223760383818 0 0 0 0 0.74964395181996224 5.5424646742384311 0 5.5424646742384311 -5.8506176547193718 0 0 0 0 -9.3807958749512181 30.736635131005045 0 30.736635131005045 -20.762894275917787 0 0 0 0 -10.046416080102063 3.9940636186460665 0 3.9940636186460665 5.5789399524212513 0 0 0 0 -9.9178626186117071 3.4960491683035002 0 3.4960491683035002 6.4054320982825175 0 0 0 0 -0.90811416160238778 -0.15070283094767056 0 -0.15070283094767056 3.0702580781515429 0 0 0 0 -11.643425764478707 3.8341164120226949 0 3.8341164120226949 7.5509508099198683 0 0 0 0 -74.637848205049522 31.772507595478373 0 31.772507595478373 6.4303738741732559 0 0 0 0 -17.721889622922845 5.5090117290951071 0 5.5090117290951071 15.507006021471398 0 0 0 0 12.641120909865663 -18.020706428874661 0 -18.020706428874661 16.31367150127312 0 0 0 0 26.599007155273284 26.121500239722764 0 26.121500239722764 -52.129026268519738 0 0 0 0 17.150971085883953 -16.107600594688922 0 -16.107600594688922 -5.4800529899575849 0 0 0 0 14.843151289147499 33.402605905473365 0 33.402605905473365 -7.8039629625302496 0 0 0 0 -55.647695034436765 -0.50628915072047675 0 -0.50628915072047675 43.105967893102275 0 0 0 0 -7.8213672573850594 5.7087554319402702 0 5.7087554319402702 1.8687786081910058 0 0 0 0 9.296634155589345 3.0555300251171502 0 3.0555300251171502 -195.70932410436217 0 0 0 0 -18.486077855712665 -38.208865686345632 0 -38.208865686345632 -68.688132146701719 0 0 0 0 22.998651149609941 73.064052478687785 0 73.064052478687785 -113.98739774910597 0 0 0 0 -4.7761417355686717 4.2026994732367484 0 4.2026994732367484 -25.945885985897803 0 0 0 0 -10.66539282384656 46.618646342011516 0 46.618646342011516 -10.87963540484543 0 0 0 0 26.323742760134337 42.580540443618077 0 42.580540443618077 -126.33446827151931 0 0 0 0 35.619480511680365 102.181969420729 0 102.181969420729 -168.03614405532963 0 0 0 0 17.963296402433116 115.98565019070975 0 115.98565019070975 -280.36437794118672 0 0 0 0 -195.84639661651772 215.44333793313714 0 215.44333793313714 -175.24583743508768 0 0 0 0 -43.854611807235415 -28.553710973230181 0 -28.553710973230181 99.927289696039452 0 0 0 0 -59.847149470464501 28.24698601153051 0 28.24698601153051 18.195871206806146 0 0 0 0 -62.156447053966986 -23.058489654512471 0 -23.058489654512471 54.011060186764098 0 0 0 0 -16.662764800854347 -29.556943082382247 0 -29.556943082382247 8.1550602927763975 0 0 0 0 -27.90457440154205 6.2718407919317087 0 6.2718407919317087 77.281251778511773 0 0 0 0 24.740072174769011 -24.289827423250927 0 -24.289827423250927 37.006780395512578 0 0 0 0 -13.79911001810251 -15.431589538072103 0 -15.431589538072103 43.849479339527647 0 0 0 0 -31.44707868880505 56.080124269588055 0 56.080124269588055 30.569600709351107 0 0 0 0 27.29392130963447 15.101697473643625 0 15.101697473643625 35.616742131624051 0 0 0 0 -46.579180658132827 26.49099691277047 0 26.49099691277047 38.35393437961028 0 0 0 0 -1.3802436914593272 31.498347528462773 0 31.498347528462773 -11.783644990572157 0 0 0 0 -73.483510905592993 104.35014787115279 0 104.35014787115279 -53.163662523573549 0 0 0 0 -37.057027112119613 22.777803044420182 0 22.777803044420182 -4.5742939702230387 0 0 0 0 36.098269475024267 112.93128750369098 0 112.93128750369098 -94.404583761649747 0 0 0 0 -201.9070534456805 72.530007425619644 0 72.530007425619644 -19.583407338765596 0 0 0 0 -95.58800313253596 202.79039627671557 0 202.79039627671557 -146.03384580388177 0 0 0 0 -90.963060685251548 -26.775975352222815 0 -26.775975352222815 -83.688593584648203 0 0 0 0 -76.918982704204609 12.32500534376868 0 12.32500534376868 -5.5985599693111681 0 0 0 0 43.853166529715963 -20.288939653699572 0 -20.288939653699572 -59.996147969139543 0 0 0 0 51.578754824668067 10.252843105158394 0 10.252843105158394 -7.0894167361375935 0 0 0 0 4.8562944072054961 -21.824709115389624 0 -21.824709115389624 29.991586571469497 0 0 0 0 -29.905456806420261 -63.063106643615924 0 -63.063106643615924 -16.44171192052255 0 0 0 0 -4.2557950748796429 2.3222208295080122 0 2.3222208295080122 1.9275614719605301 0 0 0 0 -4.3955494587353314 -6.5259538759298579 0 -6.5259538759298579 10.576007954430565 0 0 0 0 -1.0064370202181401 -3.9100879125359818 0 -3.9100879125359818 4.0187578970339466 0 0 0 0 34.781382228258735 -13.061034211694675 0 -13.061034211694675 -22.855215000022554 0 0 0 0 34.075288180399639 -15.085279897941184 0 -15.085279897941184 8.5087956438476056 0 0 0 0 -6.4828703357601327 -2.2776034176778506 0 -2.2776034176778506 4.5538950539269241 0 0 0 0 -9.6086666820292521 -2.102408875310573 0 -2.102408875310573 7.9984802943079103 0 0 0 0 -5.126194858906004 0.57854003319440306 0 0.57854003319440306 0.85305174579715692 0 0 0 0 -7.0434839870285941 -11.258843102935316 0 -11.258843102935316 33.707040005803719 0 0 0 0 0.38009753702247906 -1.0670374538317491 0 -1.0670374538317491 0.53616107633656762 0 0 0 0 3.3376025194884278 -14.30974084700847 0 -14.30974084700847 29.016543467159408 0 0 0 0 17.786704885083964 -58.696428263474218 0 -58.696428263474218 26.789412562330128 0 0 0 0 -4.929167780046555 2.0655644970372578 0 2.0655644970372578 3.3764494920178549 0 0 0 0 -7.8396727040282457 1.2141602494810879 0 1.2141602494810879 3.9928333073770821 0 0 0 0 -3.3109222766349404 0.16686950608605589 0 0.16686950608605589 1.0783514965039567 0 0 0 0 -2.3429494076327373 -1.7858324208061918 0 -1.7858324208061918 1.5887542573248583 0 0 0 0 -1.4537543926708167 -4.0209828567349177 0 -4.0209828567349177 12.801448960397011 0 0 0 0 13.35239881409143 -1.1367778689225361 0 -1.1367778689225361 34.379717944881577 0 0 0 0 5.6932299641584905 -13.653202479469314 0 -13.653202479469314 24.344139509534216 0 0 0 0 -8.8790210850134557 6.0781439774360635 0 6.0781439774360635 -2.3945022207357107 0 0 0 0 7.868079404150194 -18.331319422539082 0 -18.331319422539082 31.657072141140816 0 0 0 0 0.50740411272181518 -16.727726688301004 0 -16.727726688301004 36.08256726317768 0 0 0 0 3.9571045715310902 -6.4058967711048354 0 -6.4058967711048354 18.686753756262306 0 0 0 0 -2.922068191366634 -8.2385141942365863 0 -8.2385141942365863 29.979508690722923 0 0 0 0 -3.6142321862662357 -13.169893067789417 0 -13.169893067789417 29.267122711414231 0 0 0 0 -0.96073443715977191 -10.767304368233454 0 -10.767304368233454 29.302645364507612 0 0 0 0 -18.952877274990897 0.71689514597790094 0 0.71689514597790094 25.432576636902468 0 0 0 0 -14.805356679560646 -2.312416380113973 0 -2.312416380113973 27.476582699900518 0 0 0 0 -9.4494822246542753 -4.7398296353035221 0 -4.7398296353035221 24.388383983804488 0 0 0 0 -15.498514526021609 0.0072275621573680837 0 0.0072275621573680837 21.628664750812277 0 0 0 0 -14.411587693714296 0.75731612228261724 0 0.75731612228261724 22.111133871473612 0 0 0 0 -14.943532678862539 -6.4811657199884394 0 -6.4811657199884394 32.835309992851762 0 0 0 0 -15.700750354556476 5.282265165755291 0 5.282265165755291 15.123686149032892 0 0 0 0 -24.264169497708281 -1.8572522152879856 0 -1.8572522152879856 14.356931167490529 0 0 0 0 -0.28007889463338742 -0.12841873856899078 0 -0.12841873856899078 0.41440597389488021 0 0 0 0 2.8274443954969684 -17.54436246681081 0 -17.54436246681081 34.808722742756345 0 0 0 0 -18.65685118485726 3.5438098391574044 0 3.5438098391574044 8.3433179670983009 0 0 0 0 2.926203098706992 -17.340513102243676 0 -17.340513102243676 34.274048281035448 0 0 0 0 -29.595874258052845 18.892630352545325 0 18.892630352545325 20.765321606772886 0 0 0 0 -48.947323846152358 18.78898945677372 0 18.78898945677372 23.860557061474083 0 0 0 0 -54.691640193560033 10.594371531313698 0 10.594371531313698 36.70217840018222 0 0 0 0 -32.272684803469019 10.739099053461814 0 10.739099053461814 26.419587940918746 0 0 0 0 -30.387884685766949 9.5546366760603405 0 9.5546366760603405 19.108557081208801 0 0 0 0 -22.979847613351012 0.44976002933981363 0 0.44976002933981363 12.112944727516833 0 0 0 0 -24.455990604950784 9.4758464118087886 0 9.4758464118087886 18.781168619289133 0 0 0 0 -20.704692464179971 9.9306388308132227 0 9.9306388308132227 17.251389569261846 0 0 0 0 -6.7012640748089325 3.3296192290997624 0 3.3296192290997624 18.863328736750134 0 0 0 0 -18.239095394060314 16.043173662694926 0 16.043173662694926 9.8390185277612545 0 0 0 0 -46.801138320289283 51.040466609976136 0 51.040466609976136 -3.0859131736726795 0 0 0 0 -22.49978706292859 19.301105859561972 0 19.301105859561972 19.816051482125431 0 0 0 0 -0.47741367343685326 0.51163901071610063 0 0.51163901071610063 -0.24662774755988082 0 0 0 0 -3.1613130316035836 23.968981948798518 0 23.968981948798518 -7.1431416061871005 0 0 0 0 -61.75913150192082 -26.971456393166477 0 -26.971456393166477 -12.308195891694538 0 0 0 0 -0.23272952230777832 0.33450740159030268 0 0.33450740159030268 0.19513900160336872 0 0 0 0 -3.449777902789382 0.68603554932128041 0 0.68603554932128041 1.1854943596804965 0 0 0 0 -1.6718407470762031 -3.8296296745695599 0 -3.8296296745695599 16.341185777810153 0 0 0 0 -10.44815803012898 -1.4853157275422291 0 -1.4853157275422291 29.61133333943144 0 0 0 0 -6.078571822228696 -12.149739581649783 0 -12.149739581649783 -0.21937961920866655 0 0 0 0 -0.63515556659183403 -1.8498493836081558 0 -1.8498493836081558 2.6130768245596725 0 0 0 0 -5.0678836549068365 -2.5630745660521939 0 -2.5630745660521939 4.5273125955457658 0 0 0 0 -4.0961388802461443 -0.95807393641962335 0 -0.95807393641962335 5.4082140714091338 0 0 0 0 -6.6958875677730738 -0.33439295675637837 0 -0.33439295675637837 3.2349061036249873 0 0 0 0 -21.441506206437225 -8.4919007285222392 0 -8.4919007285222392 25.350187211538014 0 0 0 0 -8.7716483806923193 0.49957357916756306 0 0.49957357916756306 0.79930697581769605 0 0 0 0 -38.944729042634208 -34.363458000679657 0 -34.363458000679657 -9.8055787970945403 0 0 0 0 -3.2355311739827854 0.1071475642461433 0 0.1071475642461433 -0.13791448826946939 0 0 0 0 11.606597975739533 21.318719119014304 0 21.318719119014304 -15.203164605342181 0 0 0 0 -60.94874738586077 81.244091055555145 0 81.244091055555145 -55.642905957218545 0 0 0 0 -123.11618109201845 41.438097545920073 0 41.438097545920073 -18.207739068546118 0 0 0 0 -119.78104909536432 58.938843713862639 0 58.938843713862639 27.448544899521721 0 0 0 0 -280.48942409622123 58.501465916232178 0 58.501465916232178 46.832299584311158 0 0 0 0 -30.887801939466954 -36.185174660211032 0 -36.185174660211032 74.910676124437202 0 0 0 0 109.30725727322351 21.557884892288257 0 21.557884892288257 -119.59319169726439 0 0 0 0 216.95662355276636 -159.25669402122139 0 -159.25669402122139 17.004851934346718 0 0 0 0 -4.8056007468324609 -6.897969466532281 0 -6.897969466532281 -8.5297453032827164 0 0 0 0 -19.232560734095387 -203.74664405377553 0 -203.74664405377553 74.606619860386218 0 0 0 0 163.3797226882798 -242.53097262978633 0 -242.53097262978633 32.844678680895527 0 0 0 0 -5.9724827568376391 -7.8775179909633959 0 -7.8775179909633959 -8.5933070486817336 0 0 0 0 63.234251194976878 -6.8532679576590851 0 -6.8532679576590851 62.385209953244384 0 0 0 0 31.487971361984819 -53.26944448629888 0 -53.26944448629888 -10.933787843046844 0 0 0 0 -4.1399877753310648 -25.611518278656092 0 -25.611518278656092 24.190088003372637 0 0 0 0 0.19492391555836619 -0.25903585714544253 0 -0.25903585714544253 -0.52001996947289775 0 0 0 0 0.99352830202769837 35.063237226283917 0 35.063237226283917 -49.492257024333071 0 0 0 0 -5.9411270943360162 -7.1254734651634895 0 -7.1254734651634895 -6.6604599305735608 0 0 0 0 44.824445144158972 -30.94317177999644 0 -30.94317177999644 -26.233006444687078 0 0 0 0 81.299087231376689 -110.47709237303013 0 -110.47709237303013 62.063880380364481 0 0 0 0 -13.20342883514968 -64.794205245210605 0 -64.794205245210605 58.252907091469751 0 0 0 0 51.411556102533723 -31.423290230773603 0 -31.423290230773603 34.251599740831352 0 0 0 0 -41.380389291727624 -6.2830070104974993 0 -6.2830070104974993 53.533090266689669 0 0 0 0 -50.202804845386709 -13.138930218805172 0 -13.138930218805172 53.455437456398045 0 0 0 0 -47.903411201481504 -51.886386928734112 0 -51.886386928734112 25.189639127572036 0 0 0 0 -129.41233741044198 21.896325937547203 0 21.896325937547203 53.681479446060166 0 0 0 0 -7.3181101607606251 -74.531839300450315 0 -74.531839300450315 120.62428139585381 0 0 0 0 -9.4489641214368021 -17.895106089618594 0 -17.895106089618594 51.082432843971958 0 0 0 0 -92.884730887759815 -63.03653535786907 0 -63.03653535786907 -59.311018783099307 0 0 0 0 -86.276464609650247 -43.433622554735052 0 -43.433622554735052 -3.7571874858288083 0 0 0 0 -75.695760436065029 -44.151371185528774 0 -44.151371185528774 -32.688664016646044 0 0 0 0 -53.685821846430372 -6.7460990417132507 0 -6.7460990417132507 -41.548697128768495 0 0 0 0 -52.37069307119873 -12.765969667167042 0 -12.765969667167042 -16.499543074485132 0 0 0 0 -27.819177489717731 -21.068707159869689 0 -21.068707159869689 -24.574965198688005 0 0 0 0 -59.854962517194053 -18.071500907762754 0 -18.071500907762754 7.3810272275825355 0 0 0 0 -86.479429715986498 -39.730012095760543 0 -39.730012095760543 5.1731649482489956 0 0 0 0 27.62800803532582 -39.780792531404188 0 -39.780792531404188 -2.2358670947535302 0 0 0 0 -9.2780017841641893 4.3973324219938945 0 4.3973324219938945 -11.533618353935026 0 0 0 0 -29.50713499703852 -22.108953611124775 0 -22.108953611124775 14.797280077288008 0 0 0 0 -21.968898307989548 -12.067711347535067 0 -12.067711347535067 -32.621695750865229 0 0 0 0 -11.948538562927752 -9.0664810142496606 0 -9.0664810142496606 -32.752399006558562 0 0 0 0 -1.7488023515957138 -26.021661940151986 0 -26.021661940151986 -6.7399864980827715 0 0 0 0 -24.665365302802456 -18.5569283014853 0 -18.5569283014853 -23.33927773934343 0 0 0 0 -44.407444326725908 -4.9078813825650514 0 -4.9078813825650514 -28.04292133645356 0 0 0 0 -22.730489654233224 -9.137219228308247 0 -9.137219228308247 -32.74301936468953 0 0 0 0 -66.059794832928219 -4.0010493110233654 0 -4.0010493110233654 -42.250727192887666 0 0 0 0 -81.222140731598301 -1.996431560454937 0 -1.996431560454937 -19.421748919770209 0 0 0 0 -54.014308758155494 -19.838861265368735 0 -19.838861265368735 -28.185850528574974 0 0 0 0 -85.318642207799712 11.643055316099208 0 11.643055316099208 -32.008478394721948 0 0 0 0 -82.02966814541287 -15.853048594320683 0 -15.853048594320683 -27.93695373647148 0 0 0 0 -95.073542902840018 9.1971441808742611 0 9.1971441808742611 -66.586286818954648 0 0 0 0 -156.52058311229803 19.735284003699235 0 19.735284003699235 -0.070240271455588754 0 0 0 0 -94.993849238197072 15.705845382187462 0 15.705845382187462 0.16183022792978363 0 0 0 0 -44.911547030373185 -16.999234562969434 0 -16.999234562969434 -18.398955561556249 0 0 0 0 -55.882662010733384 -7.3584399663372864 0 -7.3584399663372864 -12.561786237418289 0 0 0 0 -84.774512021705959 -36.965735743046956 0 -36.965735743046956 0.30618173282871908 0 0 0 0 -22.60382216174753 -0.55382731995638323 0 -0.55382731995638323 -1.5098136756979557 0 0 0 0 -9.3954710926491316 0.91947810490583493 0 0.91947810490583493 -26.947554882685104 0 0 0 0 -29.981978202148639 -18.085962086578888 0 -18.085962086578888 -21.104492004921795 0 0 0 0 -10.961262903202623 16.508560917997336 0 16.508560917997336 -4.3923240910989918 0 0 0 0 -32.90812119297243 3.2488757453565142 0 3.2488757453565142 -14.865468685511644 0 0 0 0 -12.831375395476471 9.0197244320023202 0 9.0197244320023202 -4.0239164481072294 0 0 0 0 -3.9945367970058214 -8.7235469124953795 0 -8.7235469124953795 -19.946925109671184 0 0 0 0 0.28448017227541911 0.31296052306564626 0 0.31296052306564626 -0.082040968569284445 0 0 0 0 -5.0568786898274993 10.040130787989483 0 10.040130787989483 -12.962202826970326 0 0 0 0 -9.0373825339238465 4.768940337555307 0 4.768940337555307 0.64738707432638876 0 0 0 0 -6.4407543330954695 6.0238685184968999 0 6.0238685184968999 10.994917841691986 0 0 0 0 -7.746652602467293 -2.1329363033909914 0 -2.1329363033909914 -1.9203502964932113 0 0 0 0 -8.1188893764729073 -3.1488997832605499 0 -3.1488997832605499 -2.596480530410016 0 0 0 0 -8.4287969873003021 -3.6032425590618624 0 -3.6032425590618624 -2.6990483252779041 0 0 0 0 -1.726841069526146 0.18728047513045887 0 0.18728047513045887 0.082564646669695707 0 0 0 0 -1.2754927253989159 0.73392257030234997 0 0.73392257030234997 0.41538901677539453 0 0 0 0 -11.047504971276794 -0.53657519949995702 0 -0.53657519949995702 1.581732114003815 0 0 0 0 -26.549687222956891 7.3767320788922461 0 7.3767320788922461 -19.058248296550662 0 0 0 0 -10.647345319675878 0.45109140036371542 0 0.45109140036371542 2.2341787308937455 0 0 0 0 -10.647345319678607 0.4510914004363471 0 0.4510914004363471 2.2341787308894254 0 0 0 0 14.673643171203821 -4.4281962828045263 0 -4.4281962828045263 -17.36937153726501 0 0 0 0 2.5458505050479543 -1.6217568381945384 0 -1.6217568381945384 -0.39742222168623614 0 0 0 0 -4.0091203671127005 -2.3801780008496962 0 -2.3801780008496962 -0.34950989089838913 0 0 0 0 -8.5817582985194143 -6.267019533066577 0 -6.267019533066577 0.36901278167299134 0 0 0 0 -3.9595091902708575 -3.4310660045425756 0 -3.4310660045425756 0.31268571156616176 0 0 0 0 -10.647345319630404 0.45109140043382467 0 0.45109140043382467 2.2341787308903349 0 0 0 0 -3.152191792216855 -4.3930573219502715 0 -4.3930573219502715 1.559144000770365 0 0 0 0 -8.5084610813324151 -3.8460244493930675 0 -3.8460244493930675 -0.45106367552323601 0 0 0 0 -1.0773765867179463 -2.5527547355127354 0 -2.5527547355127354 -0.26680968150958506 0 0 0 0 -5.8566401656804423 -3.7420320418469877 0 -3.7420320418469877 -0.43104862942570943 0 0 0 0 -3.9246747291617794 -2.334454900842843 0 -2.334454900842843 -0.528222290578924 0 0 0 0 0.29547526129685941 -3.7761019122797692 0 -3.7761019122797692 1.2931907794435893 0 0 0 0 -22.79798870398281 -11.704206325156235 0 -11.704206325156235 8.0353913704397399 0 0 0 0 4.5162590963382172 -9.4897629412371032 0 -9.4897629412371032 2.9329892177479451 0 0 0 0 -3.0596687552611002 -2.5400488598361335 0 -2.5400488598361335 0.33954429387449636 0 0 0 0 -27.599303115803195 -8.9426598479968789 0 -8.9426598479968789 6.8726849043792413 0 0 0 0 -53.583814818256542 11.599694578289302 0 11.599694578289302 3.6956203972695221 0 0 0 0 -52.029568210398793 11.820275838977807 0 11.820275838977807 0.38298324152196983 0 0 0 0 -22.497935338290517 -4.3757545425298758 0 -4.3757545425298758 2.4316180131086931 0 0 0 0 -42.256636657790295 13.223922291501538 0 13.223922291501538 -10.287221183987015 0 0 0 0 -48.441538630508148 20.026900749314336 0 20.026900749314336 -12.009531167907731 0 0 0 0 -10.749980379451262 -1.475262464273005 0 -1.475262464273005 0.22453396028484868 0 0 0 0 -64.212379560844965 15.87127023654989 0 15.87127023654989 4.9694012329142652 0 0 0 0 -59.064521458988111 42.865405725228925 0 42.865405725228925 -22.075100383563154 0 0 0 0 -11.198098282058709 28.291637445456445 0 28.291637445456445 -17.63931601361071 0 0 0 0 -21.176749805998043 12.12086227091897 0 12.12086227091897 27.771895164540954 0 0 0 0 -8.9406005749565338 23.320356478822131 0 23.320356478822131 2.1031764366662316 0 0 0 0 -49.301864513579631 -59.679685636172515 0 -59.679685636172515 -26.35456811073546 0 0 0 0 -3.9540341982246812 0.07635751737387908 0 0.07635751737387908 -0.10766706446020888 0 0 0 0 -95.616599988390135 153.11959155894243 0 153.11959155894243 -100.45739594582238 0 0 0 0 -31.046495148518716 91.017580589208549 0 91.017580589208549 -200.34494898592311 0 0 0 0 -246.27815919359995 75.921575587032464 0 75.921575587032464 52.711275429521038 0 0 0 0 -264.51260961502339 96.751792337487572 0 96.751792337487572 -4.3660917675920778 0 0 0 0 -204.52549890315549 -39.838071248164091 0 -39.838071248164091 6.9118624263943644 0 0 0 0 10.996880222834989 -15.162990601941715 0 -15.162990601941715 2.9025307757568655 0 0 0 0 13.804016307711436 -6.6994671897804849 0 -6.6994671897804849 -2.3603070601976697 0 0 0 0 9.6461607322980853 -7.2393587244635924 0 -7.2393587244635924 -6.7086844352169521 0 0 0 0 3.7235424776372383 -9.0099140652725325 0 -9.0099140652725325 2.1358173068367243 0 0 0 0 -8.4744422387832401 -11.596583793920495 0 -11.596583793920495 11.190976520787899 0 0 0 0 5.1194567846005157 -7.6696509326129103 0 -7.6696509326129103 -4.2192127659880532 0 0 0 0 -1.9180950854669305 -2.740818895210765 0 -2.740818895210765 -1.7398105370973878 0 0 0 0 -1.8361243340072591 -2.5059736486019766 0 -2.5059736486019766 -1.3411685284750527 0 0 0 0 1.3200590089254547 -2.6180639134781813 0 -2.6180639134781813 0.32991596569354442 0 0 0 0 11.553532166846708 -37.918342501378788 0 -37.918342501378788 30.388687499660591 0 0 0 0 -25.334938246973707 -15.401530558621829 0 -15.401530558621829 35.578561422862094 0 0 0 0 8.593564244609297 -16.469621222592991 0 -16.469621222592991 12.333796488970961 0 0 0 0 -5.0309672243092791 -27.214105985405013 0 -27.214105985405013 41.25034436553608 0 0 0 0 23.315743916163228 -14.970871751696329 0 -14.970871751696329 -13.361735317431851 0 0 0 0 0.73642703963304612 -1.615097788381183 0 -1.615097788381183 -1.8707155842017074 0 0 0 0 -5.8488745584255213 -5.3388604229141716 0 -5.3388604229141716 -3.2659628868281354 0 0 0 0 -8.2110921710136608 -30.788985829437706 0 -30.788985829437706 42.150051449869807 0 0 0 0 11.252972400234285 -24.034332884276068 0 -24.034332884276068 16.822279224198496 0 0 0 0 -0.17947214061961603 -0.59148284128778439 0 -0.59148284128778439 -0.83896829570091425 0 0 0 0 -4.0154450948139129 22.110114572823221 0 22.110114572823221 -4.8334307814029245 0 0 0 0 18.62329573326042 -18.343695658555305 0 -18.343695658555305 5.1659577672791102 0 0 0 0 6.9706944245554041 -3.8001587055740629 0 -3.8001587055740629 1.4093735885667229 0 0 0 0 3.2884729800425703 -11.437393050257072 0 -11.437393050257072 18.283156334394086 0 0 0 0 -2.7173468980718098 -2.9573328375484778 0 -2.9573328375484778 5.7804928921011651 0 0 0 0 8.9031586775390679 4.3565784808399144 0 4.3565784808399144 8.1659954253062494 0 0 0 0 -13.360284819837034 9.7255566929025861 0 9.7255566929025861 -2.947705710641344 0 0 0 0 -9.0527781375976701 4.0871703101116736 0 4.0871703101116736 -18.957212830542232 0 0 0 0 -0.19247721998656431 0.23533440485345203 0 0.23533440485345203 0.049376359275770554 0 0 0 0 -13.820001351400606 3.9721621676797696 0 3.9721621676797696 -9.6784975580130208 0 0 0 0 -21.450870952234254 -0.91245957292289859 0 -0.91245957292289859 -17.250774847845946 0 0 0 0 -21.425575741178363 -2.2894424824506103 0 -2.2894424824506103 -4.7720898692543301 0 0 0 0 -11.037580732465358 -5.1498878999568518 0 -5.1498878999568518 -3.6684470470062394 0 0 0 0 -11.254898286631942 -5.6548270701098602 0 -5.6548270701098602 -3.9824182802263195 0 0 0 0 -1.7112371117550538 -11.991865271744075 0 -11.991865271744075 -6.3044549716984761 0 0 0 0 1.9322483029227442 3.2684542812236259 0 3.2684542812236259 -13.634782968985107 0 0 0 0 0.79879403806262417 -1.8187487149248085 0 -1.8187487149248085 -6.3750115522043131 0 0 0 0 -0.23033451376977609 2.0393519702120244 0 2.0393519702120244 -10.061977939911088 0 0 0 0 8.0869275379809551 -4.3498246403166263 0 -4.3498246403166263 -12.454569320465367 0 0 0 0 5.136268418693362 -7.0159976354007796 0 -7.0159976354007796 -1.5362268008735001 0 0 0 0 -0.56749419585867145 0.89143622087819097 0 0.89143622087819097 -7.3938950442542613 0 0 0 0 3.1618827799866267 -2.1763772345108734 0 -2.1763772345108734 -6.657767184996203 0 0 0 0 -8.4757655875619093 2.1800332133767384 0 2.1800332133767384 -6.045978465798278 0 0 0 0 -2.2086664208154616 -1.0950629755937271 0 -1.0950629755937271 -5.4777967753436627 0 0 0 0 -4.3658578605609364 0.057788798943398945 0 0.057788798943398945 -4.9983474833798134 0 0 0 0 -1.7429313752636517 -1.8124495025866452 0 -1.8124495025866452 -3.6685171931826517 0 0 0 0 -1.7368821465050246 -1.9373464214162639 0 -1.9373464214162639 -5.9415517303797003 0 0 0 0 -19.640641736639736 -11.398738867633369 0 -11.398738867633369 6.0535844603428473 0 0 0 0 -5.1906982524187697 -1.1117686175971926 0 -1.1117686175971926 -4.0296454346663779 0 0 0 0 -2.2314488610054646 -0.43463859800338156 0 -0.43463859800338156 -0.44347443595860586 0 0 0 0 -10.599377717351672 -2.9068826425438292 0 -2.9068826425438292 -0.67437597638932978 0 0 0 0 -1.3300405504804651 -0.30517857285845373 0 -0.30517857285845373 -0.10434923231186854 0 0 0 0 -8.204163756662922 -4.5561145573853672 0 -4.5561145573853672 -7.8521246720258091 0 0 0 0 -5.5556106181884388 -1.3708331949308317 0 -1.3708331949308317 -2.2619040148712202 0 0 0 0 -3.606844830361986 -2.6756747054406373 0 -2.6756747054406373 -0.040063860663786532 0 0 0 0 -19.640610687471053 -4.5229366625379441 0 -4.5229366625379441 -2.5824138579715736 0 0 0 0 -12.282859277876923 -5.5798678913174626 0 -5.5798678913174626 -2.282336781398385 0 0 0 0 -5.151034865371912 -1.5855484893293124 0 -1.5855484893293124 -2.1617449523168943 0 0 0 0 -2.0545315575545828 -2.1937822518347616 0 -2.1937822518347616 1.4638372078239996 0 0 0 0 -3.6587082731034677 -2.0941690648723088 0 -2.0941690648723088 -0.35726789060110359 0 0 0 0 -5.7408731067789436 -2.359675843710213 0 -2.359675843710213 1.4404482038727846 0 0 0 0 -4.0659505726260416 -2.0852318329565067 0 -2.0852318329565067 0.74276815322660728 0 0 0 0 -14.911530429019876 -10.827043731546496 0 -10.827043731546496 4.5455964076742248 0 0 0 0 -2.9580334197878528 -1.9226614748647535 0 -1.9226614748647535 2.6890347813518929 0 0 0 0 19.647222169569432 1.9877126151347966 0 1.9877126151347966 -3.315358408566226 0 0 0 0 -5.5992395390995959 -2.5133196893757868 0 -2.5133196893757868 0.73366419205497246 0 0 0 0 -2.7383772558235542 -2.669788445560334 0 -2.669788445560334 1.3580374916028284 0 0 0 0 -2.916806419920249 -2.2166002749177096 0 -2.2166002749177096 1.0898519941397318 0 0 0 0 -3.4851166899388772 -2.0594539400196936 0 -2.0594539400196936 1.0879315717834288 0 0 0 0 -2.4745750118317122 -1.4389199088282032 0 -1.4389199088282032 0.9293010096787564 0 0 0 0 -3.8995115752568381 -2.9552651644001457 0 -2.9552651644001457 -1.5936885963073451 0 0 0 0 -1.4746991685042303 -3.2260698749231977 0 -3.2260698749231977 -4.3419160838598714 0 0 0 0 -4.320256862347378 -3.5751756264808137 0 -3.5751756264808137 -2.0258798521631434 0 0 0 0 -0.011737756040041347 -0.9787983833874454 0 -0.9787983833874454 -0.59362796015155905 0 0 0 0 -4.6255331659067451 -1.8874664112555593 0 -1.8874664112555593 1.5736092129122063 0 0 0 0 -7.5680038719939446 -3.274964254654964 0 -3.274964254654964 0.95761614094457403 0 0 0 0 -1.4395262649613869 -2.6890423745547878 0 -2.6890423745547878 0.2733641256575261 0 0 0 0 -6.6812800938076862 5.6216186201887695 0 5.6216186201887695 4.1516351273048713 0 0 0 0 -3.2963796364378197 -3.4505520960836749 0 -3.4505520960836749 0.43145409547531949 0 0 0 0 -23.450723280016064 -4.8648187126368612 0 -4.8648187126368612 32.312422743379557 0 0 0 0 -9.3294167751482036 -3.8252668789742641 0 -3.8252668789742641 -0.67899533246733923 0 0 0 0 -9.1595086455970698 -2.6441696873803511 0 -2.6441696873803511 0.4711269678615958 0 0 0 0 -27.259283084395065 -28.394108854414441 0 -28.394108854414441 23.531709568043823 0 0 0 0 5.1699261827702685 -3.9002075173499478 0 -3.9002075173499478 -1.8925486097944386 0 0 0 0 -0.69069344771207852 -6.3294874545289463 0 -6.3294874545289463 -7.2077430156867877 0 0 0 0 4.4984482801573904 -5.061243241609489 0 -5.061243241609489 -6.8978643484688327 0 0 0 0 2.0164581567871664 -4.597696564580545 0 -4.597696564580545 -5.8932800847858999 0 0 0 0 3.1262940542105753 -9.094655184063889 0 -9.094655184063889 -4.6897960999276869 0 0 0 0 -4.5586712503136368 -25.400390281248519 0 -25.400390281248519 -60.157427650467298 0 0 0 0 1.2993625721449611 0.11961237541802738 0 0.11961237541802738 -0.72593930596733625 0 0 0 0 6.1695709335338975 -1.8509262996759235 0 -1.8509262996759235 -0.91935094706314646 0 0 0 0 -8.1275137893644569 -9.4610319815255934 0 -9.4610319815255934 18.726907363212945 0 0 0 0 14.864525477072675 -51.684495344829031 0 -51.684495344829031 -41.860746710897104 0 0 0 0 -3.9018786990026229 7.6242628597747171 0 7.6242628597747171 2.2223594484530622 0 0 0 0 -30.567846251686206 10.60592358286226 0 10.60592358286226 24.386790124213348 0 0 0 0 -72.318931686203541 -0.7981000466900241 0 -0.7981000466900241 -1.6982420300989816 0 0 0 0 -15.901965684467996 -34.467941727291986 0 -34.467941727291986 -54.003098458850218 0 0 0 0 -26.762902119033242 -5.2274768390350346 0 -5.2274768390350346 -4.3769943320858147 0 0 0 0 -0.26544255165645758 -0.53776287147278512 0 -0.53776287147278512 -0.76283980233191295 0 0 0 0 -33.704270120364527 22.745759595228719 0 22.745759595228719 -3.2989821489015867 0 0 0 0 -32.814117255582744 23.182675519050036 0 23.182675519050036 -7.0479775024987248 0 0 0 0 2.8154052427606757 -2.2003953724854028 0 -2.2003953724854028 -46.2834581327877 0 0 0 0 -0.447699009318967 -0.98593472345874034 0 -0.98593472345874034 -25.695127067267549 0 0 0 0 5.3394366115182947 10.124634469375678 0 10.124634469375678 -5.2557039519178943 0 0 0 0 0.24307805005909522 -0.048305024139064789 0 -0.048305024139064789 -0.25215018192424576 0 0 0 0 -9.9301728599739363 3.1386771813258747 0 3.1386771813258747 -2.6855595904166876 0 0 0 0 -14.381918613409653 1.232636074202901 0 1.232636074202901 7.7945807012100659 0 0 0 0 -4.5498838100102148 -1.5689786193165673 0 -1.5689786193165673 7.223129686169159 0 0 0 0 -1.7582811768501383 -1.4194608233168267 0 -1.4194608233168267 -0.55805657150603949 0 0 0 0 -1.8650858691444228 2.7408179785001607 0 2.7408179785001607 4.5562637440675644 0 0 0 0 -7.1337774550975155 -7.3565919694970034 0 -7.3565919694970034 12.16565145378263 0 0 0 0 -1.4993596369404258 -1.8586550502795944 0 -1.8586550502795944 0.13866405514636426 0 0 0 0 -11.324073410629353 8.0959177448050923 0 8.0959177448050923 4.5740285484880587 0 0 0 0 -0.40562141330549295 0.069770416017777892 0 0.069770416017777892 0.70082039824879727 0 0 0 0 -2.1496098682969205 -6.3561886222232715 0 -6.3561886222232715 4.5090607978499975 0 0 0 0 -2.9656313856247234 -0.83721022843211301 0 -0.83721022843211301 1.1983079823296032 0 0 0 0 -4.6201823146798233 -2.7038109144798455 0 -2.7038109144798455 0.33262902540070627 0 0 0 0 -2.3757963307558896 -1.9152780108245713 0 -1.9152780108245713 0.46405898527673095 0 0 0 0 -3.6734596853298171 -1.5314131649797673 0 -1.5314131649797673 1.2499312521883894 0 0 0 0 -3.1134019391683978 -1.6301770229538306 0 -1.6301770229538306 2.8935713717287399 0 0 0 0 -3.07016058087176 -0.87213523440443153 0 -0.87213523440443153 1.6565418769071756 0 0 0 0 -3.1707812731927341 -3.2795917759767121 0 -3.2795917759767121 -0.66395450683390411 0 0 0 0 -0.14767364693011586 -3.1029907124308238 0 -3.1029907124308238 3.0910919352782003 0 0 0 0 -1.9511026153597868 0.16956271429171466 0 0.16956271429171466 2.6486004606931601 0 0 0 0 -5.1079095800423602 0.42447133874838983 0 0.42447133874838983 3.552075363775657 0 0 0 0 -2.4122164542448044 -0.50643482859164379 0 -0.50643482859164379 0.099883058468340558 0 0 0 0 -4.3838870363779279 0.57318412532924867 0 0.57318412532924867 1.569558382203013 0 0 0 0 -1.2832100411776552 0.43991695757741311 0 0.43991695757741311 0.71245259318302168 0 0 0 0 -7.9717307207847625 -0.40002572523508206 0 -0.40002572523508206 1.9306718412909163 0 0 0 0 -4.213693365121344 -0.057647375348324204 0 -0.057647375348324204 1.9567890703146986 0 0 0 0 -6.4354133367814939 -1.9865919296585162 0 -1.9865919296585162 4.1067707576503381 0 0 0 0 -6.0661866542304779 -1.0502874727885683 0 -1.0502874727885683 1.4851100526257142 0 0 0 0 -6.9306281734109234 -2.974056497529773 0 -2.974056497529773 -0.66593238609129912 0 0 0 0 -5.3229598037710275 1.4004600853000966 0 1.4004600853000966 0.85397590967977521 0 0 0 0 -10.652970731234291 -0.62363883213311055 0 -0.62363883213311055 1.0320827086584359 0 0 0 0 -7.8332934309291886 5.4777584160060542 0 5.4777584160060542 12.985182201939097 0 0 0 0 -7.7199769894668862 -0.9913101859751805 0 -0.9913101859751805 4.6661863471099423 0 0 0 0 -7.9304988077501548 -3.870083859967508 0 -3.870083859967508 7.4750058366562371 0 0 0 0 -6.4638694911509447 -0.71753721621394106 0 -0.71753721621394106 -1.8766924023807405 0 0 0 0 -8.8588872865020676 -2.0070690859447495 0 -2.0070690859447495 -1.1339528704293116 0 0 0 0 -9.7301618501714984 -7.2455253941702722 0 -7.2455253941702722 -5.4931281077324456 0 0 0 0 -1.443376582478777 -10.213114628933454 0 -10.213114628933454 -24.846220870226944 0 0 0 0 0.60490152235956884 -6.6820053422469528 0 -6.6820053422469528 -19.422264844007714 0 0 0 0 4.7325447181137861 4.0822347559760601 0 4.0822347559760601 -17.368301477332352 0 0 0 0 -1.8747357245994181 -23.049608850279697 0 -23.049608850279697 -36.284003253689207 0 0 0 0 -3.0998970206919694 -17.118119235708036 0 -17.118119235708036 -20.256246732031613 0 0 0 0 -7.9276336859961702 -22.361664054586868 0 -22.361664054586868 -25.898548134490511 0 0 0 0 -1.6561716325645648 1.8765931585959379 0 1.8765931585959379 -1.7801501495841876 0 0 0 0 -0.23581685338001401 0.42186205039138125 0 0.42186205039138125 -0.04538541427588072 0 0 0 0 -23.752661037637154 -13.158539643397035 0 -13.158539643397035 -2.5067613016521477 0 0 0 0 -7.3620339761641844 -3.4370619940757479 0 -3.4370619940757479 -4.7978369555435165 0 0 0 0 -16.628262463451392 -4.2342758330021297 0 -4.2342758330021297 5.7845612702085418 0 0 0 0 -22.383643207623209 -20.662104559572754 0 -20.662104559572754 -10.923600944185409 0 0 0 0 -18.434928722214295 6.7027367974303047 0 6.7027367974303047 13.588819808414883 0 0 0 0 -26.156374307997339 5.9817827605670573 0 5.9817827605670573 48.107078409162568 0 0 0 0 -42.345698617858034 -16.377143603046079 0 -16.377143603046079 32.190499922841809 0 0 0 0 9.5326980505606116 -63.385590630024922 0 -63.385590630024922 -129.13241096036279 0 0 0 0 -53.539800284076136 36.97594525135878 0 36.97594525135878 2.5667659053582099 0 0 0 0 -0.89813668845379091 -0.35605968741227523 0 -0.35605968741227523 -0.025326910595336871 0 0 0 0 -22.517785614604691 -83.881670987553662 0 -83.881670987553662 -90.062371728346307 0 0 0 0 -11.054777276539198 -22.570015378849348 0 -22.570015378849348 -87.748130229160552 0 0 0 0 -26.92313400179728 -38.252917372850334 0 -38.252917372850334 3.3897265584851084 0 0 0 0 -9.6040255493958284 -27.06749904773659 0 -27.06749904773659 -17.141426460475486 0 0 0 0 -2.4656679115724298 -0.57437865596158444 0 -0.57437865596158444 0.088854593123488423 0 0 0 0 -19.246381521745661 -15.986430314427707 0 -15.986430314427707 -26.146268327273781 0 0 0 0 3.7798860241582588 -29.66125886498935 0 -29.66125886498935 -30.508294191197365 0 0 0 0 -9.1188231557034669 -1.178604258531891 0 -1.178604258531891 29.233139022392322 0 0 0 0 -6.1611076532194602 -4.5010214228840368 0 -4.5010214228840368 15.490972177993399 0 0 0 0 -3.5239424549086902 -0.45394006698405054 0 -0.45394006698405054 0.11989236203211162 0 0 0 0 -36.830082809241503 -10.219910280324143 0 -10.219910280324143 37.488470386247172 0 0 0 0 -12.944601039762347 7.9674121630962418 0 7.9674121630962418 -2.8534931203134875 0 0 0 0 -83.689576449624383 -14.948279618810602 0 -14.948279618810602 -3.1769866793961228 0 0 0 0 -7.4131161010013784 24.275785398990251 0 24.275785398990251 -70.078198742390896 0 0 0 0 -13.445997413048644 -40.587664470963773 0 -40.587664470963773 -49.367673331029323 0 0 0 0 -4.3940984020337055 -25.812477013423404 0 -25.812477013423404 -30.644270046135944 0 0 0 0 1.0539305988222623 -22.053344122355611 0 -22.053344122355611 -56.852507049482483 0 0 0 0 5.2825231003871522 -11.188369225438009 0 -11.188369225438009 -28.946447075891228 0 0 0 0 20.033945287971164 32.832517706601152 0 32.832517706601152 25.832084567072798 0 0 0 0 -10.466286791433959 2.1200321166185176 0 2.1200321166185176 17.397953386729114 0 0 0 0 -6.5020362888853249 0.21037651179160632 0 0.21037651179160632 1.9789467788093291 0 0 0 0 -80.497719756268452 -8.915914692553315 0 -8.915914692553315 54.286028698806263 0 0 0 0 -43.668384487494336 48.978519430382462 0 48.978519430382462 38.085131734229094 0 0 0 0 -91.855601910371206 93.052143839169162 0 93.052143839169162 51.605173822527377 0 0 0 0 -140.60109287177738 59.448994020021246 0 59.448994020021246 49.561531005981351 0 0 0 0 -1.2483248168590597 -0.75764978316153364 0 -0.75764978316153364 0.47232374953884548 0 0 0 0 -79.103579617677042 52.225102916479614 0 52.225102916479614 -29.073585498928878 0 0 0 0 -125.92094507304841 97.896793816740967 0 97.896793816740967 -71.717342634136003 0 0 0 0 -114.00002133417638 67.550589510783084 0 67.550589510783084 -44.856774638064508 0 0 0 0 -161.31810869247693 95.757931031962471 0 95.757931031962471 -60.041818495114512 0 0 0 0 -164.43103304641227 34.890610643110449 0 34.890610643110449 -19.668701509978064 0 0 0 0 -276.51962303626078 13.024737219082454 0 13.024737219082454 -15.965446971632446 0 0 0 0 -300.26023255148175 20.872476008295962 0 20.872476008295962 -18.488338004931848 0 0 0 0 -141.24125490146616 -2.984771485891315 0 -2.984771485891315 25.833539280789182 0 0 0 0 -178.7248655504186 22.153430156302647 0 22.153430156302647 8.9910949587047071 0 0 0 0 -146.74433771795157 39.531271171386607 0 39.531271171386607 18.646329783449005 0 0 0 0 -172.54731915827278 28.774676462425646 0 28.774676462425646 14.165987367551679 0 0 0 0 -132.8855589009986 29.057469167120189 0 29.057469167120189 26.381249674180253 0 0 0 0 -107.68028858019807 41.995127165460417 0 41.995127165460417 31.172293427859358 0 0 0 0 -108.70216698755326 62.457401067834269 0 62.457401067834269 7.9494719321971843 0 0 0 0 -95.166052249296058 3.2523878815094065 0 3.2523878815094065 19.701060948500981 0 0 0 0 -118.74951429345219 7.4045266046591678 0 7.4045266046591678 20.209098982303203 0 0 0 0 -70.110115544287055 -40.860486194269583 0 -40.860486194269583 18.484782374371662 0 0 0 0 -40.404104519720931 -4.4944625981095214 0 -4.4944625981095214 -4.9670287743838344 0 0 0 0 -4.4146747705553935 -2.4830623471486888 0 -2.4830623471486888 0.020880248988760286 0 0 0 0 -1.1507488083043835 -2.2395198975005268 0 -2.2395198975005268 3.7867386718214533 0 0 0 0 -13.677048440168107 -30.589977115688313 0 -30.589977115688313 0.027112276330626628 0 0 0 0 -15.611400702690844 -3.7961683907701627 0 -3.7961683907701627 -2.9632273360621184 0 0 0 0 -1.0976839542166972 -2.9357515675575985 0 -2.9357515675575985 -2.0136848514485202 0 0 0 0 -56.856744479522149 13.721327894067713 0 13.721327894067713 3.0161986557114346 0 0 0 0 -54.082924209675184 -0.62609131796796191 0 -0.62609131796796191 4.3457944854167181 0 0 0 0 -0.46119887535870063 -0.3149392988197155 0 -0.3149392988197155 0.21289083109387796 0 0 0 0 -50.911047836457982 -20.615275682966754 0 -20.615275682966754 1.2045939296531287 0 0 0 0 -111.32330923280779 -30.355864378672095 0 -30.355864378672095 -62.336607280353746 0 0 0 0 36.436307268721066 -17.620812063957601 0 -17.620812063957601 29.317498747642276 0 0 0 0 0.30593095876976228 -0.68179228127158176 0 -0.68179228127158176 1.256935466828077 0 0 0 0 -0.93487934740206102 -0.54534208792098626 0 -0.54534208792098626 -0.39063246893659453 0 0 0 0 47.023474568758047 -14.276677604995939 0 -14.276677604995939 -15.39648342145847 0 0 0 0 -3.7773835872576456 -0.43257732456186204 0 -0.43257732456186204 -0.096542822272340345 0 0 0 0 23.270537648405252 11.896141797975474 0 11.896141797975474 -20.241650125038177 0 0 0 0 -165.28348655974037 -18.973007511680407 0 -18.973007511680407 13.796849838292928 0 0 0 0 -52.664914316676914 6.0630234649779595 0 6.0630234649779595 14.589522735339415 0 0 0 0 0.60812025857967456 -36.730428940454203 0 -36.730428940454203 26.551318826554052 0 0 0 0 -27.480604857021717 -0.31823094676656183 0 -0.31823094676656183 26.807981487974093 0 0 0 0 7.6996261955397358 15.079167410201478 0 15.079167410201478 16.386101580453214 0 0 0 0 -0.34085588633891017 0.59876525260551094 0 0.59876525260551094 -0.62616868193499187 0 0 0 0 49.131556601936609 13.505156319103435 0 13.505156319103435 -62.004466197104193 0 0 0 0 4.5444556542461214 34.631732752630342 0 34.631732752630342 -32.168096295470605 0 0 0 0 -27.798098165497208 -6.3267015781090947 0 -6.3267015781090947 -56.460632173535487 0 0 0 0 -30.038839991442273 2.2099360331606022 0 2.2099360331606022 -87.705574183179124 0 0 0 0 -11.105302298721654 31.283880594965922 0 31.283880594965922 -90.926617626231746 0 0 0 0 -49.296984871880341 54.334759805740077 0 54.334759805740077 -103.34680018070867 0 0 0 0 -41.165419267260859 26.813356893079344 0 26.813356893079344 -66.273255342406628 0 0 0 0 -2.7330964546590621 15.815235328562267 0 15.815235328562267 -78.912863422268856 0 0 0 0 -23.348119005440822 17.464051752544037 0 17.464051752544037 -61.87380138991648 0 0 0 0 -76.366382018351942 50.517054130034012 0 50.517054130034012 -54.156890441270662 0 0 0 0 -31.616866625530747 21.803517271815963 0 21.803517271815963 -39.037362702070823 0 0 0 0 -62.230123681385521 79.845941805721509 0 79.845941805721509 -97.29517974004375 0 0 0 0 -131.29110978517156 73.246985543639198 0 73.246985543639198 1.949025357364917 0 0 0 0 -144.03503715778061 54.888463022420638 0 54.888463022420638 8.160259404683984 0 0 0 0 -90.674036948688808 -0.81153601707501366 0 -0.81153601707501366 46.54662721907016 0 0 0 0 -33.059331773207631 -30.708569074816374 0 -30.708569074816374 0.79008405119384406 0 0 0 0 -186.19309128425948 65.665906872320534 0 65.665906872320534 8.5336876572559959 0 0 0 0 -54.155508528267355 36.238597925956654 0 36.238597925956654 -171.45556326953647 0 0 0 0 -55.027134709966504 -81.250693161189815 0 -81.250693161189815 5.4765634650813126 0 0 0 0 -165.56035075390446 41.518197068555992 0 41.518197068555992 34.505724230026317 0 0 0 0 -0.23546116124772176 0.47504179869293051 0 0.47504179869293051 -0.44753394782696798 0 0 0 0 -172.42872179721712 83.534636931269119 0 83.534636931269119 -32.139371382741501 0 0 0 0 -144.91019374216376 66.362745166269406 0 66.362745166269406 -43.474670044291088 0 0 0 0 -168.08709541628787 71.245664068473616 0 71.245664068473616 1.7408734830542016 0 0 0 0 -164.66575751641631 69.879092564851817 0 69.879092564851817 2.2862123732948021 0 0 0 0 -152.97090224569547 76.549390968704301 0 76.549390968704301 5.948856012426404 0 0 0 0 -173.10420153821269 84.032028474790422 0 84.032028474790422 16.189098103598553 0 0 0 0 -176.16755106990422 50.687568487281396 0 50.687568487281396 33.01927553119458 0 0 0 0 -186.05790994631298 69.650223316834854 0 69.650223316834854 17.637748912715779 0 0 0 0 -164.72280680058094 66.96966816932499 0 66.96966816932499 16.553928322582578 0 0 0 0 -148.10229919391577 39.3159442997827 0 39.3159442997827 -6.0061564374600493 0 0 0 0 -138.5279883495632 50.55566300811256 0 50.55566300811256 -8.6489255345675247 0 0 0 0 -114.05041002313169 10.956104393462965 0 10.956104393462965 12.373632135243952 0 0 0 0 -137.82720513411778 13.302896492059062 0 13.302896492059062 16.227857574818245 0 0 0 0 -194.75387240415034 27.560031765040435 0 27.560031765040435 21.249509495938128 0 0 0 0 -329.74068454761618 5.6292237604525326 0 5.6292237604525326 26.406267948916437 0 0 0 0 -216.17581294512274 -11.099558881959638 0 -11.099558881959638 26.676578776451606 0 0 0 0 -253.91794108176418 79.177538495885074 0 79.177538495885074 24.534144927630223 0 0 0 0 -201.41785491159379 91.916978388314135 0 91.916978388314135 16.358830068448697 0 0 0 0 -201.26561104382199 112.80189141935671 0 112.80189141935671 -20.375436725557392 0 0 0 0 -399.1634434972093 177.87987350476214 0 177.87987350476214 -15.265881175561844 0 0 0 0 -52.644714922311323 63.272332757951517 0 63.272332757951517 -86.540549520600962 0 0 0 0 -107.72870076784238 271.23269692940312 0 271.23269692940312 -274.55472193461901 0 0 0 0 -218.3075660387367 -163.67100352543684 0 -163.67100352543684 -120.03814908701679 0 0 0 0 -386.40974903278402 -238.87311072138527 0 -238.87311072138527 -137.3169007055576 0 0 0 0 -432.94278797488005 -24.111558169493946 0 -24.111558169493946 -26.108874878800634 0 0 0 0 -270.92343855459876 87.357832476174735 0 87.357832476174735 -60.036391469596992 0 0 0 0 -4.8711127844014364 0.054580368839205917 0 0.054580368839205917 0.5919887212598578 0 0 0 0 -114.30371226190596 -35.175933482198161 0 -35.175933482198161 -12.228511978045162 0 0 0 0 -18.898606958076471 -23.191520956933346 0 -23.191520956933346 -25.352629353736575 0 0 0 0 -155.29919136605258 103.48501705486706 0 103.48501705486706 -72.780035112534051 0 0 0 0 37.745001558665081 8.1328690450304748 0 8.1328690450304748 -21.746480184880856 0 0 0 0 -142.08518766048942 -32.140287810680007 0 -32.140287810680007 14.471967475805286 0 0 0 0 -34.471462524229423 9.569975788864781 0 9.569975788864781 -7.9559844145617262 0 0 0 0 -0.93216038897480757 -42.589901948565171 0 -42.589901948565171 -21.252136089573611 0 0 0 0 -106.34923155425804 23.355669005687162 0 23.355669005687162 17.737214554621005 0 0 0 0 -1.720387873750326 0.1803728201240915 0 0.1803728201240915 9.7782698843693652 0 0 0 0 -0.40363727520448478 -0.55411424615946392 0 -0.55411424615946392 3.391701419936263 0 0 0 0 5.5979596273842276 -22.650654432225679 0 -22.650654432225679 15.583848422199026 0 0 0 0 -14.972824383681655 -3.2795258496442443 0 -3.2795258496442443 14.388878240397275 0 0 0 0 -0.078331827430880629 -0.05926163918615468 0 -0.05926163918615468 0.5286210026791025 0 0 0 0 -5.5042661639465678 0.39978829426365792 0 0.39978829426365792 2.973544677784048 0 0 0 0 -4.8024789847778369 -0.52452154652238514 0 -0.52452154652238514 3.0668720248059698 0 0 0 0 -4.2116992394281629 1.6049107959448872 0 1.6049107959448872 2.7789880425276108 0 0 0 0 44.108664297150654 20.09099157976857 0 20.09099157976857 -12.984256036817442 0 0 0 0 -17.471347888686751 4.2373872655690548 0 4.2373872655690548 15.653682730713626 0 0 0 0 20.288287065122404 39.308084369875758 0 39.308084369875758 42.792351114415737 0 0 0 0 -5.7900733008336829 -1.3731115345735816 0 -1.3731115345735816 12.703571958215207 0 0 0 0 5.8885949731707115 -17.89118638564571 0 -17.89118638564571 17.190301409548738 0 0 0 0 -95.296485581997104 -11.724220937425116 0 -11.724220937425116 19.513048972356081 0 0 0 0 0.30143882160087809 0.06114933895435537 0 0.06114933895435537 -0.33871851247933105 0 0 0 0 -15.789314038953052 -11.462019685102952 0 -11.462019685102952 18.855628523567702 0 0 0 0 -86.025279004591994 -11.398844782339665 0 -11.398844782339665 52.645957543707652 0 0 0 0 -86.756207948795918 -15.726161439370117 0 -15.726161439370117 27.967132198279842 0 0 0 0 -118.88021010344278 -30.489499803107037 0 -30.489499803107037 23.314301869633596 0 0 0 0 -118.75974411661946 4.6521176270101705 0 4.6521176270101705 14.079438638445254 0 0 0 0 -103.87088309079945 7.2833089071165773 0 7.2833089071165773 -2.2604702624475976 0 0 0 0 -108.42493660688115 -1.7076131074389878 0 -1.7076131074389878 -19.325652515945421 0 0 0 0 -124.39483980507202 -4.7004253930476807 0 -4.7004253930476807 3.4726244011053495 0 0 0 0 -150.73073315546208 80.385737617240011 0 80.385737617240011 -59.39827065318218 0 0 0 0 -118.8385280375262 3.4931547646316403 0 3.4931547646316403 -92.448715065568649 0 0 0 0 -77.312510091406239 19.335853368171058 0 19.335853368171058 -9.4959838476161167 0 0 0 0 -114.80449785102985 42.10517036713685 0 42.10517036713685 7.3967433934078599 0 0 0 0 -153.27170922080177 -17.16962518889261 0 -17.16962518889261 3.0702219659974617 0 0 0 0 -111.67498144624051 10.810062589931704 0 10.810062589931704 17.34890411568648 0 0 0 0 -98.693645448840471 1.2652171357237876 0 1.2652171357237876 23.813085298388387 0 0 0 0 -77.244410761049494 -2.8647251455332139 0 -2.8647251455332139 22.522845402967732 0 0 0 0 -98.69999497235608 -17.524630880871825 0 -17.524630880871825 26.987824533746334 0 0 0 0 -87.098646781922753 -26.435842519908476 0 -26.435842519908476 24.581153866451018 0 0 0 0 -67.887079672745131 -32.251358956861111 0 -32.251358956861111 -1.9539924189989506 0 0 0 0 -85.145185254789908 -38.636253482393982 0 -38.636253482393982 14.694825124863087 0 0 0 0 -88.682132655514692 -29.219210838737141 0 -29.219210838737141 31.10178559741928 0 0 0 0 -84.912457862393012 -24.632374348810401 0 -24.632374348810401 28.639595316063605 0 0 0 0 -93.25911818119198 -26.969280149457518 0 -26.969280149457518 34.688737837510416 0 0 0 0 -46.79575964692549 -8.8294780443589502 0 -8.8294780443589502 38.262304124223192 0 0 0 0 -81.560067701603657 -31.665674118737286 0 -31.665674118737286 43.392998589344444 0 0 0 0 -101.26749808152567 -22.666160659227074 0 -22.666160659227074 40.068683533710328 0 0 0 0 -35.848093682991248 6.0082527945781976 0 6.0082527945781976 8.3700485922479402 0 0 0 0 -25.641946646447423 0.83296581332041342 0 0.83296581332041342 -16.498217011667855 0 0 0 0 -49.957976324201809 -12.037056007876231 0 -12.037056007876231 97.945642640570384 0 0 0 0 -19.366912672778199 -1.1616620649909919 0 -1.1616620649909919 -4.1040110833936296 0 0 0 0 -6.6552926627581996 -6.3288136783194062 0 -6.3288136783194062 -3.0527594493992183 0 0 0 0 -3.6525165840341742 -5.9484736510893867 0 -5.9484736510893867 -3.4944125889896895 0 0 0 0 -6.2454604662846407 -1.4149225200022357 0 -1.4149225200022357 -6.7538373690740627 0 0 0 0 -3.6732509333369308 -5.6953510413891308 0 -5.6953510413891308 -6.6849897303383443 0 0 0 0 -5.9582802847999119 -4.6264368323681992 0 -4.6264368323681992 -6.8567170164341746 0 0 0 0 0.13104697042976499 -0.037010337349768996 0 -0.037010337349768996 -0.02848079690433325 0 0 0 0 -5.8614277577598841 -8.6226653422374966 0 -8.6226653422374966 -7.5599847284594546 0 0 0 0 -4.1443840400488625 -6.6757553953800652 0 -6.6757553953800652 -4.5015076599570421 0 0 0 0 -3.7352900019304798 -5.878368358912212 0 -5.878368358912212 -7.2694701437568199 0 0 0 0 -5.0116884317367294 -5.5096463083511935 0 -5.5096463083511935 -2.7840637133026576 0 0 0 0 -4.3364024763327507 -5.3094446339772503 0 -5.3094446339772503 -4.4177953896605686 0 0 0 0 -4.7025293126089309 -5.4354309910958136 0 -5.4354309910958136 4.022442203231094 0 0 0 0 -2.7873180951178256 -3.6340513994878165 0 -3.6340513994878165 -1.9008254715338353 0 0 0 0 -2.361002751407284 -7.4230014583557846 0 -7.4230014583557846 -1.7750588342942137 0 0 0 0 -6.9931227285064779 -4.8762766313461725 0 -4.8762766313461725 3.9569908175451474 0 0 0 0 0.85877165907436392 -4.6365728036420251 0 -4.6365728036420251 3.9451035722224788 0 0 0 0 4.9353702213888937 17.251301520641618 0 17.251301520641618 -13.54644372098528 0 0 0 0 -0.24698151924440026 -12.018764088626995 0 -12.018764088626995 4.4687310419958521 0 0 0 0 -12.908694873852255 6.5979243810884327 0 6.5979243810884327 -2.3037625460135587 0 0 0 0 -47.851347633836667 26.328781275462916 0 26.328781275462916 -3.3675052611483238 0 0 0 0 -56.58434667765323 16.256515010701889 0 16.256515010701889 -0.63152761248215938 0 0 0 0 -82.782097793923185 21.73104888951616 0 21.73104888951616 5.6953978210555078 0 0 0 0 -42.240434634911253 6.8219882670472884 0 6.8219882670472884 7.4838700685381809 0 0 0 0 -40.478714882751319 10.528268699334262 0 10.528268699334262 -2.536415507745204 0 0 0 0 -14.646342474783751 4.5906390352495805 0 4.5906390352495805 -4.4822773008104377 0 0 0 0 -41.26271566863057 1.9914372811530399 0 1.9914372811530399 -1.3672599614899354 0 0 0 0 -18.895518540318335 0.84123571630772176 0 0.84123571630772176 -3.4824341178970144 0 0 0 0 -76.846515834285697 -1.6122218143782447 0 -1.6122218143782447 8.5166205210166481 0 0 0 0 -41.622426734918236 -6.1059694107328824 0 -6.1059694107328824 6.2581967249940931 0 0 0 0 -57.160830996914001 -13.609491131859471 0 -13.609491131859471 2.6627650951172654 0 0 0 0 -32.648218332861688 -6.0721745279620336 0 -6.0721745279620336 -3.8653712389795487 0 0 0 0 -25.998094041368859 -0.052543787526190044 0 -0.052543787526190044 -1.2324367560654252 0 0 0 0 -23.336497324952688 -4.7869495487493623 0 -4.7869495487493623 -2.9130201568078178 0 0 0 0 -11.151628971049831 3.3708354875202531 0 3.3708354875202531 1.4380389657468413 0 0 0 0 -2.410524452757727 4.6793352628456546 0 4.6793352628456546 1.5357079718106661 0 0 0 0 -0.21363310275092307 -0.0065178922702022746 0 -0.0065178922702022746 0.19720319008168952 0 0 0 0 -20.02677262332827 -0.14260769147051633 0 -0.14260769147051633 -6.0917929383124374 0 0 0 0 -15.789670789243928 -8.0068511446844752 0 -8.0068511446844752 -4.0646733118767315 0 0 0 0 -4.7490022024267091 -5.0010035943341791 0 -5.0010035943341791 -7.719381145480952 0 0 0 0 -9.7490672486238736 -5.4706521529587917 0 -5.4706521529587917 -6.0594356452793363 0 0 0 0 -9.944045112247295 -5.0263440696587622 0 -5.0263440696587622 -4.8143165626363498 0 0 0 0 -0.6130850990602994 -0.79125632671525636 0 -0.79125632671525636 0.58455777829385624 0 0 0 0 -1.0096938887616034 -1.9914079594013572 0 -1.9914079594013572 -0.12046950766671216 0 0 0 0 0.32428273986036515 -0.71843388211806403 0 -0.71843388211806403 0.48969871419267452 0 0 0 0 -4.4251248969576409 -6.380628197926967 0 -6.380628197926967 -4.9377449955497923 0 0 0 0 -5.2024180926937333 -3.5571772686785152 0 -3.5571772686785152 -5.5702414136463005 0 0 0 0 -0.44631822591867376 -0.068892769464023118 0 -0.068892769464023118 0.36633508294987416 0 0 0 0 -3.186142334521719 -2.0294152389953979 0 -2.0294152389953979 1.6011023020373614 0 0 0 0 -1.6073922122495787 0.2201289332098213 0 0.2201289332098213 2.2060540174991274 0 0 0 0 -3.8836236039576306 -0.77026348345057727 0 -0.77026348345057727 0.71586545581999417 0 0 0 0 -2.5853697766533514 0.70045333432352663 0 0.70045333432352663 -1.3628121917939779 0 0 0 0 -2.5442056341703392 -1.6419871570385851 0 -1.6419871570385851 0.53769956105884376 0 0 0 0 0.16119371929708493 -0.07168448507563463 0 -0.07168448507563463 0.0245619145965148 0 0 0 0 -1.1547325927999736 -1.4824973026233579 0 -1.4824973026233579 1.5405948782455994 0 0 0 0 0.10335337228026731 -1.0039096315941514 0 -1.0039096315941514 0.02464636134329945 0 0 0 0 -2.2384827368664446 -7.5100329328731164 0 -7.5100329328731164 -2.316994241697671 0 0 0 0 -1.0265567898572954 -4.3124628026120604 0 -4.3124628026120604 -0.41965073699870459 0 0 0 0 0.011242327027689569 -1.6129098128048485 0 -1.6129098128048485 0.63012669766229923 0 0 0 0 -5.0702495666137111 -8.9273818709390298 0 -8.9273818709390298 0.40338017074850541 0 0 0 0 -5.3501986655746805 -11.169670594043623 0 -11.169670594043623 -1.6649098485149807 0 0 0 0 -4.3810131665259178 -11.854666139670258 0 -11.854666139670258 -3.1711807106501055 0 0 0 0 -0.95797388638220582 -8.4832840569131349 0 -8.4832840569131349 -4.679267825211582 0 0 0 0 2.5520736515918543 -2.0087348865054082 0 -2.0087348865054082 -2.4450723541552506 0 0 0 0 -2.4253835476829408 -7.8240601068965816 0 -7.8240601068965816 -2.7322601504743034 0 0 0 0 -29.18571428976793 -24.62117273630156 0 -24.62117273630156 -19.055098508672472 0 0 0 0 -19.970892665596693 -8.2127481807112872 0 -8.2127481807112872 -19.003859040983116 0 0 0 0 -15.124130098063688 -17.617672556609705 0 -17.617672556609705 -16.956225164035686 0 0 0 0 -36.161161391754831 -8.6871633328314601 0 -8.6871633328314601 3.3852390552895031 0 0 0 0 -14.747286326418362 -15.095753728001171 0 -15.095753728001171 -1.4864632412923129 0 0 0 0 -6.3963024711347316 -11.772589282438162 0 -11.772589282438162 -12.866481888564749 0 0 0 0 -8.0031062356047187 -14.258550191129416 0 -14.258550191129416 -0.42703062751706966 0 0 0 0 -9.6832636189369623 -18.410933170917133 0 -18.410933170917133 -6.845047402097407 0 0 0 0 -6.9148934470877066 -15.280505059414963 0 -15.280505059414963 -2.5487449299055811 0 0 0 0 -6.1704719828867383 -13.192492728687057 0 -13.192492728687057 -5.1862676535481569 0 0 0 0 -4.261331890063957 -11.872584706219413 0 -11.872584706219413 -4.2816430773672209 0 0 0 0 -2.1343975317181503 -11.098805307660825 0 -11.098805307660825 -9.4905242163326875 0 0 0 0 -5.4333650280032089 -8.143956832478807 0 -8.143956832478807 -6.7582146217538366 0 0 0 0 -5.2426829450802188 -9.0006612756039885 0 -9.0006612756039885 -12.572234076668792 0 0 0 0 -13.120482206377346 -10.335165221684065 0 -10.335165221684065 -9.0020809199306768 0 0 0 0 -14.629325472138135 -14.167566145482169 0 -14.167566145482169 -13.304259527908926 0 0 0 0 -12.018251004657031 -11.113665364257258 0 -11.113665364257258 -9.7962500095422911 0 0 0 0 -13.85038163506033 -8.5434190547601929 0 -8.5434190547601929 -11.340143000461865 0 0 0 0 -20.337326490255691 -15.222626219407061 0 -15.222626219407061 -6.7981593269805671 0 0 0 0 -17.966306893014007 -15.511736119457396 0 -15.511736119457396 -16.349746279107421 0 0 0 0 -8.6584706195194485 -2.2119067049638375 0 -2.2119067049638375 -13.673663023990457 0 0 0 0 -9.0607341040463325 -9.2779654400878826 0 -9.2779654400878826 -19.827123432146891 0 0 0 0 -19.048320508026336 -12.064374402277963 0 -12.064374402277963 -13.212313345328198 0 0 0 0 -9.7877021982644692 -7.3804216487685892 0 -7.3804216487685892 -9.9149821216606142 0 0 0 0 -0.27113128477867576 -6.0715465196391278 0 -6.0715465196391278 -10.815444254530803 0 0 0 0 -5.5914171627268843 -5.1308736706531022 0 -5.1308736706531022 -2.9707411915637749 0 0 0 0 -4.9968387983162756 -5.0737567695018697 0 -5.0737567695018697 -13.403701568022711 0 0 0 0 -5.0901931020780466 5.4134994197813739 0 5.4134994197813739 2.7565099949848388 0 0 0 0 -5.4861171340487545 -1.0985267695315457 0 -1.0985267695315457 2.0317627663587245 0 0 0 0 1.9699142196191133 -3.1275767030510906 0 -3.1275767030510906 -6.4586935542347419 0 0 0 0 -10.580227821555127 -1.1162570261665223 0 -1.1162570261665223 -7.0471141401718 0 0 0 0 -4.8985644764886729 -1.5862765182703811 0 -1.5862765182703811 -8.1926835917938661 0 0 0 0 -12.294095354484853 2.4652147847082233 0 2.4652147847082233 -2.86200860054646 0 0 0 0 1.4954928820767641 -1.2683189438959115 0 -1.2683189438959115 0.11440681348306736 0 0 0 0 -2.9934081035721647 -6.2322072125143677 0 -6.2322072125143677 -6.1256577648271104 0 0 0 0 0.38515304963705255 -1.0178820611819788 0 -1.0178820611819788 0.50443423927470254 0 0 0 0 -1.7391385425064527 -2.181261101913833 0 -2.181261101913833 -0.024256444350271522 0 0 0 0 -3.6649765390639004 -7.7979664568340468 0 -7.7979664568340468 -3.3808025442397138 0 0 0 0 6.035538395430649 -1.8237286608938916 0 -1.8237286608938916 -4.2134345435629257 0 0 0 0 -1.6048411718129501 -4.6269584330520956 0 -4.6269584330520956 -2.2480918226710855 0 0 0 0 3.3682800695642072 -4.7110951608946152 0 -4.7110951608946152 -3.8087864462894458 0 0 0 0 4.0676028307211709 3.334161053921548 0 3.334161053921548 1.0534686646969362 0 0 0 0 -5.299934864107172 -4.3104502786119951 0 -4.3104502786119951 2.5393500645079712 0 0 0 0 0.69385394210108231 -1.2114140954596193 0 -1.2114140954596193 0.12845034299488578 0 0 0 0 0.13969209653538783 -0.87417367835474558 0 -0.87417367835474558 0.43394849478501785 0 0 0 0 -1.0693265140116637 -1.5375389138151832 0 -1.5375389138151832 -0.49274497608257661 0 0 0 0 -2.5220319179293256 -2.4488149101844101 0 -2.4488149101844101 2.7603888824643832 0 0 0 0 -3.3814332577785535 -4.8228116530351599 0 -4.8228116530351599 -3.4366453010283564 0 0 0 0 -4.0232541871899237 -0.52404896970163684 0 -0.52404896970163684 0.18339432340596784 0 0 0 0 -4.4621078451976928 -5.1994758635690062 0 -5.1994758635690062 3.4179159283430636 0 0 0 0 -4.391609345310826 5.527227338427906 0 5.527227338427906 12.137667223528069 0 0 0 0 15.19097276529601 20.241979410477086 0 20.241979410477086 -23.842525828261614 0 0 0 0 -1.5315241472208072 0.35047852492721177 0 0.35047852492721177 -21.789540713594306 0 0 0 0 11.945404971522294 0.8232060378315964 0 0.8232060378315964 -35.908009916351602 0 0 0 0 -10.782114963800268 22.051005179206413 0 22.051005179206413 -45.009769619755275 0 0 0 0 22.064434328670359 -13.073935263862495 0 -13.073935263862495 -61.598058761862376 0 0 0 0 9.3190426208611825 3.9088542879219403 0 3.9088542879219403 -29.69726941005365 0 0 0 0 3.1622363662245334 1.3572264834795078 0 1.3572264834795078 -11.998416098485905 0 0 0 0 7.486614448889668 -6.3305179144481372 0 -6.3305179144481372 -1.3251567403958688 0 0 0 0 -0.98669561204187417 -0.13566161850952607 0 -0.13566161850952607 0.24645449746534531 0 0 0 0 7.1391866646918061 -9.1730951806116536 0 -9.1730951806116536 -8.6255020197131671 0 0 0 0 -0.84821819563899226 -1.1668426632497244 0 -1.1668426632497244 -0.5144969483942532 0 0 0 0 0.31893011390432235 -0.22434030457313359 0 -0.22434030457313359 0.02932894240874484 0 0 0 0 4.3974802897691916 5.7083429779129347 0 5.7083429779129347 1.1868613756009836 0 0 0 0 -6.5951883305315278 -0.44317098998499205 0 -0.44317098998499205 2.3521836849748183 0 0 0 0 -1.0091347807114914 -0.68211150854781577 0 -0.68211150854781577 0.054479986148451565 0 0 0 0 -0.016738001064368291 9.6838472523413657 0 9.6838472523413657 -14.709660712200275 0 0 0 0 2.3671037928561418 2.1303581101562941 0 2.1303581101562941 -8.1814549266591712 0 0 0 0 -12.12467877742165 3.4123679821550468 0 3.4123679821550468 -0.044811895318616735 0 0 0 0 -4.4316232969140401 0.10772393613342501 0 0.10772393613342501 -2.745993934917351 0 0 0 0 -16.854265965766899 8.6483286443997258 0 8.6483286443997258 1.3364262656316441 0 0 0 0 -10.962156076572683 -0.21376614453947695 0 -0.21376614453947695 13.810321983068661 0 0 0 0 -7.9436271752529137 17.465311063478111 0 17.465311063478111 -22.277710785562874 0 0 0 0 -0.072581397766363409 -0.15561155903590418 0 -0.15561155903590418 -0.063740569445939088 0 0 0 0 -20.664110931350478 14.91695100896527 0 14.91695100896527 -8.5088534792357677 0 0 0 0 -11.544669841376162 9.0018392410075876 0 9.0018392410075876 -9.3683311623344707 0 0 0 0 -8.7891942905389442 5.4518703609694512 0 5.4518703609694512 -9.9237394271578978 0 0 0 0 -9.9693013512328434 6.0422103708290251 0 6.0422103708290251 -5.5739453597502688 0 0 0 0 0.92947083368994754 -1.9012433593525486 0 -1.9012433593525486 -5.9779201331880358 0 0 0 0 -15.032293993026542 13.00908209092313 0 13.00908209092313 -7.8636285307786693 0 0 0 0 -4.2496632882257472 9.694620331602664 0 9.694620331602664 -10.408476350776937 0 0 0 0 -0.62786180097731048 -0.049838760554096417 0 -0.049838760554096417 0.081901732303981678 0 0 0 0 -7.7279570254258942 12.429410439965636 0 12.429410439965636 -12.553574076033556 0 0 0 0 -28.090423053045015 16.744816529662785 0 16.744816529662785 -5.9544661055052757 0 0 0 0 -38.92068047954308 -9.7775546157863573 0 -9.7775546157863573 7.7504397269999572 0 0 0 0 -2.3416199593866622 4.8770484576486979 0 4.8770484576486979 -3.1467406494739407 0 0 0 0 -6.2032486473144672 9.8442682504751247 0 9.8442682504751247 -8.693930042262707 0 0 0 0 -9.4033151624316815 16.428380254305011 0 16.428380254305011 -12.332286305082789 0 0 0 0 -1.407553253223341 -10.276979249953683 0 -10.276979249953683 -18.659767582592849 0 0 0 0 -18.033563993029077 -12.298887703450752 0 -12.298887703450752 -18.905083164018833 0 0 0 0 -17.45700187255261 -3.3413544212442048 0 -3.3413544212442048 -5.7325620169262947 0 0 0 0 -1.9967832886068209 -0.060402290540196191 0 -0.060402290540196191 -5.3276640580177173 0 0 0 0 -6.5140202874099487 -3.0209396734056391 0 -3.0209396734056391 1.2022462316485871 0 0 0 0 -7.0832730430105819 -3.026575737144344 0 -3.026575737144344 -0.68470584261970424 0 0 0 0 -12.316932496232312 -13.562716617116848 0 -13.562716617116848 14.135181501259922 0 0 0 0 1.5587246631112066 -15.149543206681983 0 -15.149543206681983 -1.6730454997891684 0 0 0 0 4.0444579625684582 -3.8697265347298639 0 -3.8697265347298639 -14.278339065639557 0 0 0 0 -2.6974232788243171 -0.39778971949272091 0 -0.39778971949272091 -4.3064807168930201 0 0 0 0 -16.423728107697684 -21.998183590052406 0 -21.998183590052406 23.709422994959141 0 0 0 0 -8.158223524167715 -3.4424112626678132 0 -3.4424112626678132 -1.0342328963408056 0 0 0 0 -6.0889061873449464 -13.49986516246247 0 -13.49986516246247 -9.8050868286995865 0 0 0 0 3.507009679251496 -9.2495589105244562 0 -9.2495589105244562 -33.879873836824288 0 0 0 0 3.4778488416318396 -2.8816799355129206 0 -2.8816799355129206 -14.506127956169166 0 0 0 0 4.4984881342898007 3.8709566490404086 0 3.8709566490404086 -25.370065724981032 0 0 0 0 1.6081236408208497 1.278718270572881 0 1.278718270572881 -23.614642024663226 0 0 0 0 -9.4298941780057248 -0.92053199317331291 0 -0.92053199317331291 1.2703688848200727 0 0 0 0 -4.3703577805977147 -1.6249397074452858 0 -1.6249397074452858 -0.60601468788904089 0 0 0 0 -8.28292725882784 -3.0285054675684933 0 -3.0285054675684933 4.9796041910326494 0 0 0 0 -5.0711292246451194 -9.1796899243390726 0 -9.1796899243390726 6.5811695023997174 0 0 0 0 -11.908775748266635 -4.78721073643419 0 -4.78721073643419 6.9837897706078991 0 0 0 0 -12.460843430326349 -9.6755569904939875 0 -9.6755569904939875 13.741207469129677 0 0 0 0 -6.1938391415574809 -4.1986609477725629 0 -4.1986609477725629 -2.6221094148135151 0 0 0 0 -8.7924877247442055 -12.882467579363947 0 -12.882467579363947 11.585349606564705 0 0 0 0 0.56274243233262666 -1.5322330689106352 0 -1.5322330689106352 -1.3478118770366978 0 0 0 0 -12.241383293761828 -7.1629204964606572 0 -7.1629204964606572 -2.8865419437173045 0 0 0 0 -10.928091854266313 -16.573255590857457 0 -16.573255590857457 -4.9073735027316161 0 0 0 0 -8.7358158921560971 -4.117646743101318 0 -4.117646743101318 2.7852277584534022 0 0 0 0 -4.8227947983676671 -0.99979620689478566 0 -0.99979620689478566 1.1667755660817307 0 0 0 0 -2.7824137972263543 -3.3853946333645104 0 -3.3853946333645104 -2.5811154340301323 0 0 0 0 -1.9029012145329034 -2.0172268325945879 0 -2.0172268325945879 3.8973331188485645 0 0 0 0 -5.5299085392481686 -2.9309875889162216 0 -2.9309875889162216 -0.9248432300331566 0 0 0 0 7.6033426580399919 -6.2156595444227598 0 -6.2156595444227598 2.2232227549041568 0 0 0 0 9.1508395463297347 2.9369981742732776 0 2.9369981742732776 26.364442882797221 0 0 0 0 2.166436403631451 7.5983800377967388 0 7.5983800377967388 35.145532062717997 0 0 0 0 -0.13848153909202665 -8.2743726625027989 0 -8.2743726625027989 -16.775114244943666 0 0 0 0 -36.285506914916368 -32.504263552426643 0 -32.504263552426643 50.46079280030952 0 0 0 0 -27.158242186444113 -1.3397524144943205 0 -1.3397524144943205 69.698141805126596 0 0 0 0 0.033940544672422135 -0.56076868964709536 0 -0.56076868964709536 -0.66812871399428819 0 0 0 0 -0.96087338751749485 -9.8358221378525172 0 -9.8358221378525172 38.076509303869386 0 0 0 0 -10.225909487180616 -29.843542321218528 0 -29.843542321218528 1.1541185942959373 0 0 0 0 1.6649255782340333 -19.534960827592556 0 -19.534960827592556 -2.4036300993700763 0 0 0 0 0.1636599754042436 -25.55926738260834 0 -25.55926738260834 -7.9693472842143933 0 0 0 0 7.5591905028450128 -15.445879057459763 0 -15.445879057459763 0.98393804886572411 0 0 0 0 2.5021757332469861 -15.957160250054315 0 -15.957160250054315 3.0136883161361254 0 0 0 0 11.340618563688622 -20.606280961762621 0 -20.606280961762621 -10.984393161916643 0 0 0 0 -23.484037161069864 6.9058934706473281 0 6.9058934706473281 3.716181413054187 0 0 0 0 -1.1335840073446448 -0.40801945007348017 0 -0.40801945007348017 0.26258939701057543 0 0 0 0 7.9802687627015985 -11.43268386836138 0 -11.43268386836138 -12.181038709343397 0 0 0 0 -21.742409116392082 1.8706414500798019 0 1.8706414500798019 9.4022134886066056 0 0 0 0 -5.1249706807594499 -1.8650260455537486 0 -1.8650260455537486 -0.73584274766924263 0 0 0 0 6.1276002160448115 0.40237806296525491 0 0.40237806296525491 -8.6108673943717093 0 0 0 0 5.3440854623668201 -21.346686696586573 0 -21.346686696586573 -9.1557502461025138 0 0 0 0 -48.169860089878057 -14.372964505773641 0 -14.372964505773641 3.8986069808380606 0 0 0 0 -2.5084557757522559 -2.9814812229360665 0 -2.9814812229360665 -2.4853078352467715 0 0 0 0 21.819753861120262 -33.935050482206435 0 -33.935050482206435 -23.228806535480828 0 0 0 0 -2.2066674643356237 2.4013020106583269 0 2.4013020106583269 6.8621378401966524 0 0 0 0 -5.4967929549680363 -3.196471538684591 0 -3.196471538684591 -1.3841193451848013 0 0 0 0 -6.2614206541329622 -2.1497318330798407 0 -2.1497318330798407 -1.7161811848705533 0 0 0 0 -4.7457170873685754 -2.7851736478633029 0 -2.7851736478633029 -1.4499602161323537 0 0 0 0 -1.729044161639818 -0.015009847436653345 0 -0.015009847436653345 -0.1394643098454913 0 0 0 0 -3.2420592659882459 -1.2766515550904387 0 -1.2766515550904387 5.1972006577906313 0 0 0 0 -5.6933661641276103 -8.0735386703775589 0 -8.0735386703775589 -3.9779466824827523 0 0 0 0 -3.739347817023372 -4.8375096463310001 0 -4.8375096463310001 -9.4019095516764537 0 0 0 0 -3.501827022049838 -1.8559080942706032 0 -1.8559080942706032 -1.9444623504550691 0 0 0 0 -4.5722755266943125 -1.9840839731066877 0 -1.9840839731066877 -2.4454918749624248 0 0 0 0 -6.4700541710517427 -0.5011995272175227 0 -0.5011995272175227 1.021660307320758 0 0 0 0 -0.86874538748543273 -4.541779396839388 0 -4.541779396839388 -1.1846832811502281 0 0 0 0 0.74100365048298045 -2.808034657583022 0 -2.808034657583022 0.63399951344308647 0 0 0 0 -0.64926011618445045 0.078555295892503985 0 0.078555295892503985 -0.068297299131907074 0 0 0 0 -6.1406314147898229 -3.4142920114002209 0 -3.4142920114002209 4.0589437339355072 0 0 0 0 -6.8236204042677855 6.6714137763432291 0 6.6714137763432291 -8.7543490806108366 0 0 0 0 -8.3131829545263827 -0.11694650271738283 0 -0.11694650271738283 -0.22062646133747421 0 0 0 0 -9.4706297598036144 5.6348589624892611 0 5.6348589624892611 -8.5303841773263684 0 0 0 0 0.098001559349305545 0.14654949421741126 0 0.14654949421741126 -0.1106418733998753 0 0 0 0 2.5794745500702447 3.8783327618548924 0 3.8783327618548924 -14.669772400682746 0 0 0 0 -21.353106646070501 -14.821505148106667 0 -14.821505148106667 -15.548148471450304 0 0 0 0 -20.228469304554892 0.79602381719564619 0 0.79602381719564619 1.5485196293977879 0 0 0 0 -14.048310211611351 -16.158276759213436 0 -16.158276759213436 -34.967335272631658 0 0 0 0 -9.0337044643638365 1.7744813396392374 0 1.7744813396392374 -0.0093361725209888391 0 0 0 0 -14.884055923154847 0.84905686270553815 0 0.84905686270553815 3.8096064425606642 0 0 0 0 -13.500684873821228 -5.7291848726896433 0 -5.7291848726896433 6.5435078818979946 0 0 0 0 -13.036765817790183 -0.22192899530284649 0 -0.22192899530284649 0.41622680065813711 0 0 0 0 -10.742313947766888 -9.2969846777779139 0 -9.2969846777779139 -6.5379483209608225 0 0 0 0 -12.0688457402116 -6.3190359669705458 0 -6.3190359669705458 -15.842321311813521 0 0 0 0 -11.776084694864039 -1.0136867462824739 0 -1.0136867462824739 -20.20297900134824 0 0 0 0 -8.8129469395962587 -8.3462350551757254 0 -8.3462350551757254 -43.343591986319097 0 0 0 0 -10.213513368761596 -27.704392245512281 0 -27.704392245512281 -63.399492628061637 0 0 0 0 -14.159484642537791 -16.604773951838752 0 -16.604773951838752 -41.370534523790582 0 0 0 0 -352.84729583197623 111.52496126917686 0 111.52496126917686 -135.11947564477441 0 0 0 0 -1.8060562065542385 0.316528304377659 0 0.316528304377659 -0.029270840847648527 0 0 0 0 -18.875136017307341 -23.855351193384763 0 -23.855351193384763 -46.675985133657193 0 0 0 0 -8.4984294436999335 -12.294766793996473 0 -12.294766793996473 -47.053746008407643 0 0 0 0 -14.245521111379276 -18.143162366167246 0 -18.143162366167246 -43.799232410179229 0 0 0 0 -11.965691696861768 -11.008777029912949 0 -11.008777029912949 -37.111492477215506 0 0 0 0 -19.573910245034313 -18.486345664481973 0 -18.486345664481973 -37.060518557452951 0 0 0 0 -1.3411135975829822 0.43445041244400606 0 0.43445041244400606 -0.18302511830326762 0 0 0 0 64.071025195554284 -14.058380322466405 0 -14.058380322466405 -21.885011223973379 0 0 0 0 -17.711964788314617 -27.085119906515274 0 -27.085119906515274 -46.983847254970271 0 0 0 0 89.585964520575089 -63.1040035014924 0 -63.1040035014924 -35.166837114085297 0 0 0 0 -231.54422142439148 -194.98874096090523 0 -194.98874096090523 70.728985212417228 0 0 0 0 -7.4865841946184446 0.82367948504287369 0 0.82367948504287369 -14.778947029509141 0 0 0 0 -12.483319263032627 -0.50373987073579585 0 -0.50373987073579585 -8.8676573108191405 0 0 0 0 -14.012080698460068 -12.258847330033745 0 -12.258847330033745 -32.972049401431832 0 0 0 0 -17.671697436137947 -14.645951168203851 0 -14.645951168203851 -27.246510480136976 0 0 0 0 -23.199366986109453 -21.238774563027505 0 -21.238774563027505 -33.540418222357438 0 0 0 0 -19.055508473973305 -24.122809362111127 0 -24.122809362111127 -45.176166035004144 0 0 0 0 -14.196437545761 -11.231238696857304 0 -11.231238696857304 -23.282393946127513 0 0 0 0 -25.931099996436842 -14.454732885804589 0 -14.454732885804589 -19.364429318798102 0 0 0 0 -17.170249374979903 -15.261254066342644 0 -15.261254066342644 -25.674698473195065 0 0 0 0 -30.230986100976224 -5.6285388070184581 0 -5.6285388070184581 18.303402793356554 0 0 0 0 -29.308481749899329 -10.933933495024007 0 -10.933933495024007 -8.3617711455488575 0 0 0 0 -27.034271397773409 -26.264679888617366 0 -26.264679888617366 -23.909999208368902 0 0 0 0 -46.620913662537532 -28.520661797816729 0 -28.520661797816729 -6.9927648374591627 0 0 0 0 -0.39604539783641179 0.015994930193151013 0 0.015994930193151013 0.015013376922379473 0 0 0 0 -32.469563746311906 -48.011522748872096 0 -48.011522748872096 -48.316727777892993 0 0 0 0 12.205464247309465 -52.498285841686084 0 -52.498285841686084 43.534082677046683 0 0 0 0 -0.28697289315222996 0.13375595253234029 0 0.13375595253234029 0.13491950583932377 0 0 0 0 -47.184380375314504 39.29634303832097 0 39.29634303832097 -27.735432500891818 0 0 0 0 -68.025599467007851 -32.205650160294226 0 -32.205650160294226 100.84493581689935 0 0 0 0 -56.120966796735047 -20.170368412178163 0 -20.170368412178163 -1.9526315515252008 0 0 0 0 24.059413009976197 -6.9078806123530967 0 -6.9078806123530967 10.073013388065817 0 0 0 0 -95.008416588505042 -32.556267885921841 0 -32.556267885921841 4.5793710233647289 0 0 0 0 12.192849472742148 16.215977928467073 0 16.215977928467073 2.3663705439666955 0 0 0 0 -0.45300898840015691 0.60379360866439868 0 0.60379360866439868 0.44259390292931999 0 0 0 0 -0.31443143405840601 -12.481384829643389 0 -12.481384829643389 87.176883454832023 0 0 0 0 12.497284159188894 -62.142616440659026 0 -62.142616440659026 113.88796286442596 0 0 0 0 -90.494938546687308 17.283846177120807 0 17.283846177120807 52.991997771145407 0 0 0 0 81.946467293792921 18.173816131378999 0 18.173816131378999 46.394043553050381 0 0 0 0 -4.0368419749074747 2.9964153607465107 0 2.9964153607465107 3.5771372498541041 0 0 0 0 -3.6264395521966435 1.4300649015638101 0 1.4300649015638101 5.4315379470740481 0 0 0 0 -2.3353541563528779 11.282636707851111 0 11.282636707851111 -9.4630341302382135 0 0 0 0 -2.7409624817432814 2.0587514564742833 0 2.0587514564742833 5.8005276861131847 0 0 0 0 0.050405342225985805 -11.375475428947027 0 -11.375475428947027 21.748575323232473 0 0 0 0 -3.4574670988016685 0.5028807368081285 0 0.5028807368081285 8.9561683415233801 0 0 0 0 -3.4563328050148883 0.59554312219213923 0 0.59554312219213923 4.4971727831780299 0 0 0 0 -14.449346579851408 19.405611204974093 0 19.405611204974093 -21.766096833401548 0 0 0 0 -23.901917321676592 4.3210964140225769 0 4.3210964140225769 18.276488012333516 0 0 0 0 -14.70329408828502 -9.8767521822595938 0 -9.8767521822595938 26.590384345463008 0 0 0 0 -51.779734608591752 0.3715935977851359 0 0.3715935977851359 18.869167841509579 0 0 0 0 -13.041497374744722 6.9614674871345983 0 6.9614674871345983 13.676854049651524 0 0 0 0 -7.3259993026531447 4.0202805081499946 0 4.0202805081499946 -3.425520822942417 0 0 0 0 0.149557977552087 0.021383406606957145 0 0.021383406606957145 -0.10529563818864496 0 0 0 0 -15.209757124622229 -2.0837899760173286 0 -2.0837899760173286 24.620318805574186 0 0 0 0 -24.2321082913586 8.9197097810018136 0 8.9197097810018136 18.93704219563358 0 0 0 0 -3.8268871695399866 0.46238978597773439 0 0.46238978597773439 7.6409016191137198 0 0 0 0 -0.0019687604180944618 -5.887591250578339 0 -5.887591250578339 4.9510343110056283 0 0 0 0 -9.0971432195492525 -0.13266936450236244 0 -0.13266936450236244 4.2590978176207841 0 0 0 0 -17.218134171877637 13.986869137279889 0 13.986869137279889 -4.1247742778318752 0 0 0 0 -3.9543083303990443 -0.079454281742840749 0 -0.079454281742840749 3.4040844836392807 0 0 0 0 -6.3902806564792627 0.35016599688839278 0 0.35016599688839278 4.1160095990286436 0 0 0 0 -6.5292037592116685 -0.64033195000894239 0 -0.64033195000894239 3.4553678203583331 0 0 0 0 0.057732013566375251 0.060305716348613814 0 0.060305716348613814 0.56991042083295529 0 0 0 0 -3.9427652207996289 -2.5176850922475751 0 -2.5176850922475751 9.2061512755522443 0 0 0 0 -0.76848817599475971 0.1460556893633651 0 0.1460556893633651 1.050652894593481 0 0 0 0 -3.9086208269615099 -2.4909416434477976 0 -2.4909416434477976 6.4922379352040025 0 0 0 0 -8.7630888611746087 5.2706450309073816 0 5.2706450309073816 3.800944141328273 0 0 0 0 -3.6572718673968527 0.78432414650331328 0 0.78432414650331328 1.3002943714528514 0 0 0 0 -6.6363680594158723 5.0537500493372818 0 5.0537500493372818 4.9816338528571293 0 0 0 0 -6.8908885315258885 -1.4629225872719189 0 -1.4629225872719189 -0.79937942531319095 0 0 0 0 -0.81393632833351148 1.6040545359123826 0 1.6040545359123826 3.3061127442622364 0 0 0 0 -7.6211433851676693 -0.56707729944165042 0 -0.56707729944165042 3.2985009892287618 0 0 0 0 -6.4371557282686496 -0.4157558643574264 0 -0.4157558643574264 1.801247991119292 0 0 0 0 -6.9609841824119556 -0.12941581038364447 0 -0.12941581038364447 3.2686377184186313 0 0 0 0 -7.4043024918345282 -2.7356819461831208 0 -2.7356819461831208 2.1463743779172546 0 0 0 0 -9.2176808932243262 -1.6133602103104181 0 -1.6133602103104181 2.3713234003407706 0 0 0 0 -7.6121032034399718 -3.8893118232912229 0 -3.8893118232912229 -0.43016636426546029 0 0 0 0 -9.3046346423009254 -5.8956432740460514 0 -5.8956432740460514 2.1847798290236824 0 0 0 0 -10.245879810522098 -2.3415297928820564 0 -2.3415297928820564 0.054672724652846227 0 0 0 0 -11.0244628712245 -2.5684959487086871 0 -2.5684959487086871 4.1920592056412715 0 0 0 0 -10.873402851113674 -2.2833310539301692 0 -2.2833310539301692 2.2664670255937835 0 0 0 0 -4.6725743569661606 1.5014298006374527 0 1.5014298006374527 3.2089102126744313 0 0 0 0 -10.913046232662495 -1.0630757312150507 0 -1.0630757312150507 2.2061569293359753 0 0 0 0 -11.366055736105579 -1.8842349527903934 0 -1.8842349527903934 1.9837483453534333 0 0 0 0 -6.0624699011523262 0.37159275618819265 0 0.37159275618819265 3.2360236079705373 0 0 0 0 -3.6023793893509142 -0.28659002597788863 0 -0.28659002597788863 1.1391513577324091 0 0 0 0 -6.2759121524741204 -0.16990656656753345 0 -0.16990656656753345 3.4135300840438845 0 0 0 0 -3.6535519672352752 0.99444153380020506 0 0.99444153380020506 1.3861884767259884 0 0 0 0 -4.6933222376039634 0.75008809726645254 0 0.75008809726645254 1.2177052503778922 0 0 0 0 -2.802454375829484 2.9449577023268603 0 2.9449577023268603 3.5404540974716383 0 0 0 0 -2.9168213759694481 2.1167580775509123 0 2.1167580775509123 4.842516815804629 0 0 0 0 -1.5433709888688192 0.34725559105871451 0 0.34725559105871451 1.0756715103127679 0 0 0 0 -6.3573648234923894 -0.14187259150799036 0 -0.14187259150799036 3.9166932095896527 0 0 0 0 -10.998637243316807 2.4865385647749747 0 2.4865385647749747 0.14827689876153727 0 0 0 0 -11.227761541418204 3.213710538275933 0 3.213710538275933 -1.78806866696209 0 0 0 0 -10.247502891470049 4.4495541184118963 0 4.4495541184118963 2.407050465741122 0 0 0 0 -11.846401173428148 1.5707952196467545 0 1.5707952196467545 1.3714887713060762 0 0 0 0 -14.55822120765788 4.883364840435604 0 4.883364840435604 3.1782288112133301 0 0 0 0 -11.545948843926453 9.4857426264410378 0 9.4857426264410378 9.7507237803755515 0 0 0 0 -12.964639362457092 2.4679750941969587 0 2.4679750941969587 6.7363213194221316 0 0 0 0 0.97579336041785858 2.032532873018031 0 2.032532873018031 -0.20497003022178051 0 0 0 0 -10.339945009704024 2.2932676340760736 0 2.2932676340760736 2.3441156468199438 0 0 0 0 -2.2991262921786983 4.5918560838166513 0 4.5918560838166513 2.4065556312539229 0 0 0 0 -1.3789975988183869 1.1089526929390559 0 1.1089526929390559 2.6883543231979274 0 0 0 0 -5.2557045520254011 2.1595054967127285 0 2.1595054967127285 1.865838824084574 0 0 0 0 -3.7129969393725588 0.43254950008871518 0 0.43254950008871518 0.9159410648073929 0 0 0 0 -10.089681150227024 1.8534541441653869 0 1.8534541441653869 3.0187856177672017 0 0 0 0 -10.203393951624548 3.0924451157347335 0 3.0924451157347335 6.7761386047679935 0 0 0 0 -8.8435236885414064 2.0944554570134466 0 2.0944554570134466 0.56644702186060392 0 0 0 0 -10.42198324886067 3.4387155039524373 0 3.4387155039524373 6.335783358055096 0 0 0 0 -10.314635776063142 1.7305233125375139 0 1.7305233125375139 5.854424872264417 0 0 0 0 -3.5194148107359391 0.68959372635116667 0 0.68959372635116667 3.1842845535136308 0 0 0 0 -5.4865733867723065 1.557741958876818 0 1.557741958876818 3.0708019943371028 0 0 0 0 -13.625973373686605 -2.96673135857327 0 -2.96673135857327 2.6535247441602223 0 0 0 0 -4.6254655648707708 1.7510814236112378 0 1.7510814236112378 4.9208310132986606 0 0 0 0 -13.163027415540455 -3.7596071294203739 0 -3.7596071294203739 1.8108771335455458 0 0 0 0 -2.2831771814965158 -1.0815763485650201 0 -1.0815763485650201 1.2380106733687883 0 0 0 0 -12.970937661571497 -5.5182281082772988 0 -5.5182281082772988 0.69020424182872375 0 0 0 0 -14.346616761449241 -3.7150288175332662 0 -3.7150288175332662 2.4171423484722254 0 0 0 0 -13.546007027424594 -3.3002613437997752 0 -3.3002613437997752 2.2563995340742622 0 0 0 0 -14.098153797375517 -3.4109604965728977 0 -3.4109604965728977 2.6923595063872199 0 0 0 0 -13.424555362758383 -2.6819214411516441 0 -2.6819214411516441 2.9560993976992904 0 0 0 0 -10.010861839833524 0.76055499014773886 0 0.76055499014773886 5.3400378388260492 0 0 0 0 -12.092313410323086 4.627387134515077 0 4.627387134515077 9.0314590625614528 0 0 0 0 -12.022326227924168 2.1946513505272378 0 2.1946513505272378 6.6852650823622355 0 0 0 0 -11.657166500165658 1.0307289123465466 0 1.0307289123465466 5.504187524585177 0 0 0 0 -11.718624271251656 1.5337083120024175 0 1.5337083120024175 7.8911401493483027 0 0 0 0 -15.540918076732964 2.8431412072768438 0 2.8431412072768438 10.765320903008615 0 0 0 0 -16.308102060891088 -0.35316228659155513 0 -0.35316228659155513 7.1825971176457415 0 0 0 0 -35.175121607953315 -7.2243861509625731 0 -7.2243861509625731 -0.75480536941596199 0 0 0 0 -28.949099811134147 -1.1348622956826944 0 -1.1348622956826944 9.6717845825803579 0 0 0 0 -18.097908362527505 -10.15128561354129 0 -10.15128561354129 -0.30388435390898394 0 0 0 0 -9.4803717248564681 -3.0896068480620897 0 -3.0896068480620897 3.4320925385653709 0 0 0 0 -8.6703478294126626 -0.031257466971169379 0 -0.031257466971169379 3.3127703862364797 0 0 0 0 -10.820165803934572 -2.8667025494623886 0 -2.8667025494623886 2.4271211256177594 0 0 0 0 -13.988362534293287 -4.4746897809714028 0 -4.4746897809714028 2.3518900605467934 0 0 0 0 -14.285691240378696 -4.1270045043681876 0 -4.1270045043681876 1.9497872856127287 0 0 0 0 -13.858562908023259 -3.5975456031335398 0 -3.5975456031335398 2.0133554388421544 0 0 0 0 -13.491954042747693 -3.8913569391183955 0 -3.8913569391183955 2.0909296625573006 0 0 0 0 -13.800104785030271 -3.5461488782564174 0 -3.5461488782564174 2.5284418016462951 0 0 0 0 -15.121640164572568 -3.9312019363160289 0 -3.9312019363160289 3.4604724333585182 0 0 0 0 -14.955831397235443 -2.7054144222147443 0 -2.7054144222147443 4.9309689758538298 0 0 0 0 -14.610249125089013 -3.6538689774301929 0 -3.6538689774301929 3.6106534026466761 0 0 0 0 -15.327836883112298 -5.7919947870586839 0 -5.7919947870586839 3.4813700747317853 0 0 0 0 -14.961373097591355 -4.9874160959573146 0 -4.9874160959573146 2.1735657832059587 0 0 0 0 -14.961081322726216 -7.2297272746072849 0 -7.2297272746072849 0.24697796164332431 0 0 0 0 -13.207626427714288 -6.0156964916767492 0 -6.0156964916767492 0.90966202123900075 0 0 0 0 -14.293998413438871 -5.0900881242853302 0 -5.0900881242853302 1.1177047634473638 0 0 0 0 -13.346077085528691 -6.673837405693348 0 -6.673837405693348 -1.1225759188127995 0 0 0 0 -13.553961596309023 -10.25443599464802 0 -10.25443599464802 -1.7484110907998911 0 0 0 0 -12.122514357174964 -13.047035103667213 0 -13.047035103667213 -8.0705299466451539 0 0 0 0 -12.602213291511561 -12.08238256838132 0 -12.08238256838132 -5.1124758754999675 0 0 0 0 -9.3886413574524568 -6.9778566405124138 0 -6.9778566405124138 -8.1080475748572098 0 0 0 0 -10.992105248729445 -6.0403239651359399 0 -6.0403239651359399 -2.6532979783069095 0 0 0 0 -11.32520137016337 -6.8030206790043621 0 -6.8030206790043621 -4.3517730377761836 0 0 0 0 -12.227777616735096 -7.9467343301020037 0 -7.9467343301020037 -4.0601524791100019 0 0 0 0 -9.3841400584661869 -5.284323987857249 0 -5.284323987857249 -6.6637903757350614 0 0 0 0 -8.9849672549196384 -3.4861293628987369 0 -3.4861293628987369 -3.2198555513066367 0 0 0 0 -11.365257143431251 -3.6314892728614723 0 -3.6314892728614723 -0.23504155062346399 0 0 0 0 -11.358575782793295 -2.5084441360545497 0 -2.5084441360545497 0.88179049634800322 0 0 0 0 -11.990177281372297 -2.9463081272624549 0 -2.9463081272624549 1.3530833672975859 0 0 0 0 -12.328281863136965 -1.4073239234462562 0 -1.4073239234462562 2.9034567302587675 0 0 0 0 -12.549657440591936 -4.0577738502240663 0 -4.0577738502240663 -0.041981530815974111 0 0 0 0 -12.382056317787942 -2.9973183556830918 0 -2.9973183556830918 1.9048696383260904 0 0 0 0 -13.28403569746698 -3.9110885927553909 0 -3.9110885927553909 0.98540402096841717 0 0 0 0 -12.441730662748526 -5.3084948498801623 0 -5.3084948498801623 -1.4207951413745832 0 0 0 0 -12.004748624976457 -4.4500158296964401 0 -4.4500158296964401 0.11610764261240547 0 0 0 0 -11.175385420103112 -3.4782803818122829 0 -3.4782803818122829 -0.66482310706396675 0 0 0 0 -7.6813950389423553 -3.1054463523029483 0 -3.1054463523029483 -3.5010662230441767 0 0 0 0 -3.1917510401129445 -1.8768145514070587 0 -1.8768145514070587 -1.0069552408888907 0 0 0 0 -6.1757501580204917 -1.5105215901205611 0 -1.5105215901205611 0.35487276933042722 0 0 0 0 -5.4691793869162666 -1.8712721939654386 0 -1.8712721939654386 -0.049144740456767977 0 0 0 0 -3.6088557480048262 -0.42132596127165622 0 -0.42132596127165622 2.0596265578889921 0 0 0 0 -4.9558259970676772 -1.5791047816318695 0 -1.5791047816318695 1.957719751193256 0 0 0 0 -4.1778904861675983 -1.0600632401727523 0 -1.0600632401727523 1.5733520058383306 0 0 0 0 -9.2609600546624051 -2.59937758155192 0 -2.59937758155192 1.6207845871410882 0 0 0 0 -5.78074058647735 -2.6003211296170576 0 -2.6003211296170576 1.4507465239756812 0 0 0 0 -3.8016050693353236 -2.1986012466028875 0 -2.1986012466028875 0.77055653074535257 0 0 0 0 -10.986044879473411 -10.359994161517761 0 -10.359994161517761 4.7335444415928407 0 0 0 0 7.618251304947421 -7.9455795879323148 0 -7.9455795879323148 -21.3366033181685 0 0 0 0 -15.542884806601705 -18.169009543359948 0 -18.169009543359948 -16.431371003294089 0 0 0 0 -0.18387738326809178 0.017969940659128047 0 0.017969940659128047 0.051098441244169401 0 0 0 0 1.1440537168100491 4.4265889533891709 0 4.4265889533891709 13.156679552057255 0 0 0 0 -2.5920578654361179 3.2387953077681573 0 3.2387953077681573 12.830467697719939 0 0 0 0 -0.96266173062263949 -0.28613760467728788 0 -0.28613760467728788 -0.037089745089279869 0 0 0 0 -9.0975689443675947 -9.9875315034677499 0 -9.9875315034677499 -4.6444293229262712 0 0 0 0 -3.0016622260150143 2.0105894842123462 0 2.0105894842123462 20.711021377771431 0 0 0 0 -5.3184233565573322 9.683151339812099 0 9.683151339812099 7.1404785515787808 0 0 0 0 -0.94202035201786316 -0.12497965685486867 0 -0.12497965685486867 0.15961685649033797 0 0 0 0 -2.6715573207650323 8.0237158500198689 0 8.0237158500198689 11.502895267904023 0 0 0 0 -2.9257314810502066 8.3744612053236551 0 8.3744612053236551 13.620088265604636 0 0 0 0 -12.77741878871484 -2.6862332573470553 0 -2.6862332573470553 10.482011115812497 0 0 0 0 -3.2578146879513952 11.944583822610582 0 11.944583822610582 24.225466434196591 0 0 0 0 5.9246483135559629 7.8999070064787702 0 7.8999070064787702 9.5436700133385557 0 0 0 0 -5.3233848321065125 -3.6403795200933189 0 -3.6403795200933189 20.153657566774882 0 0 0 0 -13.499284176369656 5.673731557585711 0 5.673731557585711 25.015226758560374 0 0 0 0 -14.51899092361873 0.89640593576825722 0 0.89640593576825722 2.7747380879479806 0 0 0 0 -18.490546484039442 -5.6656129476815522 0 -5.6656129476815522 7.490121369764438 0 0 0 0 -9.469680277587031 2.4348347706823006 0 2.4348347706823006 11.439724284876434 0 0 0 0 -15.794342923850309 0.13662708543256485 0 0.13662708543256485 12.806794871505588 0 0 0 0 -16.769017346932287 -0.6859385506083413 0 -0.6859385506083413 16.317317408118697 0 0 0 0 -12.438328128226203 8.6562171993966786 0 8.6562171993966786 24.128933491430956 0 0 0 0 -10.18989831784279 8.8332503580865591 0 8.8332503580865591 10.874832408750081 0 0 0 0 -20.102160785490014 8.2832097062572245 0 8.2832097062572245 7.3588605497557182 0 0 0 0 -15.452017726223858 4.0505726525635737 0 4.0505726525635737 10.841129891474047 0 0 0 0 -7.4963287018763367 7.549139395025918 0 7.549139395025918 7.0336239747915528 0 0 0 0 -6.3069569577788798 7.4257103557734467 0 7.4257103557734467 7.0079970490844516 0 0 0 0 -11.343953510081974 9.8980176745340032 0 9.8980176745340032 11.305159111490887 0 0 0 0 -15.698743872838349 3.73109892489407 0 3.73109892489407 8.8509283559569667 0 0 0 0 -8.9643309212177158 2.3150398377853842 0 2.3150398377853842 0.56532656714841067 0 0 0 0 -8.0043476300133989 4.1449491799581892 0 4.1449491799581892 6.5364271510341041 0 0 0 0 -2.508929675990303 -0.1145925260241758 0 -0.1145925260241758 0.14291548309502433 0 0 0 0 7.0394161761844316 15.156903529288854 0 15.156903529288854 10.497413637365014 0 0 0 0 -5.3418218233519701 0.19288281257775042 0 0.19288281257775042 0.73533550590493446 0 0 0 0 -6.7153874472071493 -4.0167811079363105 0 -4.0167811079363105 -0.93047281261974035 0 0 0 0 -5.8381701671632982 -1.3959838321363804 0 -1.3959838321363804 -0.32999626596779308 0 0 0 0 -6.6308768542457983 -0.93381411552695681 0 -0.93381411552695681 -0.091484707334473114 0 0 0 0 -5.1680938792997413 0.92548542932519506 0 0.92548542932519506 1.2521737847372338 0 0 0 0 -11.095104651991278 -0.1947212184777527 0 -0.1947212184777527 0.85803200451402972 0 0 0 0 -6.9803515248981967 -0.97861935800659694 0 -0.97861935800659694 0.2550151233330098 0 0 0 0 -1.868169093749845 -2.007979497168507 0 -2.007979497168507 -0.102440412149988 0 0 0 0 -20.748648877826781 1.0586372846371574 0 1.0586372846371574 4.5398936533001688 0 0 0 0 -6.7386352367016116 -1.2040626514362884 0 -1.2040626514362884 0.26655347023859122 0 0 0 0 -29.468159567410112 -7.6039003121761652 0 -7.6039003121761652 -4.0612881271631522 0 0 0 0 -19.950504991606067 0.075433226116274454 0 0.075433226116274454 4.3473416653282584 0 0 0 0 -5.0672503780115221 3.8583760447162376 0 3.8583760447162376 -0.98042000567647847 0 0 0 0 -6.7001101185396692 10.298655049142553 0 10.298655049142553 3.7517053261099136 0 0 0 0 -14.820411915341538 -2.7849602346223037 0 -2.7849602346223037 3.565345956242254 0 0 0 0 -20.649063926864756 1.846503638216717 0 1.846503638216717 -1.1869451991278765 0 0 0 0 -20.252993177280587 0.51981383165480111 0 0.51981383165480111 1.7124726666570496 0 0 0 0 -12.519046343782975 -1.7844760590894566 0 -1.7844760590894566 1.0712874415576152 0 0 0 0 -12.672960452225624 3.7571576936854534 0 3.7571576936854534 2.19623263693029 0 0 0 0 -11.358791166050651 2.7078038067718353 0 2.7078038067718353 -0.60801033696566265 0 0 0 0 -13.437684679294762 5.8247571527210766 0 5.8247571527210766 3.6537195770431907 0 0 0 0 -19.164602883920452 -0.98314692262363224 0 -0.98314692262363224 -0.85263503022900977 0 0 0 0 -15.79431648292848 3.7128295931737512 0 3.7128295931737512 0.49742600176114138 0 0 0 0 -15.067805491122272 2.4910089544312086 0 2.4910089544312086 0.92402595470980486 0 0 0 0 -18.266019840408262 0.42616347049977321 0 0.42616347049977321 -3.8602060612131481 0 0 0 0 -17.610477059527057 -2.417473964045314 0 -2.417473964045314 -3.8760430353461288 0 0 0 0 -17.001968913010387 -1.3859811619818743 0 -1.3859811619818743 -1.2630561389546529 0 0 0 0 -9.7478644143438942 -1.0505541333483279 0 -1.0505541333483279 1.472985708365286 0 0 0 0 -3.4385622402150489 0.60559944263079757 0 0.60559944263079757 0.80652257527310667 0 0 0 0 -1.6973238939170767 -0.49111046084096621 0 -0.49111046084096621 0.57464494078100747 0 0 0 0 -9.6263577751306002 -0.54242463823027265 0 -0.54242463823027265 -0.67851585296867256 0 0 0 0 -12.327699791776013 1.392926343201637 0 1.392926343201637 0.83084973540132978 0 0 0 0 -2.5571482070838849 -2.8202311500399642 0 -2.8202311500399642 1.4284635014163263 0 0 0 0 -3.4410220146619395 -2.9769390219327772 0 -2.9769390219327772 1.1299964827970896 0 0 0 0 -5.7188505560477552 -1.4496009944942259 0 -1.4496009944942259 1.1190669311732222 0 0 0 0 -1.5539010201340586 -2.8770300974342304 0 -2.8770300974342304 1.1397336288340587 0 0 0 0 -5.1182107749319243 -3.1907260017228829 0 -3.1907260017228829 0.88436958597881699 0 0 0 0 -14.978338691554654 1.1244379818163566 0 1.1244379818163566 0.73551256576604374 0 0 0 0 -9.2265105279290651 1.6726467603084956 0 1.6726467603084956 -1.0676247470929638 0 0 0 0 -13.785228725459092 -1.6483038171793964 0 -1.6483038171793964 4.8354542396316447 0 0 0 0 -8.1510312133070215 0.67279657723918973 0 0.67279657723918973 -1.0355317194120062 0 0 0 0 -7.0509757899470742 -2.7284687084422217 0 -2.7284687084422217 1.1403139668676658 0 0 0 0 -15.722199535470736 1.2890777873292336 0 1.2890777873292336 3.5227644383844563 0 0 0 0 -1.7429388471442071 -2.9969158988775457 0 -2.9969158988775457 0.93480435868306144 0 0 0 0 -22.400199274876968 1.7115304673333753 0 1.7115304673333753 -1.4954927513952043 0 0 0 0 -27.772235014490889 -2.2332956542135776 0 -2.2332956542135776 1.3103597227777755 0 0 0 0 -25.216446941280992 2.5059160521553849 0 2.5059160521553849 -0.42532206862495059 0 0 0 0 -23.053855774669501 3.9522045063146152 0 3.9522045063146152 0.50616413911495783 0 0 0 0 -6.134347762503694 -0.501943825514644 0 -0.501943825514644 -1.2097092240119309 0 0 0 0 -0.31495226254428554 0.16035383560439964 0 0.16035383560439964 0.488413119206764 0 0 0 0 -9.4248887273926698 -0.025279787300021894 0 -0.025279787300021894 0.28389246996277961 0 0 0 0 -4.609250621540923 2.1982811029448612 0 2.1982811029448612 3.6661131145789341 0 0 0 0 -7.7983800586379743 -1.1212110784062759 0 -1.1212110784062759 0.28110320940493239 0 0 0 0 -0.016326865523912715 0.13923714725577607 0 0.13923714725577607 0.17894051390431631 0 0 0 0 -40.581860780810075 5.2062468864663174 0 5.2062468864663174 -2.0275250657335846 0 0 0 0 -24.188641573861787 0.53679948502139041 0 0.53679948502139041 -2.1721720164708813 0 0 0 0 -0.060749849015122592 -0.0060440439167335214 0 -0.0060440439167335214 0.21684141178837457 0 0 0 0 -62.888964590527394 3.9891169231777894 0 3.9891169231777894 33.4697535005389 0 0 0 0 20.246290648614604 -28.550806538067604 0 -28.550806538067604 26.30337672638575 0 0 0 0 -26.432973324221166 -12.058665568877132 0 -12.058665568877132 46.515884179186173 0 0 0 0 -13.017875578048915 -11.871927263966427 0 -11.871927263966427 37.689903112814136 0 0 0 0 -3.4533215880391026 5.1946655505760475 0 5.1946655505760475 11.201417140862986 0 0 0 0 -13.753914426957635 -5.0446147632962948 0 -5.0446147632962948 29.897775014996796 0 0 0 0 -12.880474077925101 -11.171668649112462 0 -11.171668649112462 20.581051792211611 0 0 0 0 -11.08990193435784 -0.33085140177502126 0 -0.33085140177502126 14.880512794750757 0 0 0 0 -12.280483937190183 -5.974800726466043 0 -5.974800726466043 11.219793191825147 0 0 0 0 -12.13512255961723 -4.7585498785780942 0 -4.7585498785780942 18.883691851496678 0 0 0 0 -10.823886301921448 -13.241871304781718 0 -13.241871304781718 9.1861314889838468 0 0 0 0 -10.751516958512184 -12.760731615175956 0 -12.760731615175956 10.412854311224919 0 0 0 0 -8.4157881932424061 -19.681745447967501 0 -19.681745447967501 4.7853371475963513 0 0 0 0 -11.168911701675825 -15.969928708414045 0 -15.969928708414045 15.256663863689141 0 0 0 0 -12.748090065284487 -15.316616240020267 0 -15.316616240020267 23.741550777152497 0 0 0 0 -7.1439068425470396 -13.1320910610591 0 -13.1320910610591 12.402388878821057 0 0 0 0 -3.570751722310888 -20.253689024694722 0 -20.253689024694722 21.514513008716676 0 0 0 0 -9.0990728137808219 -15.223671236300518 0 -15.223671236300518 -1.6083797475353094 0 0 0 0 -14.963505423500465 -20.22799801912663 0 -20.22799801912663 10.790922958765492 0 0 0 0 -23.897876723878653 -12.870281617255614 0 -12.870281617255614 4.1166353004816756 0 0 0 0 -17.93303648212418 -6.334701837514416 0 -6.334701837514416 10.874068456706482 0 0 0 0 -26.852721911232948 -14.46258462152332 0 -14.46258462152332 20.858906688354409 0 0 0 0 -8.1793293403387679 0.56825272361044199 0 0.56825272361044199 30.750598816249294 0 0 0 0 -9.2279556490111645 -4.6852750819183484 0 -4.6852750819183484 0.82525224050607449 0 0 0 0 -11.102390552471661 -0.78781797665556041 0 -0.78781797665556041 4.8443371862817912 0 0 0 0 -11.395967978526642 -6.7209451963080937 0 -6.7209451963080937 8.0888522732388424 0 0 0 0 -11.820020878025389 -6.3351317509943783 0 -6.3351317509943783 11.421917907106035 0 0 0 0 -11.516702141870155 -5.9059357019093284 0 -5.9059357019093284 5.5168695292875327 0 0 0 0 -9.1667310987741075 -10.948403046026783 0 -10.948403046026783 3.9480150860501908 0 0 0 0 -6.7297443188062971 -13.255042974901869 0 -13.255042974901869 3.0818082741056969 0 0 0 0 -8.0771927535879513 -9.3665404488847628 0 -9.3665404488847628 2.8310787379202793 0 0 0 0 -9.2041097649871517 -4.9645965497460338 0 -4.9645965497460338 2.08892299248987 0 0 0 0 -1.5232761153824654 -3.1529663148851181 0 -3.1529663148851181 0.65564832478185497 0 0 0 0 -6.5567272321841301 -8.3607900234245562 0 -8.3607900234245562 1.449650636417573 0 0 0 0 -6.7625867082888362 -5.2405698055255243 0 -5.2405698055255243 0.13313788136764515 0 0 0 0 -2.4896584907990391 0.63713961049170864 0 0.63713961049170864 0.79426395134434902 0 0 0 0 -8.8054592760681771 -0.064214160873575565 0 -0.064214160873575565 -1.114763964951635 0 0 0 0 -8.9301541724042153 3.728000144768469 0 3.728000144768469 0.70311527802778073 0 0 0 0 -3.8794746779167326 -0.7872762369373163 0 -0.7872762369373163 0.51116981176437548 0 0 0 0 -0.72847146614984726 0.30394054816100446 0 0.30394054816100446 0.4809836534609464 0 0 0 0 -1.1238872380777147 0.68777608325889705 0 0.68777608325889705 1.5193687659869093 0 0 0 0 -9.3027793529186056 -4.3729705933005221 0 -4.3729705933005221 -0.77927098230804859 0 0 0 0 0.10393306019136439 0.15899710722988392 0 0.15899710722988392 0.20485377216069156 0 0 0 0 -7.391404410092008 -2.6197561261925131 0 -2.6197561261925131 3.121656659740438 0 0 0 0 -0.39047968900555152 -0.35644162087191456 0 -0.35644162087191456 2.1955027179039779 0 0 0 0 -10.103117619819841 -1.0827708642530069 0 -1.0827708642530069 1.8028264922490962 0 0 0 0 -7.4597206735397776 -1.4901160165925376 0 -1.4901160165925376 -1.244504508605587 0 0 0 0 -6.7205122316397592 -0.80965944760149 0 -0.80965944760149 1.0791599760118515 0 0 0 0 -0.36759291244532122 -0.086574547745293273 0 -0.086574547745293273 -0.0018182116782288205 0 0 0 0 -7.0856421165108259 -2.7761261756233182 0 -2.7761261756233182 1.121473504803248 0 0 0 0 -7.7259475882265178 -2.0242655581641316 0 -2.0242655581641316 0.44683368478990815 0 0 0 0 -7.7186030809998556 -2.6131062471570203 0 -2.6131062471570203 2.8189306810484709 0 0 0 0 -12.64681827343361 0.24848305312119123 0 0.24848305312119123 0.5364807905169755 0 0 0 0 -9.4672484068130416 3.1105619856246562 0 3.1105619856246562 8.4535590151345161 0 0 0 0 -1.6763292856436998 1.2194235369553676 0 1.2194235369553676 -0.32837014727146135 0 0 0 0 -16.909728032344105 -1.8486141991643734 0 -1.8486141991643734 2.245947479522556 0 0 0 0 -8.3581073625309728 -3.6229430918876915 0 -3.6229430918876915 -1.2998992181160816 0 0 0 0 -3.1811385713899654 -1.0634950898217426 0 -1.0634950898217426 -3.0806307845516585 0 0 0 0 -16.518500717319739 -2.7604454588233409 0 -2.7604454588233409 -2.5727950488497981 0 0 0 0 -26.494374730388472 -3.0404271690566418 0 -3.0404271690566418 2.2967383566524688 0 0 0 0 -33.595587115194803 -6.2819702705070739 0 -6.2819702705070739 1.3588221048818809 0 0 0 0 -26.168310796406331 -3.6146334580013217 0 -3.6146334580013217 -1.0422255158084823 0 0 0 0 -30.626674360957963 -3.9373019846277657 0 -3.9373019846277657 2.3664493942143281 0 0 0 0 -26.861323179407634 -12.682059791309698 0 -12.682059791309698 -5.7338077014292139 0 0 0 0 -13.413419577594908 -5.082036889147588 0 -5.082036889147588 -1.2833695922677748 0 0 0 0 -1.14731266162166 0.67439538573414048 0 0.67439538573414048 -0.29279756265396056 0 0 0 0 -1.3780745327317163 11.812390205574573 0 11.812390205574573 12.629448044954188 0 0 0 0 -29.500445411260216 -11.982822348497928 0 -11.982822348497928 -3.8296982702957472 0 0 0 0 -29.701865606710726 -5.9519789216117154 0 -5.9519789216117154 4.1773951140664707 0 0 0 0 -25.102614308905231 -12.688937727124163 0 -12.688937727124163 -11.940386574765732 0 0 0 0 -60.815603936525349 -47.703702673225791 0 -47.703702673225791 -2.3997196742731575 0 0 0 0 -0.49032232024580669 0.21119131705775196 0 0.21119131705775196 -0.014154017536851582 0 0 0 0 6.274170701583671 17.335698051272338 0 17.335698051272338 5.3493402614911645 0 0 0 0 -2.5297477719317385 -2.311452562324682 0 -2.311452562324682 7.7504869579627496 0 0 0 0 -18.193008985978281 -3.9146259150412526 0 -3.9146259150412526 9.7698477041140137 0 0 0 0 -9.379384468939179 -2.9877946426255164 0 -2.9877946426255164 1.3247882798422097 0 0 0 0 0.052124665618329846 -0.28999909117615807 0 -0.28999909117615807 1.7054541256978504 0 0 0 0 -7.3520521317745988 3.8112241353513809 0 3.8112241353513809 0.44078468549909999 0 0 0 0 -7.2853540858566248 -3.0311666417085732 0 -3.0311666417085732 0.25119917094244215 0 0 0 0 -6.9821786083232382 -1.8476045385191568 0 -1.8476045385191568 0.99179665901797165 0 0 0 0 -7.5056466413889211 -2.8503963189644992 0 -2.8503963189644992 1.3003887357678252 0 0 0 0 -7.756576526266258 -2.1775937873350841 0 -2.1775937873350841 0.78998512609564386 0 0 0 0 2.4991568754296623 -0.91873608153739816 0 -0.91873608153739816 -5.4002619966409213 0 0 0 0 -61.378951070702442 9.1610135362204943 0 9.1610135362204943 -34.275892975666522 0 0 0 0 -60.988125264480686 -18.017240880113064 0 -18.017240880113064 -16.928749047878483 0 0 0 0 -61.831873529521658 2.1992612926913466 0 2.1992612926913466 -63.844469758916375 0 0 0 0 -117.10454375579457 -46.952595411503921 0 -46.952595411503921 -50.491883222483743 0 0 0 0 -252.68905164107633 21.660938048680528 0 21.660938048680528 -12.397447273957539 0 0 0 0 54.067761404789849 -41.672662331275461 0 -41.672662331275461 -26.469587537438834 0 0 0 0 -0.46080222506592494 -0.56951294498285998 0 -0.56951294498285998 -0.79930347210068897 0 0 0 0 -45.37014797019674 -70.707996331813405 0 -70.707996331813405 -34.611626824683128 0 0 0 0 -174.76485382806709 -29.436921098159445 0 -29.436921098159445 13.97035688809294 0 0 0 0 -25.958040270339325 -14.995766818310614 0 -14.995766818310614 -3.5695490306704301 0 0 0 0 -46.067356410010234 -23.721719346997361 0 -23.721719346997361 -7.2932229312616812 0 0 0 0 7.828783772028487 8.0097962259647115 0 8.0097962259647115 4.5207707772056445 0 0 0 0 -27.81173797197593 -3.4122237236109183 0 -3.4122237236109183 22.371130841235541 0 0 0 0 -21.050836256775256 25.791321849156628 0 25.791321849156628 -25.26833753533532 0 0 0 0 -1.2367158958714559 -1.8456211597872914 0 -1.8456211597872914 -1.9783200072106539 0 0 0 0 41.541666786287351 -34.758830437011568 0 -34.758830437011568 -7.371530284922315 0 0 0 0 -158.45535276463227 48.276184603669236 0 48.276184603669236 -8.4933459279268959 0 0 0 0 -131.37128289196585 9.6137303628012774 0 9.6137303628012774 -11.95268899846144 0 0 0 0 -108.36067867939835 11.393316227241201 0 11.393316227241201 -21.893660200804732 0 0 0 0 -103.65310824133647 24.217351929972125 0 24.217351929972125 -15.07140201126731 0 0 0 0 -76.458399524852439 -10.135212790966762 0 -10.135212790966762 -14.267832098480195 0 0 0 0 -115.52238724629353 1.972153034985439 0 1.972153034985439 -15.387150518580825 0 0 0 0 -51.589577297371648 -18.697054050002265 0 -18.697054050002265 -46.106393611102988 0 0 0 0 -44.355126712160256 -2.3065331185137552 0 -2.3065331185137552 -0.65659798719138962 0 0 0 0 -51.999037264714929 1.1525525955235523 0 1.1525525955235523 -16.041216699490519 0 0 0 0 -54.346387532455026 -11.900787369786144 0 -11.900787369786144 -8.4214297002087051 0 0 0 0 -80.5037158360484 5.5812180446168043 0 5.5812180446168043 -8.9202476855282384 0 0 0 0 -59.037244183413975 2.2212071882728992 0 2.2212071882728992 3.852760766948677 0 0 0 0 -67.441474410303755 14.560402602538787 0 14.560402602538787 -5.2211059542909197 0 0 0 0 -59.952763925927343 34.865147238478698 0 34.865147238478698 -0.41481283123282253 0 0 0 0 -123.27049818637346 26.045026945521286 0 26.045026945521286 -9.3533643044818291 0 0 0 0 -112.85009610929092 38.179212534339428 0 38.179212534339428 1.1632700232663353 0 0 0 0 18.11526128581113 -31.383716086606114 0 -31.383716086606114 12.855293677129211 0 0 0 0 -26.976318300939965 -31.808273567278917 0 -31.808273567278917 31.150868349822019 0 0 0 0 -1.7699897544683616 -2.7792907859780214 0 -2.7792907859780214 -2.7642167482362763 0 0 0 0 -156.8907174262807 1.0839179422846783 0 1.0839179422846783 11.344596318083632 0 0 0 0 -117.67634191750611 14.310607950234328 0 14.310607950234328 15.227361178065848 0 0 0 0 -48.07054391614443 10.85773890396635 0 10.85773890396635 -56.165015049546128 0 0 0 0 -111.54535141870618 58.076352830801511 0 58.076352830801511 -3.169786255232637 0 0 0 0 -201.92580677456451 17.363296421757155 0 17.363296421757155 8.1573298039301108 0 0 0 0 -269.10219589244741 -74.612404864248035 0 -74.612404864248035 -6.0823935092329293 0 0 0 0 -0.74023313013377678 0.59740485713857017 0 0.59740485713857017 -0.37201408539484193 0 0 0 0 -139.49391051215889 67.51975054607361 0 67.51975054607361 11.979417833744378 0 0 0 0 36.441363196749393 72.231562735300059 0 72.231562735300059 11.85072722958455 0 0 0 0 -12.38209476795106 4.2556131525767569 0 4.2556131525767569 9.111718874020994 0 0 0 0 -14.96110035894813 2.7888018296466157 0 2.7888018296466157 26.803316334583428 0 0 0 0 -27.144249957268016 -1.334523232728003 0 -1.334523232728003 26.035225210497515 0 0 0 0 -43.858209216178523 10.878106487581817 0 10.878106487581817 7.7545633341698021 0 0 0 0 -30.765541678381652 -13.000335671186235 0 -13.000335671186235 0.071771980926314427 0 0 0 0 -7.961452932408065 -1.8338265042721531 0 -1.8338265042721531 0.42293485067429515 0 0 0 0 -7.1036629662985433 -3.2750266322182711 0 -3.2750266322182711 0.99442145776186663 0 0 0 0 -7.3286419636001483 -2.7944375900529224 0 -2.7944375900529224 0.17063430228958509 0 0 0 0 -7.9274738852650444 -2.3212471436942934 0 -2.3212471436942934 1.825255399244142 0 0 0 0 -10.339910551826108 -2.8673113642340198 0 -2.8673113642340198 1.3200625494345388 0 0 0 0 -0.014339411658153223 -0.16295333516430421 0 -0.16295333516430421 1.0994792707375267 0 0 0 0 -16.07372917586008 -6.5001570000398203 0 -6.5001570000398203 1.4691406388500372 0 0 0 0 -12.07810431124949 0.016643408801542137 0 0.016643408801542137 11.724335989674557 0 0 0 0 -38.132222768566862 4.6803471832179753 0 4.6803471832179753 22.282890269597488 0 0 0 0 -24.893885055978899 12.553402176831824 0 12.553402176831824 4.6838537649408103 0 0 0 0 11.904097885819738 -2.9291101056851261 0 -2.9291101056851261 13.62811925524877 0 0 0 0 -13.932783123019362 12.044305819647619 0 12.044305819647619 12.437122188823992 0 0 0 0 -40.640976627250438 -15.190057144159752 0 -15.190057144159752 11.458221767360314 0 0 0 0 -24.654919256539415 -10.111662939541219 0 -10.111662939541219 6.7597271913120949 0 0 0 0 27.706174431752061 31.320321120685549 0 31.320321120685549 -0.74485223475969065 0 0 0 0 -0.38127868914230412 -0.27390328199062219 0 -0.27390328199062219 -0.2770434344992353 0 0 0 0 16.079891433299508 -31.392580761792473 0 -31.392580761792473 -31.87334246671611 0 0 0 0 -1.9867396848143615 -3.1547613651221011 0 -3.1547613651221011 -2.9525865183801203 0 0 0 0 -36.141757288157351 6.1681152176093974 0 6.1681152176093974 15.591309350632841 0 0 0 0 9.1148354637609827 -23.639980946599536 0 -23.639980946599536 -37.713266352257733 0 0 0 0 -35.469671466280261 -1.9563968562206662 0 -1.9563968562206662 18.068023778940038 0 0 0 0 -38.6236264813665 28.481487046084588 0 28.481487046084588 -8.6150935721841506 0 0 0 0 -48.911701054443256 15.464209162890221 0 15.464209162890221 10.93998875013412 0 0 0 0 -18.647659089164563 9.2593064566182317 0 9.2593064566182317 -8.0801771038666903 0 0 0 0 -13.683961661888247 0.38686392442872997 0 0.38686392442872997 6.1606653594745779 0 0 0 0 -3.7690154141109815 -4.1223073763096068 0 -4.1223073763096068 -6.1506537619734587 0 0 0 0 -9.6250935732036851 3.2553865573091052 0 3.2553865573091052 0.62171195781702693 0 0 0 0 -1.498064666510404 -0.96338089218860956 0 -0.96338089218860956 -0.23388103514807274 0 0 0 0 -9.6219291670122402 -11.722281965887362 0 -11.722281965887362 -8.2281774213855741 0 0 0 0 -0.026578272384116142 -0.0087997603476663855 0 -0.0087997603476663855 0.39762880023963681 0 0 0 0 -18.550388823555522 -11.936304050952558 0 -11.936304050952558 10.347595524246799 0 0 0 0 -10.693137122099643 -0.18539876673216327 0 -0.18539876673216327 8.4144108102008772 0 0 0 0 -11.378011623173393 -2.2136121889666427 0 -2.2136121889666427 2.4621128891466242 0 0 0 0 -5.7972109834954608 -2.5546275913975478 0 -2.5546275913975478 1.3240569693001589 0 0 0 0 -7.2991281700456057 -4.0836063822090694 0 -4.0836063822090694 3.173720968410322 0 0 0 0 -7.0639195911289789 -2.892100621443376 0 -2.892100621443376 1.5157419841675051 0 0 0 0 -5.3978993554019326 -2.9976391769707504 0 -2.9976391769707504 0.60141087819300765 0 0 0 0 -15.508831729370968 9.9303815525287007 0 9.9303815525287007 1.9699052596499769 0 0 0 0 -4.075254648398186 -2.7117713745557808 0 -2.7117713745557808 0.63748181220569222 0 0 0 0 -2.5297027132601473 0.044691545648184228 0 0.044691545648184228 1.8712180318402307 0 0 0 0 -3.0001214242247443 -0.69638402685268375 0 -0.69638402685268375 -0.96833700420313562 0 0 0 0 -7.0576199726951927 -6.4777919541824787 0 -6.4777919541824787 0.86832356115030507 0 0 0 0 -4.7813543381016643 -4.8400248850957723 0 -4.8400248850957723 -3.9934802951241615 0 0 0 0 -1.9159302687417039 -1.5849870105955119 0 -1.5849870105955119 -4.2658038427208602 0 0 0 0 -45.125296979869177 1.0468082249319082 0 1.0468082249319082 14.822813374942143 0 0 0 0 -25.618879278079476 -12.194601771483235 0 -12.194601771483235 7.3210953396055345 0 0 0 0 4.671038280520861 -6.3887243406991576 0 -6.3887243406991576 18.130983437329803 0 0 0 0 -0.30823047385185465 -0.10697057330685689 0 -0.10697057330685689 0.20909699755214892 0 0 0 0 3.1480360954180355 3.5891596112111968 0 3.5891596112111968 26.653211009131354 0 0 0 0 -12.546492948034938 -4.427312587804451 0 -4.427312587804451 22.60547764992171 0 0 0 0 -3.8269078279995483 -11.249157324257368 0 -11.249157324257368 15.409329547705909 0 0 0 0 0.1521396058616129 0.7575184133780356 0 0.7575184133780356 0.87109765051280297 0 0 0 0 -1.636342760335765 -12.437844631319081 0 -12.437844631319081 21.033995477453033 0 0 0 0 -5.0548633863587611 0.27584210731992087 0 0.27584210731992087 25.461616786484768 0 0 0 0 -1.4164713908548947 -2.7733949780767659 0 -2.7733949780767659 -6.8646945690587522 0 0 0 0 -9.2037386041479294 22.626850315650387 0 22.626850315650387 -1.1054585952571898 0 0 0 0 -3.6083904037988077 2.591853844187245 0 2.591853844187245 3.7112268810516582 0 0 0 0 -11.516374724312982 -2.4201557111466068 0 -2.4201557111466068 7.6609548725148917 0 0 0 0 -0.13342490063277257 -0.032805285515920879 0 -0.032805285515920879 0.13853986328657925 0 0 0 0 -10.770084517685163 7.8408153500551254 0 7.8408153500551254 11.196707085940158 0 0 0 0 -26.128609979607063 3.9918691184388582 0 3.9918691184388582 13.334273749297054 0 0 0 0 -0.44573173501157726 -1.7924094859732662 0 -1.7924094859732662 -1.4610948501715946 0 0 0 0 -15.69999113640165 0.24957936536242897 0 0.24957936536242897 -4.994158418344 0 0 0 0 -19.618897900284765 -1.5675415206597734 0 -1.5675415206597734 13.471480740690083 0 0 0 0 -28.596511422476212 10.620816520978892 0 10.620816520978892 -9.3616139775413103 0 0 0 0 -1.9318818473239863 -2.8789584512373532 0 -2.8789584512373532 -2.022232615887654 0 0 0 0 -48.520595076485819 16.811294983340844 0 16.811294983340844 -2.4513019855101561 0 0 0 0 -90.669280867882264 20.904000592539205 0 20.904000592539205 2.008757091418488 0 0 0 0 -17.504442926767524 9.0914580616084208 0 9.0914580616084208 -1.4669457731677866 0 0 0 0 -30.800291695755277 -1.4081313313062154 0 -1.4081313313062154 0.10717930159378852 0 0 0 0 -1.6261730303627093 -2.3192869925133763 0 -2.3192869925133763 -0.36116898027796596 0 0 0 0 -59.129955864125165 8.8837779240076049 0 8.8837779240076049 5.951823831596144 0 0 0 0 -15.380972703720708 -2.6330448735712366 0 -2.6330448735712366 -6.8143365558728703 0 0 0 0 -59.368025960942717 7.3840498309958953 0 7.3840498309958953 5.5701775288488573 0 0 0 0 -1.9679142215001906 -1.3053062273691824 0 -1.3053062273691824 1.1959244976430146 0 0 0 0 -14.373957473109627 -5.4719233544309809 0 -5.4719233544309809 -3.0751612377424777 0 0 0 0 -10.354343158051279 5.8984704191560979 0 5.8984704191560979 -1.7810974686523764 0 0 0 0 -6.9551157135879293 5.2878808292445001 0 5.2878808292445001 -3.8199957393097748 0 0 0 0 -0.91164188915368904 0.45566189360298215 0 0.45566189360298215 -0.34130406137385894 0 0 0 0 -4.3696372070400002 2.2393601439846123 0 2.2393601439846123 -2.6644134436842819 0 0 0 0 -1.0084652668704166 -5.13883904816322 0 -5.13883904816322 -12.571734692382222 0 0 0 0 -4.2654273704773118 17.419808660417644 0 17.419808660417644 -22.758412775528086 0 0 0 0 -0.038000704585140266 -0.074360748037238578 0 -0.074360748037238578 0.098370630979636275 0 0 0 0 -9.4467829174367921 1.2139533643778364 0 1.2139533643778364 -2.8986041942196721 0 0 0 0 -12.964126884727534 1.4685692385122024 0 1.4685692385122024 11.074297818728297 0 0 0 0 0.70065337716374643 11.503937122101746 0 11.503937122101746 7.5866773682716939 0 0 0 0 -2.187792369424983 6.5319667619060198 0 6.5319667619060198 13.112754275180123 0 0 0 0 7.7033360167581009 29.672125454313402 0 29.672125454313402 31.97851894556814 0 0 0 0 -1.8568373113009924 1.7800705855982497 0 1.7800705855982497 -1.0898309362658511 0 0 0 0 -2.4538599526464777 2.679409787982951 0 2.679409787982951 -2.1198843296927468 0 0 0 0 -123.98622057864495 -43.015973632636729 0 -43.015973632636729 -17.653725566958258 0 0 0 0 -106.70611787411138 -5.8003149098432374 0 -5.8003149098432374 0.6443481559385873 0 0 0 0 -147.51598044695578 -40.016092713638386 0 -40.016092713638386 -25.025206162820893 0 0 0 0 -93.517930820261313 -11.75133318947664 0 -11.75133318947664 -2.0916606575601691 0 0 0 0 -84.681995024038798 9.8812720622811696 0 9.8812720622811696 9.1586079840374737 0 0 0 0 -79.534035520576765 2.8176586851527574 0 2.8176586851527574 0.82124426748158008 0 0 0 0 -78.418484361845969 8.1678217323850788 0 8.1678217323850788 11.76236825286702 0 0 0 0 -56.233745980803917 5.5265815063742849 0 5.5265815063742849 0.10398427871233196 0 0 0 0 -71.957814588761039 -15.306188076096475 0 -15.306188076096475 -4.0167865576670678 0 0 0 0 -86.239860711622896 -4.3376911926122439 0 -4.3376911926122439 -1.2255824300974041 0 0 0 0 -78.080691241509612 -25.946399408173392 0 -25.946399408173392 -11.897715319989146 0 0 0 0 -60.34774869069463 -9.1791315445612653 0 -9.1791315445612653 -10.538998905000227 0 0 0 0 -51.922334495014411 -15.442227052027619 0 -15.442227052027619 -8.5299893014038446 0 0 0 0 -3.7413178184938003 3.5453388393742897 0 3.5453388393742897 -2.8696987064751327 0 0 0 0 -55.607690691276161 -20.418471151536906 0 -20.418471151536906 -14.318119142559141 0 0 0 0 -56.17856503351824 -11.393465884544737 0 -11.393465884544737 -4.6398258365970406 0 0 0 0 -61.384020483776112 -21.337090264741249 0 -21.337090264741249 31.767783641257438 0 0 0 0 -35.947845958909284 -10.483852451939086 0 -10.483852451939086 -24.765696541055831 0 0 0 0 -1.0138791552140778 0.44201140155589824 0 0.44201140155589824 -0.8373633587563718 0 0 0 0 -101.64914928633755 -8.4962882580897396 0 -8.4962882580897396 -2.7495028649992292 0 0 0 0 -75.316716572257178 -48.219786891682844 0 -48.219786891682844 -4.0641228000978344 0 0 0 0 -40.04176740957729 -2.4537867157179463 0 -2.4537867157179463 -11.745139553398417 0 0 0 0 15.132398819064576 2.9497269692711683 0 2.9497269692711683 -16.927572061455038 0 0 0 0 -31.261800963907262 -23.299129419270372 0 -23.299129419270372 -15.859773426243578 0 0 0 0 -46.523810620254153 17.20562898699194 0 17.20562898699194 46.199166991011282 0 0 0 0 -34.681301619384385 -31.232259236032007 0 -31.232259236032007 48.847368623295893 0 0 0 0 -46.516817601023931 17.064671210010307 0 17.064671210010307 2.3025182726416915 0 0 0 0 -67.321330393994231 3.4446302064554857 0 3.4446302064554857 1.3436357225661553 0 0 0 0 -75.351594559577393 17.054214533919129 0 17.054214533919129 3.2163507988515505 0 0 0 0 -74.372377862220674 7.0500969779455716 0 7.0500969779455716 7.1789583074288998 0 0 0 0 -114.42384126576974 -29.327233066375982 0 -29.327233066375982 -1.0739913994884915 0 0 0 0 -78.414756985439169 9.1127647615857938 0 9.1127647615857938 19.154503714552902 0 0 0 0 -190.07486074846972 0.32760675139721229 0 0.32760675139721229 25.533590695105772 0 0 0 0 -97.283336540335029 -44.998017093785592 0 -44.998017093785592 -5.114884212308425 0 0 0 0 -30.320241572169834 -33.092593515208819 0 -33.092593515208819 -4.3668574864706002 0 0 0 0 -142.79897221025053 -116.48831560299914 0 -116.48831560299914 -45.971656765440684 0 0 0 0 -133.23633754631192 114.49053623188649 0 114.49053623188649 -124.53547951185311 0 0 0 0 -190.39623824153603 -126.06446315820443 0 -126.06446315820443 52.993194452744206 0 0 0 0 -2.1561111288787358 -0.089609989368144349 0 -0.089609989368144349 -0.0090078761005282781 0 0 0 0 70.715135730802672 -49.281287075936518 0 -49.281287075936518 -84.829681692930762 0 0 0 0 -1.5209930861680867 -0.023076674307147105 0 -0.023076674307147105 0.087444767051072181 0 0 0 0 -43.440687784630654 39.608413108485877 0 39.608413108485877 6.8790362084158119 0 0 0 0 -316.53532151284344 26.809231723023004 0 26.809231723023004 -70.568879995821135 0 0 0 0 -325.24959818513571 -149.0055041940293 0 -149.0055041940293 -5.2673552074961663 0 0 0 0 -23.34798378672258 -261.99841310250849 0 -261.99841310250849 -118.69895698534714 0 0 0 0 4.4965067323993253 -10.542852788545531 0 -10.542852788545531 -5.8102524661981079 0 0 0 0 -58.024475236406488 -13.200360089361311 0 -13.200360089361311 26.091891279123274 0 0 0 0 -36.248083715509608 11.668614962048537 0 11.668614962048537 -8.67142897384565 0 0 0 0 1.2506875736701204 -8.6169015258579122 0 -8.6169015258579122 -5.3043476083558971 0 0 0 0 0.046262397215514284 -17.471419684233638 0 -17.471419684233638 7.499937947523506 0 0 0 0 1.6476739647854117 -6.496761375703219 0 -6.496761375703219 -6.1783009258460879 0 0 0 0 62.836979761687871 16.212775840698782 0 16.212775840698782 -63.813467828595833 0 0 0 0 -7.5481594976768065 0.16296097998662162 0 0.16296097998662162 23.80439923055792 0 0 0 0 -2.4771818136246653 0.33696617631814174 0 0.33696617631814174 -0.03891400461622363 0 0 0 0 -2.6673583871950086 -11.134486969973921 0 -11.134486969973921 14.960738823472752 0 0 0 0 138.1016241252878 -21.601715543666614 0 -21.601715543666614 -108.43163760687753 0 0 0 0 -2.7657724379608908 2.4743326901743217 0 2.4743326901743217 6.8437587027223117 0 0 0 0 -7.2972607032511974 -5.8854854507289645 0 -5.8854854507289645 4.1816720723585377 0 0 0 0 -17.504256231203044 22.702921237488283 0 22.702921237488283 31.675841475536231 0 0 0 0 0.052245558921981683 -0.2261657252724294 0 -0.2261657252724294 0.8358348344256048 0 0 0 0 -5.5615331307991482 -12.233972138461155 0 -12.233972138461155 7.9608459906501139 0 0 0 0 -5.6956772856116231 3.8962476841598459 0 3.8962476841598459 -8.7297468781048337 0 0 0 0 -3.7006318262010325 6.5046721188382435 0 6.5046721188382435 -11.933593630174073 0 0 0 0 -1.3477710615539358 8.3875634004670818 0 8.3875634004670818 3.4208825924932285 0 0 0 0 -4.0015498067730562 9.7069194856500758 0 9.7069194856500758 -2.1938220765938468 0 0 0 0 -1.2851467224559769 6.1861132873519296 0 6.1861132873519296 -6.9386307004612604 0 0 0 0 -2.9425506296245061 2.9164426197445721 0 2.9164426197445721 -0.47010995765612051 0 0 0 0 -4.5718502276358635 2.0724764421236284 0 2.0724764421236284 -0.77520897144448619 0 0 0 0 -8.2041895143510146 3.2845624588999982 0 3.2845624588999982 -1.2298374638398855 0 0 0 0 -4.5964500526990264 0.7855538629836758 0 0.7855538629836758 -1.8457158194001124 0 0 0 0 -3.7180991057509232 2.8907464239552496 0 2.8907464239552496 -9.4688257990825093 0 0 0 0 -1.0604881297532847 0.49801375606044423 0 0.49801375606044423 -0.24384142266854747 0 0 0 0 -1.5902325369531964 -0.049174312408088727 0 -0.049174312408088727 0.2772932616823704 0 0 0 0 -4.8600687333671999 4.1101440884051783 0 4.1101440884051783 -10.215292732845001 0 0 0 0 -21.041962127249505 2.7249673592163219 0 2.7249673592163219 -4.4486393462466509 0 0 0 0 -19.981679578004783 -1.3940430067941634 0 -1.3940430067941634 3.5424605795359128 0 0 0 0 -93.1823647921766 23.388011415566382 0 23.388011415566382 -2.6918577363899772 0 0 0 0 -81.035597957527216 -33.922585699476826 0 -33.922585699476826 -1.8137592298627965 0 0 0 0 -119.70137259388974 -22.422443293574872 0 -22.422443293574872 -9.0334313857479742 0 0 0 0 -77.068231994743911 -5.7777495006184694 0 -5.7777495006184694 -48.46291428054559 0 0 0 0 -28.84274284622461 35.31814391512421 0 35.31814391512421 -52.098918700569016 0 0 0 0 -6.3036609563226875 2.8366045405657871 0 2.8366045405657871 -17.512776461725309 0 0 0 0 -6.4903501952906026 5.1106499455257222 0 5.1106499455257222 -9.5323020935817055 0 0 0 0 -0.5131844095737319 0.091269796552631455 0 0.091269796552631455 -0.030976362653443723 0 0 0 0 -6.3701796465341474 15.976493051220139 0 15.976493051220139 -26.995425386208126 0 0 0 0 -29.461971074188739 28.789244564533021 0 28.789244564533021 -4.9902859428064517 0 0 0 0 -16.020908609876244 15.218736764264634 0 15.218736764264634 6.3849320284876967 0 0 0 0 -55.805159539467127 -6.5638219106809856 0 -6.5638219106809856 -5.3840180238289008 0 0 0 0 -25.062015651841079 -12.107977252706917 0 -12.107977252706917 -12.826877709818802 0 0 0 0 -46.319037892791101 -16.37927466131228 0 -16.37927466131228 -3.3275046357135807 0 0 0 0 -4.9404364785908577 -0.69853477813400322 0 -0.69853477813400322 -0.014779172904020643 0 0 0 0 35.262584081930001 47.003546581692021 0 47.003546581692021 -13.148560087037026 0 0 0 0 -21.227738686266434 6.9790393342411789 0 6.9790393342411789 88.473167940962071 0 0 0 0 -5.1150563259882915 22.621189360376775 0 22.621189360376775 7.8938193143621191 0 0 0 0 -14.662000375008418 15.941795857604944 0 15.941795857604944 29.069815920962697 0 0 0 0 -11.924444667097077 16.559990281134731 0 16.559990281134731 7.7705656221695563 0 0 0 0 -6.7776267368650878 19.360295672287236 0 19.360295672287236 -8.7074779977641583 0 0 0 0 -6.9618933018987406 15.18105980929343 0 15.18105980929343 8.1505105984508077 0 0 0 0 -5.6200461334857721 11.744408324644183 0 11.744408324644183 -3.6045712750844814 0 0 0 0 0.78623699814528436 8.19468946994823 0 8.19468946994823 -2.2126541092236494 0 0 0 0 -11.540309767161261 0.58450503896597716 0 0.58450503896597716 -4.1544240947995377 0 0 0 0 -19.131082286306082 -0.28193860458043218 0 -0.28193860458043218 0.061480763091537938 0 0 0 0 -12.52574985766114 6.1216544430291187 0 6.1216544430291187 -0.39964028478652835 0 0 0 0 -10.75829151854383 5.8438596498933499 0 5.8438596498933499 1.2598761881620915 0 0 0 0 -12.678839344864627 14.970705246383051 0 14.970705246383051 -2.6772719429463194 0 0 0 0 -11.424933922116907 20.515084598229677 0 20.515084598229677 15.726477138712767 0 0 0 0 -9.6512961403434741 7.3693338942914464 0 7.3693338942914464 1.8094153299381963 0 0 0 0 -45.980785975600156 8.4421360100611764 0 8.4421360100611764 12.270914374739959 0 0 0 0 -35.956302723528097 -7.0415471370077043 0 -7.0415471370077043 15.295675476419376 0 0 0 0 -36.642184680353239 3.2678019091155193 0 3.2678019091155193 14.469873777340808 0 0 0 0 -30.71232681418951 -1.4477918267509722 0 -1.4477918267509722 -2.3116350863797379 0 0 0 0 -7.9377444913170123 7.7757545694303998 0 7.7757545694303998 2.9350147256880783 0 0 0 0 -19.543495001946212 2.5122357803231523 0 2.5122357803231523 -0.64171846838303281 0 0 0 0 -24.364384879685417 -1.4288464896394935 0 -1.4288464896394935 0.46639985593702704 0 0 0 0 -25.065080368902272 1.6522563932057217 0 1.6522563932057217 2.6242407926008227 0 0 0 0 1.8648916632299635 12.184814247706893 0 12.184814247706893 -0.4232665626857397 0 0 0 0 -16.302689485359224 -3.5108886965168011 0 -3.5108886965168011 -2.7036595275108084 0 0 0 0 -8.4383135329111134 5.8018466653987657 0 5.8018466653987657 1.8412294099424389 0 0 0 0 -4.4434600507980182 -0.08566427379764896 0 -0.08566427379764896 1.6624066475090418 0 0 0 0 -21.808723955286041 0.79681330032497044 0 0.79681330032497044 -3.6894688497096126 0 0 0 0 -36.084124885124766 -12.897117106070482 0 -12.897117106070482 2.8101954645574665 0 0 0 0 -10.867848904383596 6.3077396693758745 0 6.3077396693758745 3.1993920133004865 0 0 0 0 -32.081095690333314 -0.28995394505525951 0 -0.28995394505525951 -2.0388573986983829 0 0 0 0 -21.929215719682702 0.81596871523745307 0 0.81596871523745307 1.2320447753570534 0 0 0 0 -23.002874467668107 1.2865426418786399 0 1.2865426418786399 2.000103466641292 0 0 0 0 -17.104117276690886 0.70382802713606907 0 0.70382802713606907 0.12680426991073546 0 0 0 0 -8.1126501913622633 2.4869997871706744 0 2.4869997871706744 -0.21359151244018904 0 0 0 0 -7.2123416100890427 3.9298915246851056 0 3.9298915246851056 0.91541253104352527 0 0 0 0 -13.667199107076158 5.3499566725902241 0 5.3499566725902241 -4.0980680721456793 0 0 0 0 -15.098016129633908 2.3135448814892188 0 2.3135448814892188 1.8463247441209056 0 0 0 0 -16.760877753535169 2.5525927211004991 0 2.5525927211004991 2.2406391979883296 0 0 0 0 -21.373196707172596 -3.4979623288142383 0 -3.4979623288142383 -1.4722347898262231 0 0 0 0 -12.687308822930936 0.53837356318138196 0 0.53837356318138196 1.1571458861646613 0 0 0 0 -16.082978093389102 3.3687232017437339 0 3.3687232017437339 2.7101542603414543 0 0 0 0 -13.350995416088898 3.4192597563512459 0 3.4192597563512459 -0.85554637366708497 0 0 0 0 -8.224695600721045 3.9312711163587561 0 3.9312711163587561 -0.5297229084707169 0 0 0 0 -4.0379927203401564 3.3634245149926585 0 3.3634245149926585 1.6905844569467519 0 0 0 0 -2.7451579133610045 2.5513686804516666 0 2.5513686804516666 1.2529066914948579 0 0 0 0 5.8939913738208816 -13.317984098281119 0 -13.317984098281119 -25.951613164928116 0 0 0 0 -7.7765213859792084 24.395037274190518 0 24.395037274190518 -84.123812288423167 0 0 0 0 -33.998223000366124 2.903329721969385 0 2.903329721969385 -12.930049176422926 0 0 0 0 -0.93362191176129272 18.175305863718847 0 18.175305863718847 -37.005192692256983 0 0 0 0 25.099824452170196 -13.389283145610786 0 -13.389283145610786 1.8786028445322067 0 0 0 0 21.680757463956979 -3.7324283698680212 0 -3.7324283698680212 -12.066485472055678 0 0 0 0 15.217829266814306 -8.5508544196323442 0 -8.5508544196323442 -14.082250022532435 0 0 0 0 -11.315572165117802 -2.9883305607825346 0 -2.9883305607825346 -1.2223888467754707 0 0 0 0 -12.904658503494822 -5.3488106518965166 0 -5.3488106518965166 -1.4272858148189096 0 0 0 0 19.223398741465189 -38.294539131519464 0 -38.294539131519464 31.082893074611366 0 0 0 0 -13.808206823282809 -8.1593783368149886 0 -8.1593783368149886 -1.2806663538534253 0 0 0 0 59.544365177090867 -82.903840424853854 0 -82.903840424853854 1.3171661464476614 0 0 0 0 -4.8622983526421049 -1.3289719017233192 0 -1.3289719017233192 -2.6116316045154697 0 0 0 0 -13.397060149356548 -15.717818626186499 0 -15.717818626186499 14.286885391481974 0 0 0 0 -12.404817176324286 -11.702081555610562 0 -11.702081555610562 -2.845685475287155 0 0 0 0 -76.758353800934856 32.532848623702705 0 32.532848623702705 25.820615434117599 0 0 0 0 86.992541983465344 -36.410849657741792 0 -36.410849657741792 -18.427711319692207 0 0 0 0 29.533653132140898 -62.15273930869494 0 -62.15273930869494 -16.968778769037517 0 0 0 0 30.375712255239591 -18.317891807364475 0 -18.317891807364475 -55.568137661890944 0 0 0 0 -5.0641621882614345 -52.593156895954188 0 -52.593156895954188 -83.72135570836204 0 0 0 0 15.14042199875189 -13.497470782935878 0 -13.497470782935878 -9.4183608635749039 0 0 0 0 62.911952716036012 6.2084171692545027 0 6.2084171692545027 30.423584181110101 0 0 0 0 29.035555264781578 -35.197345589654702 0 -35.197345589654702 -18.354548306761529 0 0 0 0 -45.458608149720476 -64.156511984094067 0 -64.156511984094067 99.872083217208754 0 0 0 0 -16.514889576693655 -8.220651492485846 0 -8.220651492485846 -0.19822927249164141 0 0 0 0 -2.1956130530461451 -23.843476652446931 0 -23.843476652446931 -72.617099272548103 0 0 0 0 -58.612203791167303 -53.670096971212715 0 -53.670096971212715 59.410161173169712 0 0 0 0 -14.337269198704689 -11.580186888276039 0 -11.580186888276039 99.364208214581211 0 0 0 0 30.241383165155639 -1.7515346292747722 0 -1.7515346292747722 1.6994375823719565 0 0 0 0 6.3168741653971665 5.9394066216519832 0 5.9394066216519832 23.774979133094348 0 0 0 0 -30.836330634553804 -6.845983900763418 0 -6.845983900763418 16.442478781718592 0 0 0 0 -23.14120702083892 -12.229743640436141 0 -12.229743640436141 18.29621212966822 0 0 0 0 -16.115959785802261 -3.5124879099917052 0 -3.5124879099917052 26.809120018469002 0 0 0 0 -18.707452835562435 -7.7952461209068815 0 -7.7952461209068815 18.449552194816533 0 0 0 0 -17.575909764262178 -2.6635078166956418 0 -2.6635078166956418 15.042856970472201 0 0 0 0 -32.243516669257588 -3.3030513666514025 0 -3.3030513666514025 16.895865556572517 0 0 0 0 -40.159514253044108 -31.737597545280238 0 -31.737597545280238 0.1843780993039319 0 0 0 0 -9.0728115773272293 -22.10414247759411 0 -22.10414247759411 -0.9555946641090145 0 0 0 0 -43.036967132302379 -13.090138601970459 0 -13.090138601970459 15.679350451202517 0 0 0 0 24.557966996020468 -36.918584810949987 0 -36.918584810949987 -11.439413170456987 0 0 0 0 0.06976918399207932 -0.70294652394478341 0 -0.70294652394478341 -1.1784121564936139 0 0 0 0 -5.0154940481261292 -19.370480994948196 0 -19.370480994948196 -2.3043278592628553 0 0 0 0 17.727012242161436 -9.8755094214923247 0 -9.8755094214923247 1.6162297048166465 0 0 0 0 16.095075647046542 -32.134317637088188 0 -32.134317637088188 -14.911499386890341 0 0 0 0 2.258915196529415 -44.085460428759148 0 -44.085460428759148 -11.103408233312791 0 0 0 0 -133.16884861508515 59.540151370941132 0 59.540151370941132 84.758450211120874 0 0 0 0 36.124173150828028 -61.020894238068756 0 -61.020894238068756 -170.460136566252 0 0 0 0 -23.288389784651599 -15.568037420291006 0 -15.568037420291006 27.883803752840411 0 0 0 0 -51.047159360406795 24.594698796233342 0 24.594698796233342 24.379714594568863 0 0 0 0 -14.868233494789287 -7.4273985891994947 0 -7.4273985891994947 0.3359420061857506 0 0 0 0 -30.567499378064667 10.879997118214959 0 10.879997118214959 -0.23266138439197448 0 0 0 0 -49.740269909682866 62.965844186078364 0 62.965844186078364 -62.24662788822026 0 0 0 0 -33.417633965737423 7.6154830642417721 0 7.6154830642417721 -17.829827869359612 0 0 0 0 -6.5838186128521556 -97.381933000568353 0 -97.381933000568353 64.760116403389304 0 0 0 0 -125.33635127407115 -8.5144645531340331 0 -8.5144645531340331 38.820855294271865 0 0 0 0 -48.518122466527984 -8.7423809446110177 0 -8.7423809446110177 16.40834500179205 0 0 0 0 -58.409545820939002 -20.128253631827583 0 -20.128253631827583 45.617730523739702 0 0 0 0 -20.193696258671935 -76.595607804126075 0 -76.595607804126075 38.51359477466454 0 0 0 0 37.013809746617881 -33.223844991939949 0 -33.223844991939949 16.58468424273206 0 0 0 0 -19.796277790907311 6.4882605027217153 0 6.4882605027217153 -8.9197422990708048 0 0 0 0 -12.920825366356212 -2.9295393637898286 0 -2.9295393637898286 -8.1249648613651289 0 0 0 0 -18.755441964922056 0.67977115461906124 0 0.67977115461906124 -6.9054223081067221 0 0 0 0 -43.11973702774776 8.4620110339727148 0 8.4620110339727148 -2.2491643472711189 0 0 0 0 -33.681022657095127 8.7316484329166997 0 8.7316484329166997 -1.0691867059531575 0 0 0 0 -41.204440200404633 12.23230471065628 0 12.23230471065628 0.77735212683279542 0 0 0 0 -43.812199180271136 17.779023968781267 0 17.779023968781267 1.2462307800371519 0 0 0 0 -5.1886043447237684 -2.572286851141496 0 -2.572286851141496 -1.1063943643998946 0 0 0 0 -6.2377309446316076 -16.488627956754527 0 -16.488627956754527 30.435172900293352 0 0 0 0 -35.30331024116208 22.810073040540217 0 22.810073040540217 -17.610606946579836 0 0 0 0 -14.511639991705806 0.97203300478403065 0 0.97203300478403065 25.090256183926044 0 0 0 0 10.794385733047164 -23.511696108646962 0 -23.511696108646962 -6.1125291719505697 0 0 0 0 -24.568516260233991 -24.148846329488947 0 -24.148846329488947 -6.111510157707027 0 0 0 0 -31.558599140645811 -11.754823343045217 0 -11.754823343045217 7.2819385376268144 0 0 0 0 -25.536444628276627 -13.65051086872937 0 -13.65051086872937 7.8011330904636509 0 0 0 0 -199.25247922655126 -62.075843192832401 0 -62.075843192832401 -34.153997472069769 0 0 0 0 -40.46016041423718 -25.199857143840248 0 -25.199857143840248 -170.55023761666348 0 0 0 0 -38.408068217386244 -6.735091632376168 0 -6.735091632376168 -50.259167324320302 0 0 0 0 -109.41244917928157 6.5481901357825585 0 6.5481901357825585 16.280034089365301 0 0 0 0 -44.835932604054506 -30.850476271284641 0 -30.850476271284641 7.2043569554193851 0 0 0 0 -19.992965319790642 -50.222374717282918 0 -50.222374717282918 8.9498026423735979 0 0 0 0 -1.84487336450465 -0.79051762750081556 0 -0.79051762750081556 -0.43370986626445596 0 0 0 0 -136.07245533252467 106.50081270650719 0 106.50081270650719 -49.784056729997623 0 0 0 0 -0.51530227397859552 -0.14920873455700989 0 -0.14920873455700989 0.49167563611349985 0 0 0 0 -29.864968715984674 -13.329482144533927 0 -13.329482144533927 18.56219417545514 0 0 0 0 -176.07960153659815 -14.475587547453742 0 -14.475587547453742 18.581168997989749 0 0 0 0 -96.960880160952684 75.664640780609204 0 75.664640780609204 -112.40242700726895 0 0 0 0 -56.261221031018522 17.505657013527205 0 17.505657013527205 -32.199653661598795 0 0 0 0 -53.701348150010972 31.910365323549627 0 31.910365323549627 -29.808346293728896 0 0 0 0 -78.840772980035837 -49.425377799693379 0 -49.425377799693379 -28.069587322938787 0 0 0 0 -91.645063036067086 8.8323967188074164 0 8.8323967188074164 3.6441891851343371 0 0 0 0 -41.757231462136247 -10.887725194806251 0 -10.887725194806251 -9.8513991127666714 0 0 0 0 -28.929738765077104 -17.29817706891015 0 -17.29817706891015 -18.80456192286951 0 0 0 0 -29.853373138245416 -14.600978393520109 0 -14.600978393520109 -8.3397490497522995 0 0 0 0 -28.350926645920822 -17.784442175878667 0 -17.784442175878667 -5.0876677046384202 0 0 0 0 -32.141080603389355 -7.6597623792530385 0 -7.6597623792530385 6.5722504394124144 0 0 0 0 -36.198605342139729 7.0548922310935112 0 7.0548922310935112 6.5223661464435736 0 0 0 0 -15.417631792748352 -0.030904310594024764 0 -0.030904310594024764 0.57993454417726298 0 0 0 0 -41.430638801883561 -18.061644992763263 0 -18.061644992763263 -3.813301163883807 0 0 0 0 -52.135229435902261 -16.588445497230623 0 -16.588445497230623 -15.476464520673119 0 0 0 0 -35.891218512808166 -22.944268956602031 0 -22.944268956602031 -13.894546043263695 0 0 0 0 -13.834420462584802 -26.892175354721644 0 -26.892175354721644 -22.059456895823132 0 0 0 0 -27.03751880723722 -28.393049892126498 0 -28.393049892126498 -21.886007420570216 0 0 0 0 -0.63335414675304325 -0.19381862874319511 0 -0.19381862874319511 0.64002154503029085 0 0 0 0 -25.971254950187472 -22.560936406765293 0 -22.560936406765293 -13.119477524081731 0 0 0 0 -49.62596022091077 -37.484385955964285 0 -37.484385955964285 -34.690133211662896 0 0 0 0 -27.363555984192686 -30.840553256656563 0 -30.840553256656563 -34.088414177240793 0 0 0 0 -0.5066396837456042 -0.12458444740463337 0 -0.12458444740463337 0.47948691113115194 0 0 0 0 -14.184919127464887 -4.9015466670252117 0 -4.9015466670252117 8.5493759161074649 0 0 0 0 -21.082473982102442 -16.023053686339836 0 -16.023053686339836 11.59805849198483 0 0 0 0 -17.035402719559272 -12.888613028195778 0 -12.888613028195778 1.6548175370339777 0 0 0 0 -23.538398768797549 -14.931847454694321 0 -14.931847454694321 1.8474152066924034 0 0 0 0 -17.143374728096035 -13.139834113319466 0 -13.139834113319466 2.3460997861199075 0 0 0 0 -14.426592333300789 -11.36573529521047 0 -11.36573529521047 -8.9982947687213368 0 0 0 0 -20.843179415352267 -9.9869357761050424 0 -9.9869357761050424 3.7247549996927773 0 0 0 0 -16.534392081876376 -8.7642048611828614 0 -8.7642048611828614 1.714692830554668 0 0 0 0 -16.560383198309125 -7.9564704915735547 0 -7.9564704915735547 3.3237573024816811 0 0 0 0 -16.453515801313984 -12.727867799137812 0 -12.727867799137812 0.15293414003940597 0 0 0 0 -14.788448914254133 -10.400537362260479 0 -10.400537362260479 -0.88808156623099421 0 0 0 0 -18.064960501340067 -12.443021426598875 0 -12.443021426598875 1.9373474008461926 0 0 0 0 -15.754717193555223 -13.801241027600554 0 -13.801241027600554 1.7555777462521291 0 0 0 0 -17.339377934653271 -17.238974995160106 0 -17.238974995160106 -4.1333644754404304 0 0 0 0 -7.8814148118535741 -2.1824930584409685 0 -2.1824930584409685 8.5248301910449982 0 0 0 0 -13.9515200537694 2.170524424898872 0 2.170524424898872 8.3762859284570368 0 0 0 0 -27.042386784493601 -1.3482737589357043 0 -1.3482737589357043 11.333197363722547 0 0 0 0 -21.333640284090052 -6.7425727054416029 0 -6.7425727054416029 3.8944313631498062 0 0 0 0 -24.061781864783455 -10.215908220578761 0 -10.215908220578761 2.8331932276732914 0 0 0 0 -24.263732641240722 -11.130396565484943 0 -11.130396565484943 4.4193555033830307 0 0 0 0 -18.772848415467934 -5.043103209637593 0 -5.043103209637593 6.2884124491392868 0 0 0 0 -25.551258131804502 -5.3993836899974212 0 -5.3993836899974212 7.855679632193187 0 0 0 0 -22.047965404997285 -6.1037069925971537 0 -6.1037069925971537 6.8123132927653387 0 0 0 0 -19.481224480242076 -8.4337021572248432 0 -8.4337021572248432 5.113329550632443 0 0 0 0 -18.006794946660648 -6.9111176059218451 0 -6.9111176059218451 3.0650638023607826 0 0 0 0 -17.176548501007659 -4.4844649899704336 0 -4.4844649899704336 5.3764655256368314 0 0 0 0 -16.884980453799926 -4.5102568280683499 0 -4.5102568280683499 5.2645645491841151 0 0 0 0 -4.9365234002093379 2.1709675244365498 0 2.1709675244365498 3.9599767067361267 0 0 0 0 -10.095398242700924 2.9674738056345973 0 2.9674738056345973 6.2545844054443478 0 0 0 0 -12.970503640640345 -2.2617628012080786 0 -2.2617628012080786 4.8412934814682558 0 0 0 0 -17.719043361640047 -2.2455083970282885 0 -2.2455083970282885 7.0938123488895144 0 0 0 0 -13.369647251618687 0.22193626186816573 0 0.22193626186816573 6.6771464334497068 0 0 0 0 -20.685475117912915 -3.0739189355583676 0 -3.0739189355583676 9.2790010173744122 0 0 0 0 -14.941160478163738 -0.27520813565240587 0 -0.27520813565240587 7.7870513652528643 0 0 0 0 -13.754989350267806 -0.55885111358702488 0 -0.55885111358702488 6.2822231441859913 0 0 0 0 -13.61596542128985 1.9125152382960451 0 1.9125152382960451 9.2527956079134128 0 0 0 0 -0.078011158916622136 0.15391930600392323 0 0.15391930600392323 0.055680657722992688 0 0 0 0 -22.034492885449254 -4.0591348032434666 0 -4.0591348032434666 7.4229827617315891 0 0 0 0 -26.8557737439628 -20.673646214496557 0 -20.673646214496557 -7.3446583469137749 0 0 0 0 -17.556655000378214 2.5345587784411236 0 2.5345587784411236 9.5846147509012098 0 0 0 0 -20.324037553076323 -0.05628012574402419 0 -0.05628012574402419 6.9480393576707229 0 0 0 0 -12.332894157749251 -0.73017181866208603 0 -0.73017181866208603 5.705532896305499 0 0 0 0 -19.049737476892915 -10.239962826624975 0 -10.239962826624975 -6.8095007783081201 0 0 0 0 -17.748551602396446 -0.15183652064723674 0 -0.15183652064723674 -8.2401365710383061 0 0 0 0 -15.961027799991825 -11.759710231055919 0 -11.759710231055919 -14.71479341106226 0 0 0 0 -4.8076013272534865 2.7122075931667826 0 2.7122075931667826 3.1597025627108106 0 0 0 0 -2.0034406607281254 -0.47564373630462797 0 -0.47564373630462797 -0.47405244035781902 0 0 0 0 -1.1416938679417399 14.488027696500652 0 14.488027696500652 5.8842251739666835 0 0 0 0 -31.39538387716766 -16.470931768659341 0 -16.470931768659341 1.1198780601545195 0 0 0 0 -37.482501095075577 -13.810655809572076 0 -13.810655809572076 -8.8038988408696 0 0 0 0 -13.832133348157697 3.3542405760349823 0 3.3542405760349823 11.619728365774563 0 0 0 0 -11.440038204147868 -1.7146003095885192 0 -1.7146003095885192 -0.9547676187785612 0 0 0 0 -31.068398179069163 -0.81877946997494178 0 -0.81877946997494178 4.7828239073989778 0 0 0 0 -4.3582154571133742 4.2694431765876857 0 4.2694431765876857 1.5887255688774076 0 0 0 0 -17.714738605727234 -0.089144980658318218 0 -0.089144980658318218 6.1251034914628804 0 0 0 0 -11.214825818617101 -2.5114100785460778 0 -2.5114100785460778 8.5270917834184843 0 0 0 0 -7.0831773160994089 7.1789601417239624 0 7.1789601417239624 5.6767507882208292 0 0 0 0 -7.4099615030647783 5.7187216954072255 0 5.7187216954072255 10.593991417655388 0 0 0 0 -4.9379709651154826 3.4387156486826598 0 3.4387156486826598 5.5087780605982744 0 0 0 0 -3.614755273426681 10.616524351671217 0 10.616524351671217 7.5253973556780238 0 0 0 0 -1.5067757173787868 7.022391165709962 0 7.022391165709962 10.717235230417032 0 0 0 0 -2.6203375625982517 8.2008845212904475 0 8.2008845212904475 11.524818004504958 0 0 0 0 -1.9797948880407148 9.0508433213422848 0 9.0508433213422848 7.5395919228017192 0 0 0 0 1.0682625442632343 6.1822353974965267 0 6.1822353974965267 7.4166148301967496 0 0 0 0 -1.5409390731379062 7.6155370357889183 0 7.6155370357889183 9.6031671934827045 0 0 0 0 0.086495082325200201 8.7317765236088576 0 8.7317765236088576 3.654822223537451 0 0 0 0 -1.0312548185320338 8.0489350546799869 0 8.0489350546799869 6.9584217841549503 0 0 0 0 -0.85401504970104725 8.3168199511215448 0 8.3168199511215448 4.471495064210103 0 0 0 0 1.5241977139116898 11.270806399016863 0 11.270806399016863 11.06215419181234 0 0 0 0 -1.1381879651487452 6.1699333201756872 0 6.1699333201756872 10.110671074145777 0 0 0 0 0.97647985339381904 9.0365263077058167 0 9.0365263077058167 6.5148388208300503 0 0 0 0 4.9701775779280979 7.0213979842773711 0 7.0213979842773711 7.4675576969864323 0 0 0 0 2.5972127568245469 5.6622268854497122 0 5.6622268854497122 -0.039351069669635308 0 0 0 0 -21.125359437406814 25.159012840714922 0 25.159012840714922 18.406306093267016 0 0 0 0 -28.156709046607375 0.27576116273064599 0 0.27576116273064599 52.224822442640061 0 0 0 0 15.513207432052241 -9.44007373276213 0 -9.44007373276213 16.731550722003306 0 0 0 0 0.98963493971723437 15.249032557234102 0 15.249032557234102 -3.8888702822902701 0 0 0 0 0.24635405362564766 0.15119811556303264 0 0.15119811556303264 0.1425790698272088 0 0 0 0 -1.8549363657646154 -31.12110190966515 0 -31.12110190966515 49.54414091716751 0 0 0 0 -8.717071246847695 11.928399373438268 0 11.928399373438268 25.970766819175935 0 0 0 0 -0.51260507950428291 13.153986899369556 0 13.153986899369556 7.3664022299245175 0 0 0 0 -4.342383601876918 -26.386164837115103 0 -26.386164837115103 18.309067069729117 0 0 0 0 -14.515184799736062 -10.526278787955277 0 -10.526278787955277 -5.50114532367121 0 0 0 0 14.191588501101648 -12.097472197793657 0 -12.097472197793657 -22.664159031431097 0 0 0 0 -2.4652077955342975 3.1310345912032176 0 3.1310345912032176 -28.268613300841011 0 0 0 0 0.021895682449525111 -10.043340021983793 0 -10.043340021983793 -13.285111784357127 0 0 0 0 -11.622030210291086 -14.220300765887373 0 -14.220300765887373 -19.727130417652802 0 0 0 0 -33.034036039987996 0.19352063242703821 0 0.19352063242703821 4.0717130129160068 0 0 0 0 -17.825966261305553 30.115409255475271 0 30.115409255475271 -4.6755227890998867 0 0 0 0 -1.1681092416704173 -1.365166616026831 0 -1.365166616026831 1.0496155015587636 0 0 0 0 -5.4637759489969397 2.6524820927153181 0 2.6524820927153181 -0.46813522572538058 0 0 0 0 -13.71995570133322 15.227116312081137 0 15.227116312081137 15.652989990711376 0 0 0 0 -12.482396422056581 9.3746955370584857 0 9.3746955370584857 -21.12280224631786 0 0 0 0 -30.139859529299429 19.712617882531731 0 19.712617882531731 -5.0610936150087582 0 0 0 0 -2.6572565496896794 0.5747993076918283 0 0.5747993076918283 -0.40583409984608676 0 0 0 0 -5.5626384582670898 2.6669558515075988 0 2.6669558515075988 0.79482028285560147 0 0 0 0 -13.805416070974942 -0.38241580379347084 0 -0.38241580379347084 -14.095135477156191 0 0 0 0 -17.39990725687727 -3.9070257817651282 0 -3.9070257817651282 -1.920356793014605 0 0 0 0 -37.28937486905761 3.5125331343029984 0 3.5125331343029984 0.6027352790039231 0 0 0 0 -8.4395214118845221 0.41011596425565 0 0.41011596425565 1.070263542803001 0 0 0 0 -22.186453867138198 18.847662398069417 0 18.847662398069417 -16.787723877301573 0 0 0 0 19.618255902966894 3.1088885045553525 0 3.1088885045553525 -10.630697238846494 0 0 0 0 -18.15697072077046 -4.9828114019007899 0 -4.9828114019007899 1.1611212730304032 0 0 0 0 -3.6655866527831273 0.43302951471749407 0 0.43302951471749407 0.65471514572545275 0 0 0 0 20.686473432410594 4.974875377809596 0 4.974875377809596 -18.469178164612856 0 0 0 0 -20.403385524148462 21.041060337302099 0 21.041060337302099 -14.967180490929884 0 0 0 0 -12.262547601336337 5.8374773764811039 0 5.8374773764811039 3.5986539986091088 0 0 0 0 11.734265397648187 17.500336664968671 0 17.500336664968671 -3.1258395543246706 0 0 0 0 -18.66693588745261 6.6834251713514732 0 6.6834251713514732 15.460013145697701 0 0 0 0 -3.4028094797146657 2.1901608664568597 0 2.1901608664568597 1.8048265845880174 0 0 0 0 -19.723514187243836 -9.9620636042606066 0 -9.9620636042606066 -9.8877402019838883 0 0 0 0 -16.39341994611209 -19.697291375480702 0 -19.697291375480702 -7.7551352631021686 0 0 0 0 -3.1343833210364744 0.85502759991377841 0 0.85502759991377841 -0.0047623294806169447 0 0 0 0 -484.66273824504788 16.902854893515922 0 16.902854893515922 80.104376766750789 0 0 0 0 -361.03413552486472 3.6348693982464368 0 3.6348693982464368 51.936696973629623 0 0 0 0 -354.59652980338683 37.100872785886651 0 37.100872785886651 52.500056162682256 0 0 0 0 -478.99091934972557 -28.594528808084732 0 -28.594528808084732 24.322465477122492 0 0 0 0 -499.97727709001265 -8.4879775631056376 0 -8.4879775631056376 82.477470177994036 0 0 0 0 -454.6865033634972 -25.99783850278768 0 -25.99783850278768 60.560485653356366 0 0 0 0 -432.39361139409084 7.7375143864983649 0 7.7375143864983649 67.196067358367088 0 0 0 0 -344.86531835220785 -32.168710255406978 0 -32.168710255406978 29.627828620481878 0 0 0 0 -335.53485363400114 -17.076628894667891 0 -17.076628894667891 39.819818758237545 0 0 0 0 -281.69772910496977 -83.492037396210009 0 -83.492037396210009 17.844250846650311 0 0 0 0 -83.386371632487226 -19.067250513981293 0 -19.067250513981293 -41.70226931369271 0 0 0 0 214.85276642736062 -159.838045831682 0 -159.838045831682 152.15274210301214 0 0 0 0 -273.03668207880946 -18.461169796589758 0 -18.461169796589758 28.175313110887458 0 0 0 0 -186.43331707389461 -91.069896616193006 0 -91.069896616193006 7.2798507937848171 0 0 0 0 -245.63222070748907 -14.245649904488801 0 -14.245649904488801 22.001564550125778 0 0 0 0 -35.359211620058318 4.3480221774657366 0 4.3480221774657366 26.451199832210023 0 0 0 0 -41.512054982234986 4.6516443907281655 0 4.6516443907281655 25.536023519831474 0 0 0 0 -36.104566251104188 15.074930192622276 0 15.074930192622276 33.996558725258183 0 0 0 0 -71.321821896548499 21.518889571427394 0 21.518889571427394 37.470423057395692 0 0 0 0 -36.861963769707472 19.07573276183723 0 19.07573276183723 28.752560342948527 0 0 0 0 -55.061575824183819 36.063080164007715 0 36.063080164007715 45.04752488200117 0 0 0 0 32.107223106630045 -37.634345616048591 0 -37.634345616048591 73.849627183181553 0 0 0 0 13.508323193815158 49.799641016032695 0 49.799641016032695 40.099614394210221 0 0 0 0 -12.41357460879226 48.262265970515045 0 48.262265970515045 47.807598438026048 0 0 0 0 -18.173956950773572 24.803972807846158 0 24.803972807846158 39.025685366400438 0 0 0 0 0.65855123719666153 40.512895661552335 0 40.512895661552335 41.923313895886388 0 0 0 0 -14.502257091618958 30.467634165711274 0 30.467634165711274 42.855304291919396 0 0 0 0 -37.654286236302141 31.444332013889721 0 31.444332013889721 52.820335248089577 0 0 0 0 -24.938626217780438 13.7513682376687 0 13.7513682376687 33.017999728478344 0 0 0 0 -30.584092172748569 20.037948532294777 0 20.037948532294777 38.364388669086622 0 0 0 0 -3.3407292276272376 3.0753416739296302 0 3.0753416739296302 -0.45451647729024364 0 0 0 0 -55.371218837663037 -15.530408003153809 0 -15.530408003153809 -8.095454936664737 0 0 0 0 3.043954005535852 -1.4227334640041818 0 -1.4227334640041818 36.488608189134879 0 0 0 0 -21.517316704963378 19.474767124561573 0 19.474767124561573 17.011403457229662 0 0 0 0 -20.0564560769526 24.152646066656011 0 24.152646066656011 29.907943559909171 0 0 0 0 -17.178728521133962 22.567670456449903 0 22.567670456449903 28.82660754954388 0 0 0 0 -12.127338960803172 26.776116638858767 0 26.776116638858767 13.755942934783661 0 0 0 0 -10.014472063907306 27.378164149958209 0 27.378164149958209 12.230977909994351 0 0 0 0 -12.532307841604052 21.382343170135499 0 21.382343170135499 24.357551953713632 0 0 0 0 7.0028523878736451 20.55491216308954 0 20.55491216308954 23.735196430958382 0 0 0 0 23.263724081123655 33.67816286178801 0 33.67816286178801 24.237426979592101 0 0 0 0 -5.6531218953314237 26.292133155696348 0 26.292133155696348 0.098067840343787793 0 0 0 0 -77.053264458292688 -16.560444145742167 0 -16.560444145742167 49.579588006872655 0 0 0 0 133.73073838237906 -28.667370564934856 0 -28.667370564934856 7.1425179428470074 0 0 0 0 -5.2495609554371185 25.16131239625588 0 25.16131239625588 -18.325977904734373 0 0 0 0 0.98050006157425784 -0.11124317232212366 0 -0.11124317232212366 -0.75026560995201441 0 0 0 0 -10.630611063268589 19.872656444443862 0 19.872656444443862 0.71145286963701437 0 0 0 0 -14.735097394550394 19.074538214418737 0 19.074538214418737 7.1272616073697463 0 0 0 0 -11.067323301685974 25.000116993587383 0 25.000116993587383 -2.5988351973937256 0 0 0 0 -11.700035412159195 11.565797058931537 0 11.565797058931537 -10.363747920772767 0 0 0 0 -1.8732986013928894 14.529258517447289 0 14.529258517447289 -36.851898998283218 0 0 0 0 -10.429847153514856 13.577163138458332 0 13.577163138458332 -10.565834938277021 0 0 0 0 -16.184937841415376 21.450022425652932 0 21.450022425652932 16.591779842831116 0 0 0 0 -88.140186749321401 35.463188278406115 0 35.463188278406115 -31.041872242473801 0 0 0 0 -252.38860412967551 64.044959019037847 0 64.044959019037847 13.802057106867409 0 0 0 0 -215.54513764838157 21.378349523570904 0 21.378349523570904 -1.094139994739578 0 0 0 0 -177.68428836113435 24.533075557867932 0 24.533075557867932 -8.9598924553169468 0 0 0 0 -178.77476010450982 27.130449152628827 0 27.130449152628827 -13.110942670370946 0 0 0 0 -141.10012666293551 25.195773214202632 0 25.195773214202632 -13.636062568556287 0 0 0 0 -101.70145517488709 22.766169216727405 0 22.766169216727405 16.87468618886021 0 0 0 0 -142.58665845081759 64.400699571986905 0 64.400699571986905 -12.755682549529865 0 0 0 0 -130.28243641256131 59.655849956649064 0 59.655849956649064 -9.1341149795143224 0 0 0 0 -76.187023888323893 13.987440773427579 0 13.987440773427579 8.6937301418099793 0 0 0 0 -207.06552927284702 54.901897312306843 0 54.901897312306843 13.317150926738972 0 0 0 0 -199.59811573356819 37.31398370857891 0 37.31398370857891 14.51178963124741 0 0 0 0 -168.88646121263537 48.320066990322559 0 48.320066990322559 4.8512047985158233 0 0 0 0 -87.900829689583247 110.40388298573497 0 110.40388298573497 -81.254914165858338 0 0 0 0 -3.485360395015288 -0.73698000541689113 0 -0.73698000541689113 -0.38766531265867088 0 0 0 0 -46.489767301553002 -9.5847846360567388 0 -9.5847846360567388 -31.029343180212738 0 0 0 0 -61.64721575938529 -26.147806023056802 0 -26.147806023056802 -1.1689413858951809 0 0 0 0 -41.383289313153909 5.8733347924492527 0 5.8733347924492527 8.2098681798778443 0 0 0 0 -61.48221458574335 -22.591926445366475 0 -22.591926445366475 12.52681037014904 0 0 0 0 -20.48091749768173 -6.0926559283448185 0 -6.0926559283448185 10.777710537558917 0 0 0 0 -3.2165415476083581 0.34556522696124148 0 0.34556522696124148 -4.5056879010463149 0 0 0 0 -4.2949946192075004 0.19999491757948817 0 0.19999491757948817 0.51446881886562323 0 0 0 0 -14.44256752519459 3.0556733377015775 0 3.0556733377015775 -11.878809600754039 0 0 0 0 -8.4918608725985933 6.3232364586984087 0 6.3232364586984087 4.3181793065826426 0 0 0 0 -7.4221577027892636 2.4781947361607877 0 2.4781947361607877 5.3713257578407365 0 0 0 0 -9.8799318435875065 2.5199611059998444 0 2.5199611059998444 3.578606527682922 0 0 0 0 -10.059096434908497 4.5122402926345444 0 4.5122402926345444 -17.77838241546209 0 0 0 0 -15.573671769924431 -7.0409004248752254 0 -7.0409004248752254 -29.122000204945834 0 0 0 0 -6.2690109229227664 2.7947977142957958 0 2.7947977142957958 -0.08707105235638346 0 0 0 0 -4.4118504189096184 -0.69070748540459093 0 -0.69070748540459093 -0.63396171971798398 0 0 0 0 54.511639617660421 0.81407063306571104 0 0.81407063306571104 -12.437173507032412 0 0 0 0 3.5465508412071358 -35.263862528775455 0 -35.263862528775455 7.1114500508543053 0 0 0 0 -5.2030944322817128 3.1743844459630361 0 3.1743844459630361 0.89346033362596033 0 0 0 0 -7.9175246662016434 1.7569826206923267 0 1.7569826206923267 5.1477168944725236 0 0 0 0 -8.3186157679374446 0.86984064286616558 0 0.86984064286616558 3.2507719384548182 0 0 0 0 -8.8217764685978182 0.47074572090497213 0 0.47074572090497213 4.7073658962042373 0 0 0 0 -12.954385017556652 -3.9607892310653496 0 -3.9607892310653496 2.0314654688504916 0 0 0 0 -10.015146258954296 -3.1891873764836824 0 -3.1891873764836824 -1.1656962743768262 0 0 0 0 -8.9544415785294404 0.17888476196952752 0 0.17888476196952752 4.3557690296346436 0 0 0 0 -10.828574057994995 -1.5267233572362295 0 -1.5267233572362295 2.7406299881448426 0 0 0 0 -11.653541754349931 -22.115472846461529 0 -22.115472846461529 49.436403808588238 0 0 0 0 -5.530791852471256 -3.7417834886093031 0 -3.7417834886093031 -2.8091074600843919 0 0 0 0 -25.695373955251625 -11.122142629305472 0 -11.122142629305472 -4.2260562812948592 0 0 0 0 3.3861229518795994 2.9787286544838025 0 2.9787286544838025 42.368556862285004 0 0 0 0 -3.3920305614437796 -1.1315433701740962 0 -1.1315433701740962 -0.18829002086473334 0 0 0 0 -33.450679131473478 -25.47282813656463 0 -25.47282813656463 50.005333840573712 0 0 0 0 -17.654325021327082 8.1106850631397265 0 8.1106850631397265 41.695371467015775 0 0 0 0 -10.199773778795233 -33.3028462399242 0 -33.3028462399242 -76.310792122026101 0 0 0 0 -9.1333458796684681 -5.0795829136576884 0 -5.0795829136576884 -5.5712977770792094 0 0 0 0 -1.6625778593836573 -0.012485556925523333 0 -0.012485556925523333 -0.011737161954744696 0 0 0 0 -419.82279006929775 239.83634281077298 0 239.83634281077298 -122.02694651687776 0 0 0 0 -615.20179959488564 38.63981943233442 0 38.63981943233442 41.865323341371365 0 0 0 0 -389.15912261561249 43.057817617055292 0 43.057817617055292 35.02067581360987 0 0 0 0 -390.78229699863914 106.72182498102667 0 106.72182498102667 35.920661446174343 0 0 0 0 -500.10303174067917 6.1168265678408344 0 6.1168265678408344 -2.2385510856063715 0 0 0 0 -501.33420055371732 -30.714342830083986 0 -30.714342830083986 -112.18773806172915 0 0 0 0 -643.47742833548932 -96.46763129982962 0 -96.46763129982962 -142.28508376084037 0 0 0 0 -499.98134812325054 -84.866275443390634 0 -84.866275443390634 -264.74526843122368 0 0 0 0 -2.0925037907126942 -1.6442715558752659 0 -1.6442715558752659 -1.5191035843952423 0 0 0 0 -72.297102239390171 -208.4146966065413 0 -208.4146966065413 -247.70139642020004 0 0 0 0 -621.28151804656545 57.547154913169777 0 57.547154913169777 29.442166430818546 0 0 0 0 -613.16166972849999 -238.73215300288092 0 -238.73215300288092 -66.997794744144471 0 0 0 0 -534.07887483493994 14.036425805815568 0 14.036425805815568 -128.98458158474853 0 0 0 0 -499.90738462772026 -101.92811162323748 0 -101.92811162323748 -44.593010339559655 0 0 0 0 -262.43169311788188 -155.99718415401733 0 -155.99718415401733 -108.49537572590935 0 0 0 0 -497.42503870018635 -74.408220485682591 0 -74.408220485682591 24.270786669909103 0 0 0 0 -322.572862951996 -51.230864385455718 0 -51.230864385455718 23.1894545112999 0 0 0 0 -156.03063170694674 -109.13000978416848 0 -109.13000978416848 -34.630729917003777 0 0 0 0 -158.42113181805269 -99.046029002201522 0 -99.046029002201522 -41.679934401889206 0 0 0 0 -229.58629952467354 -147.10517541229353 0 -147.10517541229353 -60.663473497676094 0 0 0 0 -341.75176134343246 -97.921230806620429 0 -97.921230806620429 5.2633860401857504 0 0 0 0 -264.03386082762819 -156.3739987501217 0 -156.3739987501217 -73.318185746792977 0 0 0 0 -145.63207767215744 -103.98958117487558 0 -103.98958117487558 -64.152052150383938 0 0 0 0 -145.53230673769616 -102.00319644535651 0 -102.00319644535651 -56.748432064213432 0 0 0 0 -46.913180911839575 -11.472340058781329 0 -11.472340058781329 -24.487599680650078 0 0 0 0 -40.218137505499044 -88.342613995135196 0 -88.342613995135196 -193.24112392673595 0 0 0 0 -14.870515679176229 14.341325039394036 0 14.341325039394036 -39.063010849269858 0 0 0 0 -17.376314238296629 -5.3788275538237542 0 -5.3788275538237542 -32.243928249311807 0 0 0 0 -51.410920667991661 -22.207530207973491 0 -22.207530207973491 49.885074531679038 0 0 0 0 -47.751287296501232 8.773148687868229 0 8.773148687868229 43.324801695803501 0 0 0 0 -29.188766185435043 8.3663804556722425 0 8.3663804556722425 21.782704907134303 0 0 0 0 -5.3557222055800366 25.649160754543573 0 25.649160754543573 -5.3979474158828964 0 0 0 0 -9.9556921635775222 3.3769750503672435 0 3.3769750503672435 6.6849038304966157 0 0 0 0 -5.4410293059298738 8.0310367328313674 0 8.0310367328313674 6.7626095595660445 0 0 0 0 -8.6205938739662997 -17.476284401607757 0 -17.476284401607757 -35.75611817918255 0 0 0 0 -41.997838082618387 -10.643986898551049 0 -10.643986898551049 2.9111138280643836 0 0 0 0 -28.939654916569737 -33.373804118528625 0 -33.373804118528625 -93.140912120916681 0 0 0 0 -89.71396332822917 -81.591118693837274 0 -81.591118693837274 -56.161109761361494 0 0 0 0 -77.833422783118635 -50.997753590258185 0 -50.997753590258185 -19.635732475401589 0 0 0 0 -57.491260000958164 -56.404352151975147 0 -56.404352151975147 -33.274682272715246 0 0 0 0 -25.82857562754657 -19.240089033057743 0 -19.240089033057743 -8.6977457018920177 0 0 0 0 -49.80609445904247 -45.331889088620272 0 -45.331889088620272 -17.620586081626357 0 0 0 0 -67.572772757089865 -62.69255949778276 0 -62.69255949778276 -19.245450011413386 0 0 0 0 -70.83341539325761 -46.095782772914077 0 -46.095782772914077 -4.5259999359015026 0 0 0 0 -116.4529162739417 -82.90739887744337 0 -82.90739887744337 -15.664996232972243 0 0 0 0 -114.60743727939871 -92.930048937855588 0 -92.930048937855588 -34.350146519638756 0 0 0 0 -80.797085426594407 -74.940798872246958 0 -74.940798872246958 -37.457474754742989 0 0 0 0 7.0397053210758713 26.051388452889 0 26.051388452889 35.440840840537817 0 0 0 0 -27.637702812868611 -24.094499606169336 0 -24.094499606169336 53.688029370362329 0 0 0 0 -2.8862826936046506 -2.8778465221088743 0 -2.8778465221088743 1.7857678515223299 0 0 0 0 -29.445452320862842 -10.366214865281222 0 -10.366214865281222 21.629289265796722 0 0 0 0 -44.635216912394071 -42.040308035145209 0 -42.040308035145209 2.8113684264193779 0 0 0 0 -39.06155321218921 -16.654889438102629 0 -16.654889438102629 13.456304247943805 0 0 0 0 -9.0294987440638579 -14.388345976798206 0 -14.388345976798206 -2.438401846237582 0 0 0 0 -32.135345869606113 -18.527471417872817 0 -18.527471417872817 3.9078718677257598 0 0 0 0 -18.44564650243592 -1.0753128540945909 0 -1.0753128540945909 9.0880958166878827 0 0 0 0 -19.1552882182433 -12.833888626929422 0 -12.833888626929422 9.4822672520211881 0 0 0 0 -5.6072917629590506 13.483646869700294 0 13.483646869700294 23.272986489414109 0 0 0 0 -21.505480119893718 -2.4740715895636072 0 -2.4740715895636072 17.035707609489918 0 0 0 0 -16.46689894404831 -3.6682090589726943 0 -3.6682090589726943 0.41537610837866756 0 0 0 0 -11.854794444771024 3.3788629356103748 0 3.3788629356103748 5.2813804072706061 0 0 0 0 -25.560495602968331 8.3949957978055636 0 8.3949957978055636 11.629887975876045 0 0 0 0 -15.874216561635876 3.5305648546587918 0 3.5305648546587918 13.072533690750561 0 0 0 0 -14.313863842801766 8.8060534097959362 0 8.8060534097959362 9.5693656755001939 0 0 0 0 -10.584419806237825 3.7827393377055167 0 3.7827393377055167 5.896428990093467 0 0 0 0 1.5609128680980859 20.836584264006628 0 20.836584264006628 0.47707670864451757 0 0 0 0 -6.5868167840267233 4.6535719903797599 0 4.6535719903797599 3.8467959276811143 0 0 0 0 -15.741831041994374 7.0385907201570035 0 7.0385907201570035 10.328860945052668 0 0 0 0 -13.027107127890304 4.9612688654660815 0 4.9612688654660815 5.0262991958758221 0 0 0 0 -35.800304248125485 15.117254068153443 0 15.117254068153443 6.8008038215465376 0 0 0 0 -16.027840408982684 8.5492350615432713 0 8.5492350615432713 7.8954310956983136 0 0 0 0 -14.388265146666669 15.234861834592422 0 15.234861834592422 -3.2265107146408809 0 0 0 0 -5.9282329727690808 9.563826935370102 0 9.563826935370102 -3.3920956099416344 0 0 0 0 -0.36361472898489389 0.20621434163779773 0 0.20621434163779773 -0.15107584594178913 0 0 0 0 1.3691237963266758 5.8472726171146974 0 5.8472726171146974 -1.5634593192398825 0 0 0 0 -6.0694965814277566 0.22696398820232844 0 0.22696398820232844 4.0141980681669338 0 0 0 0 -7.9620783728241804 1.2417844236209703 0 1.2417844236209703 3.9532491501011009 0 0 0 0 -8.1102025158438664 1.0895722553019596 0 1.0895722553019596 5.171892883039618 0 0 0 0 -8.4994228925443167 1.770505004649749 0 1.770505004649749 4.3557306613114406 0 0 0 0 -7.6037845174014365 3.0071604453257805 0 3.0071604453257805 1.8575370811308858 0 0 0 0 -7.8416412105566451 3.1473534921083228 0 3.1473534921083228 7.9906853428713021 0 0 0 0 -6.3080103491111004 2.7110772595572143 0 2.7110772595572143 6.4570170739166315 0 0 0 0 -7.5156844519015067 3.6853158926073775 0 3.6853158926073775 5.9965934577062399 0 0 0 0 -8.0492360870575794 1.3160545221044231 0 1.3160545221044231 4.7805035256930068 0 0 0 0 -27.553377548316945 -7.2696389650260329 0 -7.2696389650260329 25.636898472482699 0 0 0 0 -10.457752149864056 2.0552948201478385 0 2.0552948201478385 7.4736806587274875 0 0 0 0 -6.1981883862072209 4.0695814378132127 0 4.0695814378132127 7.948726205829189 0 0 0 0 -7.8579156064842444 1.5676425787343291 0 1.5676425787343291 2.1856732505107206 0 0 0 0 -6.7435660305127385 1.3103419957069491 0 1.3103419957069491 9.359986921540667 0 0 0 0 -7.9735322524575167 1.9803545753366052 0 1.9803545753366052 7.5852827077154927 0 0 0 0 -6.8906137649437369 2.9360729568754778 0 2.9360729568754778 7.4364279616652311 0 0 0 0 -12.016970880574263 7.5648360257627587 0 7.5648360257627587 -7.6666100858565187 0 0 0 0 -7.5227465433090401 2.7930985482830692 0 2.7930985482830692 6.8622198303844471 0 0 0 0 -7.6560519189843035 1.6589191536756971 0 1.6589191536756971 6.2531939090251853 0 0 0 0 -9.3815725777712942 0.86739790889123469 0 0.86739790889123469 6.923011198933068 0 0 0 0 -8.6262164769341325 -0.38722807065789766 0 -0.38722807065789766 4.0408478580935707 0 0 0 0 -39.661409168682439 22.684967422573507 0 22.684967422573507 -5.7647639557206958 0 0 0 0 12.671153257791048 8.7585975380128502 0 8.7585975380128502 -17.377907346233883 0 0 0 0 8.7198108920438244 -14.212970796473961 0 -14.212970796473961 17.82579391089655 0 0 0 0 -0.24514474358485927 -0.011229153841632922 0 -0.011229153841632922 0.3951591206029868 0 0 0 0 -21.989121744169097 7.6874061150636379 0 7.6874061150636379 3.5561366650356163 0 0 0 0 -11.929051425374382 9.6253090808155619 0 9.6253090808155619 6.7788327648901472 0 0 0 0 -15.368253850963811 17.756726873235841 0 17.756726873235841 5.3971635266764189 0 0 0 0 -14.653014725108733 13.50962657898901 0 13.50962657898901 16.704758595575555 0 0 0 0 -14.034542977024103 12.584743540160204 0 12.584743540160204 4.8078258223391117 0 0 0 0 -13.177606443634431 13.377344370343685 0 13.377344370343685 9.205894117732015 0 0 0 0 -2.0883715624813419 1.282460041833863 0 1.282460041833863 -0.15711684287936034 0 0 0 0 0.98182293952868349 4.1771163559507265 0 4.1771163559507265 13.763552175184898 0 0 0 0 -22.744900949306611 5.3766711188243335 0 5.3766711188243335 22.072740156071291 0 0 0 0 -21.32275135637974 7.5756309618581668 0 7.5756309618581668 25.251928401240207 0 0 0 0 -24.987458605606662 12.887549562940762 0 12.887549562940762 26.282329165764224 0 0 0 0 -20.650716630862007 17.294913319935752 0 17.294913319935752 21.294466085820588 0 0 0 0 -31.724380976025714 11.409286630405006 0 11.409286630405006 31.17623676397011 0 0 0 0 -27.290883966256843 13.270134901806969 0 13.270134901806969 28.119146714723797 0 0 0 0 -26.107173508677079 8.1097142038964876 0 8.1097142038964876 25.34881389770544 0 0 0 0 -28.669718216692672 5.9745704207052057 0 5.9745704207052057 23.64051929547918 0 0 0 0 -23.010747370024092 -1.1818768381828804 0 -1.1818768381828804 22.706001694854535 0 0 0 0 -10.662299753506886 3.6871451565182269 0 3.6871451565182269 21.825866870121786 0 0 0 0 -25.581918255307755 0.58681925104838228 0 0.58681925104838228 15.359375935876869 0 0 0 0 -31.030114290731944 0.19511783147279971 0 0.19511783147279971 22.60101282450853 0 0 0 0 -32.375231603129578 -5.2236611219816496 0 -5.2236611219816496 11.624091451078016 0 0 0 0 -33.134018840406497 2.0661887009374595 0 2.0661887009374595 14.698510487544979 0 0 0 0 -28.143519553319493 0.13150105941792845 0 0.13150105941792845 15.396398182933581 0 0 0 0 -31.429066919108664 6.5607764483848428 0 6.5607764483848428 19.807777349218782 0 0 0 0 -38.837180749320396 0.91777472631667933 0 0.91777472631667933 18.96740035877184 0 0 0 0 -34.602108935290744 4.1174591153342135 0 4.1174591153342135 24.43286954842381 0 0 0 0 -30.942056645721095 -19.482431487910787 0 -19.482431487910787 42.17516958769798 0 0 0 0 -21.882208440119939 -7.3017919786641414 0 -7.3017919786641414 20.315127216961059 0 0 0 0 -8.0852411570413096 -31.794802418393203 0 -31.794802418393203 33.503766473294377 0 0 0 0 -20.147548008884769 -13.986813612056778 0 -13.986813612056778 29.984014747977199 0 0 0 0 -25.996386301783787 -11.007867157350944 0 -11.007867157350944 16.986570394367845 0 0 0 0 -37.151256499055307 -4.7922543061087026 0 -4.7922543061087026 15.372314063302696 0 0 0 0 -23.480097480041877 -7.5257195151099836 0 -7.5257195151099836 17.826475484690036 0 0 0 0 -15.438455752819209 -14.560872539969353 0 -14.560872539969353 -0.087975376495933233 0 0 0 0 -22.237333753659414 -16.14899854286239 0 -16.14899854286239 7.419229821231113 0 0 0 0 -31.918379089616792 -9.5755138336451751 0 -9.5755138336451751 6.0561325889060882 0 0 0 0 -23.002770088934994 -14.050429640853395 0 -14.050429640853395 0.28216819570218377 0 0 0 0 -40.559479792085767 -10.494634394592936 0 -10.494634394592936 5.6306692630905673 0 0 0 0 -41.851111901211766 -8.8772291404926307 0 -8.8772291404926307 4.2860785397581367 0 0 0 0 -38.749729817158368 -18.083373959072674 0 -18.083373959072674 0.89277143953302129 0 0 0 0 -43.243760120835759 -16.615694469209075 0 -16.615694469209075 0.41726820925862285 0 0 0 0 -53.072521481432887 -11.568471050194916 0 -11.568471050194916 -1.0502293347369687 0 0 0 0 -55.975950051881341 -26.611475642978519 0 -26.611475642978519 -7.3308765152064552 0 0 0 0 -44.723840960574307 -14.035241771509504 0 -14.035241771509504 -1.1274065908365856 0 0 0 0 -2.4532041264599789 0.49092148512704004 0 0.49092148512704004 0.00072889215598337387 0 0 0 0 -9.2887998257926334 0.1158153728075888 0 0.1158153728075888 1.9518107711419492 0 0 0 0 -7.6892276665957979 1.283349302501847 0 1.283349302501847 4.5055367127657178 0 0 0 0 -28.044415081954867 -8.1093428081532295 0 -8.1093428081532295 10.64016096090694 0 0 0 0 -7.2353213835353927 1.1300611459133734 0 1.1300611459133734 2.3622737553454272 0 0 0 0 2.7371113212116001 -4.7890283569629801 0 -4.7890283569629801 3.3280174404313474 0 0 0 0 -8.4478660424256304 0.92278528731585396 0 0.92278528731585396 7.1840237907391042 0 0 0 0 -25.597481958233857 -6.9862494933561265 0 -6.9862494933561265 0.21449456384118548 0 0 0 0 -39.861458072966343 -0.53398363817581185 0 -0.53398363817581185 0.08724731838333355 0 0 0 0 -46.091265761984687 -11.548019368220935 0 -11.548019368220935 -7.9711584100991786 0 0 0 0 -47.62213626523544 -12.985191952681021 0 -12.985191952681021 -0.16235543614061498 0 0 0 0 -45.476171325536598 -6.5527425039840637 0 -6.5527425039840637 4.995828805144356 0 0 0 0 -38.265948075209053 -7.0843856154571085 0 -7.0843856154571085 4.2299773494941064 0 0 0 0 -42.858496806627045 -6.8233775314322429 0 -6.8233775314322429 7.1180823929621511 0 0 0 0 -35.554890290378353 -4.8435461955685923 0 -4.8435461955685923 6.642618176021589 0 0 0 0 -38.74679229365961 -6.8913568819356499 0 -6.8913568819356499 6.6826938385295307 0 0 0 0 -31.980643556180439 -2.4504984371828868 0 -2.4504984371828868 3.1731516418260526 0 0 0 0 -26.153687701093077 -7.8731960631589573 0 -7.8731960631589573 4.961257344890555 0 0 0 0 -14.441414626453707 -10.587452558118059 0 -10.587452558118059 5.6421754526363657 0 0 0 0 -20.928602866238407 -3.7221952194818186 0 -3.7221952194818186 3.416578421049735 0 0 0 0 -8.8941641969904595 -5.7716192989489628 0 -5.7716192989489628 3.9568449449201069 0 0 0 0 3.8282626737561714 -14.016291898771243 0 -14.016291898771243 4.4119579652890479 0 0 0 0 -3.7863102793448888 -14.758708019820574 0 -14.758708019820574 4.7805711894437337 0 0 0 0 8.2974507183218975 -8.2844076151065451 0 -8.2844076151065451 0.67693032705903988 0 0 0 0 -25.53500900407937 -7.8952492106751464 0 -7.8952492106751464 4.792898152402131 0 0 0 0 -12.916750342235446 -4.2691486029469274 0 -4.2691486029469274 -2.6580437352129138 0 0 0 0 -5.7639006070662617 -15.769658321088173 0 -15.769658321088173 -1.1547092728334007 0 0 0 0 -22.422955843674572 -2.9157100618683671 0 -2.9157100618683671 -4.2026860595493645 0 0 0 0 -4.1776207524135316 -12.154265909416239 0 -12.154265909416239 6.1802958140285682 0 0 0 0 15.011799357802147 -19.928792063976289 0 -19.928792063976289 -1.9411453768000229 0 0 0 0 -5.8927402880282784 -14.606471231834242 0 -14.606471231834242 7.045325043497769 0 0 0 0 -13.514249588783969 -20.937682588015946 0 -20.937682588015946 -7.1380027357789118 0 0 0 0 -5.8402787797826932 -13.81902463187896 0 -13.81902463187896 -1.1662530720536779 0 0 0 0 -30.339181586008181 -13.684916688648457 0 -13.684916688648457 -8.3887878859288776 0 0 0 0 -83.345938158190165 -29.511381087820951 0 -29.511381087820951 -6.6070883824954905 0 0 0 0 -26.74791356027481 -12.093258032584799 0 -12.093258032584799 -16.584163290959793 0 0 0 0 -57.880336833036608 7.0829333871593008 0 7.0829333871593008 -4.571501810386053 0 0 0 0 -48.525617159774015 -3.2463958366018062 0 -3.2463958366018062 14.614474087665712 0 0 0 0 -16.838252904663477 -10.180047884171472 0 -10.180047884171472 6.7629450795832327 0 0 0 0 -28.362895774607068 -15.081114182663327 0 -15.081114182663327 7.1282031842904416 0 0 0 0 -23.235769003349446 -10.61238391215312 0 -10.61238391215312 23.807261407328269 0 0 0 0 -9.2939583586412482 -13.758850259343831 0 -13.758850259343831 7.4873808472045766 0 0 0 0 -25.513259168625627 -4.1707119738344396 0 -4.1707119738344396 14.427883552007643 0 0 0 0 -16.413728606672976 -1.6674240311026551 0 -1.6674240311026551 13.782256528750167 0 0 0 0 -14.402566242789254 -3.0572682316124657 0 -3.0572682316124657 -0.60389211454764258 0 0 0 0 -25.710048627748506 -3.4830360294532738 0 -3.4830360294532738 15.759693361063171 0 0 0 0 -15.473825204468824 2.9693159136921849 0 2.9693159136921849 -2.5809406211559462 0 0 0 0 -13.476440248241488 -12.567192528714543 0 -12.567192528714543 -5.8751635616049498 0 0 0 0 1.8553040032377339 2.6971469944156183 0 2.6971469944156183 1.5568076232202284 0 0 0 0 0.55835797003021526 0.57154825423774014 0 0.57154825423774014 -1.7882410901867161 0 0 0 0 -1.3996712919313885 -0.49125489150995777 0 -0.49125489150995777 -0.67106195129932944 0 0 0 0 -16.577080833304692 3.5868579414768647 0 3.5868579414768647 3.7310866198920394 0 0 0 0 -2.9200667176810384 -0.01508983724971813 0 -0.01508983724971813 -1.8636793742099513 0 0 0 0 1.3452148679211575 -4.2796675326158038 0 -4.2796675326158038 -4.0145270029497624 0 0 0 0 2.574078246087538 -5.4386203990323452 0 -5.4386203990323452 -3.2032983127854777 0 0 0 0 10.741706045536148 -11.016434676491997 0 -11.016434676491997 -9.4064360198100303 0 0 0 0 0.93466310693626431 -1.0805388328188366 0 -1.0805388328188366 -1.2918839535705617 0 0 0 0 -11.331538006821575 -15.559152276970053 0 -15.559152276970053 11.959988586790359 0 0 0 0 -11.6497868061057 -3.3982211454124038 0 -3.3982211454124038 -1.1249024880983116 0 0 0 0 -3.9176124754262673 -14.012422805968981 0 -14.012422805968981 6.8912421218103646 0 0 0 0 -12.470667960018659 -19.921191033653599 0 -19.921191033653599 4.014988313016147 0 0 0 0 -6.3457434053194977 -6.224973227072562 0 -6.224973227072562 -3.3745592651236973 0 0 0 0 -1.4039615265506882 -19.416099458422906 0 -19.416099458422906 2.9485853868698086 0 0 0 0 6.9075235553358425 -0.038028365652053253 0 -0.038028365652053253 -8.9828672125536571 0 0 0 0 11.337147391222288 -3.931425673086153 0 -3.931425673086153 -7.8678615221124062 0 0 0 0 -0.76342446976184419 -15.335699137779699 0 -15.335699137779699 -11.223329014070259 0 0 0 0 -6.7426357993244892 2.2309915384585111 0 2.2309915384585111 -9.4534706606754071 0 0 0 0 14.885576548246377 -4.145017843790157 0 -4.145017843790157 -15.649604699293548 0 0 0 0 12.063350692330232 -0.57374060421710738 0 -0.57374060421710738 -26.130719254145106 0 0 0 0 -0.044091105782076312 0.22051321155236392 0 0.22051321155236392 0.11297215709583686 0 0 0 0 4.9121630189828238 -9.7476957147351868 0 -9.7476957147351868 8.2540999457403927 0 0 0 0 3.8571143106073578 -3.9085606328000324 0 -3.9085606328000324 -5.3033303529620071 0 0 0 0 7.212868519152039 -1.3359322436429011 0 -1.3359322436429011 -6.9823798366903134 0 0 0 0 2.0839009906492834 -2.7514992912496581 0 -2.7514992912496581 -5.5218197489701879 0 0 0 0 -0.38286345034498481 8.2358723820985205 0 8.2358723820985205 -14.643511338368796 0 0 0 0 -5.5623967470752618 9.70044431320283 0 9.70044431320283 -10.215146629489254 0 0 0 0 2.6179846431041938 1.5166233547803145 0 1.5166233547803145 -7.1843538598218402 0 0 0 0 -4.5084168191640401 3.4166777773501735 0 3.4166777773501735 0.60141659574389195 0 0 0 0 -33.978543839930438 21.712049796924475 0 21.712049796924475 -21.618754429749572 0 0 0 0 -9.6359217966986535 7.1483515395511006 0 7.1483515395511006 -8.8685271053243753 0 0 0 0 -12.746495171075992 14.915883072610413 0 14.915883072610413 -28.256437535460634 0 0 0 0 -30.578127584351932 -3.0386833734045808 0 -3.0386833734045808 -38.962141663510096 0 0 0 0 -45.36327678330332 -3.0453715383991948 0 -3.0453715383991948 -17.856442219924247 0 0 0 0 -6.4337893542692655 0.28130715231179693 0 0.28130715231179693 -25.005257528233415 0 0 0 0 -22.341459069244593 -10.657656779612353 0 -10.657656779612353 -30.502624533047879 0 0 0 0 -21.954532601554092 -13.148753532657508 0 -13.148753532657508 -16.812074109357241 0 0 0 0 -23.311208670393398 -11.457602982529352 0 -11.457602982529352 -8.2481923134496355 0 0 0 0 -5.1636529987541735 -6.3125891379053343 0 -6.3125891379053343 -19.8228345573757 0 0 0 0 -26.953454372132569 -2.3933718303094906 0 -2.3933718303094906 -26.594338058407061 0 0 0 0 -25.785245440366452 -18.001946439803987 0 -18.001946439803987 -24.60447866144797 0 0 0 0 -52.186937055533164 -11.707744636852325 0 -11.707744636852325 -6.6964197642852241 0 0 0 0 -30.410307152174028 -17.00281630089404 0 -17.00281630089404 -11.328574629404187 0 0 0 0 -17.493158179352349 -18.564036837212313 0 -18.564036837212313 -1.5375416452413333 0 0 0 0 -28.536410229346473 -11.585782402160703 0 -11.585782402160703 3.6562982022634287 0 0 0 0 -6.8329972004620458 -16.606819133038755 0 -16.606819133038755 -14.083165517309709 0 0 0 0 -1.924261433002755 -7.3633307362916725 0 -7.3633307362916725 -0.47088722271791994 0 0 0 0 15.642394278567963 -13.504425201210125 0 -13.504425201210125 -14.62989291923941 0 0 0 0 -5.0426104814859709 -6.0593723700701574 0 -6.0593723700701574 -2.6003471168692771 0 0 0 0 16.342313798063856 -21.065966910184102 0 -21.065966910184102 1.3081673945671071 0 0 0 0 4.1519761912843478 -23.990372929710702 0 -23.990372929710702 3.5849738331651508 0 0 0 0 -4.9381715633978116 -5.4886001049793789 0 -5.4886001049793789 -1.421042817303662 0 0 0 0 19.563035869797318 -21.723729377368272 0 -21.723729377368272 4.9295911402289221 0 0 0 0 6.2881338720717395 -10.554440918085618 0 -10.554440918085618 6.4772581171642045 0 0 0 0 -4.5303142414893571 -4.7252350857979719 0 -4.7252350857979719 -0.045085724524739579 0 0 0 0 -12.993211018751481 -13.404995013414919 0 -13.404995013414919 7.6601886076745132 0 0 0 0 -21.454969205601742 -9.0291771140884407 0 -9.0291771140884407 11.898864830615466 0 0 0 0 -29.693564313087222 -7.9681326573057447 0 -7.9681326573057447 11.765902648072483 0 0 0 0 -10.63668264560431 -8.4800165546334085 0 -8.4800165546334085 6.8698206390055248 0 0 0 0 -4.0051720763277014 -3.8964029180602253 0 -3.8964029180602253 1.461757712909068 0 0 0 0 31.071468284841671 -23.711016222538547 0 -23.711016222538547 5.5693473860207234 0 0 0 0 -22.219158705082464 2.9543083351247788 0 2.9543083351247788 7.6754761487778183 0 0 0 0 -18.547459900160504 -7.4984706111515038 0 -7.4984706111515038 10.565465641683772 0 0 0 0 -13.06136344350503 2.5591288119920002 0 2.5591288119920002 5.2835773975591565 0 0 0 0 24.215761875573207 -22.14991689313598 0 -22.14991689313598 5.6126570698129399 0 0 0 0 -2.0623128722193087 -7.1525331805622159 0 -7.1525331805622159 5.4685781344022644 0 0 0 0 -5.9543702220898922 -11.85004971964014 0 -11.85004971964014 10.756100980468204 0 0 0 0 6.1888599851425852 -17.055424531795509 0 -17.055424531795509 6.0572894384373512 0 0 0 0 -4.7792658984649279 -12.069415355680036 0 -12.069415355680036 5.3021320099718423 0 0 0 0 9.5177899928264651 -12.780162442273195 0 -12.780162442273195 10.487296483752246 0 0 0 0 9.5811126352045903 -20.571293630775223 0 -20.571293630775223 8.6729260784583175 0 0 0 0 -3.4294659625036275 -12.933816596814367 0 -12.933816596814367 3.8817609462130918 0 0 0 0 1.1897617740469286 -8.2018190363752979 0 -8.2018190363752979 5.5240809298475568 0 0 0 0 -2.6451715359035006 -14.430872240703046 0 -14.430872240703046 5.4252528073999997 0 0 0 0 -15.89530680925327 -9.4502709340239015 0 -9.4502709340239015 -7.0205177978360211 0 0 0 0 -16.028226511909452 -8.6115724655120687 0 -8.6115724655120687 5.4068918320533328 0 0 0 0 -9.0454873305634464 -3.9172005981221361 0 -3.9172005981221361 -2.7627352819362159 0 0 0 0 13.892832021757499 -23.491206636288062 0 -23.491206636288062 12.483936796486915 0 0 0 0 3.1278340413759906 -9.5128216876623011 0 -9.5128216876623011 4.1249250353333125 0 0 0 0 22.076270693124229 -11.878869460115247 0 -11.878869460115247 6.1397670829575759 0 0 0 0 36.466097251507563 -25.372006043679924 0 -25.372006043679924 6.3646533529349654 0 0 0 0 13.577009159935642 -16.653865532515553 0 -16.653865532515553 11.490558731021224 0 0 0 0 -8.4775444635444615 1.1655248677516283 0 1.1655248677516283 -2.554438733562165 0 0 0 0 -3.8160569139026674 -2.6680910967196487 0 -2.6680910967196487 2.7139499905941209 0 0 0 0 36.412643894748726 -14.863617111263856 0 -14.863617111263856 3.6810729696695859 0 0 0 0 -12.849358407941907 8.659870126898852 0 8.659870126898852 0.079424719906398877 0 0 0 0 -1.8014973495654774 -0.097638689728727357 0 -0.097638689728727357 1.0618205477811338 0 0 0 0 81.792272156380477 -15.762033000554254 0 -15.762033000554254 3.6347103257760445 0 0 0 0 45.580797223246918 -46.684042518764812 0 -46.684042518764812 28.799697670243916 0 0 0 0 -3.8124016562824181 -4.541035803116614 0 -4.541035803116614 20.346303260543948 0 0 0 0 13.928191547473716 -24.352072811156916 0 -24.352072811156916 16.289561629606908 0 0 0 0 20.64761373428928 -17.930983534167979 0 -17.930983534167979 13.790039747959085 0 0 0 0 -2.8394030311756069 -2.4276528276260478 0 -2.4276528276260478 25.88735807274513 0 0 0 0 20.24155584119967 -15.051819685658643 0 -15.051819685658643 -3.7130314019896673 0 0 0 0 -10.227390548486255 -11.65503133722666 0 -11.65503133722666 -2.614095313944091 0 0 0 0 -30.023067850264397 -55.854252806591546 0 -55.854252806591546 -4.4513149034954154 0 0 0 0 23.603794783068679 -40.52595334164829 0 -40.52595334164829 -10.779910262150793 0 0 0 0 45.035480276580074 -69.773033122684296 0 -69.773033122684296 -11.950010728531055 0 0 0 0 24.527585940104018 3.0146845872750418 0 3.0146845872750418 41.238497038295577 0 0 0 0 2.9521779804726975 -13.825084410422591 0 -13.825084410422591 -21.561822821589885 0 0 0 0 -3.679522205488297 -12.514685006625541 0 -12.514685006625541 1.3254342723580521 0 0 0 0 -14.179596753082933 -20.362776817260851 0 -20.362776817260851 -20.121892293243263 0 0 0 0 -0.16556651023282098 0.33417500257940302 0 0.33417500257940302 0.0030297864564303723 0 0 0 0 -0.8726940956960334 -15.834536040195971 0 -15.834536040195971 -29.558351481343379 0 0 0 0 11.269613103465645 -2.0283723500566566 0 -2.0283723500566566 -4.8420464341031675 0 0 0 0 -0.94372659828059113 2.5374179761371352 0 2.5374179761371352 -12.589985991060757 0 0 0 0 -13.743028650781071 -18.82509989813417 0 -18.82509989813417 -15.898219138514605 0 0 0 0 -3.2899392413478381 -6.0634740986573661 0 -6.0634740986573661 0.43680551145870083 0 0 0 0 -3.4094273431219335 -3.4036130709431518 0 -3.4036130709431518 0.40298887459823618 0 0 0 0 -0.017307596078071086 -1.3432409568221906 0 -1.3432409568221906 1.5625810254839747 0 0 0 0 -86.176341655896977 -7.9862587499297888 0 -7.9862587499297888 -11.141152700971702 0 0 0 0 0.081254623939508441 -0.14562995884797525 0 -0.14562995884797525 -1.0638209222925541 0 0 0 0 9.4420723111308007 -3.2548536487577735 0 -3.2548536487577735 0.30992353656756677 0 0 0 0 -11.945489567627192 -25.270733529522005 0 -25.270733529522005 -60.018098486328199 0 0 0 0 -7.5692435482387737 1.758972262217867 0 1.758972262217867 -9.101750840995237 0 0 0 0 -16.226750621940027 -5.9148076616397702 0 -5.9148076616397702 -14.415531428352097 0 0 0 0 -4.4819518283706543 -2.3498511687482591 0 -2.3498511687482591 -10.397437215076366 0 0 0 0 -22.264978584646542 -14.368959479056628 0 -14.368959479056628 -17.993318313378268 0 0 0 0 -25.489172078800379 2.2630889942501113 0 2.2630889942501113 -8.068038380675489 0 0 0 0 -27.249299838711067 0.72213061726665728 0 0.72213061726665728 -5.6656846764693114 0 0 0 0 -27.474159052910636 -0.066577268130004086 0 -0.066577268130004086 -8.0928703557221979 0 0 0 0 -25.736268137212619 1.3993717725039119 0 1.3993717725039119 -9.9292389134518544 0 0 0 0 -26.291634317852186 5.2155659196720308 0 5.2155659196720308 1.788004179976781 0 0 0 0 -13.711428031158448 -5.9670144217783871 0 -5.9670144217783871 -0.14619911534151697 0 0 0 0 -11.454638886688826 3.4756908747029058 0 3.4756908747029058 -5.923019905284221 0 0 0 0 0.73781571841755067 -0.75624873938622983 0 -0.75624873938622983 1.2526550541639381 0 0 0 0 -7.4101469788429313 -11.808987967344127 0 -11.808987967344127 14.47449770820262 0 0 0 0 -10.507322146822787 0.70068437138155648 0 0.70068437138155648 3.6210819312300089 0 0 0 0 5.7400060403265343 -10.739456279759874 0 -10.739456279759874 5.9273715403132456 0 0 0 0 -12.835978171027818 -1.9169334372897708 0 -1.9169334372897708 0.69055026090615002 0 0 0 0 -23.981684828750531 7.8065155742824182 0 7.8065155742824182 -6.6511695079156183 0 0 0 0 -22.203311693339401 2.1487120950249619 0 2.1487120950249619 -1.7924225883829763 0 0 0 0 -37.685608301779666 -0.55639657271388643 0 -0.55639657271388643 -2.0952592877433744 0 0 0 0 -0.55449209208491546 -0.55373438239092065 0 -0.55373438239092065 -0.53763310576696721 0 0 0 0 -2.103285336445424 -4.8790013024735401 0 -4.8790013024735401 -1.3600234814157375 0 0 0 0 -11.832756362334749 -1.5479653372935616 0 -1.5479653372935616 -1.8820957624463617 0 0 0 0 -9.7617734916320842 13.757277292807487 0 13.757277292807487 -12.486813207219178 0 0 0 0 -4.7728394460992281 -2.2287154518256775 0 -2.2287154518256775 1.1239946904477156 0 0 0 0 -1.133721771200614 -1.8557100577237309 0 -1.8557100577237309 -3.5735342919057898 0 0 0 0 -0.78130304792284733 -8.2029347014087151 0 -8.2029347014087151 -0.34244915674793219 0 0 0 0 -24.988381917303741 4.727021003087259 0 4.727021003087259 -3.8424785324000368 0 0 0 0 7.6535587605708315 -9.2196483862245486 0 -9.2196483862245486 -2.892124608150425 0 0 0 0 -37.04844779326595 9.7919819325247772 0 9.7919819325247772 -3.8932836446163179 0 0 0 0 -0.28061933833401032 -0.89531279495828908 0 -0.89531279495828908 -2.5348464553025756 0 0 0 0 -0.95594479709006919 -7.5885844443877302 0 -7.5885844443877302 -3.2652617175538392 0 0 0 0 1.7316642307655457 -2.8296538421820685 0 -2.8296538421820685 0.3903752961174014 0 0 0 0 2.2764991457074757 -8.6507862808742289 0 -8.6507862808742289 -3.0954837146138061 0 0 0 0 -9.766635442611685 -5.318684762731853 0 -5.318684762731853 -2.2656894235749983 0 0 0 0 2.5794793564405154 -8.054968772839743 0 -8.054968772839743 -6.9937815802206842 0 0 0 0 9.1401593110695103 -2.176857378132695 0 -2.176857378132695 -1.7920345345450812 0 0 0 0 -17.484312748516459 -8.3202472300642398 0 -8.3202472300642398 -24.210091588885689 0 0 0 0 -39.711235361741274 -15.281964340659385 0 -15.281964340659385 -1.6047808419755825 0 0 0 0 -11.682465807567496 -16.595197645488781 0 -16.595197645488781 -16.204489003324795 0 0 0 0 -36.463421179929355 7.8701525736271947 0 7.8701525736271947 -2.2008370442096776 0 0 0 0 0.81379621509705657 -1.1045121232995418 0 -1.1045121232995418 -1.1031232701202076 0 0 0 0 -11.758572220200676 -6.693842380641871 0 -6.693842380641871 0.06169341966056141 0 0 0 0 -0.44848010265030824 -4.5067061241966542 0 -4.5067061241966542 -2.3197550941271321 0 0 0 0 -31.613319589519961 -13.037600298643099 0 -13.037600298643099 2.962821428019538 0 0 0 0 -21.310409178517148 -6.648622399630483 0 -6.648622399630483 2.4966069904399326 0 0 0 0 -8.4542566954487484 -1.7899067243375981 0 -1.7899067243375981 1.791062677782179 0 0 0 0 -31.680373419707831 4.6134217986253843 0 4.6134217986253843 2.121015600273779 0 0 0 0 -13.155822101002693 0.7052516098961874 0 0.7052516098961874 2.3304405786038576 0 0 0 0 -171.34327558152972 110.64569702887283 0 110.64569702887283 -44.139735800030167 0 0 0 0 -23.937391402470894 -3.5121701601578366 0 -3.5121701601578366 12.687380567143066 0 0 0 0 -23.255687352653695 -7.8301124969441105 0 -7.8301124969441105 11.060069089706076 0 0 0 0 92.787719028386618 -58.937181060259419 0 -58.937181060259419 -81.168625080226491 0 0 0 0 -1.5067842916485625 -4.8176023574024214 0 -4.8176023574024214 0.066181897335827689 0 0 0 0 -21.568071478285674 -3.484034525903553 0 -3.484034525903553 8.3667539580771972 0 0 0 0 -9.5016728469217924 -7.2522504707733333 0 -7.2522504707733333 1.7409736295604716 0 0 0 0 -50.919932222435818 -79.680179753849842 0 -79.680179753849842 16.039223813708546 0 0 0 0 -14.708317370777877 -1.6047271713987714 0 -1.6047271713987714 2.1787647009111661 0 0 0 0 -3.3949321263443029 -0.54057279270054259 0 -0.54057279270054259 0.77235697434124984 0 0 0 0 104.38139722643928 -44.236968569635472 0 -44.236968569635472 -29.639555633045063 0 0 0 0 -154.99223116714711 -50.224809754161392 0 -50.224809754161392 53.110924185459275 0 0 0 0 -0.33696861373385723 -0.70547388755333174 0 -0.70547388755333174 -1.6566536467486386 0 0 0 0 -196.84157010456101 61.363504843887114 0 61.363504843887114 19.36818639039582 0 0 0 0 -56.728273795768473 -5.4156590945110636 0 -5.4156590945110636 -5.6649926709531897 0 0 0 0 -65.078972930722443 16.350442195758127 0 16.350442195758127 -28.351266024033379 0 0 0 0 -71.19792455434299 -9.9153767152406296 0 -9.9153767152406296 7.352107021022448 0 0 0 0 -53.511742455403805 -1.2384978519436487 0 -1.2384978519436487 -0.73328608188882072 0 0 0 0 -48.958998940614038 -16.220858399007433 0 -16.220858399007433 2.8652952737472788 0 0 0 0 -44.8647737136057 -9.0801438345327483 0 -9.0801438345327483 2.2576436141430918 0 0 0 0 -22.620071417033614 -7.2699232917242966 0 -7.2699232917242966 0.096684716358481637 0 0 0 0 -18.089205683801083 -3.6957714159913166 0 -3.6957714159913166 -0.67013503090095128 0 0 0 0 -23.277201961860555 -6.3845374667317856 0 -6.3845374667317856 0.02735453449682268 0 0 0 0 -30.166773602046305 -10.347118244838157 0 -10.347118244838157 0.081039788662366163 0 0 0 0 -29.868246001269654 -10.850710874421509 0 -10.850710874421509 -0.43953967712030817 0 0 0 0 -26.014129597076135 -10.874858620663673 0 -10.874858620663673 -4.1866012555842786 0 0 0 0 -28.281385634460094 -20.338354328326574 0 -20.338354328326574 -0.93236872440419916 0 0 0 0 -18.871417548441968 -13.450582831168276 0 -13.450582831168276 -11.913786372293174 0 0 0 0 -18.620956075923459 -10.205103569653033 0 -10.205103569653033 -4.5512154180934203 0 0 0 0 -21.491861089762097 -5.6821639053532351 0 -5.6821639053532351 -0.86278067375599221 0 0 0 0 -18.314421768827742 9.0970763821678133 0 9.0970763821678133 15.403336597060843 0 0 0 0 -50.888053876912636 -17.639674543195326 0 -17.639674543195326 31.540932424048037 0 0 0 0 0.82518598444949021 -1.2427296179891414 0 -1.2427296179891414 -5.2939556873941456 0 0 0 0 -6.5751057721217876 -16.238717533783081 0 -16.238717533783081 -46.62284236770779 0 0 0 0 -0.16828317711872509 0.26950199287190824 0 0.26950199287190824 0.23950666892929728 0 0 0 0 9.7881064129496735 -17.458239085318322 0 -17.458239085318322 -16.0038153773929 0 0 0 0 -30.624443688236624 -40.377767901733058 0 -40.377767901733058 10.758320920303385 0 0 0 0 -0.378594865223981 -0.19167511251476199 0 -0.19167511251476199 -0.1651590657507209 0 0 0 0 -18.493412912135682 2.7245542197802379 0 2.7245542197802379 5.9137452346588191 0 0 0 0 -6.1482491515498623 0.9412798468424981 0 0.9412798468424981 -14.576971502567602 0 0 0 0 -13.540023837686931 0.43973901331071374 0 0.43973901331071374 -9.6275015606604484 0 0 0 0 -15.304031637951994 -4.6830184192189108 0 -4.6830184192189108 -17.766826678867346 0 0 0 0 -20.43089549792785 -15.142141556865113 0 -15.142141556865113 -19.336218806182202 0 0 0 0 -32.666559702489394 -6.5401360314120467 0 -6.5401360314120467 -0.57668368545569137 0 0 0 0 -32.269679130335135 8.0070497224393336 0 8.0070497224393336 -3.8797307390735796 0 0 0 0 -15.658933099987735 2.0356143872778034 0 2.0356143872778034 -2.7900058371830099 0 0 0 0 -25.128011461120423 -1.2256750644734211 0 -1.2256750644734211 1.9286581009699262 0 0 0 0 -14.336394621293039 -5.0888750110738954 0 -5.0888750110738954 -1.4227119998215869 0 0 0 0 -14.006867077949437 -6.0695006923604922 0 -6.0695006923604922 1.7940610979527492 0 0 0 0 -19.277068443262579 -3.604952239339525 0 -3.604952239339525 3.5982989030757153 0 0 0 0 -16.796669765576553 -8.0382074573319642 0 -8.0382074573319642 4.3814348811019244 0 0 0 0 -16.08667747730351 -7.0185833810103304 0 -7.0185833810103304 5.9261461549376122 0 0 0 0 -21.260833623869985 -2.2229444477969764 0 -2.2229444477969764 2.9911023294588404 0 0 0 0 -28.536182226216624 -3.6927517628477062 0 -3.6927517628477062 2.6999173159958332 0 0 0 0 -31.246912856468043 -20.798803856974985 0 -20.798803856974985 -9.6498587869200492 0 0 0 0 -26.757232433126774 -8.8437972498084036 0 -8.8437972498084036 7.3995005683858608 0 0 0 0 -20.076417475055678 -8.2985120625940851 0 -8.2985120625940851 -7.779856646649705 0 0 0 0 -18.954922815883037 -3.7569924900333831 0 -3.7569924900333831 -1.9172000813095167 0 0 0 0 -19.574166445833157 -5.8506991952055252 0 -5.8506991952055252 -3.1010571972985304 0 0 0 0 -22.766547160817936 -4.0343946459543076 0 -4.0343946459543076 2.4076614289779172 0 0 0 0 -20.869935702288785 -5.2280800440694293 0 -5.2280800440694293 2.5102610530745011 0 0 0 0 -21.409772097681071 -4.464480818504569 0 -4.464480818504569 1.8823156300513801 0 0 0 0 -23.30738071383621 -7.3473304624057505 0 -7.3473304624057505 1.9799050374240323 0 0 0 0 -18.403028436952809 -4.2693866487566652 0 -4.2693866487566652 2.4592734198615744 0 0 0 0 -21.758674443290374 -5.065786418622281 0 -5.065786418622281 5.0522913021717386 0 0 0 0 -19.777617800224107 -7.4422096761981038 0 -7.4422096761981038 4.6035078289790476 0 0 0 0 -24.160312956048074 -5.5684906504207561 0 -5.5684906504207561 5.7738952573640745 0 0 0 0 -16.915603348947116 -5.5543184787090354 0 -5.5543184787090354 4.9886786200270308 0 0 0 0 -13.928075293973961 -5.5844049978409771 0 -5.5844049978409771 5.8585011520157195 0 0 0 0 -9.1047418314801689 -10.816673591533458 0 -10.816673591533458 6.3158516190817267 0 0 0 0 -9.7533331143727082 -8.6258924552901703 0 -8.6258924552901703 8.650969491656042 0 0 0 0 -10.86201975038216 -10.605619939668259 0 -10.605619939668259 5.9128512488338174 0 0 0 0 -26.809350887492656 -7.7405208426529271 0 -7.7405208426529271 6.5256159279510939 0 0 0 0 -19.609516381445701 -4.6694379753914745 0 -4.6694379753914745 6.3135812715700368 0 0 0 0 -21.189124795371072 -8.1965546485742493 0 -8.1965546485742493 4.0668191295674205 0 0 0 0 -30.65627849871953 -7.5201194898338031 0 -7.5201194898338031 5.9564040010884582 0 0 0 0 -27.107447818022592 -3.882895632839336 0 -3.882895632839336 6.4342094529614542 0 0 0 0 -27.347474554655491 -6.6892522300282735 0 -6.6892522300282735 5.2124873069006981 0 0 0 0 -35.376468215017894 -8.5266578076135886 0 -8.5266578076135886 6.7599651298230583 0 0 0 0 -34.144419735211159 -6.4151291113422531 0 -6.4151291113422531 6.8493997219275116 0 0 0 0 -39.502139923578852 -7.2386683229257187 0 -7.2386683229257187 7.9679189727191897 0 0 0 0 -39.311366208505206 -7.2801407935122029 0 -7.2801407935122029 6.8337300175746805 0 0 0 0 -40.121409820696499 -6.7296055634724326 0 -6.7296055634724326 7.3860339485279383 0 0 0 0 -39.246827202397071 -7.0154003102776699 0 -7.0154003102776699 7.1458045974236484 0 0 0 0 -38.673062235074212 -6.1652109182414279 0 -6.1652109182414279 7.617696082639327 0 0 0 0 -37.080794207453437 -6.7662719596024772 0 -6.7662719596024772 6.4854398320469073 0 0 0 0 -39.168665601622251 -8.9466715607621836 0 -8.9466715607621836 5.5073433485251826 0 0 0 0 -42.77736918085202 -5.7288487091049092 0 -5.7288487091049092 7.2461658601856698 0 0 0 0 -51.616758264975942 -2.9042739396574007 0 -2.9042739396574007 5.7256019103780265 0 0 0 0 -42.380859537312517 -6.4107438356921875 0 -6.4107438356921875 4.8616954821573017 0 0 0 0 -38.026153000953855 -12.712348537242519 0 -12.712348537242519 2.2150057302044956 0 0 0 0 -30.549957657076448 -7.4721670513119989 0 -7.4721670513119989 3.6940612232892818 0 0 0 0 -29.344187051144445 -9.435091792987464 0 -9.435091792987464 1.6918233597339167 0 0 0 0 -24.617755060007767 -5.92130022287472 0 -5.92130022287472 3.2423116637516785 0 0 0 0 -30.618666108818616 -6.1206586275399104 0 -6.1206586275399104 5.7107449702618851 0 0 0 0 -28.054547777657717 -8.3992818860193665 0 -8.3992818860193665 4.1033279477292695 0 0 0 0 -34.173475383784535 -9.8959186227958185 0 -9.8959186227958185 4.2390077489073974 0 0 0 0 -2.2572070858177398 -4.5284439855822809 0 -4.5284439855822809 -4.3890581582032677 0 0 0 0 -22.370821614566012 -6.6978460411956746 0 -6.6978460411956746 -2.3389521097242891 0 0 0 0 -7.3586409100185506 -91.421588910872117 0 -91.421588910872117 75.688129962947187 0 0 0 0 -26.361915454524024 -3.0215275979592207 0 -3.0215275979592207 -2.6967358753344115 0 0 0 0 -21.803559508322905 -4.2604032390529767 0 -4.2604032390529767 -2.5583668017152128 0 0 0 0 -27.194603066337095 1.8376411514580298 0 1.8376411514580298 -2.5493797546091059 0 0 0 0 -42.486422999863862 -1.5367041420039413 0 -1.5367041420039413 4.0342449523395771 0 0 0 0 -40.603467024739075 -4.3581253757340619 0 -4.3581253757340619 5.739406828030778 0 0 0 0 -34.330020258558307 -4.281281483495377 0 -4.281281483495377 4.957743542105618 0 0 0 0 -33.102991795758271 -6.1269449195864354 0 -6.1269449195864354 1.660497426875736 0 0 0 0 -39.924245758508732 -5.9790552486543902 0 -5.9790552486543902 4.8317771673944208 0 0 0 0 -34.794539485754285 -7.9976959125197027 0 -7.9976959125197027 4.6983208609397025 0 0 0 0 -33.7773879732963 -7.1763576919611012 0 -7.1763576919611012 1.5979236151383702 0 0 0 0 -36.780098495243692 -9.0282909188580334 0 -9.0282909188580334 4.9086541935148489 0 0 0 0 -34.817748671391655 -11.303245284268996 0 -11.303245284268996 1.2026585859784973 0 0 0 0 3.3231343738084202 -4.5440627823998945 0 -4.5440627823998945 0.70994309882518625 0 0 0 0 -21.197395472141466 -6.701016882646627 0 -6.701016882646627 -2.1020624413280302 0 0 0 0 -25.553096764058864 -9.9734922862596704 0 -9.9734922862596704 1.2779445937201785 0 0 0 0 -25.286722944944131 -6.6652326165433777 0 -6.6652326165433777 -1.1140466697756892 0 0 0 0 -25.207191782375418 -5.8559419695634176 0 -5.8559419695634176 -1.3633792160450184 0 0 0 0 -13.65840295907401 -29.649404439222224 0 -29.649404439222224 -27.919794496299346 0 0 0 0 -42.329980066842836 -16.952148478536969 0 -16.952148478536969 13.769728137537356 0 0 0 0 -36.894971904399426 -21.36076426026716 0 -21.36076426026716 -20.420336627896404 0 0 0 0 -32.579174545360729 -3.0701116946893023 0 -3.0701116946893023 -4.1472684652492262 0 0 0 0 -39.1320293847416 -8.7457528355315901 0 -8.7457528355315901 -1.8577959717354133 0 0 0 0 -62.099209318093926 -20.217794118786401 0 -20.217794118786401 -2.0857013012880543 0 0 0 0 0.82847398666466709 -0.63978126109994093 0 -0.63978126109994093 0.36324124925899071 0 0 0 0 -40.152141555870912 -1.8623623315851319 0 -1.8623623315851319 8.2468697494880416 0 0 0 0 -33.805964748265978 3.8514614703531151 0 3.8514614703531151 10.713365153959785 0 0 0 0 -33.007012335136096 -2.7105158767590112 0 -2.7105158767590112 7.1485732874089081 0 0 0 0 -35.644493016146043 -3.5387499493095333 0 -3.5387499493095333 -0.21362802658586588 0 0 0 0 -31.886922732519452 -4.536338460673278 0 -4.536338460673278 -0.82131056939510927 0 0 0 0 -37.414033262935845 -2.728258940535909 0 -2.728258940535909 7.2823018583171688 0 0 0 0 -28.844914143888673 -0.8121357105557081 0 -0.8121357105557081 1.1937047007347701 0 0 0 0 -36.336292116091499 -10.198321795541005 0 -10.198321795541005 -1.4633242516081282 0 0 0 0 -36.443147874209899 -9.2083944733509497 0 -9.2083944733509497 -5.9753762534119232 0 0 0 0 -47.389057714710361 -13.72709841804658 0 -13.72709841804658 -5.9334530511810453 0 0 0 0 -40.87855183890133 -8.7639505929057577 0 -8.7639505929057577 -1.492842844212845 0 0 0 0 -41.500425370017183 -5.8005305005244736 0 -5.8005305005244736 -3.4812729694265272 0 0 0 0 -37.751405681960932 -2.1211699205294963 0 -2.1211699205294963 -0.92417647274419323 0 0 0 0 -41.725765477287496 -5.1923366553426149 0 -5.1923366553426149 -4.3227120720969197 0 0 0 0 -52.883457643194561 -8.1991919006426315 0 -8.1991919006426315 -5.0507991858747232 0 0 0 0 -48.625652473677292 -12.06328476412483 0 -12.06328476412483 -7.0878661728147563 0 0 0 0 -45.206606776736407 -0.040379685283710387 0 -0.040379685283710387 -2.8210625788992729 0 0 0 0 -0.70243460637723487 -1.7588319303392721 0 -1.7588319303392721 3.1075905911724959 0 0 0 0 3.7676299297063451 15.725929177893818 0 15.725929177893818 121.68257011708693 0 0 0 0 -52.448741988570873 -17.697820849054324 0 -17.697820849054324 -2.6377016275695979 0 0 0 0 -50.660711662406356 -11.8904497938031 0 -11.8904497938031 -5.432892120774568 0 0 0 0 0.082354693907317866 -0.23892833286705262 0 -0.23892833286705262 1.1041717650107943 0 0 0 0 -134.01255954504813 -59.465364616593433 0 -59.465364616593433 80.649050824771621 0 0 0 0 60.560300843567802 285.66115631514936 0 285.66115631514936 -16.04732708186657 0 0 0 0 -84.142864456804602 -31.474281111148493 0 -31.474281111148493 -168.99442108458516 0 0 0 0 95.96483424568396 -46.900528610059382 0 -46.900528610059382 29.846470804755853 0 0 0 0 -94.388909574495301 -36.295257600911668 0 -36.295257600911668 2.2263524285517633 0 0 0 0 -74.066894357892579 2.3183468568020089 0 2.3183468568020089 47.24847542771613 0 0 0 0 -46.782146679037396 -5.8357365693103702 0 -5.8357365693103702 -4.1858443815592636 0 0 0 0 -50.837452083347671 36.831118353689817 0 36.831118353689817 68.953249864110603 0 0 0 0 -1.9629990526686498 0.83675183924709096 0 0.83675183924709096 -0.36484016054505242 0 0 0 0 -12.086667893412596 60.686816783339509 0 60.686816783339509 42.120124766788649 0 0 0 0 -93.401619913556715 -86.447184735392966 0 -86.447184735392966 -37.567000265284705 0 0 0 0 3.2669068969207729 -22.989989782815996 0 -22.989989782815996 -37.44558146025247 0 0 0 0 -257.34726864704226 -58.132705071352746 0 -58.132705071352746 -12.002995259986392 0 0 0 0 -216.94579958376562 -71.886405754164002 0 -71.886405754164002 -36.422068002543028 0 0 0 0 -0.35275425361836099 0.43784707937230749 0 0.43784707937230749 -0.6093418185549746 0 0 0 0 -233.37231042652729 -24.434676487605998 0 -24.434676487605998 -125.99643892665335 0 0 0 0 -242.94616576972612 -35.836462936362409 0 -35.836462936362409 -0.89897791298244556 0 0 0 0 104.05297014004634 -83.744137734968405 0 -83.744137734968405 -2.7962215232489598 0 0 0 0 -22.081640314374454 2.8173225042303329 0 2.8173225042303329 10.405651317358604 0 0 0 0 88.006506148345579 -10.616909533246485 0 -10.616909533246485 -125.74279682187739 0 0 0 0 -83.078042137131604 -62.661778082679945 0 -62.661778082679945 82.36124956741287 0 0 0 0 -40.807324045741552 8.1632050746672178 0 8.1632050746672178 -5.3456451049883071 0 0 0 0 -66.704424775268308 12.459759440488327 0 12.459759440488327 -2.6353075356723199 0 0 0 0 -1.9331907037324356 -2.6089691265149337 0 -2.6089691265149337 -3.6706103802880352 0 0 0 0 69.077767163915269 -8.8347045850246388 0 -8.8347045850246388 -56.630054398997856 0 0 0 0 29.031717368317913 5.7817162803795554 0 5.7817162803795554 6.8539206394989201 0 0 0 0 67.272266318032052 -18.325103790431982 0 -18.325103790431982 -27.069270125352318 0 0 0 0 -4.9688899370812578 -0.35525530642806302 0 -0.35525530642806302 -0.95623031832130323 0 0 0 0 26.143216177348904 -1.7513711282968103 0 -1.7513711282968103 -9.6434288622115787 0 0 0 0 -6.8738615028556751 3.8983342877760094 0 3.8983342877760094 -4.6273371843105906 0 0 0 0 -9.8502325559923882 -0.40367484596164349 0 -0.40367484596164349 2.5669673900633341 0 0 0 0 8.5141822198788759 -38.256247734044621 0 -38.256247734044621 14.057315986225035 0 0 0 0 76.311941066391228 -55.8988819482949 0 -55.8988819482949 -27.070110076411765 0 0 0 0 -14.901899294088707 11.296043289162377 0 11.296043289162377 16.140053522433959 0 0 0 0 -10.089688059288164 -4.9310548862737562 0 -4.9310548862737562 4.3554390304686592 0 0 0 0 -0.30471193498351568 3.8625542668181865 0 3.8625542668181865 1.9240637632692597 0 0 0 0 -4.0341550236503281 7.2563967975742472 0 7.2563967975742472 9.5975502144484039 0 0 0 0 -4.2577924722809257 -2.3384589050665454 0 -2.3384589050665454 -1.066709841477774 0 0 0 0 -12.259228538080379 -1.8636868873255708 0 -1.8636868873255708 0.95700905836602601 0 0 0 0 -15.506651906494199 0.091875564748924887 0 0.091875564748924887 -0.14555121448148611 0 0 0 0 -15.001612624068002 -10.758045975802659 0 -10.758045975802659 -8.4248530065650442 0 0 0 0 -19.804787973631392 17.596147061187303 0 17.596147061187303 -23.896187048365171 0 0 0 0 -165.5132425718275 -136.99547568602122 0 -136.99547568602122 -77.374319810329752 0 0 0 0 -1.5825165121198665 -0.0078986507452665222 0 -0.0078986507452665222 -0.71179141557548742 0 0 0 0 -5.8947246100215125 2.1821054392277119 0 2.1821054392277119 7.8630549743349647 0 0 0 0 2.5820531185393065 3.9539264923153397 0 3.9539264923153397 2.3654202033901868 0 0 0 0 -1.0994318198693191 -0.6685031981309475 0 -0.6685031981309475 0.89354050981789701 0 0 0 0 -6.1172379175428908 -2.2035040679716342 0 -2.2035040679716342 2.8059363320677324 0 0 0 0 -2.3876897001664474 -5.7416885877771051 0 -5.7416885877771051 -15.928651419370453 0 0 0 0 -0.79889802801958876 -0.12849100320989315 0 -0.12849100320989315 -5.1074290378506388 0 0 0 0 -117.24245987349241 -51.096935114132393 0 -51.096935114132393 -14.700190471063877 0 0 0 0 -130.76174852225085 -76.457729722125094 0 -76.457729722125094 -54.710720162834704 0 0 0 0 -127.50844904621476 -6.8990601909233042 0 -6.8990601909233042 13.342344522340809 0 0 0 0 -108.27250157982508 -39.548772505315355 0 -39.548772505315355 -22.839432518346001 0 0 0 0 -112.38393831195572 -32.019686858474756 0 -32.019686858474756 13.648605545596411 0 0 0 0 -0.24367767503992166 0.47247711597391095 0 0.47247711597391095 -2.5152343450824586 0 0 0 0 -180.75424241313522 -57.040853812706921 0 -57.040853812706921 4.547508924572071 0 0 0 0 -111.58477763031078 -48.193346102749047 0 -48.193346102749047 -18.321045113293849 0 0 0 0 -96.826816697711365 -64.374846343798595 0 -64.374846343798595 -20.009484840523101 0 0 0 0 2.2770710030740702 18.284885971708007 0 18.284885971708007 1.5350914392804498 0 0 0 0 -36.902145025780555 -30.255895296178153 0 -30.255895296178153 -9.5757459101099016 0 0 0 0 -60.224814866780889 -7.0199833887261889 0 -7.0199833887261889 17.387335093205024 0 0 0 0 -25.385821621005107 2.6385084632046301 0 2.6385084632046301 21.043799820491927 0 0 0 0 -48.309729305935434 -12.990917760592257 0 -12.990917760592257 -58.368495000464549 0 0 0 0 -7.2620936070326998 4.6900182597553464 0 4.6900182597553464 -1.689287275364366 0 0 0 0 -2.1701778356046173 -0.13970029169397513 0 -0.13970029169397513 6.4501993686315089 0 0 0 0 -9.7862856175761408 30.710903461740997 0 30.710903461740997 23.311179436942496 0 0 0 0 -3.1385341201357573 0.52732895798843593 0 0.52732895798843593 0.49792204601185475 0 0 0 0 49.340049972918678 34.164425791315566 0 34.164425791315566 -0.64063780471025211 0 0 0 0 7.7565017335873563 8.8737786061884094 0 8.8737786061884094 13.711264773431594 0 0 0 0 -18.475036536676271 23.770741463144049 0 23.770741463144049 9.5283473152391025 0 0 0 0 -18.709521708318789 -1.6737246671379751 0 -1.6737246671379751 -7.4857555521099925 0 0 0 0 -3.8843352034982672 35.095309063091165 0 35.095309063091165 18.459041959661477 0 0 0 0 -63.962221207035327 -6.4205847797217928 0 -6.4205847797217928 -2.1376165611827105 0 0 0 0 -49.425685365580648 -13.679418685094731 0 -13.679418685094731 -5.4010105154230885 0 0 0 0 -89.438768949263249 -20.787056715538704 0 -20.787056715538704 -6.7583272136367043 0 0 0 0 -69.377785699789911 18.923056370429997 0 18.923056370429997 -15.323038779077933 0 0 0 0 0.74354991945913085 0.17118151280049165 0 0.17118151280049165 0.095507638281617763 0 0 0 0 -20.303774397327288 22.673545148335464 0 22.673545148335464 -51.113515560800849 0 0 0 0 -55.996672066114115 -55.708917498919519 0 -55.708917498919519 58.630537485091594 0 0 0 0 -10.376057303134075 -14.087997265631856 0 -14.087997265631856 -11.621394681574685 0 0 0 0 -68.487373149083396 -15.017238982746649 0 -15.017238982746649 -63.28728665146798 0 0 0 0 27.270847660449363 6.5135709082689042 0 6.5135709082689042 -47.066621363382303 0 0 0 0 -126.69490580637648 60.317406147521524 0 60.317406147521524 -47.399321403261965 0 0 0 0 -54.314343516381086 -18.576420779683314 0 -18.576420779683314 -140.99326190211306 0 0 0 0 -78.106941801615903 15.675197452489968 0 15.675197452489968 -4.6070089178939888 0 0 0 0 -176.11546983665903 -78.357605209650998 0 -78.357605209650998 -40.991741862128791 0 0 0 0 -234.42217290717599 -83.299697699971787 0 -83.299697699971787 29.312171755808851 0 0 0 0 -499.26129092705924 318.90374624489039 0 318.90374624489039 -13.152595979014636 0 0 0 0 -364.3311761211171 186.72860940998743 0 186.72860940998743 6.2153512324232745 0 0 0 0 -268.68214286286093 129.88564455183246 0 129.88564455183246 39.77116921112728 0 0 0 0 -137.31158458489153 54.492964784004954 0 54.492964784004954 -25.173161368163434 0 0 0 0 -265.68612237850357 144.43110802428134 0 144.43110802428134 -29.639224810170397 0 0 0 0 -88.962895298525837 84.785708959483415 0 84.785708959483415 -45.791315435832644 0 0 0 0 11.593800054837629 29.180077343839287 0 29.180077343839287 -1.5086541241476255 0 0 0 0 1.9011855464422247 2.0465719341312729 0 2.0465719341312729 0.64134453879586761 0 0 0 0 -96.197953508925821 18.271579081984385 0 18.271579081984385 39.995807644874915 0 0 0 0 -57.851036447137631 111.7617116675231 0 111.7617116675231 -29.677974223880085 0 0 0 0 -10.84977002010055 36.067237536651191 0 36.067237536651191 -99.582984242300924 0 0 0 0 -178.00616156491378 216.58979155004042 0 216.58979155004042 -162.18119751842428 0 0 0 0 -0.58970790235125747 1.0846285900221115 0 1.0846285900221115 -0.50248070892912844 0 0 0 0 -61.414930686321895 276.19135864142601 0 276.19135864142601 -398.1604005067984 0 0 0 0 -497.04842433046997 4.630758795228834 0 4.630758795228834 -0.034578516310850932 0 0 0 0 -125.20225864865006 -325.69404932101611 0 -325.69404932101611 -336.95107713592415 0 0 0 0 -1.8103359377563137 0.5917984686908988 0 0.5917984686908988 -0.28273282661545551 0 0 0 0 -143.99060471004123 -56.110270504367953 0 -56.110270504367953 -43.776374077815269 0 0 0 0 -13.732199636375299 5.0088629919789298 0 5.0088629919789298 -1.1360416405937031 0 0 0 0 -165.49995139714338 -49.807958311505189 0 -49.807958311505189 -1.4706990861061158 0 0 0 0 -8.3534890959918613 2.094390995103657 0 2.094390995103657 1.7869927304761388 0 0 0 0 -172.1766349674499 -116.36927515781422 0 -116.36927515781422 -14.9442956092395 0 0 0 0 -348.76381649766779 -107.25167272337903 0 -107.25167272337903 33.775886684522739 0 0 0 0 -159.09170021342379 -125.67342050312121 0 -125.67342050312121 -86.01044587009045 0 0 0 0 -499.25082950137585 -229.87280119016518 0 -229.87280119016518 39.235753516412586 0 0 0 0 -345.93748857556693 -121.11408301742108 0 -121.11408301742108 54.327365632450196 0 0 0 0 -500.10100463611707 -105.82891207590815 0 -105.82891207590815 57.757605048027585 0 0 0 0 -531.62649472781322 -76.728226872956014 0 -76.728226872956014 6.5659459955952908 0 0 0 0 -412.76285678150293 -33.232861471865661 0 -33.232861471865661 9.7985200770971588 0 0 0 0 -1.0817049055342354 0.87176830586437859 0 0.87176830586437859 0.16414789537569383 0 0 0 0 107.16756413355324 66.822525559384957 0 66.822525559384957 22.741145258836681 0 0 0 0 -282.65232614426986 -104.7920640162889 0 -104.7920640162889 8.7301920626493512 0 0 0 0 -257.8059922412026 28.450813583784004 0 28.450813583784004 59.358683555411908 0 0 0 0 -25.097889512859183 28.802773521153412 0 28.802773521153412 10.513565895906254 0 0 0 0 -4.8866206921721584 2.7855147892507173 0 2.7855147892507173 -1.5918636270786366 0 0 0 0 -11.943276350482506 31.211636854891154 0 31.211636854891154 18.342797926575713 0 0 0 0 -23.218804423042457 40.865801386420117 0 40.865801386420117 15.093727781128109 0 0 0 0 -7.4581502588835065 5.8295013690409405 0 5.8295013690409405 0.7225458995592362 0 0 0 0 -38.176657406695085 11.068740315260811 0 11.068740315260811 21.079259705101776 0 0 0 0 -43.564653980954972 17.168769784424285 0 17.168769784424285 15.383375198373869 0 0 0 0 -32.5332129840981 -2.5811328275817687 0 -2.5811328275817687 4.6425602026640718 0 0 0 0 -42.896190484070758 -0.48653175238223412 0 -0.48653175238223412 7.8278963707703042 0 0 0 0 -46.113776485079143 -4.3681560387982472 0 -4.3681560387982472 6.4907286386493297 0 0 0 0 -46.475384484441747 -2.4722980688411553 0 -2.4722980688411553 12.79973117396878 0 0 0 0 0.16409491513646213 -0.020745158602567315 0 -0.020745158602567315 4.0688741200415599 0 0 0 0 -48.565481169283885 -5.1661033354847063 0 -5.1661033354847063 5.8052146102641018 0 0 0 0 45.952902831603751 78.944282698620768 0 78.944282698620768 60.962334901331474 0 0 0 0 23.482462648371666 31.404758399477345 0 31.404758399477345 54.817084939140059 0 0 0 0 -41.70228299757764 -7.2585067690019969 0 -7.2585067690019969 5.0425723816794061 0 0 0 0 -46.344552991029559 -7.7440301017024922 0 -7.7440301017024922 8.1582545382250373 0 0 0 0 94.812380804716668 -3.3699895895843639 0 -3.3699895895843639 -0.70369162394987939 0 0 0 0 -45.974961205867203 -1.9314568744417215 0 -1.9314568744417215 -7.1114933495614423 0 0 0 0 -44.938327416424727 -3.4346909005087127 0 -3.4346909005087127 -5.7291999726832046 0 0 0 0 -41.100735517817157 -0.6938384945919438 0 -0.6938384945919438 -4.3776061698645208 0 0 0 0 -45.827950044018507 -8.3021464473115429 0 -8.3021464473115429 -14.779625166630353 0 0 0 0 -47.259603996466012 -1.9597488542947588 0 -1.9597488542947588 -6.0994365159244808 0 0 0 0 -44.388403354747425 -3.3762253720589115 0 -3.3762253720589115 -8.1962555456772179 0 0 0 0 -43.13612048320465 -1.762552179063448 0 -1.762552179063448 -6.2564090867251707 0 0 0 0 -44.322600582638188 -3.7532634210248261 0 -3.7532634210248261 -6.0374428407872216 0 0 0 0 -45.85894383257255 -4.2144905791192286 0 -4.2144905791192286 1.4361097139354229 0 0 0 0 -41.325182225791281 -0.24492782698331972 0 -0.24492782698331972 -2.2073444142206426 0 0 0 0 -57.834083943176665 -4.538929979197917 0 -4.538929979197917 2.8155622915335243 0 0 0 0 -60.177559014384315 -14.649637141469498 0 -14.649637141469498 -5.4305214484346607 0 0 0 0 -47.634136118294919 2.6114345617477284 0 2.6114345617477284 7.825295883647982 0 0 0 0 -52.715994024812971 -0.82424531588611671 0 -0.82424531588611671 10.887196767320802 0 0 0 0 -66.655749699186345 7.0923600935207105 0 7.0923600935207105 24.025942414736164 0 0 0 0 -44.705832133780859 8.816166958931035 0 8.816166958931035 22.423363640173079 0 0 0 0 -37.212500916537465 0.12553697818856335 0 0.12553697818856335 10.36174073963457 0 0 0 0 -38.580729597136724 2.8395938071257376 0 2.8395938071257376 8.0224767888139468 0 0 0 0 151.46941348040068 51.906765806842998 0 51.906765806842998 15.788386205716193 0 0 0 0 -327.57414377537361 -56.866640364898394 0 -56.866640364898394 2.4061032906089599 0 0 0 0 -0.0030497252990078216 0.009682202413820562 0 0.009682202413820562 1.5019823480517291 0 0 0 0 -2.0996290224543204 2.5411002625778236 0 2.5411002625778236 0.45984171025458626 0 0 0 0 151.65848494060856 140.20904991848016 0 140.20904991848016 -32.02337965663061 0 0 0 0 -79.137356219686808 -2.9093482784477942 0 -2.9093482784477942 20.517206645413808 0 0 0 0 -389.34935448978376 -32.621650538902166 0 -32.621650538902166 29.667395413563167 0 0 0 0 -327.4125090287165 -51.691099380623321 0 -51.691099380623321 -22.473082817473497 0 0 0 0 -367.24725882092844 -80.889297635725455 0 -80.889297635725455 -21.529243266596801 0 0 0 0 -440.7781103826137 -77.566325769708442 0 -77.566325769708442 16.606039649439182 0 0 0 0 -499.90583493736995 -50.957283872883181 0 -50.957283872883181 30.571978873711533 0 0 0 0 -468.16459900799509 -19.944870628254407 0 -19.944870628254407 60.871134826066388 0 0 0 0 -465.77629089549464 -46.971151371829393 0 -46.971151371829393 -0.71051408106167191 0 0 0 0 -563.66974123930913 -136.23865377432935 0 -136.23865377432935 -1.7992179253848111 0 0 0 0 -486.11122733508 -124.80863051700669 0 -124.80863051700669 -36.061203630897722 0 0 0 0 -46.310190165757035 -53.29487841622668 0 -53.29487841622668 80.637982820723039 0 0 0 0 -98.2838103417198 -231.51601239228245 0 -231.51601239228245 102.70298343702069 0 0 0 0 -2.4952382648747218 -2.3521764363906037 0 -2.3521764363906037 -1.5685637438640849 0 0 0 0 -155.89139832514229 2.145280793592427 0 2.145280793592427 106.54182982116353 0 0 0 0 -499.26454658567491 -186.44673310470441 0 -186.44673310470441 100.74446819793545 0 0 0 0 -135.89239846845794 -220.08019971332334 0 -220.08019971332334 -252.51099736598596 0 0 0 0 65.75461147202077 4.3043030792675268 0 4.3043030792675268 -9.5689903068411013 0 0 0 0 178.61862410013782 -135.21321223719633 0 -135.21321223719633 -93.953834248821181 0 0 0 0 -238.80451687526511 2.8594369780622912 0 2.8594369780622912 31.187956899805002 0 0 0 0 -0.89362030441778018 -1.0899133162877401 0 -1.0899133162877401 -1.1233464528084656 0 0 0 0 -42.206545771470701 -21.586717862223452 0 -21.586717862223452 -10.782981399394089 0 0 0 0 -131.97386406763326 -135.62737242576412 0 -135.62737242576412 -100.09161219554164 0 0 0 0 -122.18720034175146 -43.463706658564263 0 -43.463706658564263 8.2432497289210573 0 0 0 0 -55.859100796472376 -4.7561086196327693 0 -4.7561086196327693 25.480843794111081 0 0 0 0 -115.52387601981991 15.601293606866534 0 15.601293606866534 32.328864195213193 0 0 0 0 -103.17967464527101 9.7744853431098733 0 9.7744853431098733 44.648687299628378 0 0 0 0 -97.587324674279444 9.4188426322363696 0 9.4188426322363696 8.9311632486860049 0 0 0 0 -90.425432226447811 -2.0445969601068299 0 -2.0445969601068299 13.781175803016367 0 0 0 0 -105.42361258695018 16.147694758066859 0 16.147694758066859 5.6238571261642054 0 0 0 0 -78.010411280779408 18.234508790392297 0 18.234508790392297 -0.15137190679500634 0 0 0 0 -102.51412656549928 -11.530493242475526 0 -11.530493242475526 -27.10240606712026 0 0 0 0 -90.599618089931255 -39.399650850409714 0 -39.399650850409714 -19.733257812552267 0 0 0 0 -172.72619024176038 -31.682811950929313 0 -31.682811950929313 -6.4931672784111321 0 0 0 0 -17.830927451011121 26.586333941050725 0 26.586333941050725 39.584117970976422 0 0 0 0 -499.56105065002612 96.991917333157929 0 96.991917333157929 110.96422981281711 0 0 0 0 66.225315696193093 -140.41451695445198 0 -140.41451695445198 -94.743672662434662 0 0 0 0 -1.5385497945892936 -1.0892546232233737 0 -1.0892546232233737 -0.78199790218807896 0 0 0 0 -115.33827945321991 -209.00495790493173 0 -209.00495790493173 -109.67652380942143 0 0 0 0 -498.64217048484443 -155.81828965441119 0 -155.81828965441119 21.103325984809278 0 0 0 0 -258.17887712887818 -15.32135434011243 0 -15.32135434011243 1.6597039013599542 0 0 0 0 -260.71451893675021 -98.290120257988491 0 -98.290120257988491 32.773668694768162 0 0 0 0 -500.13309882885181 -2.6199042802730483 0 -2.6199042802730483 66.359159316509604 0 0 0 0 -305.84628841336144 10.006366129018504 0 10.006366129018504 65.712478588582002 0 0 0 0 -268.90981645222246 71.985863115555972 0 71.985863115555972 -21.250663992047592 0 0 0 0 -499.92742595717618 124.72706577333582 0 124.72706577333582 60.194233753427667 0 0 0 0 -118.87371182889501 -26.323499209095441 0 -26.323499209095441 -0.98772123536578604 0 0 0 0 -115.18955279599436 -15.515270442658244 0 -15.515270442658244 -56.562966421824001 0 0 0 0 -168.90827486817034 2.6397334789526212 0 2.6397334789526212 -22.953697650552151 0 0 0 0 -164.16013223660411 0.15526784477569677 0 0.15526784477569677 -24.79380103783399 0 0 0 0 -178.66023693271836 -11.188592203201674 0 -11.188592203201674 -16.50421590255911 0 0 0 0 -121.23874706702736 -7.1657518350066169 0 -7.1657518350066169 -24.096145385117257 0 0 0 0 -118.63918722924927 2.5869897816527185 0 2.5869897816527185 9.2843574550141454 0 0 0 0 -95.272793660594289 -2.6576611131340826 0 -2.6576611131340826 -30.316872305142969 0 0 0 0 -165.79475288420144 -6.9285089916404914 0 -6.9285089916404914 -5.9378411606253962 0 0 0 0 -146.21723697972539 -38.378151394345707 0 -38.378151394345707 -38.068156830860843 0 0 0 0 -121.49244656890005 -4.4115704898572741 0 -4.4115704898572741 -27.745985460940165 0 0 0 0 -76.485002898229141 12.473415563361328 0 12.473415563361328 -24.235344849761759 0 0 0 0 -123.03571840868221 12.920882367676429 0 12.920882367676429 -13.301816686123551 0 0 0 0 -60.659388969404972 13.984992455742535 0 13.984992455742535 -17.400235885221861 0 0 0 0 -34.387783084033799 7.1596824698111874 0 7.1596824698111874 -27.781539860207911 0 0 0 0 -38.176875815190215 2.2786218907034383 0 2.2786218907034383 -14.860209842277186 0 0 0 0 -39.891097325971259 2.5487364404492849 0 2.5487364404492849 -6.7505445618578435 0 0 0 0 -18.405746744600947 1.7293723953154014 0 1.7293723953154014 -18.313587199126317 0 0 0 0 -43.428048529565785 -3.420388816127339 0 -3.420388816127339 -16.579139485239391 0 0 0 0 -66.076434243016593 29.633041056824808 0 29.633041056824808 -18.307269986332145 0 0 0 0 -112.05666761981229 -19.712901500168574 0 -19.712901500168574 -15.540688838499005 0 0 0 0 13.13771957712288 4.5935317453859099 0 4.5935317453859099 -5.7782731108056851 0 0 0 0 -9.3246157699713876 10.211742554686452 0 10.211742554686452 -4.8557678454646869 0 0 0 0 -8.7113482611912332 0.59543604389818938 0 0.59543604389818938 4.0830374605186535 0 0 0 0 0.0011916966096841008 0.12213722129184212 0 0.12213722129184212 0.28167168014421928 0 0 0 0 -68.876440667020915 29.523687830395694 0 29.523687830395694 5.3051835869821176 0 0 0 0 -158.38956083185985 -12.374972293491089 0 -12.374972293491089 15.105845365838226 0 0 0 0 -17.836557099465608 -6.4527381710908003 0 -6.4527381710908003 -2.4538294417639861 0 0 0 0 -21.983382781655564 -9.0823264627517943 0 -9.0823264627517943 -0.32257818530408144 0 0 0 0 -25.646765705045254 -10.435832352130511 0 -10.435832352130511 -0.74599871057193923 0 0 0 0 -7.510502882320452 0.36226403710530519 0 0.36226403710530519 -0.26839721604174827 0 0 0 0 -16.564778323914652 -7.6531776500045225 0 -7.6531776500045225 -1.419292768337332 0 0 0 0 -21.560379221944459 -7.0092848836130948 0 -7.0092848836130948 -1.3078734607301854 0 0 0 0 -16.66738376125204 -6.5689572324507841 0 -6.5689572324507841 -10.035514337715588 0 0 0 0 -20.248909295742124 -7.915409364064601 0 -7.915409364064601 -2.5454853781280953 0 0 0 0 -19.788278641426587 -6.4884160154358632 0 -6.4884160154358632 -7.5349601981187817 0 0 0 0 -17.927273362348885 -6.8264562258910431 0 -6.8264562258910431 -13.033045338507414 0 0 0 0 -17.916096534355347 -5.1489927540728431 0 -5.1489927540728431 -16.280452643866923 0 0 0 0 -22.20627654017062 -5.6757130549759829 0 -5.6757130549759829 -10.003162275810025 0 0 0 0 -26.585201652856995 2.8765342753416547 0 2.8765342753416547 -22.491035582725942 0 0 0 0 -25.362822920894359 -2.8020408661926766 0 -2.8020408661926766 -13.617408172230569 0 0 0 0 -21.385314797083993 -1.0389745291551833 0 -1.0389745291551833 -16.346568775176973 0 0 0 0 -18.367959013066866 -3.6545509163241725 0 -3.6545509163241725 -13.880480287077212 0 0 0 0 -19.73638238004969 -4.2206355716605373 0 -4.2206355716605373 -12.79162485158696 0 0 0 0 -18.887845914508944 -1.4744026653338551 0 -1.4744026653338551 -15.186087816943797 0 0 0 0 -22.230363374438639 -0.75058525008142851 0 -0.75058525008142851 -10.735154988285188 0 0 0 0 -18.675611309615306 1.7894809470342139 0 1.7894809470342139 -13.400583261780412 0 0 0 0 -19.361718230735733 2.3124977071308237 0 2.3124977071308237 -7.1124696289907661 0 0 0 0 -22.448911172919907 3.7473675380299198 0 3.7473675380299198 -8.059822213478526 0 0 0 0 -16.77282330575963 4.9025769862770971 0 4.9025769862770971 -8.9004953756211762 0 0 0 0 -29.001648928724535 2.0960915557184876 0 2.0960915557184876 -12.049915568844767 0 0 0 0 -24.388711624340885 -2.0395491920147819 0 -2.0395491920147819 -10.592334422321642 0 0 0 0 -22.787065382402943 1.243130611683064 0 1.243130611683064 -17.847147732951413 0 0 0 0 -30.570390614711869 -2.0707670029304666 0 -2.0707670029304666 -12.767303486105448 0 0 0 0 -39.252511011708521 1.0589943208347705 0 1.0589943208347705 -11.185738687393581 0 0 0 0 -39.393933924645353 4.1898320246582301 0 4.1898320246582301 -16.860093062854219 0 0 0 0 -65.764908710874806 7.7595829742647311 0 7.7595829742647311 -8.9912195506199026 0 0 0 0 -73.445565708958839 4.1038107954885739 0 4.1038107954885739 -7.3822929485384918 0 0 0 0 -61.889123198262951 -0.24813361664647005 0 -0.24813361664647005 -3.9789757833499664 0 0 0 0 -44.155567807690204 -5.0592374617787073 0 -5.0592374617787073 -3.2277686394557747 0 0 0 0 -42.919154230942922 -7.8830873369147625 0 -7.8830873369147625 -7.8851751017311926 0 0 0 0 -20.930929697241481 -3.6527186614706579 0 -3.6527186614706579 -11.091021461008893 0 0 0 0 -36.481823563324724 -11.418833595863163 0 -11.418833595863163 -5.8449382166804753 0 0 0 0 -74.4879626311631 -16.173514731662465 0 -16.173514731662465 22.689806999272605 0 0 0 0 -72.866883991015129 -19.6336615151437 0 -19.6336615151437 -2.2842588840100007 0 0 0 0 -34.519065765849518 -18.124849228284234 0 -18.124849228284234 -9.5609159457100645 0 0 0 0 -10.943952568611166 -17.595915784232346 0 -17.595915784232346 -16.205029445767082 0 0 0 0 -54.28851574024884 -38.906876939783501 0 -38.906876939783501 -22.720722468967892 0 0 0 0 -49.678553592833396 -17.497105839706904 0 -17.497105839706904 -2.4190941344252224 0 0 0 0 -10.53377836384243 17.306041496738374 0 17.306041496738374 20.581357191813595 0 0 0 0 -0.26099624848120584 6.879441529812965 0 6.879441529812965 -6.143032851201613 0 0 0 0 -9.787171471190959 12.776016980239149 0 12.776016980239149 -0.44111055221947026 0 0 0 0 -17.904201787267084 1.3176052048212341 0 1.3176052048212341 -5.1504566617868761 0 0 0 0 -17.472394458116469 5.1875401977741262 0 5.1875401977741262 21.681976055552582 0 0 0 0 -15.236765329189438 9.1508239520321126 0 9.1508239520321126 5.9825055502889199 0 0 0 0 -18.296153592542396 8.9549042422943899 0 8.9549042422943899 6.1765247936644556 0 0 0 0 -20.642595694847842 8.0242843068353693 0 8.0242843068353693 17.433949800938592 0 0 0 0 -15.526616868890414 4.6354274790801355 0 4.6354274790801355 -2.960511068300093 0 0 0 0 -18.435302234966002 6.0694006524082198 0 6.0694006524082198 -3.6590346450194602 0 0 0 0 -16.640255004047503 4.1979288479929266 0 4.1979288479929266 -9.9567127432089819 0 0 0 0 -18.721343714745672 3.3559226038973975 0 3.3559226038973975 -11.130434856068128 0 0 0 0 -23.097086311491239 2.7285426599893441 0 2.7285426599893441 -4.0919741223161736 0 0 0 0 -13.584194205135645 7.5511244581610981 0 7.5511244581610981 -4.6874728241981529 0 0 0 0 -19.907590222027466 2.8896580831035692 0 2.8896580831035692 -3.7829200511779391 0 0 0 0 -14.177844861025733 0.27849291915092067 0 0.27849291915092067 -3.1904663404125131 0 0 0 0 -19.666871443036143 8.7946948208968934 0 8.7946948208968934 -5.0955087561283108 0 0 0 0 -27.742050709460273 7.0831848154185764 0 7.0831848154185764 -0.87134474797164785 0 0 0 0 -23.634941824185262 -6.5608318642093906 0 -6.5608318642093906 1.0764052801737307 0 0 0 0 -0.89001478089719654 1.1545189296280856 0 1.1545189296280856 0.18927742850025997 0 0 0 0 -20.418755842239989 6.5540656029866682 0 6.5540656029866682 -2.7683255718071109 0 0 0 0 -19.250032153813663 4.2829816826699698 0 4.2829816826699698 0.040303036403656733 0 0 0 0 -18.137051923187755 7.2599255788682626 0 7.2599255788682626 -3.3403898223890565 0 0 0 0 -18.693049017534577 6.6369419255264575 0 6.6369419255264575 1.9144629743735209 0 0 0 0 -18.009055423952304 5.859206230575893 0 5.859206230575893 -3.9396940715992912 0 0 0 0 -17.482632174171158 5.5938672718849034 0 5.5938672718849034 -3.8090665696664132 0 0 0 0 -16.492982493005002 8.0895617255944217 0 8.0895617255944217 -2.2089236429417269 0 0 0 0 -17.974039711743899 5.7782907589269712 0 5.7782907589269712 -2.6936063952460927 0 0 0 0 -15.972221718160654 3.0659915226492558 0 3.0659915226492558 2.5410200792408091 0 0 0 0 -29.04949567872427 1.1842181431933341 0 1.1842181431933341 4.7320170516097164 0 0 0 0 -21.637573898011638 1.2045316463659788 0 1.2045316463659788 0.89321913757135318 0 0 0 0 -23.187768507499186 8.0458347692840846 0 8.0458347692840846 8.7986498423192074 0 0 0 0 -26.076568300792133 8.4510064462200489 0 8.4510064462200489 39.576808272941946 0 0 0 0 -8.144254455492046 11.018091617164941 0 11.018091617164941 -6.7348657199206627 0 0 0 0 -25.534152697760874 -2.8526885544414426 0 -2.8526885544414426 22.241485201475029 0 0 0 0 -26.633776212904195 -0.6656619441289422 0 -0.6656619441289422 23.774313826500077 0 0 0 0 -20.255039645877332 5.1865830841153979 0 5.1865830841153979 28.278116701517831 0 0 0 0 -26.317906894626503 -3.3133660782334289 0 -3.3133660782334289 25.75977069181738 0 0 0 0 -27.147882592209498 -1.0779617731548683 0 -1.0779617731548683 28.365989773060392 0 0 0 0 -14.468230670189484 0.44249908346742473 0 0.44249908346742473 0.0085405313442402792 0 0 0 0 -9.7143769141839584 3.034283446537188 0 3.034283446537188 -1.8533553941705918 0 0 0 0 -8.9596683923664528 0.33113311371686471 0 0.33113311371686471 0.68375978759553646 0 0 0 0 -7.0221664655728091 0.038033811679468954 0 0.038033811679468954 2.1866956264286301 0 0 0 0 -10.446241428052806 2.2467174221025168 0 2.2467174221025168 1.2929542426573841 0 0 0 0 -20.646603904517047 -4.2880817838044125 0 -4.2880817838044125 0.2049435375948141 0 0 0 0 -23.064111549807421 -6.9509303088109391 0 -6.9509303088109391 20.671895579359671 0 0 0 0 -13.898785459401552 -3.8221603436905127 0 -3.8221603436905127 -7.2216009596263575 0 0 0 0 -41.404959772582515 -12.003981663018521 0 -12.003981663018521 8.4370417408047729 0 0 0 0 -13.321512874255859 -0.084432918517904909 0 -0.084432918517904909 46.457810132846362 0 0 0 0 -3.635573202328338 0.37540295027601545 0 0.37540295027601545 1.1635411059726035 0 0 0 0 -26.189324317601859 -3.7490342059815021 0 -3.7490342059815021 34.8749823481335 0 0 0 0 -21.338860670184658 -26.141580893860692 0 -26.141580893860692 30.160959063126256 0 0 0 0 -27.413374054835003 -4.7025417997589898 0 -4.7025417997589898 27.443601302995035 0 0 0 0 -26.886559408172616 -5.9805483901570824 0 -5.9805483901570824 28.36827204386293 0 0 0 0 -2.3497563825052339 -4.2350601875643008 0 -4.2350601875643008 0.53076914597242841 0 0 0 0 -24.577723880880512 6.461484773851339 0 6.461484773851339 -6.7011899674473909 0 0 0 0 -31.960916574530529 -6.7381739933868232 0 -6.7381739933868232 6.5534819333752239 0 0 0 0 -36.039199907837428 -0.028165575813375199 0 -0.028165575813375199 12.976760935103357 0 0 0 0 -30.774765633137577 4.7384586798553983 0 4.7384586798553983 19.147177919972137 0 0 0 0 -29.95134052729918 -3.7016328370575593 0 -3.7016328370575593 15.177123029959034 0 0 0 0 17.535339219253729 -19.981312249714904 0 -19.981312249714904 10.0485190841041 0 0 0 0 -1.1347349261141189 -0.20727266674154521 0 -0.20727266674154521 -0.88089958999342466 0 0 0 0 2.4662219521924271 -0.024087071824226314 0 -0.024087071824226314 -1.9865707464186926 0 0 0 0 -17.499759892460133 -4.0736614662198463 0 -4.0736614662198463 6.475874730711439 0 0 0 0 -22.076285836623356 -0.27327344436002932 0 -0.27327344436002932 5.2773093463210898 0 0 0 0 -10.415114344052199 -15.685242394156091 0 -15.685242394156091 15.025097158031485 0 0 0 0 -10.356055637796089 -11.876208577880789 0 -11.876208577880789 14.074088937822864 0 0 0 0 -1.0497933983701841 -36.542416358360356 0 -36.542416358360356 41.722877299132733 0 0 0 0 -52.133682862100613 -12.772484435660203 0 -12.772484435660203 52.011352279932908 0 0 0 0 -27.125302995832499 -36.609263414493853 0 -36.609263414493853 72.604184691625846 0 0 0 0 -108.65283781119615 51.78528016016628 0 51.78528016016628 103.18528472193833 0 0 0 0 -29.411185963083426 5.7342841462249226 0 5.7342841462249226 3.1671652871573315 0 0 0 0 -46.442172926755575 18.427408016491803 0 18.427408016491803 7.3556861021145323 0 0 0 0 -21.670254600112457 10.797060519653201 0 10.797060519653201 -1.1002171842558823 0 0 0 0 -16.278033219014105 2.5642961611534645 0 2.5642961611534645 3.1258942105093865 0 0 0 0 -2.3786442296523091 -22.68738365680565 0 -22.68738365680565 -74.190465848544022 0 0 0 0 -1.2183239614988146 -0.27047813913462021 0 -0.27047813913462021 -0.13758681018550933 0 0 0 0 -7.9341058907568609 -3.7572300859827932 0 -3.7572300859827932 -12.122844675079023 0 0 0 0 -7.9174822777622467 -5.2646609521661958 0 -5.2646609521661958 -30.991815632828434 0 0 0 0 0.14955650856304684 -0.032919742287456089 0 -0.032919742287456089 -1.6574538404269052 0 0 0 0 -35.988150299021072 68.776040579249468 0 68.776040579249468 -59.047221109128486 0 0 0 0 -38.788147059158291 -42.242918320777363 0 -42.242918320777363 12.794032272394361 0 0 0 0 25.838043163372276 33.62140242972086 0 33.62140242972086 -154.61050499062401 0 0 0 0 -26.795149042602134 -48.275086410528388 0 -48.275086410528388 -36.340206282443773 0 0 0 0 -14.656470810557948 -1.0226857738453106 0 -1.0226857738453106 -7.789656818003678 0 0 0 0 -14.12969832311046 -2.1008727271428356 0 -2.1008727271428356 -5.651124036692849 0 0 0 0 -17.442507379231756 -0.026115800504214803 0 -0.026115800504214803 -5.3070316963201094 0 0 0 0 -17.0760674072244 -1.659224915121797 0 -1.659224915121797 -3.7861918749221104 0 0 0 0 -17.01666716165164 -1.6992010576312566 0 -1.6992010576312566 1.2614652019462937 0 0 0 0 -18.564226878275804 3.5653132270739434 0 3.5653132270739434 1.1815922543849968 0 0 0 0 -17.951221938727031 4.6563936963470383 0 4.6563936963470383 -1.3705054743918481 0 0 0 0 -18.209593380630395 1.0254439935199002 0 1.0254439935199002 -0.93286601676044256 0 0 0 0 -18.654759293177449 4.2198490106432089 0 4.2198490106432089 -3.2708143587714176 0 0 0 0 -18.619464719384268 4.8205404146830233 0 4.8205404146830233 -2.0242547733442962 0 0 0 0 -18.28532429151528 4.9236931532280721 0 4.9236931532280721 -5.5869662864254224 0 0 0 0 -18.172597546998077 1.8527798558571362 0 1.8527798558571362 -6.7177008857796068 0 0 0 0 -18.687986603608806 2.4951060650453201 0 2.4951060650453201 -4.5910829089528562 0 0 0 0 -18.331740545378125 2.7606263231919002 0 2.7606263231919002 -8.4268724420305716 0 0 0 0 -18.89938096904342 -1.3518054218623821 0 -1.3518054218623821 -9.5079769264177685 0 0 0 0 -18.08849088023635 -1.1774224906976514 0 -1.1774224906976514 -10.289837736783738 0 0 0 0 -18.267468191392254 -0.71678124969481871 0 -0.71678124969481871 -5.6508494711285095 0 0 0 0 -17.195845414245014 -0.87078881114313589 0 -0.87078881114313589 -7.9241754912203248 0 0 0 0 -18.465163874614063 -7.9173488070272828 0 -7.9173488070272828 -13.488811224334455 0 0 0 0 -17.586181184442466 -4.476828210507108 0 -4.476828210507108 -9.8969658787639361 0 0 0 0 -17.516984286234219 -4.6221354808632817 0 -4.6221354808632817 -12.84943268934164 0 0 0 0 -18.87465692566002 -4.1569041733092433 0 -4.1569041733092433 -7.9542778093242461 0 0 0 0 -17.20299515160832 -1.0256330509370528 0 -1.0256330509370528 -5.8150197344801455 0 0 0 0 -21.281998409182961 -5.3392529464799168 0 -5.3392529464799168 -6.5364889752684832 0 0 0 0 -37.865178980428027 -11.259490192308668 0 -11.259490192308668 5.0833828623750605 0 0 0 0 -17.506397670706065 -4.1400299327295933 0 -4.1400299327295933 -8.4549726160596386 0 0 0 0 -17.034951369066221 -4.9768569948166501 0 -4.9768569948166501 -15.795652616733021 0 0 0 0 -22.115127828330515 -5.1562285145141047 0 -5.1562285145141047 -0.99202332235566359 0 0 0 0 -22.644015077697986 -2.6919057415455754 0 -2.6919057415455754 3.2191911752087918 0 0 0 0 -68.531715285476821 -18.384316960819547 0 -18.384316960819547 17.7098345852107 0 0 0 0 -16.177369467484823 0.66461887402365605 0 0.66461887402365605 -5.9257631135613664 0 0 0 0 0.09928261145494699 0.24207544599127395 0 0.24207544599127395 0.11726222324058157 0 0 0 0 9.304282523927327 -16.898267208593985 0 -16.898267208593985 -64.341223064916505 0 0 0 0 -1.4016984179057261 -0.31757148228123455 0 -0.31757148228123455 0.59045112725032411 0 0 0 0 -15.708738247534939 -0.67366841262321397 0 -0.67366841262321397 -2.7520597836060574 0 0 0 0 -3.7718134892214721 3.3610180345646405 0 3.3610180345646405 12.610003726108459 0 0 0 0 -24.673204214981524 -8.1727711430978474 0 -8.1727711430978474 1.0460211306890983 0 0 0 0 -24.015102158226 -7.4949995551484392 0 -7.4949995551484392 0.40410647478253736 0 0 0 0 -24.361588177251178 -7.7332644660359904 0 -7.7332644660359904 0.42532848621621611 0 0 0 0 -25.698081906608422 -5.5849974980599129 0 -5.5849974980599129 2.3654580764040531 0 0 0 0 -12.140010310181765 -5.5773885707958071 0 -5.5773885707958071 -2.5142814610662372 0 0 0 0 -6.7719041872562684 -38.303414399394114 0 -38.303414399394114 32.613400409751193 0 0 0 0 -11.761973917897194 -19.299747808891738 0 -19.299747808891738 9.7258458080629282 0 0 0 0 -17.463178547059215 4.725129133674983 0 4.725129133674983 20.617985256308017 0 0 0 0 -13.385697354751755 -3.1391453221662573 0 -3.1391453221662573 14.443728133381825 0 0 0 0 -29.062745893052124 -6.2945257165611679 0 -6.2945257165611679 18.420297052718794 0 0 0 0 -8.4835061498597497 -20.073830902343992 0 -20.073830902343992 -4.5150363473925097 0 0 0 0 -7.7417350747728051 -12.315689970176976 0 -12.315689970176976 -59.774579332990157 0 0 0 0 -7.245774938388422 -7.0146955402534701 0 -7.0146955402534701 -9.2332192204821126 0 0 0 0 -7.9671874492851202 -8.902932707189656 0 -8.902932707189656 -8.3558346877879899 0 0 0 0 -8.3831609941644274 -8.0335202099218108 0 -8.0335202099218108 -10.142363385904201 0 0 0 0 -9.4277347843963071 -9.0099571360160269 0 -9.0099571360160269 4.447727855538119 0 0 0 0 -7.5100776751733065 -7.9661303261675727 0 -7.9661303261675727 -4.1480078339535122 0 0 0 0 -8.5980518488345297 -10.618518375955574 0 -10.618518375955574 0.16724314774492299 0 0 0 0 -10.216688496138886 -3.5237985985303908 0 -3.5237985985303908 -4.8923489000111999 0 0 0 0 -11.821451048727795 -6.2015347941087882 0 -6.2015347941087882 -2.7062963999041756 0 0 0 0 -10.019965794075688 -4.2011704413065445 0 -4.2011704413065445 -3.5585279674640162 0 0 0 0 -18.165454494906953 4.4770291013862504 0 4.4770291013862504 11.302287236268057 0 0 0 0 -19.217694738295904 -0.084625809147667042 0 -0.084625809147667042 -3.0381407983085182 0 0 0 0 -14.9266413569012 -5.3745883847597042 0 -5.3745883847597042 1.5083514085879415 0 0 0 0 -11.09965976156127 16.798648546134359 0 16.798648546134359 -4.9135464626257317 0 0 0 0 -0.052775941722299491 0.16809313857547714 0 0.16809313857547714 -0.73519189354063419 0 0 0 0 -17.973741274202439 18.255075444815134 0 18.255075444815134 20.609565490903947 0 0 0 0 -8.9512724162959785 -3.176045357000536 0 -3.176045357000536 -15.915816677144505 0 0 0 0 -19.348339836262312 11.930961950809262 0 11.930961950809262 -7.7387130180788972 0 0 0 0 -37.925352960794044 -1.4635998454444916 0 -1.4635998454444916 53.174811099733347 0 0 0 0 -35.538476199946217 -14.143009735012946 0 -14.143009735012946 6.5326933994517731 0 0 0 0 -22.612023367330039 -13.85772028154355 0 -13.85772028154355 -1.5194109240865146 0 0 0 0 -17.61392049375263 -8.8376463834333663 0 -8.8376463834333663 2.3773024598413599 0 0 0 0 -28.554557989193199 -7.2314176314023371 0 -7.2314176314023371 12.033395319480789 0 0 0 0 -25.023267858079635 -26.682174665212187 0 -26.682174665212187 -19.912842794102403 0 0 0 0 -27.133469356469504 -20.834047036643767 0 -20.834047036643767 9.8516420441548007 0 0 0 0 -15.665779179551805 -12.807060820005749 0 -12.807060820005749 -3.7093290005532253 0 0 0 0 -15.703174454321299 -12.280448398760678 0 -12.280448398760678 -4.3505199365519047 0 0 0 0 -5.6574370446160174 -9.5995004167820071 0 -9.5995004167820071 -16.42135991559087 0 0 0 0 -5.5580439081004442 -7.0155522567811204 0 -7.0155522567811204 -6.3137107898614317 0 0 0 0 1.3954699245387019 -7.3350811342776865 0 -7.3350811342776865 -7.5164778095976317 0 0 0 0 -7.2666719711523911 -8.7478322731709568 0 -8.7478322731709568 -2.2804409817330225 0 0 0 0 -11.346943485130396 -10.971397283224292 0 -10.971397283224292 -4.1007015852718638 0 0 0 0 -8.5695900077525948 -7.2630637291102857 0 -7.2630637291102857 -2.4612714317437394 0 0 0 0 0.15723151526381152 0.29762951683913208 0 0.29762951683913208 0.267049186365935 0 0 0 0 -0.27476066768420182 0.24410417143327123 0 0.24410417143327123 0.059701142561519926 0 0 0 0 9.0822895787896414 -2.5030023189220856 0 -2.5030023189220856 -9.3853209750667475 0 0 0 0 -34.339241974489482 -13.108410658150902 0 -13.108410658150902 -10.314169377336611 0 0 0 0 -35.723906381306506 -29.020158252817566 0 -29.020158252817566 -9.8796447406807602 0 0 0 0 -1.1844263882289852 -0.53726862020538135 0 -0.53726862020538135 -0.84775590837944037 0 0 0 0 -20.486937635261711 -2.0729420335060138 0 -2.0729420335060138 3.2177517883684272 0 0 0 0 -10.317959525918695 -8.3636861046333024 0 -8.3636861046333024 -0.034378617069137363 0 0 0 0 -2.7826699325401485 -0.78842527886652647 0 -0.78842527886652647 0.31683909381255304 0 0 0 0 -31.056528297158366 9.1009076409710019 0 9.1009076409710019 -6.5780552269631016 0 0 0 0 -6.7732970470424334 -3.3925599534132971 0 -3.3925599534132971 2.3069527844910453 0 0 0 0 -8.1855897323912359 -5.3332035625718959 0 -5.3332035625718959 1.3291806119376872 0 0 0 0 -7.0742843560365145 -7.7265234482630092 0 -7.7265234482630092 -2.0989556102746292 0 0 0 0 -8.330147488084549 -8.2577352639900425 0 -8.2577352639900425 -1.1369868473813938 0 0 0 0 -9.7267982063349336 -6.8349835068887899 0 -6.8349835068887899 0.13577344391285351 0 0 0 0 -9.8208059395019518 -8.8630806056150675 0 -8.8630806056150675 -1.3498039212917519 0 0 0 0 -10.801485432170011 -6.2103576070683175 0 -6.2103576070683175 -3.031502844813275 0 0 0 0 -4.5183274950977648 -5.2623794527829659 0 -5.2623794527829659 -0.89289899375330606 0 0 0 0 -8.0048021973889263 -8.0016159512331342 0 -8.0016159512331342 -1.3687764016834052 0 0 0 0 -7.8450466819158464 -8.2574138353494888 0 -8.2574138353494888 -2.4656468139678793 0 0 0 0 -8.870101886403063 -8.6287569536799289 0 -8.6287569536799289 -1.0250813990353294 0 0 0 0 -8.0212835682414152 -7.1819575964711362 0 -7.1819575964711362 2.5733717102298783 0 0 0 0 -8.7596432128393644 -9.8046579081751908 0 -9.8046579081751908 -0.39338269608818166 0 0 0 0 -8.1520462808566663 -8.4410092100341103 0 -8.4410092100341103 -0.24564138962044879 0 0 0 0 -8.2881980189058595 -9.354770727616998 0 -9.354770727616998 -1.5634277105920376 0 0 0 0 -8.5725395690060395 -8.974098597508906 0 -8.974098597508906 -0.32534456879899665 0 0 0 0 -13.490409229561495 -5.7762542714218137 0 -5.7762542714218137 -1.9420311846723375 0 0 0 0 -8.685288856167972 -8.819868868079773 0 -8.819868868079773 -0.34542993066251881 0 0 0 0 -8.6414504409585788 -8.7101708287520836 0 -8.7101708287520836 -1.2960829757588073 0 0 0 0 -9.126886723912321 -8.8126120000428294 0 -8.8126120000428294 -0.33769167263461952 0 0 0 0 -4.0651761231374621 -8.6585865713534531 0 -8.6585865713534531 20.484709420772347 0 0 0 0 -25.401808580741999 -10.017758251098712 0 -10.017758251098712 59.950982892124955 0 0 0 0 -36.324975273291329 22.788762561140743 0 22.788762561140743 61.266678801854596 0 0 0 0 -10.650156937950669 5.5944522228492133 0 5.5944522228492133 21.184153287397322 0 0 0 0 -8.9407516000865144 10.550577071072894 0 10.550577071072894 6.5000521798397131 0 0 0 0 -7.8948931896549936 10.910592156941291 0 10.910592156941291 6.106606638924859 0 0 0 0 -1.7485467716387575 3.0959876985725714 0 3.0959876985725714 4.0700823418574146 0 0 0 0 -2.7028665557774048 1.6331322361743048 0 1.6331322361743048 -21.730711088558564 0 0 0 0 -3.7091737970648637 3.17529809121379 0 3.17529809121379 1.0510003075328314 0 0 0 0 -7.5581402953942813 5.4663352103891469 0 5.4663352103891469 3.1099559094559481 0 0 0 0 -8.8468149116479253 17.823995708078655 0 17.823995708078655 -1.662297073173022 0 0 0 0 -10.103957211581815 5.2957003985530235 0 5.2957003985530235 -5.9933195644775878 0 0 0 0 -9.9377344950007682 -7.4521081337520627 0 -7.4521081337520627 5.5478449420266713 0 0 0 0 -16.222022280675446 75.068515003596303 0 75.068515003596303 -16.269190788631477 0 0 0 0 -16.725782319165774 -83.34195927661608 0 -83.34195927661608 -69.227544030095487 0 0 0 0 4.3901213980097964 40.577798443947358 0 40.577798443947358 -67.338136669180699 0 0 0 0 -32.627837891644049 64.866255295831934 0 64.866255295831934 25.928200527958893 0 0 0 0 -20.988518075720947 -10.243251036230816 0 -10.243251036230816 8.4290188626271174 0 0 0 0 -0.98083187874749456 -3.0687703686184022 0 -3.0687703686184022 -1.4446814468826688 0 0 0 0 -0.9494030037395591 -2.398511288385393 0 -2.398511288385393 -0.50997888062254759 0 0 0 0 -8.0289938983391949 -4.5097977675524135 0 -4.5097977675524135 -1.0955398359593573 0 0 0 0 -4.0389819340628703 -1.9477036636441225 0 -1.9477036636441225 1.9169156677562711 0 0 0 0 -1.0440281610846818 0.090013862728245186 0 0.090013862728245186 -0.3663494689288429 0 0 0 0 -2.1887246943306309 -1.8420469605071048 0 -1.8420469605071048 9.6551664402936694 0 0 0 0 -15.698554818498451 11.247154299022441 0 11.247154299022441 13.686956634739545 0 0 0 0 -13.047729832942423 14.784021915416815 0 14.784021915416815 -7.9676892000497901 0 0 0 0 0.27927160747814206 0.51908374244139477 0 0.51908374244139477 -0.085824202232683167 0 0 0 0 -6.6895354962023879 -0.23369665659966454 0 -0.23369665659966454 2.0557451855326794 0 0 0 0 -7.4211407014931865 -3.5483715527911386 0 -3.5483715527911386 -1.602452033103873 0 0 0 0 -8.7547743633557911 -4.6106080206524114 0 -4.6106080206524114 -1.5832393256455926 0 0 0 0 -4.0208247425417696 -1.5007797738482953 0 -1.5007797738482953 -0.022677309206977636 0 0 0 0 -22.572027793201414 -10.397864947372321 0 -10.397864947372321 -2.5635035950093652 0 0 0 0 -21.646236210973257 -13.223871072573047 0 -13.223871072573047 1.6151199800306131 0 0 0 0 -16.625075837115673 -8.3924650378828574 0 -8.3924650378828574 -1.3175902529782206 0 0 0 0 -12.30739671904661 -4.3165136718921246 0 -4.3165136718921246 -1.4374204502710259 0 0 0 0 -14.801651996680221 -6.1049954119989138 0 -6.1049954119989138 1.4199867005897886 0 0 0 0 -10.785426318341251 -4.7369218794422157 0 -4.7369218794422157 -2.0243777040637596 0 0 0 0 -5.1375879504835531 0.8034084820558256 0 0.8034084820558256 0.58356939201920799 0 0 0 0 -14.314766982016408 -8.6683206269100488 0 -8.6683206269100488 0.87527013610711535 0 0 0 0 -14.204673755727526 2.1521312181222925 0 2.1521312181222925 13.927133754299518 0 0 0 0 -14.205370472767754 -9.2608254754905772 0 -9.2608254754905772 -1.3155976749048932 0 0 0 0 -14.820050739515864 -7.6777504639137533 0 -7.6777504639137533 -0.84262350842917044 0 0 0 0 -30.174002960693542 -12.735417185612818 0 -12.735417185612818 0.085254128085352932 0 0 0 0 -16.865000532426166 -13.465068632112974 0 -13.465068632112974 -16.645668762866308 0 0 0 0 -20.878975156054366 -5.8665742039470956 0 -5.8665742039470956 -2.4297418241953892 0 0 0 0 -18.470408298516304 -1.1044865622301359 0 -1.1044865622301359 -9.1348901858612521 0 0 0 0 -16.836065620784666 -5.0633713124772441 0 -5.0633713124772441 0.18416572747071314 0 0 0 0 -11.253299636139673 -7.1039538334148915 0 -7.1039538334148915 -9.5608576126127218 0 0 0 0 -20.135300951801582 -4.8861754965346069 0 -4.8861754965346069 -2.1100964948083867 0 0 0 0 -14.160102737062743 -5.7375501869995702 0 -5.7375501869995702 1.707357794631946 0 0 0 0 -11.330823479356241 -2.1053591169149968 0 -2.1053591169149968 -1.0074001917425903 0 0 0 0 -10.51464406389244 -1.5274976364017698 0 -1.5274976364017698 -0.18857997479401825 0 0 0 0 -10.79923349883029 -1.345455041600303 0 -1.345455041600303 1.1288788033193455 0 0 0 0 -15.407224314108134 -2.2824073124345432 0 -2.2824073124345432 -1.3596400362380336 0 0 0 0 -15.5730589575316 -4.6970843559144342 0 -4.6970843559144342 -0.092555645258926234 0 0 0 0 -3.9370351471821845 0.3082979411526221 0 0.3082979411526221 1.5311674051505417 0 0 0 0 -13.450167371802308 -5.2993149036296927 0 -5.2993149036296927 -2.5412756036865716 0 0 0 0 -14.278291911585256 -3.8808841617752705 0 -3.8808841617752705 0.26514889887971549 0 0 0 0 -2.3909897113364682 -0.23120274665326335 0 -0.23120274665326335 -0.39883799996673952 0 0 0 0 -17.315660527006912 -22.019029988402735 0 -22.019029988402735 -9.6060850589667552 0 0 0 0 -12.466249897307534 -3.4293480311865494 0 -3.4293480311865494 -0.8126655281382682 0 0 0 0 -6.0727104575980775 -1.9543130181070865 0 -1.9543130181070865 -16.042414169631456 0 0 0 0 -3.7945924021987878 -0.11866869105420919 0 -0.11866869105420919 0.0034695011841541223 0 0 0 0 3.657563296459557 -11.948511733112241 0 -11.948511733112241 -10.365487940494404 0 0 0 0 -16.380927499263635 -1.1754171309750063 0 -1.1754171309750063 -4.2005897717037328 0 0 0 0 -8.8307264147242677 2.5479856715675737 0 2.5479856715675737 -1.1286555415092039 0 0 0 0 -3.6873890359542632 1.1549178694255513 0 1.1549178694255513 2.1336435734573858 0 0 0 0 -14.503750054973352 3.7337825108760967 0 3.7337825108760967 -0.53767303555628132 0 0 0 0 -11.632301421227712 -2.5512084303224452 0 -2.5512084303224452 0.41266334894986278 0 0 0 0 -17.872917751914883 0.8737021556353497 0 0.8737021556353497 -0.22916711698809422 0 0 0 0 -21.572808238637663 -8.3643019756447075 0 -8.3643019756447075 0.016448186776948148 0 0 0 0 -2.1620698513942305 -0.92683944653125039 0 -0.92683944653125039 -0.45639574277505812 0 0 0 0 -18.329382359440388 -3.5564608486196221 0 -3.5564608486196221 6.8429934861884476 0 0 0 0 -11.915101166146997 -6.3170700019899186 0 -6.3170700019899186 -5.0130261402277654 0 0 0 0 -14.129378797695217 -1.5640672552129686 0 -1.5640672552129686 0.21402829469651452 0 0 0 0 -10.554468393027491 -3.4082500698544607 0 -3.4082500698544607 1.160813584815287 0 0 0 0 -15.21022092664316 -6.355718537995017 0 -6.355718537995017 4.3974391780856195 0 0 0 0 -5.485357766064034 1.0095894946858692 0 1.0095894946858692 2.1141074895447498 0 0 0 0 -22.574651086387348 -3.6347788383862962 0 -3.6347788383862962 2.7851141722149464 0 0 0 0 -11.306751906664431 -2.5282526519641237 0 -2.5282526519641237 2.8918374326588179 0 0 0 0 -11.715694205656291 -0.76056878467747424 0 -0.76056878467747424 1.5852713912648539 0 0 0 0 -11.793802069434605 -0.59627127642497157 0 -0.59627127642497157 1.6450782181672707 0 0 0 0 -12.116860251889193 -0.830328938349993 0 -0.830328938349993 1.4935068424263989 0 0 0 0 -11.541342669243022 -1.006646830433283 0 -1.006646830433283 1.0223389661039732 0 0 0 0 -11.678856412085224 -0.71636583738154513 0 -0.71636583738154513 1.1164766967480944 0 0 0 0 -12.847368023173658 1.3666050023460059 0 1.3666050023460059 -0.075377449191137202 0 0 0 0 -10.288679451397002 0.064778775677837075 0 0.064778775677837075 0.51383737302063537 0 0 0 0 -11.515537615043286 -0.49309270543241723 0 -0.49309270543241723 1.4216731085138719 0 0 0 0 -13.146309450235094 -12.448074470752857 0 -12.448074470752857 21.529488983670376 0 0 0 0 8.7946102433561464 -16.503101399952399 0 -16.503101399952399 17.004903724929044 0 0 0 0 5.1148057321952365 -16.359435818562247 0 -16.359435818562247 -25.644355570119714 0 0 0 0 -0.094163216612415113 -0.075448907267203325 0 -0.075448907267203325 0.036280487763537206 0 0 0 0 -0.47362530571703587 -0.25361279663860969 0 -0.25361279663860969 0.52464319733997311 0 0 0 0 -6.8315404983995904 -17.881928269782932 0 -17.881928269782932 11.997343540120255 0 0 0 0 1.53747064349227 7.9227645808473426 0 7.9227645808473426 6.4105707438593527 0 0 0 0 4.6394116214578389 -2.3192110580450844 0 -2.3192110580450844 1.3535405392397593 0 0 0 0 -7.6695597621728666 -7.46905768814986 0 -7.46905768814986 20.649014499427267 0 0 0 0 -0.55579752434159957 -0.55556605997517039 0 -0.55556605997517039 0.47181175756723548 0 0 0 0 -10.753412784992918 -1.1433495090543824 0 -1.1433495090543824 0.76818784355180947 0 0 0 0 -12.163814839756014 -0.31768720826562458 0 -0.31768720826562458 1.4368677876545917 0 0 0 0 -14.305875928038404 -2.0060119712653659 0 -2.0060119712653659 5.4664488679125043 0 0 0 0 -12.108980459613655 -2.0440765674193599 0 -2.0440765674193599 0.13111885916956556 0 0 0 0 -11.536924056270436 -22.889902786514739 0 -22.889902786514739 28.487084256970434 0 0 0 0 -8.3414608067159861 -4.1464446594274307 0 -4.1464446594274307 31.085455928117696 0 0 0 0 -23.631580565335753 -14.143509064457362 0 -14.143509064457362 38.29488878810497 0 0 0 0 -27.109799064720391 -4.7161996298113777 0 -4.7161996298113777 27.469216573874405 0 0 0 0 -21.700032901258965 -11.929672532845188 0 -11.929672532845188 32.338034754965861 0 0 0 0 -15.819578189260938 -11.555184645606516 0 -11.555184645606516 31.851081561765113 0 0 0 0 -18.514149248414469 -11.376691239318973 0 -11.376691239318973 17.135181876848492 0 0 0 0 -21.422521790550036 -16.239204897570282 0 -16.239204897570282 20.230304754233657 0 0 0 0 -11.96493105015179 -22.536348281643683 0 -22.536348281643683 6.8843110909749328 0 0 0 0 -22.151544389449555 -25.109469196125843 0 -25.109469196125843 7.7601150030508279 0 0 0 0 -8.7966551132867608 -21.369400277747772 0 -21.369400277747772 5.4963602305432318 0 0 0 0 -23.545101739573283 -15.957595131953164 0 -15.957595131953164 -0.92969977364913348 0 0 0 0 -35.852556178810119 -21.928177939488485 0 -21.928177939488485 10.774513787965077 0 0 0 0 -38.290321982402929 -14.744674578298447 0 -14.744674578298447 0.61374154080066035 0 0 0 0 -69.272440411301432 -46.534101275746217 0 -46.534101275746217 -26.462509941063562 0 0 0 0 -21.803305818888475 -32.400210376292904 0 -32.400210376292904 -25.488672361310119 0 0 0 0 -2.3036328014331957 -13.274897202341634 0 -13.274897202341634 -7.1393608291568853 0 0 0 0 12.899164577795091 0.86049462545267374 0 0.86049462545267374 11.293129452922472 0 0 0 0 -0.8978083369511296 -16.507337880336777 0 -16.507337880336777 -10.279552983191849 0 0 0 0 -6.7081020612263274 -27.324962501945947 0 -27.324962501945947 14.756797203134624 0 0 0 0 -13.951040183575969 -0.40392415565787587 0 -0.40392415565787587 15.213780374716436 0 0 0 0 -6.8428596092453517 6.5662399459790208 0 6.5662399459790208 12.812552364020377 0 0 0 0 18.959599467237922 -20.189491765611315 0 -20.189491765611315 -7.8083007203857946 0 0 0 0 7.9632862401640523 -14.931538939404428 0 -14.931538939404428 -9.7136078947081188 0 0 0 0 -0.25139650159597693 0.10834204375849055 0 0.10834204375849055 0.019258143259010763 0 0 0 0 10.669648309843978 -2.9056500242604386 0 -2.9056500242604386 -16.382123200477345 0 0 0 0 14.018386542713415 -9.7397257765512393 0 -9.7397257765512393 -12.254577285392315 0 0 0 0 -2.2403146313656777 -0.83020807947534614 0 -0.83020807947534614 -0.26383199973777832 0 0 0 0 -5.2225868196392184 -3.5183913429761375 0 -3.5183913429761375 -5.9465194343571852 0 0 0 0 -10.935769264478949 0.48910796286773106 0 0.48910796286773106 2.1590901198835137 0 0 0 0 -0.85034922494624965 0.058763753144610575 0 0.058763753144610575 0.25069547888663624 0 0 0 0 14.38994748119876 -22.911821278681003 0 -22.911821278681003 -7.1435661317675425 0 0 0 0 7.2350222606091847 -8.0142816424056633 0 -8.0142816424056633 -2.3986429593027196 0 0 0 0 -3.1931449718561495 -1.0729525779447151 0 -1.0729525779447151 -0.3285751998105671 0 0 0 0 -2.1507740924043901 -21.361669188265353 0 -21.361669188265353 27.603960727839791 0 0 0 0 -2.2644460572737444 -5.6785932669144756 0 -5.6785932669144756 19.174576773569925 0 0 0 0 3.0329070106618019 -5.0052820132133995 0 -5.0052820132133995 -0.35784342447744066 0 0 0 0 -0.69960611375766391 0.0090886702911596728 0 0.0090886702911596728 0.13623383889904384 0 0 0 0 -7.3066755867239408 -0.44916660386402274 0 -0.44916660386402274 3.5656545841035481 0 0 0 0 -9.0072405574283039 -3.7338098647812474 0 -3.7338098647812474 -1.7305216577029485 0 0 0 0 -0.75305894125267514 1.2966284421038123 0 1.2966284421038123 -0.63118239981050817 0 0 0 0 -5.4440946292569379 3.0650952285949526 0 3.0650952285949526 -2.7057284189176398 0 0 0 0 -5.2410815979728795 0.36744504136032069 0 0.36744504136032069 2.6759322637990794 0 0 0 0 2.2877738538636549 -2.7789816646608698 0 -2.7789816646608698 0.0001963519525738477 0 0 0 0 -31.816809343169552 12.666623242990164 0 12.666623242990164 -2.3180162816741463 0 0 0 0 -51.265091921209205 -1.4485177630943522 0 -1.4485177630943522 0.013801829852679522 0 0 0 0 -15.634155058143733 -2.8349471359387435 0 -2.8349471359387435 -0.010958364717363308 0 0 0 0 -13.918058325167294 2.2126556769047143 0 2.2126556769047143 -4.7151494928873952 0 0 0 0 -66.33492568701331 26.988844053400456 0 26.988844053400456 -4.4041356330925518 0 0 0 0 -15.771693128088373 -1.4583342267001118 0 -1.4583342267001118 3.3810789436319943 0 0 0 0 1.0168256521465082 -3.4563799943189935 0 -3.4563799943189935 -6.2386606781896887 0 0 0 0 3.1883912512839743 -0.95917978138980065 0 -0.95917978138980065 -35.888382418806657 0 0 0 0 -0.80465756844140657 -0.33392063549298534 0 -0.33392063549298534 -0.18912027755887909 0 0 0 0 -10.604593611159544 -19.838200177599305 0 -19.838200177599305 -61.108876555511479 0 0 0 0 -39.722360832721279 -1.9658329080729331 0 -1.9658329080729331 -12.287408944903476 0 0 0 0 -39.585174679737975 0.77353565230798438 0 0.77353565230798438 -64.203872810280217 0 0 0 0 -79.081794885209092 -23.195550153278198 0 -23.195550153278198 -10.023326460196627 0 0 0 0 -52.007660035529625 -3.937722115721733 0 -3.937722115721733 3.4078656792915196 0 0 0 0 -48.62683670559818 -3.2797569416381402 0 -3.2797569416381402 0.0046649331069593038 0 0 0 0 -50.283349948709656 -3.1444066854402424 0 -3.1444066854402424 2.8076987109862142 0 0 0 0 -28.597583038525954 -1.9606472874801237 0 -1.9606472874801237 -0.010998741648365392 0 0 0 0 -36.534504281393311 -10.033669412608582 0 -10.033669412608582 -2.0031234296452598 0 0 0 0 -50.999457465904982 -12.998384839592264 0 -12.998384839592264 -2.3650979971521955 0 0 0 0 -25.197480443184759 -4.5885838977233551 0 -4.5885838977233551 -3.2292361942530086 0 0 0 0 -27.444702856637377 1.6733955520873351 0 1.6733955520873351 -20.678501009700675 0 0 0 0 -18.297959705612811 8.3384248417875746 0 8.3384248417875746 -15.300055847276884 0 0 0 0 -27.017818859911131 10.666321433885649 0 10.666321433885649 -6.1132286367737692 0 0 0 0 -21.029581412785774 13.598695407045771 0 13.598695407045771 -8.1900168632931383 0 0 0 0 -23.108413592424768 14.950212938694555 0 14.950212938694555 -2.8372658203120125 0 0 0 0 -29.53831663839901 7.1170259656244088 0 7.1170259656244088 4.4020239330806703 0 0 0 0 -30.703334196605283 12.921869876149472 0 12.921869876149472 2.1312441278148899 0 0 0 0 -26.59137432844841 9.617521411923418 0 9.617521411923418 -24.868942020913586 0 0 0 0 -49.871142185707868 -1.9302191731944305 0 -1.9302191731944305 5.1770917248343409 0 0 0 0 -43.919736532156094 19.408527408726904 0 19.408527408726904 -5.1117008732544065 0 0 0 0 -84.960624811952584 17.485513009211004 0 17.485513009211004 -5.3388394159943999 0 0 0 0 -35.240151207361123 2.4444693952680865 0 2.4444693952680865 6.4404740741406101 0 0 0 0 -38.265816847804217 -1.4977316157300962 0 -1.4977316157300962 18.645908348259184 0 0 0 0 -32.703683952215215 10.187611297228415 0 10.187611297228415 7.3573122967036966 0 0 0 0 -33.374693644029321 2.3573066209651756 0 2.3573066209651756 20.593516015102182 0 0 0 0 -26.959585873846663 -7.5861617492541313 0 -7.5861617492541313 19.596194027973386 0 0 0 0 -45.221748035484779 -3.7480108105460204 0 -3.7480108105460204 19.206602776739373 0 0 0 0 -34.925298288260819 -2.8727707189892442 0 -2.8727707189892442 26.881200955215036 0 0 0 0 -32.218655872951786 -4.862671201248645 0 -4.862671201248645 27.888533736093137 0 0 0 0 -26.824074569100048 -2.8849150407054935 0 -2.8849150407054935 28.416098333585296 0 0 0 0 -30.391416090900748 -4.6857689425783846 0 -4.6857689425783846 30.931111898018798 0 0 0 0 -28.519100074992821 -5.6619317535725315 0 -5.6619317535725315 31.153494123891392 0 0 0 0 -16.903694676613668 -8.0228683478478047 0 -8.0228683478478047 30.659656982075603 0 0 0 0 -33.101372129449373 -1.249839533345515 0 -1.249839533345515 26.733449670325854 0 0 0 0 -30.391037708781369 -2.0825853812514197 0 -2.0825853812514197 23.309191000955934 0 0 0 0 -31.443157605956912 0.37205048948166919 0 0.37205048948166919 26.384216098784918 0 0 0 0 -30.360658041838178 -2.1696100244515151 0 -2.1696100244515151 28.6460058095156 0 0 0 0 -30.022674515562585 -1.9889802589895993 0 -1.9889802589895993 28.741120017415483 0 0 0 0 -28.635450269597641 0.69319195572967374 0 0.69319195572967374 27.366780887468224 0 0 0 0 -29.826994842926069 0.97438611138002784 0 0.97438611138002784 29.537635603422359 0 0 0 0 -25.580572651819239 2.4194650223871577 0 2.4194650223871577 37.364493321863208 0 0 0 0 -23.72295053183916 2.6913194841586972 0 2.6913194841586972 26.182961734841967 0 0 0 0 -31.793575873087775 4.0117572501823346 0 4.0117572501823346 25.969487428905268 0 0 0 0 -20.224960204921445 -1.850292287976913 0 -1.850292287976913 28.357834766918415 0 0 0 0 -20.41262522382749 15.784682666231973 0 15.784682666231973 49.577336662115385 0 0 0 0 -12.632773414228723 7.3554981076710746 0 7.3554981076710746 17.488752743635132 0 0 0 0 -21.44221776439008 5.491456235533235 0 5.491456235533235 17.228640900708228 0 0 0 0 -15.49565230486678 7.4874576012320802 0 7.4874576012320802 -4.2724732385114521 0 0 0 0 -31.054854057687407 4.8727176610451011 0 4.8727176610451011 17.952696497244773 0 0 0 0 -21.872915782147174 3.8599884825001567 0 3.8599884825001567 17.921203384475888 0 0 0 0 -20.306848321670259 6.17068244852112 0 6.17068244852112 2.8254990805992897 0 0 0 0 47.276149757297389 -8.7667435496483108 0 -8.7667435496483108 -83.777108307574878 0 0 0 0 -57.586236187227769 -34.364810371286467 0 -34.364810371286467 29.826390353497537 0 0 0 0 -47.562877614328954 13.201298172860769 0 13.201298172860769 4.1761218993014495 0 0 0 0 -0.017827744213055663 0.13669276152518961 0 0.13669276152518961 -0.38397060790243365 0 0 0 0 -27.63936589126024 22.686724494708542 0 22.686724494708542 -7.2695526287543153 0 0 0 0 -17.391175900072994 -36.225522585622855 0 -36.225522585622855 48.047957778481845 0 0 0 0 -6.2348042083976907 -9.8645914018648568 0 -9.8645914018648568 -2.4070113572711875 0 0 0 0 -37.329310903591249 3.8460512026057927 0 3.8460512026057927 79.667775399378996 0 0 0 0 -21.345320749800852 1.4739030412965519 0 1.4739030412965519 0.7968334797378821 0 0 0 0 -20.411326416934138 1.4359058213460774 0 1.4359058213460774 0.80848908981946543 0 0 0 0 -65.37050982288747 32.389760347915136 0 32.389760347915136 113.12317515642277 0 0 0 0 -19.152858330740855 14.675118220382274 0 14.675118220382274 32.974315238404813 0 0 0 0 1.6098113833031675 36.961675638267749 0 36.961675638267749 24.281544830783936 0 0 0 0 14.676789787530652 72.446547460608826 0 72.446547460608826 38.017344042829535 0 0 0 0 -18.075869699554332 1.1460817668052306 0 1.1460817668052306 0.84175219093347964 0 0 0 0 -33.817710685452766 -26.484358698765845 0 -26.484358698765845 -11.321254120034382 0 0 0 0 -95.706393505002779 -3.2256989159427576 0 -3.2256989159427576 92.490954950399185 0 0 0 0 -7.570303550813037 18.099179611436341 0 18.099179611436341 -53.739347898368834 0 0 0 0 -32.89676714366442 -52.979840801296689 0 -52.979840801296689 -60.889082424991784 0 0 0 0 -0.55703958203463699 0.38072945017308868 0 0.38072945017308868 -0.081526775918474792 0 0 0 0 -1.5190266374148464 0.071721908732701678 0 0.071721908732701678 0.35942251250394497 0 0 0 0 8.2835880330312648 70.360381461533592 0 70.360381461533592 -21.811039250288587 0 0 0 0 -77.462030846416383 -9.1447708069038924 0 -9.1447708069038924 75.88821667549297 0 0 0 0 -46.244677617532943 -17.358834245267488 0 -17.358834245267488 2.4366436006019683 0 0 0 0 -19.568141360414302 -15.318530661274792 0 -15.318530661274792 -11.923062994973172 0 0 0 0 -2.0235743982921122 -4.2841075024953739 0 -4.2841075024953739 -9.5329794192242332 0 0 0 0 -0.23682715050962067 1.712174491782374 0 1.712174491782374 1.2471819944309059 0 0 0 0 -25.772574226366487 -1.7208291960322271 0 -1.7208291960322271 9.0681149367799208 0 0 0 0 -25.560584625274714 2.2341656625313817 0 2.2341656625313817 8.5907093063103019 0 0 0 0 -8.2724218810762977 18.838849279789187 0 18.838849279789187 9.635298037779549 0 0 0 0 -0.059409950270158607 0.35685580464585698 0 0.35685580464585698 -0.67159511768644853 0 0 0 0 -65.682555287509786 19.890768190029718 0 19.890768190029718 25.928091011813251 0 0 0 0 -27.601658651507023 7.5214225757765689 0 7.5214225757765689 -1.5338072603257018 0 0 0 0 -11.369071277251351 7.0905579433317456 0 7.0905579433317456 -6.5345185459465327 0 0 0 0 -17.546125722532906 4.4719830128234408 0 4.4719830128234408 1.4393965190869906 0 0 0 0 -35.873862057963379 7.7707532859731687 0 7.7707532859731687 3.2268282576524143 0 0 0 0 -0.073061249604048584 0.29098463197072633 0 0.29098463197072633 -0.46030651942509537 0 0 0 0 -17.768603574771987 4.5090662774351449 0 4.5090662774351449 -0.34713373187133811 0 0 0 0 -0.060894935199030442 -0.45040665300008254 0 -0.45040665300008254 -7.1096297846477805 0 0 0 0 -11.617268638499809 -7.8539387696538485 0 -7.8539387696538485 -5.3127134881684448 0 0 0 0 1.0383572771061154 -2.2227721453944373 0 -2.2227721453944373 -9.312045716911161 0 0 0 0 -63.1052527191232 17.109360198532258 0 17.109360198532258 -0.80473771148881923 0 0 0 0 -0.059416917560904725 0.11865165558794644 0 0.11865165558794644 -0.16637745393560277 0 0 0 0 -49.440274955370114 8.0720781149672369 0 8.0720781149672369 -0.0079608704003507752 0 0 0 0 -35.915790955601551 20.025776332875566 0 20.025776332875566 -17.029783716874967 0 0 0 0 -21.0814259688741 -8.4418445592783744 0 -8.4418445592783744 -2.5525825147383094 0 0 0 0 -16.23630262640836 3.9962864146122561 0 3.9962864146122561 -6.5764221846754856 0 0 0 0 -1.3111522646031517 1.6318676343602398 0 1.6318676343602398 0.0021661861401461252 0 0 0 0 -2.4105329316334974 0.93069716783279322 0 0.93069716783279322 0.030900507812289923 0 0 0 0 -2.5177487615201244 1.6484937171480869 0 1.6484937171480869 -0.0031670486880816875 0 0 0 0 -35.79895709414987 2.927692315694471 0 2.927692315694471 -6.9223332159740636 0 0 0 0 0.053935416835660277 0.019584621671082658 0 0.019584621671082658 0.064093862691464554 0 0 0 0 -51.562260947011964 9.0410019328946731 0 9.0410019328946731 -0.34677150153240888 0 0 0 0 -0.45817583665189687 0.44596203365271592 0 0.44596203365271592 0.079822695624325396 0 0 0 0 -1.0934125226231117 0.59465439190430147 0 0.59465439190430147 -0.79112493152331442 0 0 0 0 -3.117439823661698 2.2966056216528892 0 2.2966056216528892 -0.79112493152367991 0 0 0 0 -20.060901281307451 4.5698304021549347 0 4.5698304021549347 -1.1782747143456902 0 0 0 0 -21.770519106552456 8.6418443694864422 0 8.6418443694864422 -4.287268974127258 0 0 0 0 -27.125704670877894 7.1037986567463776 0 7.1037986567463776 2.5648827051492447 0 0 0 0 -12.781287956573578 4.0023267222456838 0 4.0023267222456838 -1.5464183994167797 0 0 0 0 -4.496846285122956 4.5991189557859968 0 4.5991189557859968 -3.1566838127587289 0 0 0 0 -0.45765186127562796 1.9844447942673469 0 1.9844447942673469 -1.0301339564826115 0 0 0 0 -2.2367709493583199 -0.021527397194549991 0 -0.021527397194549991 1.6746390903076538 0 0 0 0 -245.74396363905453 141.55474269873392 0 141.55474269873392 -38.261528655718337 0 0 0 0 -157.80048670760152 26.063584600175449 0 26.063584600175449 -13.460284088703517 0 0 0 0 -296.50796997657972 31.314660602452022 0 31.314660602452022 0.090681652317265202 0 0 0 0 -250.48144482971475 63.778208023349329 0 63.778208023349329 2.7987974024434514 0 0 0 0 -0.58143909003053151 0.82371017855362538 0 0.82371017855362538 -0.14974615376575912 0 0 0 0 -125.66973223784498 45.155016360004737 0 45.155016360004737 -34.781047426154615 0 0 0 0 -0.24740707536311524 0.26236516860367232 0 0.26236516860367232 -0.1255422894562252 0 0 0 0 0.0059681444108719006 1.2958248584327099 0 1.2958248584327099 -0.81985925319531205 0 0 0 0 -499.45160454061715 87.776029982682658 0 87.776029982682658 53.962584204122408 0 0 0 0 -398.97981769829858 138.83536416826473 0 138.83536416826473 31.513446295798914 0 0 0 0 -295.89698649917045 90.605694333124177 0 90.605694333124177 47.000223924813142 0 0 0 0 -499.49654925159666 255.45337096914423 0 255.45337096914423 3.6960250445201677 0 0 0 0 -190.9213832292171 303.63114667829615 0 303.63114667829615 -349.30872459488415 0 0 0 0 -7.0018687248170863 2.6891401982658394 0 2.6891401982658394 0.8168699398393926 0 0 0 0 -138.47378582304191 94.072930279475202 0 94.072930279475202 -68.301859140619285 0 0 0 0 -1.9063524424801059 0.079479368052133736 0 0.079479368052133736 0.81473479801995219 0 0 0 0 -227.99556670566017 208.36423187067365 0 208.36423187067365 -135.60463798307282 0 0 0 0 -158.879872801077 87.018922866450851 0 87.018922866450851 -25.045679144757294 0 0 0 0 -6.7569262837801034 5.3835510987946504 0 5.3835510987946504 -1.5972091798853398 0 0 0 0 -1.5710562466811382 -0.45736916794621862 0 -0.45736916794621862 1.2430521110188777 0 0 0 0 -5.3573046979436185 0.83141878766506139 0 0.83141878766506139 1.7287779573351489 0 0 0 0 -0.31228677325657372 3.0459965196200405 0 3.0459965196200405 -0.52498800548638513 0 0 0 0 -6.4080963165542926 1.0939334903903841 0 1.0939334903903841 1.4684336424976152 0 0 0 0 -0.6278892311482025 2.6847269004026106 0 2.6847269004026106 0.92197012895616426 0 0 0 0 -14.065691585789896 -0.7490119180114565 0 -0.7490119180114565 1.0949360588964192 0 0 0 0 -4.8077937844454937 2.9067407849604905 0 2.9067407849604905 3.5121707974251137 0 0 0 0 23.826253858631389 26.41634875912095 0 26.41634875912095 2.8861648187641862 0 0 0 0 -142.24353876143869 14.372502384712561 0 14.372502384712561 97.953228181257117 0 0 0 0 8.2493071024146047 -24.426947516078883 0 -24.426947516078883 -102.63495982339066 0 0 0 0 7.7234530627142703 -71.331170440053612 0 -71.331170440053612 -95.217281703050276 0 0 0 0 -1.0949932803048412 -0.95927558387753287 0 -0.95927558387753287 -1.7956535205702495 0 0 0 0 3.5003833501177724 51.193672762568781 0 51.193672762568781 -229.38181546841952 0 0 0 0 -497.43332597064727 -4.4810792356778384 0 -4.4810792356778384 -3.6210326213373061 0 0 0 0 -1.9274254055408875 0.9127287111257516 0 0.9127287111257516 -0.51492118559590205 0 0 0 0 -191.65770752987555 -58.499200890562953 0 -58.499200890562953 -49.219853264425488 0 0 0 0 -0.1721108660248305 -0.54737541658188982 0 -0.54737541658188982 -1.143955074432323 0 0 0 0 -263.07386744934774 96.261412627085974 0 96.261412627085974 17.428873661823395 0 0 0 0 -497.54581809283258 37.246851415595415 0 37.246851415595415 76.737187254641256 0 0 0 0 144.05040795143577 -60.494862909309603 0 -60.494862909309603 -78.042007627090854 0 0 0 0 -3.2342575788752583 -0.34390833210983374 0 -0.34390833210983374 1.6913572451038164 0 0 0 0 -3.4455559237795619 0.51472976751162847 0 0.51472976751162847 -0.31857174880706307 0 0 0 0 25.04219092524454 -38.190838930793745 0 -38.190838930793745 -35.466031064452636 0 0 0 0 -4.0653961455306415 -0.092436234470136824 0 -0.092436234470136824 -0.25441400902373196 0 0 0 0 -5.982756087027056 -1.3262286744426015 0 -1.3262286744426015 -0.1939021484034969 0 0 0 0 -7.6619641919432979 3.0860085263608994 0 3.0860085263608994 2.0854870076919099 0 0 0 0 -0.15897568268599871 -1.3902255488055246 0 -1.3902255488055246 0.098189791850265884 0 0 0 0 -1.6188644596059696 0.58230893007459272 0 0.58230893007459272 -0.36013573818244682 0 0 0 0 -3.5341633268608348 3.4631184840789615 0 3.4631184840789615 -6.9302893793745852 0 0 0 0 -11.639665767248516 7.9223009242150511 0 7.9223009242150511 7.1538425503521239 0 0 0 0 3.8586571770329101 3.4342070687225004 0 3.4342070687225004 -11.980083386452407 0 0 0 0 -8.2173262409760355 -4.1325527850034689 0 -4.1325527850034689 21.805755457005262 0 0 0 0 -2.9080594084662152 12.034390776266036 0 12.034390776266036 4.065211699336146 0 0 0 0 -8.4394102117184957 -1.9124666186607442 0 -1.9124666186607442 -0.13120805313185713 0 0 0 0 -69.771758446630884 -15.791222963108595 0 -15.791222963108595 9.8850965109229492 0 0 0 0 -87.789366388204144 -11.731019998927252 0 -11.731019998927252 18.27403577966038 0 0 0 0 -88.692494380686185 -20.84988809599821 0 -20.84988809599821 9.362273435089719 0 0 0 0 -83.587583388398343 -10.737262511344937 0 -10.737262511344937 15.591726984173022 0 0 0 0 -104.73064715490636 22.753948729124517 0 22.753948729124517 2.7406822432121771 0 0 0 0 -106.72353894359003 24.667466279135965 0 24.667466279135965 7.8833684125604577 0 0 0 0 -211.36424522558445 41.084263290417084 0 41.084263290417084 8.1125415756129016 0 0 0 0 -11.89874600735584 -20.433057746606778 0 -20.433057746606778 -15.713921396328374 0 0 0 0 -66.273314807250244 -53.630236223360782 0 -53.630236223360782 -13.750008722984717 0 0 0 0 -147.13105302675831 -17.087884309900687 0 -17.087884309900687 24.896328006495764 0 0 0 0 0.052171027317388763 -0.32237389318695442 0 -0.32237389318695442 -0.17309793055032752 0 0 0 0 -215.74248370450289 122.46377290264422 0 122.46377290264422 -121.14324945701287 0 0 0 0 -92.978728649469758 89.370428333062847 0 89.370428333062847 -87.791078896571321 0 0 0 0 -167.13039650836959 -69.825300881781899 0 -69.825300881781899 -13.73976287578239 0 0 0 0 -1.9427161699499464 -0.27775301086163395 0 -0.27775301086163395 -0.18513303822604399 0 0 0 0 -101.8216020501859 84.991726050616023 0 84.991726050616023 -66.995744509065958 0 0 0 0 -45.34031921964197 -59.879959042205428 0 -59.879959042205428 -162.38066933673622 0 0 0 0 -126.02497712947297 -54.833952336230027 0 -54.833952336230027 -75.126445743962336 0 0 0 0 -182.98054202345656 -115.81821933385153 0 -115.81821933385153 -32.967114054354624 0 0 0 0 -92.65937885866515 -12.798840605020985 0 -12.798840605020985 -29.027026338590758 0 0 0 0 -183.69416147904849 2.8338054608783523 0 2.8338054608783523 -26.252609956123251 0 0 0 0 -76.416980063502706 13.813199220139666 0 13.813199220139666 -30.633957554638584 0 0 0 0 -88.295747898957416 -43.076756860373678 0 -43.076756860373678 -21.743924699794533 0 0 0 0 -65.219194894661996 30.936047143978584 0 30.936047143978584 -66.508548610586487 0 0 0 0 -50.255095362433167 49.23531851315937 0 49.23531851315937 -62.210396299037882 0 0 0 0 2.724654298468522 6.4211844577193915 0 6.4211844577193915 -76.976652189771812 0 0 0 0 -3.2010916343516556 -17.691562354787351 0 -17.691562354787351 -36.248839616000282 0 0 0 0 -0.28974781578915665 0.13039351801902299 0 0.13039351801902299 -0.57955372109075887 0 0 0 0 -14.378660613532702 -7.2217993817371848 0 -7.2217993817371848 3.3199140990291198 0 0 0 0 -10.192779347467877 -0.2127607564138998 0 -0.2127607564138998 -8.9876324836579329 0 0 0 0 -8.3873069194851269 -10.903797950563018 0 -10.903797950563018 -23.817173456832393 0 0 0 0 -8.3137321054309723 2.574567251890528 0 2.574567251890528 -32.978170241988892 0 0 0 0 -1.8206273411287839 -0.44597727743428095 0 -0.44597727743428095 -38.428508570586018 0 0 0 0 -3.6824252983351471 7.549589230661411 0 7.549589230661411 -46.002422733462083 0 0 0 0 -7.9160481219023495 28.204491026795893 0 28.204491026795893 -34.329473551595783 0 0 0 0 -3.7555316812613455 9.5159066203275415 0 9.5159066203275415 -40.979031160373609 0 0 0 0 -21.243097414551812 12.912682978373311 0 12.912682978373311 -36.502569811328499 0 0 0 0 -7.8274867751626971 -1.4692052492842578 0 -1.4692052492842578 -22.559161382482216 0 0 0 0 -28.076100377795228 0.78886589783212457 0 0.78886589783212457 -9.0484838290764174 0 0 0 0 -19.034677738094615 -2.4497996798963868 0 -2.4497996798963868 -17.245102433876582 0 0 0 0 -24.413697522752045 -3.6721668725704149 0 -3.6721668725704149 -4.139623915819584 0 0 0 0 1.0275557143253735 2.0450197473339107 0 2.0450197473339107 -1.1442087801257013 0 0 0 0 -13.146151079507945 1.7142892072741631 0 1.7142892072741631 -5.5489629909355358 0 0 0 0 -14.604540144293424 -7.6870004466792352 0 -7.6870004466792352 -11.400195911340688 0 0 0 0 -9.1260654383786459 1.3353107235636941 0 1.3353107235636941 -14.324697023509202 0 0 0 0 -2.4710183395969061 0.65457904929113297 0 0.65457904929113297 -0.19340249615120397 0 0 0 0 -19.680222837367182 -3.7811948807087674 0 -3.7811948807087674 -6.7339144755428606 0 0 0 0 -14.708835926556276 0.40410219739388253 0 0.40410219739388253 -3.5846755521051819 0 0 0 0 -18.287346278026234 -4.0014762861383133 0 -4.0014762861383133 -7.036194920918831 0 0 0 0 -22.142332835479465 -3.9033294633251501 0 -3.9033294633251501 -0.39244077608213956 0 0 0 0 -23.094744196405372 -6.879321631816083 0 -6.879321631816083 -6.2750187387827054 0 0 0 0 -19.738636552447133 -7.3709688656600747 0 -7.3709688656600747 -7.1238459989097009 0 0 0 0 -19.254668011442845 -5.3010750230704389 0 -5.3010750230704389 -15.238433345933572 0 0 0 0 -10.529629268020443 -12.193259030921913 0 -12.193259030921913 -9.7949651318619999 0 0 0 0 -20.101651200402557 -2.8304911795416956 0 -2.8304911795416956 -15.311175618370498 0 0 0 0 -19.898675957228988 -2.3829557229229295 0 -2.3829557229229295 -12.726025410619968 0 0 0 0 -18.385044639682746 -4.4316694810490844 0 -4.4316694810490844 -16.5172961413233 0 0 0 0 -8.8934320184248463 -14.854669157800362 0 -14.854669157800362 -41.566992300073196 0 0 0 0 -64.198396261637754 41.17681270940821 0 41.17681270940821 61.397032101300397 0 0 0 0 -6.402183214246179 26.631193804738047 0 26.631193804738047 19.95037840859294 0 0 0 0 7.817506929942283 20.461227842660556 0 20.461227842660556 -4.2232416251410996 0 0 0 0 -13.611690080921086 2.8007163514711158 0 2.8007163514711158 0.10994601022686973 0 0 0 0 -13.584735772569729 -0.42130736627169085 0 -0.42130736627169085 -3.5671893028428485 0 0 0 0 -12.309429182863823 0.15820348066972656 0 0.15820348066972656 -7.3765061755698298 0 0 0 0 -13.217776204775873 -2.196814850959754 0 -2.196814850959754 -4.5473052383163122 0 0 0 0 -13.070442959418159 1.4579455525415135 0 1.4579455525415135 0.13354852455769906 0 0 0 0 -12.889492291911665 -0.7776090935184925 0 -0.7776090935184925 -1.6733428134890573 0 0 0 0 -13.378319195540826 -1.2568489144263708 0 -1.2568489144263708 -0.21666139882722746 0 0 0 0 -14.397996250731921 -2.3261991285425836 0 -2.3261991285425836 -0.48303204166109026 0 0 0 0 -14.258179546120118 -1.539295631720023 0 -1.539295631720023 2.4531482131519624 0 0 0 0 -13.975123711787091 -3.5544037473049457 0 -3.5544037473049457 2.1199985396208376 0 0 0 0 -15.848737085078028 -3.7208374107477766 0 -3.7208374107477766 2.1216565078963203 0 0 0 0 -15.106297584363347 -5.3998582171996077 0 -5.3998582171996077 4.6747409690049153 0 0 0 0 -12.934734984166425 -5.6878729431152806 0 -5.6878729431152806 1.7616073082793946 0 0 0 0 -12.28132048673433 -4.0414302736361378 0 -4.0414302736361378 -1.1148977824038298 0 0 0 0 -13.928303125338061 -3.7379668363501253 0 -3.7379668363501253 -0.17504826330036849 0 0 0 0 -7.2866815215311362 -5.5108719158374697 0 -5.5108719158374697 -2.0516294786124263 0 0 0 0 -12.568460865589259 -1.7273393377559927 0 -1.7273393377559927 -4.234558921795724 0 0 0 0 -12.845788210839601 -6.4206946920447763 0 -6.4206946920447763 1.358109630641934 0 0 0 0 0.38440168943088793 -13.022118879084246 0 -13.022118879084246 3.5832201638402239 0 0 0 0 -20.723514193592564 -11.473823952338051 0 -11.473823952338051 6.7835386231431585 0 0 0 0 -31.786095822082643 -4.8437758898191419 0 -4.8437758898191419 7.1816425935505777 0 0 0 0 -19.593532839975524 -5.6606191835717254 0 -5.6606191835717254 3.3085319555737556 0 0 0 0 -17.523356352910923 -4.0928485547699438 0 -4.0928485547699438 4.6212435437143995 0 0 0 0 -16.189447332260897 -4.5427413450850054 0 -4.5427413450850054 3.675100846588748 0 0 0 0 -16.219698484997934 -3.1025609701106305 0 -3.1025609701106305 3.5492069589749917 0 0 0 0 -16.741731436765804 -2.9939366819669999 0 -2.9939366819669999 3.575784564334981 0 0 0 0 -19.218482327352831 -2.6548796966678765 0 -2.6548796966678765 4.0036975431008841 0 0 0 0 -17.554839168424223 -2.9610370258255898 0 -2.9610370258255898 3.7743246918169007 0 0 0 0 -16.170438318833476 -1.6348056112991571 0 -1.6348056112991571 3.0666827829812746 0 0 0 0 -17.096335430048839 -1.7277773123117441 0 -1.7277773123117441 3.2300525625319096 0 0 0 0 -15.712585624769417 -1.9757542485498334 0 -1.9757542485498334 3.2501230019470313 0 0 0 0 -16.047947394418316 -2.1959718794650342 0 -2.1959718794650342 3.1110607113055266 0 0 0 0 -28.069590558148775 -23.82825162029269 0 -23.82825162029269 -14.049090658295739 0 0 0 0 -22.701602890572758 -10.495681856273109 0 -10.495681856273109 -8.6058116075156761 0 0 0 0 -1.2906435206887181 -15.311742247226107 0 -15.311742247226107 -12.210528434589719 0 0 0 0 -23.31267747284619 -9.429039667486677 0 -9.429039667486677 -2.9567164927673275 0 0 0 0 -26.240454880196921 -9.8901617707984997 0 -9.8901617707984997 0.13971682446231171 0 0 0 0 -30.400893945690768 -5.8921909592033899 0 -5.8921909592033899 -0.62955496657275489 0 0 0 0 -16.636230312542466 -1.4003490621219044 0 -1.4003490621219044 -3.1895131012118441 0 0 0 0 -22.095707522208613 4.5470181828147815 0 4.5470181828147815 5.8928206970772408 0 0 0 0 -56.166544692952812 -5.6473616195393106 0 -5.6473616195393106 16.799316020894878 0 0 0 0 -10.30391179187427 3.2850766402171985 0 3.2850766402171985 -4.2354271343681376 0 0 0 0 12.230150310206227 1.6961018730485193 0 1.6961018730485193 -4.1625570266770495 0 0 0 0 -46.317444365864503 -21.432504774966844 0 -21.432504774966844 1.718959044083384 0 0 0 0 -26.047718593912577 6.8507277822802735 0 6.8507277822802735 3.0198987779615436 0 0 0 0 -62.415085561289743 -37.956330650619805 0 -37.956330650619805 11.478756533450905 0 0 0 0 -0.63886818543799961 0.44279270209165134 0 0.44279270209165134 0.87269407473302341 0 0 0 0 -31.13668842169136 37.769589188705652 0 37.769589188705652 45.656903496538462 0 0 0 0 -0.49094340286344007 0.24361375445576794 0 0.24361375445576794 -0.12642996198829914 0 0 0 0 17.010802786364366 3.8142597202781303 0 3.8142597202781303 7.2553847458100336 0 0 0 0 13.067833728549886 -13.6774154573327 0 -13.6774154573327 3.3603566825515827 0 0 0 0 0.25340536394719493 -12.201810668847173 0 -12.201810668847173 21.883568273222636 0 0 0 0 13.369237981163678 11.099156199510219 0 11.099156199510219 30.160592295979882 0 0 0 0 -0.7766197602004361 -0.72527099585605725 0 -0.72527099585605725 -0.38144584665499304 0 0 0 0 3.1667255543707142 -6.8785373161379653 0 -6.8785373161379653 -1.3974058232400921 0 0 0 0 -4.7350889309383248 -4.2609116294025027 0 -4.2609116294025027 -2.7926179724607967 0 0 0 0 -12.058180080110105 6.6079885610209317 0 6.6079885610209317 2.5844097912046777 0 0 0 0 -5.9284336109612958 -0.030702658592671739 0 -0.030702658592671739 4.5024247218351245 0 0 0 0 -13.46376940998789 -5.9369924494528874 0 -5.9369924494528874 3.6083509929908359 0 0 0 0 -9.7790491085934264 -5.7755579091486311 0 -5.7755579091486311 2.406124666154426 0 0 0 0 -10.558109253412113 -7.3182733885748945 0 -7.3182733885748945 8.9028012287262754 0 0 0 0 -18.226243836575122 0.69799144740224506 0 0.69799144740224506 2.3298065666308503 0 0 0 0 -18.820625193050546 -0.85343454698858068 0 -0.85343454698858068 2.8380889494774237 0 0 0 0 -18.018544560033661 -2.06077377813574 0 -2.06077377813574 4.1239224928717704 0 0 0 0 -23.584455469252134 -0.30095776273776664 0 -0.30095776273776664 4.5922327026858056 0 0 0 0 -20.94506501703836 -1.5556170568831362 0 -1.5556170568831362 4.0678147301905483 0 0 0 0 -25.636859169500894 -4.7604358271811407 0 -4.7604358271811407 6.9798441243078742 0 0 0 0 -21.710680162977951 -5.9648007525964317 0 -5.9648007525964317 5.8064810906930688 0 0 0 0 -20.957058723093724 -3.6812588480655677 0 -3.6812588480655677 4.2757496303775042 0 0 0 0 -37.925130155337683 7.2735576021850648 0 7.2735576021850648 -9.7672060887794032 0 0 0 0 -19.512581657638293 -9.3808786158453472 0 -9.3808786158453472 7.5977467179504856 0 0 0 0 -10.306124772971554 -0.45241683568862356 0 -0.45241683568862356 4.0449968209897555 0 0 0 0 -34.540249219613543 -7.0603327932580555 0 -7.0603327932580555 8.9552232929778768 0 0 0 0 -33.23049894574433 9.8721862935622653 0 9.8721862935622653 -1.4408621951715759 0 0 0 0 -18.333682777960348 5.2992892760884729 0 5.2992892760884729 -1.5826142111342278 0 0 0 0 -21.005600172673439 0.74933178183596283 0 0.74933178183596283 4.9858866117820071 0 0 0 0 -24.502452199658364 2.0036374564346033 0 2.0036374564346033 4.5617251535709329 0 0 0 0 -21.305461933565766 1.7891509622238431 0 1.7891509622238431 2.0827417063385383 0 0 0 0 -15.268683372737542 -1.8253266179771117 0 -1.8253266179771117 8.4116709866716519 0 0 0 0 -13.032593566526167 1.0894302039342425 0 1.0894302039342425 0.5785164312177431 0 0 0 0 -19.046384212134853 0.67325576955943234 0 0.67325576955943234 1.5364102511110787 0 0 0 0 -79.839410702538316 31.249379189750812 0 31.249379189750812 24.548781465508682 0 0 0 0 -15.044688893176932 0.65652515253653931 0 0.65652515253653931 1.158461290107605 0 0 0 0 -17.393099443469509 2.9788155778512646 0 2.9788155778512646 -10.399924766746608 0 0 0 0 -7.6378277354975843 -1.4929839374749769 0 -1.4929839374749769 2.3002530804479635 0 0 0 0 -29.571379616870217 -33.342076939464448 0 -33.342076939464448 -0.40651026552305325 0 0 0 0 -23.139861434164459 7.4365224291181562 0 7.4365224291181562 -12.391459279537912 0 0 0 0 17.241518560129407 -13.880576752646334 0 -13.880576752646334 -3.8800603661523425 0 0 0 0 17.241518560120312 -13.880576752649404 0 -13.880576752649404 -3.880060366152918 0 0 0 0 0.26488959060889883 -1.5532953733542763 0 -1.5532953733542763 0.57782580272141493 0 0 0 0 -21.715476500214663 3.0437972337763313 0 3.0437972337763313 -14.282660460797615 0 0 0 0 -1.4666780664774706 -39.911646110521133 0 -39.911646110521133 -4.3846767204009325 0 0 0 0 -5.8761159092529809 -3.7105106388319946 0 -3.7105106388319946 2.3320575778246959 0 0 0 0 -27.581744684458688 0.77592364966648697 0 0.77592364966648697 6.0817824930812741 0 0 0 0 -14.646221823963515 -4.4431585146858712 0 -4.4431585146858712 1.9832481231976558 0 0 0 0 -26.539874094238144 -2.2134191590054257 0 -2.2134191590054257 0.52411226172421266 0 0 0 0 -34.19286503386212 7.4125291446562827 0 7.4125291446562827 5.9427513562973218 0 0 0 0 -33.041502088109269 9.7938219596463441 0 9.7938219596463441 -3.195188079191098 0 0 0 0 -34.523485813838761 7.6931058138173398 0 7.6931058138173398 0.26778283632972943 0 0 0 0 -40.5147447652962 20.574658203413094 0 20.574658203413094 -15.701208231320521 0 0 0 0 -66.287760931785215 -3.1801666783630367 0 -3.1801666783630367 0.68251115349892189 0 0 0 0 -23.430392420346834 -1.9119941655686716 0 -1.9119941655686716 0.44222603756674062 0 0 0 0 3.1392531399528707 -21.453386415726072 0 -21.453386415726072 -25.011484531089252 0 0 0 0 -18.896402507380571 -11.778804838718884 0 -11.778804838718884 5.3187253488547412 0 0 0 0 -21.605900101118095 4.7204509666020158 0 4.7204509666020158 1.3584644195078965 0 0 0 0 -11.405362746967512 -1.343769269307586 0 -1.343769269307586 4.8709731701046621 0 0 0 0 -12.063315454114672 -2.0107651319060551 0 -2.0107651319060551 6.04347849130383 0 0 0 0 13.155951537171859 -79.611302687886763 0 -79.611302687886763 8.1223668093969508 0 0 0 0 -16.028898871943966 15.453466177815583 0 15.453466177815583 19.763141200192891 0 0 0 0 17.241518560127588 -13.880576752649681 0 -13.880576752649681 -3.880060366153165 0 0 0 0 -48.626899483730085 19.9634398167249 0 19.9634398167249 8.3209595311240037 0 0 0 0 -20.954934904565562 5.8802934493903649 0 5.8802934493903649 2.6251012624155692 0 0 0 0 -67.195099182077684 -26.975794722494737 0 -26.975794722494737 -0.063615954325413782 0 0 0 0 -4.1186821035116736 -42.647207265453076 0 -42.647207265453076 -10.80236723309576 0 0 0 0 -6.1021382666594945 -36.364451083593877 0 -36.364451083593877 -26.745550200825527 0 0 0 0 -7.1530672486751428 -33.375702379235051 0 -33.375702379235051 -12.840933143048026 0 0 0 0 -15.645356546223411 -17.334429449000922 0 -17.334429449000922 -0.114128177702014 0 0 0 0 -13.390723660430012 -11.687169822763167 0 -11.687169822763167 3.2246389748632396 0 0 0 0 12.758279546476842 -26.645758055533122 0 -26.645758055533122 -27.000706736856035 0 0 0 0 -0.6255538746289141 -0.060580788769367899 0 -0.060580788769367899 -0.030397612147207154 0 0 0 0 33.15880279583007 -9.7923212356712401 0 -9.7923212356712401 -14.371148638180102 0 0 0 0 -45.430833322132401 -61.072025939595243 0 -61.072025939595243 -81.122800452760885 0 0 0 0 4.7384775231093954 -8.7234087658644626 0 -8.7234087658644626 9.3501534834794029 0 0 0 0 -13.088042697960191 -7.7060034376788735 0 -7.7060034376788735 6.3508120408235982 0 0 0 0 1.045112172680092 -14.903493642300305 0 -14.903493642300305 0.23823810766489828 0 0 0 0 0.13912525681371335 -16.753898447620713 0 -16.753898447620713 9.5285511327188743 0 0 0 0 2.7646658689791366 -10.180562629982546 0 -10.180562629982546 4.4895079894325818 0 0 0 0 -0.59572425733728229 -1.5930410234235524 0 -1.5930410234235524 0.54890535673510743 0 0 0 0 -64.378713032417977 3.1843464340973529 0 3.1843464340973529 -2.6946880764947991 0 0 0 0 -4.4260013651110057 -6.0485989366975161 0 -6.0485989366975161 0.41894821988458375 0 0 0 0 -1.8932315304464282 -2.5475664490722014 0 -2.5475664490722014 -2.7069092740456706 0 0 0 0 0.074075938512652151 -1.3907684418855837 0 -1.3907684418855837 0.30771389997782683 0 0 0 0 -13.79205917980164 -2.1315073186575617 0 -2.1315073186575617 5.5921656497388312 0 0 0 0 -2.7839520249417546 -5.0025726141194582 0 -5.0025726141194582 -0.69480153313310211 0 0 0 0 0.28536583106324542 -4.6302056436098837 0 -4.6302056436098837 -1.183695860762441 0 0 0 0 2.2775306976527645 -9.7495554552875205 0 -9.7495554552875205 1.9041330476104577 0 0 0 0 -1.7237294789119915 -6.9809124546543444 0 -6.9809124546543444 1.2820844384940528 0 0 0 0 -55.56508581979142 -4.7449564179730999 0 -4.7449564179730999 6.151424567605261 0 0 0 0 -86.480647309955657 -4.2588112946911778 0 -4.2588112946911778 6.7678094508503364 0 0 0 0 -99.070002515123633 -6.4276784417990669 0 -6.4276784417990669 8.9831899683021383 0 0 0 0 -80.305138940463621 -9.7408232870469078 0 -9.7408232870469078 9.5619245074273067 0 0 0 0 -80.168930586476563 -21.571095369502551 0 -21.571095369502551 6.8336201728193657 0 0 0 0 -130.81131023186572 30.48667893507924 0 30.48667893507924 -3.4082405787542029 0 0 0 0 -143.78627270477591 -50.200091906073936 0 -50.200091906073936 3.151386060694648 0 0 0 0 -95.888563496508141 -25.005093023041788 0 -25.005093023041788 7.4561792945238778 0 0 0 0 -59.288522977200046 -38.307244195428339 0 -38.307244195428339 -24.877659579438443 0 0 0 0 -76.06674201676833 -14.538249289417408 0 -14.538249289417408 2.0969995654413083 0 0 0 0 -45.914249640609341 -17.675071160378543 0 -17.675071160378543 -10.329127995660969 0 0 0 0 -32.995336543639496 -13.444013208203224 0 -13.444013208203224 -21.458849085554576 0 0 0 0 -41.329450995086518 -13.378855766125113 0 -13.378855766125113 -8.229896554439712 0 0 0 0 1.7341821925847398 8.4213093451485896 0 8.4213093451485896 -16.74010983775517 0 0 0 0 -53.854247222847334 -26.651480560126629 0 -26.651480560126629 -19.855232060498594 0 0 0 0 -28.131254898098632 -32.771054032376881 0 -32.771054032376881 -47.883572869178579 0 0 0 0 39.993071840939592 88.460072140705336 0 88.460072140705336 41.202256506667311 0 0 0 0 21.398118360546505 21.66675943447575 0 21.66675943447575 -53.35298880496542 0 0 0 0 -7.8244337660435122 35.228173307373325 0 35.228173307373325 70.479387859665053 0 0 0 0 -223.3672753450719 37.914407849981046 0 37.914407849981046 -2.4079027014613708 0 0 0 0 -68.802387326956705 -55.531400571511568 0 -55.531400571511568 -32.519243131068265 0 0 0 0 51.225239087783848 -32.463780830412816 0 -32.463780830412816 -177.03191810216927 0 0 0 0 -216.48392786524164 -120.1946901025193 0 -120.1946901025193 -50.995627953005112 0 0 0 0 -0.92359032218192283 -1.0847453593813192 0 -1.0847453593813192 -0.62012168355897834 0 0 0 0 -202.14562144998854 -80.033517710349372 0 -80.033517710349372 22.437027778673865 0 0 0 0 -187.50907376365035 66.472378923205895 0 66.472378923205895 101.1102679483497 0 0 0 0 26.694979195577616 79.333011880242879 0 79.333011880242879 30.842402571121227 0 0 0 0 -91.221683868627224 29.91292939388719 0 29.91292939388719 16.83122725193369 0 0 0 0 -72.898134160812333 -18.666897972533505 0 -18.666897972533505 27.821549846912148 0 0 0 0 0.66274374012490256 2.1129658965097642 0 2.1129658965097642 -0.48352391333854938 0 0 0 0 -35.570779196494186 29.342311944369186 0 29.342311944369186 128.40744249270099 0 0 0 0 5.1891283459806345 19.160382623476323 0 19.160382623476323 -11.723615997914692 0 0 0 0 -10.747562357973948 -6.1334922882410865 0 -6.1334922882410865 60.567837620252021 0 0 0 0 -16.104956540396614 2.3176692145354183 0 2.3176692145354183 1.5704300279378649 0 0 0 0 -17.536482298864371 4.8279985272623023 0 4.8279985272623023 3.2214591179404124 0 0 0 0 -11.931320547782889 21.493136727881001 0 21.493136727881001 22.457608327760909 0 0 0 0 -1.4590089097509917 0.020570028636939242 0 0.020570028636939242 43.808814721267765 0 0 0 0 1.9213829072195949 25.624109875010646 0 25.624109875010646 5.6333185793440066 0 0 0 0 -19.936442477989658 15.959606388594096 0 15.959606388594096 19.175286082081357 0 0 0 0 -15.78047179391433 8.7820462365203582 0 8.7820462365203582 -2.690146150001496 0 0 0 0 -7.5869632301023557 24.056065025780207 0 24.056065025780207 3.4252982048742524 0 0 0 0 -18.739877574151251 14.833132822818818 0 14.833132822818818 11.33968378954491 0 0 0 0 -19.181715852030948 17.265679643101507 0 17.265679643101507 10.828885186267257 0 0 0 0 -14.752263362688545 8.1228779440923091 0 8.1228779440923091 1.0637509237093541 0 0 0 0 -7.431649439002002 2.3174682919822858 0 2.3174682919822858 0.33138872351125559 0 0 0 0 -1.3176723638393923 14.511706825762531 0 14.511706825762531 -2.773788138406573 0 0 0 0 -3.1090152457600198 8.3414336311206796 0 8.3414336311206796 -19.019722696466545 0 0 0 0 -9.2587054751038522 10.931914784388312 0 10.931914784388312 -15.038060460233453 0 0 0 0 -1.0341726490992187 6.3843546414796037 0 6.3843546414796037 -39.844328459473445 0 0 0 0 -39.591251155672126 35.862291199063293 0 35.862291199063293 -17.79228082757993 0 0 0 0 -22.136068066947246 14.411306807443395 0 14.411306807443395 14.098339720153888 0 0 0 0 -22.931174145320711 21.790426180466824 0 21.790426180466824 -2.6844036157531264 0 0 0 0 -30.473066266906244 31.928408394993198 0 31.928408394993198 -16.311482156328566 0 0 0 0 -4.5780100680394753 20.897666064081307 0 20.897666064081307 3.3091614985843307 0 0 0 0 -4.9614101214140192 12.025084444630947 0 12.025084444630947 -1.5146529208117911 0 0 0 0 -12.992695403399614 8.6034937144140073 0 8.6034937144140073 1.5877127398794522 0 0 0 0 -25.050181879500997 21.341156291552267 0 21.341156291552267 8.4860458351615478 0 0 0 0 -34.235609494618075 20.966533213619982 0 20.966533213619982 15.050706661535799 0 0 0 0 -38.028407618818761 22.364718459081935 0 22.364718459081935 15.560522417692937 0 0 0 0 -33.092672526434853 14.295254199510623 0 14.295254199510623 18.680487778758106 0 0 0 0 -26.229252354924483 16.418193386009875 0 16.418193386009875 17.630681753897761 0 0 0 0 -23.53289900675918 14.828919329495875 0 14.828919329495875 15.535721164059396 0 0 0 0 -37.160983450477033 -8.206162393683087 0 -8.206162393683087 12.089231329721883 0 0 0 0 -27.465237223389522 11.527564868155423 0 11.527564868155423 17.524723208683213 0 0 0 0 4.926992651784758 7.5516086307383503 0 7.5516086307383503 -2.8600087049511558 0 0 0 0 -2.8588001011418118 10.346392208594814 0 10.346392208594814 2.6312218583654037 0 0 0 0 -6.031459907466342 11.690995724164964 0 11.690995724164964 -14.972683902454662 0 0 0 0 -1.6893063855004584 10.434395179056764 0 10.434395179056764 -3.9665325447608097 0 0 0 0 -1.3812475540216838 7.1029385460158778 0 7.1029385460158778 0.148899232596861 0 0 0 0 -6.0038588572770095 8.8804662654617914 0 8.8804662654617914 -0.27646006305189985 0 0 0 0 -23.297603092934878 11.17946482233684 0 11.17946482233684 -2.7024230576102468 0 0 0 0 -26.552104815415078 16.21477051865736 0 16.21477051865736 -9.9991595679024385 0 0 0 0 -34.616292531727595 4.817729000704901 0 4.817729000704901 -7.4365014675089753 0 0 0 0 -34.427088415068283 9.8531476363177859 0 9.8531476363177859 -3.6860279881572282 0 0 0 0 -47.434051289270428 -7.9324685253575034 0 -7.9324685253575034 -6.6114175533230224 0 0 0 0 -41.466794944844423 -4.6473440441604108 0 -4.6473440441604108 -4.8378488603423762 0 0 0 0 -15.168325213629942 3.3141867020072056 0 3.3141867020072056 -11.451627550215804 0 0 0 0 -23.71997865427511 10.41643620946676 0 10.41643620946676 -1.6435674120547894 0 0 0 0 -16.73080408248461 16.466265010859622 0 16.466265010859622 -1.2810580980985762 0 0 0 0 -14.664517639033875 18.462433138441675 0 18.462433138441675 -3.980903651418024 0 0 0 0 -24.374610310889693 5.3503688340372335 0 5.3503688340372335 -4.2180325498868569 0 0 0 0 19.805336050295239 -21.127115055949886 0 -21.127115055949886 5.3401761235148797 0 0 0 0 -15.026381459791082 5.1572085343468643 0 5.1572085343468643 20.040407277483482 0 0 0 0 -3.2155762886798054 -1.5304387588521258 0 -1.5304387588521258 0.48677711192718887 0 0 0 0 -7.1418118823826262 -34.958353764652657 0 -34.958353764652657 -42.030610259624098 0 0 0 0 -2.5256347401472961 -0.1814200274385811 0 -0.1814200274385811 0.23895496541892325 0 0 0 0 -11.347852049455923 -51.714464365322897 0 -51.714464365322897 28.911077307841197 0 0 0 0 11.117737908349682 -1.8045521172099939 0 -1.8045521172099939 30.839331020566533 0 0 0 0 39.873782975790732 24.663151154265051 0 24.663151154265051 -54.356227343642786 0 0 0 0 2.6674217042559576 -33.233513902645512 0 -33.233513902645512 -42.489636594172225 0 0 0 0 10.25294686743905 -43.02242045391165 0 -43.02242045391165 7.0539314666972359 0 0 0 0 -21.873138562440829 -28.269285319038019 0 -28.269285319038019 17.083068560002403 0 0 0 0 -15.202367611224417 -53.552179020047788 0 -53.552179020047788 16.198661979127138 0 0 0 0 -9.7219848825272948 -28.631443844600852 0 -28.631443844600852 16.046637120525929 0 0 0 0 -12.905384344920549 -34.017460966631347 0 -34.017460966631347 12.60795007390567 0 0 0 0 -72.096876815040105 -21.137774295053219 0 -21.137774295053219 31.682876525018855 0 0 0 0 -52.038781335735621 5.764494523494875 0 5.764494523494875 17.352043690160997 0 0 0 0 -30.938048173918332 -37.149877964971097 0 -37.149877964971097 11.569736076918389 0 0 0 0 -84.913451579736375 -36.961113585059252 0 -36.961113585059252 15.98178315716865 0 0 0 0 -40.421955375268681 -64.025699331577357 0 -64.025699331577357 -61.104046538294597 0 0 0 0 -44.316053374954834 -96.40503161285713 0 -96.40503161285713 -22.172739583562361 0 0 0 0 -133.47128731063958 20.738923632861201 0 20.738923632861201 -4.3025786918667563 0 0 0 0 -195.88572492173398 -45.011840616086488 0 -45.011840616086488 7.4824580195463568 0 0 0 0 -333.48260249199438 47.867792677332446 0 47.867792677332446 2.2616946927960271 0 0 0 0 -83.340528370252287 -38.495948854340213 0 -38.495948854340213 6.1272470085709756 0 0 0 0 -109.06507546238038 20.307339622526115 0 20.307339622526115 9.2253029368998796 0 0 0 0 -107.56936388853603 73.448545526483898 0 73.448545526483898 -39.859015902839474 0 0 0 0 -125.4553154627597 11.982897429062518 0 11.982897429062518 5.0665881497120608 0 0 0 0 -17.142791905958802 42.61549674134335 0 42.61549674134335 -80.853666732772808 0 0 0 0 -40.604098961031923 32.056570312506778 0 32.056570312506778 -14.407189533825772 0 0 0 0 -45.96282200004589 21.972195417732564 0 21.972195417732564 9.0847617648116739 0 0 0 0 -86.05097343643456 3.0495754531672219 0 3.0495754531672219 21.217242612687869 0 0 0 0 -64.178237471446209 39.518404467125151 0 39.518404467125151 -7.6242630779006504 0 0 0 0 -58.641657821149238 7.7550432908525408 0 7.7550432908525408 26.183257178332838 0 0 0 0 -38.559086649508743 17.724942723753315 0 17.724942723753315 16.769072571195011 0 0 0 0 -41.757576171034998 22.752111697422492 0 22.752111697422492 9.2257612914629874 0 0 0 0 -17.950624293906458 3.8980444672699264 0 3.8980444672699264 20.393289983881687 0 0 0 0 -39.98748981371682 14.500107165157829 0 14.500107165157829 22.967230413877814 0 0 0 0 -32.328073481146816 15.585066148792691 0 15.585066148792691 17.057874232581071 0 0 0 0 -33.40966296545173 1.2095815690219354 0 1.2095815690219354 26.396772035942377 0 0 0 0 -32.361673089415945 9.2084400019329564 0 9.2084400019329564 24.927702975955754 0 0 0 0 -28.695863113106952 10.156869871445195 0 10.156869871445195 23.487116839218459 0 0 0 0 -34.91747609915592 -0.59243410201594315 0 -0.59243410201594315 29.385237647510394 0 0 0 0 -20.47819547944416 -2.4405334393001192 0 -2.4405334393001192 1.4400667151532147 0 0 0 0 -17.703584339531517 0.70390698657288908 0 0.70390698657288908 1.9093150665125691 0 0 0 0 -16.990143928980714 -3.4339319452713948 0 -3.4339319452713948 0.1036333646459876 0 0 0 0 -18.647694935023537 -1.6586958294533218 0 -1.6586958294533218 -1.4754756615370823 0 0 0 0 -23.288725814952784 -26.622833180898731 0 -26.622833180898731 35.147498427464598 0 0 0 0 -30.715885748699293 -24.728574712504951 0 -24.728574712504951 47.089215454851114 0 0 0 0 -34.679957708252928 -30.374519623095988 0 -30.374519623095988 25.887008795813244 0 0 0 0 -33.946232350825994 -13.738716272905037 0 -13.738716272905037 27.221950839874864 0 0 0 0 0.29059101110021857 -21.239656752269852 0 -21.239656752269852 5.449313165721378 0 0 0 0 -16.209598976168763 -15.942867354451607 0 -15.942867354451607 37.094632416314084 0 0 0 0 -4.5318656739050311 -24.926986054813256 0 -24.926986054813256 15.767265099256299 0 0 0 0 -18.493353313740954 -2.4706786893632966 0 -2.4706786893632966 -1.9141510120014402 0 0 0 0 -2.7614706838004879 -0.29281513456717612 0 -0.29281513456717612 -1.1125823479031487 0 0 0 0 -15.940372035573091 -4.6673255340970741 0 -4.6673255340970741 -2.4217712568183458 0 0 0 0 -16.488869918331318 -0.24020463249108381 0 -0.24020463249108381 0.39770174023993832 0 0 0 0 -18.220656489738758 -1.8670173603007489 0 -1.8670173603007489 -2.8195683377778149 0 0 0 0 -17.160938145903639 -3.4641945156299556 0 -3.4641945156299556 -0.73930952341354317 0 0 0 0 -16.998136542426437 -0.3009536497792169 0 -0.3009536497792169 5.5907642828202597 0 0 0 0 -11.842558199281484 -1.9583819473975836 0 -1.9583819473975836 1.6294632016224284 0 0 0 0 -12.220423241950101 -1.7004216906014764 0 -1.7004216906014764 0.34979837849070278 0 0 0 0 -18.097981393914779 -2.4440181596960144 0 -2.4440181596960144 1.856585742067125 0 0 0 0 -3.5602702057570683 -0.72633519786811185 0 -0.72633519786811185 2.1300567229670029 0 0 0 0 -19.808779721596466 -0.91880349053083954 0 -0.91880349053083954 2.6157925921468745 0 0 0 0 -17.889626259839133 -3.395494203792822 0 -3.395494203792822 5.2383049449904888 0 0 0 0 -16.305931723071339 -0.70900612866162094 0 -0.70900612866162094 0.68678997304579892 0 0 0 0 -29.21227154416556 5.3313062303036531 0 5.3313062303036531 21.492605063127513 0 0 0 0 -17.293155663277503 -3.2074711672368537 0 -3.2074711672368537 -0.29778772762067263 0 0 0 0 -19.267248624907097 -1.4926334854659533 0 -1.4926334854659533 1.779709232661574 0 0 0 0 -14.310024081813026 -1.0835597955622802 0 -1.0835597955622802 1.6549165705177629 0 0 0 0 -16.377331165226678 1.4227456139405987 0 1.4227456139405987 2.7443509471711991 0 0 0 0 -14.393121895853305 -0.90091488424413946 0 -0.90091488424413946 0.30892218423873807 0 0 0 0 14.281550878841017 11.651522577596566 0 11.651522577596566 7.8775732018109466 0 0 0 0 -17.142875906806694 4.24435130250356 0 4.24435130250356 59.46277156996257 0 0 0 0 -0.27613645643577911 20.992841391815773 0 20.992841391815773 7.0507291122622178 0 0 0 0 12.311812074030058 4.149644018601677 0 4.149644018601677 3.0142945382642665 0 0 0 0 -30.087977419004346 7.0656421534053493 0 7.0656421534053493 11.914732764401379 0 0 0 0 -7.1017542813606269 20.894159815619673 0 20.894159815619673 -8.4893325249111058 0 0 0 0 -5.687682607057468 2.2405766407210308 0 2.2405766407210308 -6.6210766047399829 0 0 0 0 -8.7040289972446772 9.4774513039691328 0 9.4774513039691328 -0.26640097651170436 0 0 0 0 -4.0389103013397705 1.1119125636281133 0 1.1119125636281133 2.1735689503098978 0 0 0 0 1.9392260441163671 3.4988224425657108 0 3.4988224425657108 1.0180667685693265 0 0 0 0 -0.59130181103548374 1.2288641051977685 0 1.2288641051977685 2.5715914794085202 0 0 0 0 -23.39653644250393 -13.554831222938446 0 -13.554831222938446 0.31942974762546328 0 0 0 0 0.3595391017596512 0.36102436511193403 0 0.36102436511193403 -0.2588293775364261 0 0 0 0 -12.111458632531139 -1.0100341854706585 0 -1.0100341854706585 1.9256460864111205 0 0 0 0 -12.508502869670338 -0.84554314188955004 0 -0.84554314188955004 1.9349426330548454 0 0 0 0 -13.78827449224309 -1.3861812831286411 0 -1.3861812831286411 1.8487718694242972 0 0 0 0 -21.877406140887615 2.0626325880889453 0 2.0626325880889453 1.636348550288858 0 0 0 0 -21.236897379213588 1.5104470539671979 0 1.5104470539671979 -2.5087253891252885 0 0 0 0 -2.600221033928392 -0.91115140138742845 0 -0.91115140138742845 -4.2489006075815041 0 0 0 0 -17.341256430163412 1.3715968089698549 0 1.3715968089698549 -5.9027716511989183 0 0 0 0 -20.243427929529389 39.24765538914005 0 39.24765538914005 -46.611219337810894 0 0 0 0 -15.68463238694676 9.6334038684536836 0 9.6334038684536836 -22.660212975232525 0 0 0 0 -56.671905144417906 14.9992316977538 0 14.9992316977538 3.7980186512853606 0 0 0 0 -54.320825329512445 9.3924043241024009 0 9.3924043241024009 -5.6176512491176709 0 0 0 0 -37.637537612110464 18.851172232258307 0 18.851172232258307 -17.854366495527529 0 0 0 0 0.039011177966642663 -0.09626370118612293 0 -0.09626370118612293 -0.09243353965643375 0 0 0 0 -3.784154926373958 -4.1207776326959902 0 -4.1207776326959902 -1.6529151131355775 0 0 0 0 -22.114137223449688 18.343471919343699 0 18.343471919343699 -17.251285729011897 0 0 0 0 -29.612455947595663 9.7222846901000253 0 9.7222846901000253 -12.987425750887809 0 0 0 0 -1.8961135811637568 2.2276067636926395 0 2.2276067636926395 0.47821599738430864 0 0 0 0 -3.1016518023188837 2.3129601620468634 0 2.3129601620468634 -0.6523369437790052 0 0 0 0 -13.342939815518548 2.1549807784368227 0 2.1549807784368227 3.5096985578522322 0 0 0 0 -17.906745295342262 0.44061860700421107 0 0.44061860700421107 2.2729893380281396 0 0 0 0 -4.0199180047177903 0.60801115728328625 0 0.60801115728328625 1.8775948445322663 0 0 0 0 -16.793145698533408 -0.50065935402324158 0 -0.50065935402324158 4.6936014451177357 0 0 0 0 -3.8578880784920848 -0.24693150846036538 0 -0.24693150846036538 1.1961961160165335 0 0 0 0 -7.112580857683497 -3.3282495448866598 0 -3.3282495448866598 0.52916979554345289 0 0 0 0 -12.200670667276427 -0.25092900737486445 0 -0.25092900737486445 -1.2908821887193653 0 0 0 0 -32.833679941910304 -13.898075276393229 0 -13.898075276393229 -4.335057283013839 0 0 0 0 -1.1807052849235333 -17.539156309346595 0 -17.539156309346595 -14.133087028477121 0 0 0 0 -19.672801004871872 -11.251251006592042 0 -11.251251006592042 -12.652116147818333 0 0 0 0 -8.5522287202729643 -1.5016916630395865 0 -1.5016916630395865 0.030549687577243745 0 0 0 0 -51.766364622224501 66.047774143130027 0 66.047774143130027 3.4849901084903649 0 0 0 0 -3.0813819456705582 -1.0709165497295174 0 -1.0709165497295174 0.89589752293972769 0 0 0 0 55.195812794380799 -1.4684889628865676 0 -1.4684889628865676 -166.80126351252375 0 0 0 0 -87.858723055431255 -20.514543422379234 0 -20.514543422379234 119.28336389369247 0 0 0 0 -74.761624136070168 -90.301624030027824 0 -90.301624030027824 -14.622244240203486 0 0 0 0 -0.60434232157186329 0.51329741809534823 0 0.51329741809534823 -0.51945345328675785 0 0 0 0 -19.639687855772536 -21.657201100071291 0 -21.657201100071291 -6.8705728725017252 0 0 0 0 -45.566950633885426 -23.148696859136862 0 -23.148696859136862 -6.8756549282445709 0 0 0 0 -5.4746018816029256 -0.83768696839473833 0 -0.83768696839473833 -0.2115365644157246 0 0 0 0 -0.25457213960623903 -14.481986473067018 0 -14.481986473067018 -51.036698802739011 0 0 0 0 4.8359822085094493 -12.978162125808069 0 -12.978162125808069 -122.31402137075497 0 0 0 0 1.0542332173499744 -16.41332582095356 0 -16.41332582095356 -48.668817270657883 0 0 0 0 -40.793754324556176 4.4342690936114479 0 4.4342690936114479 25.258890649574823 0 0 0 0 62.716535233663308 -49.124423877032712 0 -49.124423877032712 -50.010712309799217 0 0 0 0 -1.3403519097000753 -59.691045291563029 0 -59.691045291563029 34.235453738730257 0 0 0 0 55.457409865643058 -17.826473796597327 0 -17.826473796597327 -0.12271662082292778 0 0 0 0 -0.084343151065695565 -12.146370839055379 0 -12.146370839055379 -0.33076367538772899 0 0 0 0 -31.248587513529856 -53.521923936614975 0 -53.521923936614975 -16.857992834232505 0 0 0 0 0.14644814666624484 -0.28628483870512866 0 -0.28628483870512866 0.9153332743938104 0 0 0 0 -29.796027848624362 -73.109421538393008 0 -73.109421538393008 39.628486159381055 0 0 0 0 -8.4825187459418885 -5.5718385234962966 0 -5.5718385234962966 16.721997931174315 0 0 0 0 0.079403496986412136 -0.6968996839361381 0 -0.6968996839361381 -0.29911572879234294 0 0 0 0 -89.336157336783799 -36.115577576816662 0 -36.115577576816662 13.798456033708703 0 0 0 0 -104.50649800906831 14.28603870124013 0 14.28603870124013 -7.9687369124769418 0 0 0 0 85.590293598554126 -39.931526098467515 0 -39.931526098467515 -29.397048182434276 0 0 0 0 -45.334831123594086 -2.8854772521460887 0 -2.8854772521460887 -10.205136826515854 0 0 0 0 -33.235439151983883 -62.206555434606372 0 -62.206555434606372 59.119289585010961 0 0 0 0 -99.232546474426272 -113.57340574752104 0 -113.57340574752104 -55.141284169305806 0 0 0 0 89.094107902128599 30.357526094683578 0 30.357526094683578 19.7647280317913 0 0 0 0 79.204736037187104 -81.159690488400827 0 -81.159690488400827 29.939487812852803 0 0 0 0 119.8662647248093 -52.82784244233261 0 -52.82784244233261 -97.906951302136719 0 0 0 0 -208.15589712517249 -3.4458685176785195 0 -3.4458685176785195 37.93841120520753 0 0 0 0 -148.77896069113558 -55.445953217322653 0 -55.445953217322653 15.926909985888557 0 0 0 0 202.40288284738199 -48.839186484413361 0 -48.839186484413361 -101.82987637381115 0 0 0 0 0.0039124653824407218 0.059351474116539293 0 0.059351474116539293 -0.33547153381442113 0 0 0 0 24.351470342477114 -13.616454531681143 0 -13.616454531681143 -59.209783039802744 0 0 0 0 -25.955874602836047 12.826075529938691 0 12.826075529938691 13.529590682718208 0 0 0 0 0.032602753520752259 -0.14935522168880944 0 -0.14935522168880944 0.094666307410229855 0 0 0 0 -93.835837833976257 -88.997609154882298 0 -88.997609154882298 46.898415143931743 0 0 0 0 -0.1592658014788384 -0.43074813964353353 0 -0.43074813964353353 -1.4660360534306864 0 0 0 0 -227.9227246853643 17.440805007078254 0 17.440805007078254 -0.57029357260450553 0 0 0 0 20.47716810487691 -21.02933098451058 0 -21.02933098451058 -42.740654161229486 0 0 0 0 -122.50466949120892 26.364076565186483 0 26.364076565186483 -11.40662206769119 0 0 0 0 -92.060703360253683 0.37389578730702056 0 0.37389578730702056 -0.85822176496756697 0 0 0 0 -58.276685945676945 6.4872851057642222 0 6.4872851057642222 -8.0489614392767663 0 0 0 0 -1.9595226538666815 -1.5355060377066607 0 -1.5355060377066607 -3.4404544688291852 0 0 0 0 -86.569942660305969 -5.822280815230954 0 -5.822280815230954 -1.4666865041073365 0 0 0 0 -6.2918756893177488 -9.4292568099433538 0 -9.4292568099433538 4.671713774833961 0 0 0 0 -6.9763785667146294 -0.31660230865870176 0 -0.31660230865870176 1.0195296383997174 0 0 0 0 -3.9298777693164411 0.7054437554172921 0 0.7054437554172921 2.2062917653343237 0 0 0 0 -4.225622630989001 -2.0414439372154387 0 -2.0414439372154387 2.1840457467476027 0 0 0 0 -6.9219162807930843 -6.5900523003666791 0 -6.5900523003666791 5.924104492288123 0 0 0 0 -6.8919183997350046 -0.15771561591094496 0 -0.15771561591094496 0.61962176986082795 0 0 0 0 -5.9543414906220278 -2.6586411153902816 0 -2.6586411153902816 3.8459999960140099 0 0 0 0 -6.336307505322111 -7.7212145910611127 0 -7.7212145910611127 8.1051703993651927 0 0 0 0 -14.810947256155487 -12.475484570908236 0 -12.475484570908236 14.933650857277883 0 0 0 0 4.4423945265148177 -26.76445550233629 0 -26.76445550233629 15.32510459866694 0 0 0 0 -0.51092765945309537 -1.3705431861047295 0 -1.3705431861047295 2.9005923364489887 0 0 0 0 -0.21221542715738906 -4.9480663542107948 0 -4.9480663542107948 4.164466516490279 0 0 0 0 -1.4568652883099276 -9.140153547658457 0 -9.140153547658457 6.7179382960324006 0 0 0 0 -9.2202978429450013 4.8354899545829539 0 4.8354899545829539 6.1924117687722173 0 0 0 0 -14.360032970173052 -0.84146774185228423 0 -0.84146774185228423 11.851363666540692 0 0 0 0 -5.0040407971014034 2.1496968293318117 0 2.1496968293318117 -0.26386370860599351 0 0 0 0 -2.9618641872148146 -2.6002748100805775 0 -2.6002748100805775 7.9789569326480887 0 0 0 0 -8.4252773303051072 2.4480268175237825 0 2.4480268175237825 3.9448360457425586 0 0 0 0 -8.8652666288489854 1.7024903699290235 0 1.7024903699290235 3.1817711928802055 0 0 0 0 -2.2005977897624689 -4.3968505065673753 0 -4.3968505065673753 8.1466360727604297 0 0 0 0 -3.2208618992387343 -6.7378681473177178 0 -6.7378681473177178 4.7038035936761231 0 0 0 0 -1.3330599592384118 1.8208695996869029 0 1.8208695996869029 0.37524109155144147 0 0 0 0 -5.0632298945420189 -1.332359340533003 0 -1.332359340533003 7.4877348095719753 0 0 0 0 -6.4495688462302496 -4.9940480729395631 0 -4.9940480729395631 10.446006804934768 0 0 0 0 -3.6172008772317739 0.87030701755955775 0 0.87030701755955775 2.2645123477391995 0 0 0 0 -12.294213060501079 -0.49934324052178169 0 -0.49934324052178169 2.0913185703647059 0 0 0 0 -2.3144727918497665 -0.21446733168681931 0 -0.21446733168681931 9.6113705801611786 0 0 0 0 -19.635530031569033 -7.3542191063004907 0 -7.3542191063004907 12.138489485463651 0 0 0 0 -0.7994486992390244 -0.27146725060135068 0 -0.27146725060135068 -0.061434386852678102 0 0 0 0 -2.3115968814126973 4.3116791155579222 0 4.3116791155579222 -5.275364402043806 0 0 0 0 -5.7030683501125168 4.8978315061697515 0 4.8978315061697515 1.2141745522957308 0 0 0 0 -6.6718593264831725 -1.3922486897494082 0 -1.3922486897494082 1.9600203775438274 0 0 0 0 -7.9988350988496677 5.1855378376175167 0 5.1855378376175167 5.6479127841515719 0 0 0 0 -5.4519379979028599 3.3979264388981107 0 3.3979264388981107 -2.1841322973439787 0 0 0 0 20.887384716835641 -17.720805073655892 0 -17.720805073655892 -25.097380089477838 0 0 0 0 -1.1979936947946648 0.6879120057075383 0 0.6879120057075383 -0.16697738076455726 0 0 0 0 18.152665620704795 46.270118533871859 0 46.270118533871859 -11.01540298978442 0 0 0 0 0.12747597447892645 3.9384602580435732 0 3.9384602580435732 2.3822069056252531 0 0 0 0 -3.4582096812169496 1.7695415083794495 0 1.7695415083794495 -0.998319015348751 0 0 0 0 -10.650658886910605 5.7487004940501265 0 5.7487004940501265 16.57488145705247 0 0 0 0 -2.0772708547633982 1.6723978037962848 0 1.6723978037962848 -1.1903975228593446 0 0 0 0 -109.3481624671731 3.9218846341901781 0 3.9218846341901781 70.377838228028878 0 0 0 0 -0.19396020282472648 0.24895775197155423 0 0.24895775197155423 -0.39720630417687663 0 0 0 0 -65.528863493975223 22.465710076787445 0 22.465710076787445 -8.7928374354961534 0 0 0 0 -90.359346889235894 -16.48263371193832 0 -16.48263371193832 48.801602440059753 0 0 0 0 -95.452546709899252 -4.2485316748362436 0 -4.2485316748362436 43.262598259450158 0 0 0 0 -178.65780540629748 46.212674288745944 0 46.212674288745944 17.489974084259131 0 0 0 0 -64.94270586802304 16.897270037376202 0 16.897270037376202 -23.128942097669125 0 0 0 0 -69.546310089910548 -30.555591578530723 0 -30.555591578530723 -134.66145923253694 0 0 0 0 -179.56811927058152 -73.650448512852719 0 -73.650448512852719 -49.386319135608105 0 0 0 0 -89.149204310491768 -14.83872406103076 0 -14.83872406103076 -30.471864953591353 0 0 0 0 -73.198161087580957 -50.989671749170505 0 -50.989671749170505 -47.640958699312684 0 0 0 0 -143.48117660650496 -23.790582841737624 0 -23.790582841737624 2.662334635443834 0 0 0 0 -86.862504399308818 -12.923179051683277 0 -12.923179051683277 2.8638354584551067 0 0 0 0 -74.823096253167023 -13.87338271145471 0 -13.87338271145471 1.6226711669616951 0 0 0 0 -81.442506562645576 -8.4608275412582614 0 -8.4608275412582614 1.7209164637382059 0 0 0 0 -22.420413189680403 -5.5996982602366572 0 -5.5996982602366572 -12.371407097876684 0 0 0 0 -51.757973898667842 -37.038286386785138 0 -37.038286386785138 -19.069731342417043 0 0 0 0 -24.178729160267267 -14.70598757634723 0 -14.70598757634723 14.892574544512939 0 0 0 0 -25.802141176965961 -6.630829988930933 0 -6.630829988930933 -23.300881929816097 0 0 0 0 7.8166853938855638 -20.227942292359721 0 -20.227942292359721 -23.108829786498561 0 0 0 0 -0.45906407420029893 0.41482339055065509 0 0.41482339055065509 -0.32340965747457751 0 0 0 0 11.549525438768569 4.3116219732821826 0 4.3116219732821826 -12.527930851668721 0 0 0 0 1.5472196184127824 -7.7479059313636043 0 -7.7479059313636043 -18.178768006615172 0 0 0 0 -17.780917096706617 -12.05827688835636 0 -12.05827688835636 3.4803734749681325 0 0 0 0 -5.8079062156102736 -3.1112921603539689 0 -3.1112921603539689 -5.355252998306355 0 0 0 0 -8.690069596756075 -4.1116046248475016 0 -4.1116046248475016 3.6979049916806161 0 0 0 0 9.2853901741291338 -24.246403152327588 0 -24.246403152327588 10.595695696357836 0 0 0 0 -4.9896096729171404 -19.855510378765047 0 -19.855510378765047 -10.478598828121392 0 0 0 0 9.3445886574263568 -20.774897074468171 0 -20.774897074468171 -11.11786334329075 0 0 0 0 2.8534746182463095 -5.0891452065740097 0 -5.0891452065740097 -4.2535508584445552 0 0 0 0 -6.745951498802242 0.63277465371831809 0 0.63277465371831809 -14.47582663257208 0 0 0 0 -0.0022423319715016987 -12.609223872030171 0 -12.609223872030171 -11.585424716013364 0 0 0 0 10.582268098522036 -13.587716830467436 0 -13.587716830467436 -13.487896746872195 0 0 0 0 -0.43852724995849712 -19.214494085943329 0 -19.214494085943329 8.418582003988476 0 0 0 0 11.308117814653087 -4.1443458449836044 0 -4.1443458449836044 17.626483957708245 0 0 0 0 -31.529785920256472 17.326616809725209 0 17.326616809725209 -2.5830888567682848 0 0 0 0 -38.587080066117778 -16.868378967182736 0 -16.868378967182736 -1.1973098487060234 0 0 0 0 -31.076106845803224 -15.958838137206982 0 -15.958838137206982 -12.539683215458222 0 0 0 0 -71.7218936685058 -10.622446965736231 0 -10.622446965736231 0.83104327199635009 0 0 0 0 -50.556656045849195 2.7306727035560243 0 2.7306727035560243 -1.5938905014128864 0 0 0 0 -83.703018516567681 -2.7245325468289252 0 -2.7245325468289252 0.25069923899650348 0 0 0 0 -192.51900542747126 -65.141068907906941 0 -65.141068907906941 18.195137868394113 0 0 0 0 -71.963365502042507 -6.6995698304058493 0 -6.6995698304058493 -14.152781354175318 0 0 0 0 -0.41983515622303003 0.6319808299164329 0 0.6319808299164329 -0.92083423913145612 0 0 0 0 -169.52426313674368 -117.18056296882008 0 -117.18056296882008 28.221725885180518 0 0 0 0 -121.46960245228911 43.529171913676663 0 43.529171913676663 82.089003378430391 0 0 0 0 -3.9113619227787311 -0.78456403994052515 0 -0.78456403994052515 -0.044904545119592867 0 0 0 0 92.474630198725208 45.933967185601546 0 45.933967185601546 -23.938846630211966 0 0 0 0 172.54278338465519 15.978527503637835 0 15.978527503637835 -24.575234032847398 0 0 0 0 1.9194264586312784 2.2651617626194676 0 2.2651617626194676 0.0013939025866458535 0 0 0 0 2.6319708602404717 9.4783782707551012 0 9.4783782707551012 7.9322961948487976 0 0 0 0 -1.1160133596149535 0.685904214003207 0 0.685904214003207 9.4435971337920979 0 0 0 0 -3.5412999692525773 0.56988930481611488 0 0.56988930481611488 11.60293061885103 0 0 0 0 -81.501218173572852 53.084223792258115 0 53.084223792258115 71.987090948461514 0 0 0 0 63.866990744660143 27.735574790046172 0 27.735574790046172 10.901866527018882 0 0 0 0 -6.5948493687628797 -3.5928578850889856 0 -3.5928578850889856 6.1202920220193038 0 0 0 0 12.931626945859989 -45.413321638575532 0 -45.413321638575532 51.646486030464587 0 0 0 0 -3.9933000420766334 -1.1358962768022058 0 -1.1358962768022058 -0.23226593756080383 0 0 0 0 -1.2504876605073605 -0.54923997704332539 0 -0.54923997704332539 1.5316075267940072 0 0 0 0 -3.8387649272390263 -2.539554900645371 0 -2.539554900645371 0.0012235651221816322 0 0 0 0 0.028859702620234629 -0.012138899240667911 0 -0.012138899240667911 -0.029491745646200346 0 0 0 0 -14.037126831164642 2.5728936798823345 0 2.5728936798823345 1.741333434553817 0 0 0 0 -1.2707253872722504 -0.46167396690622731 0 -0.46167396690622731 -0.15267872578119679 0 0 0 0 -12.178756824261654 -17.07666274040821 0 -17.07666274040821 41.994554879279619 0 0 0 0 -6.136439740362853 -0.65294952770816916 0 -0.65294952770816916 0.28429015286606246 0 0 0 0 -6.7102448893638211 -0.87177239739588686 0 -0.87177239739588686 0.83769410802115374 0 0 0 0 -18.257773271390761 46.110445150202111 0 46.110445150202111 96.474429603018905 0 0 0 0 -7.1609076780232499 -0.32573608596823078 0 -0.32573608596823078 0.72816353483574403 0 0 0 0 34.331487249335623 -63.807192553848523 0 -63.807192553848523 168.42779932593317 0 0 0 0 -1.1716732904197258 -0.21817172282029063 0 -0.21817172282029063 0.86465448466307393 0 0 0 0 -1.4340867206190637 -0.82881744037109684 0 -0.82881744037109684 0.34079130400656676 0 0 0 0 1.4553995686073904 -4.0785289419020785 0 -4.0785289419020785 -1.5496477191464066 0 0 0 0 2.5636892389643435 -12.169571994525526 0 -12.169571994525526 61.253751519124421 0 0 0 0 -13.096373686977586 -2.3649900604287422 0 -2.3649900604287422 -5.517040107439243 0 0 0 0 -9.3888828779294826 -0.32287198569589926 0 -0.32287198569589926 1.6076626781709547 0 0 0 0 -4.5340296123940789 -1.2792885370830902 0 -1.2792885370830902 4.8132969540266117 0 0 0 0 -9.1292318810804574 -2.3487697351708068 0 -2.3487697351708068 0.69960918104752157 0 0 0 0 -10.501043598880415 0.32880990687530343 0 0.32880990687530343 1.6395110939901947 0 0 0 0 -13.625469408295771 1.1498456330903846 0 1.1498456330903846 4.8052887110962956 0 0 0 0 -13.196776938055336 0.22688554338360234 0 0.22688554338360234 3.937440188245219 0 0 0 0 -6.2878507413830036 -1.6021517069357927 0 -1.6021517069357927 1.2532057746058312 0 0 0 0 -6.1566071361576178 -1.0183071005884301 0 -1.0183071005884301 0.64256884749636356 0 0 0 0 -6.5809271542839269 -0.45515014781284435 0 -0.45515014781284435 0.57691219452203768 0 0 0 0 -6.2014246810522309 2.5673783298370836 0 2.5673783298370836 -1.1294464190254985 0 0 0 0 -6.6451110512061859 -0.60828361971357481 0 -0.60828361971357481 0.74180616789197984 0 0 0 0 -3.3459122387452851 -1.6951144739238622 0 -1.6951144739238622 1.8339540519303981 0 0 0 0 -6.6967356493933039 -0.52729093964450158 0 -0.52729093964450158 0.63465865691694034 0 0 0 0 -2.2982137047312072 1.8453199803475506 0 1.8453199803475506 -2.6241138500385812 0 0 0 0 -6.5993147190183663 11.27805124404739 0 11.27805124404739 13.804615726080328 0 0 0 0 -89.523344929037194 -6.7874108495153394 0 -6.7874108495153394 0.75732763257701663 0 0 0 0 -88.913347180110577 -4.0139194738973742 0 -4.0139194738973742 1.9209066296710233 0 0 0 0 29.604261466587559 26.322984296635298 0 26.322984296635298 44.111606119415569 0 0 0 0 -17.902053943169449 -5.3565613639845537 0 -5.3565613639845537 23.252431885758796 0 0 0 0 -0.030134938299589464 -0.44208833692349625 0 -0.44208833692349625 0.010789638379256561 0 0 0 0 -15.235096702159353 -14.064684634574746 0 -14.064684634574746 -5.693445750562887 0 0 0 0 -52.05692737335994 7.5909039256350752 0 7.5909039256350752 141.43849117176478 0 0 0 0 -3.504610305308848 -2.3414626547287583 0 -2.3414626547287583 1.0275435933592769 0 0 0 0 -9.9980049375426461 -1.7538127024822074 0 -1.7538127024822074 7.2559633903749727 0 0 0 0 -32.575607310285704 -3.546776139053776 0 -3.546776139053776 122.14098567556712 0 0 0 0 -68.208367679791991 57.847213728072504 0 57.847213728072504 69.926078135081809 0 0 0 0 -173.12685063888057 41.843262042987362 0 41.843262042987362 69.005633384610391 0 0 0 0 -45.692061527956412 -30.553333433595824 0 -30.553333433595824 58.290564234491342 0 0 0 0 -94.698945166352132 1.2954727360148723 0 1.2954727360148723 53.276612880677988 0 0 0 0 -71.018411200377159 11.376502472781496 0 11.376502472781496 21.761378723381029 0 0 0 0 26.665513932690374 52.212524435372188 0 52.212524435372188 -6.2042663484453442 0 0 0 0 -44.73799012154268 65.583223386700638 0 65.583223386700638 24.063017018559208 0 0 0 0 -64.829783867564402 109.51900972005454 0 109.51900972005454 15.272192249423256 0 0 0 0 1.1673908375087194 79.357736515105728 0 79.357736515105728 28.011362935787872 0 0 0 0 -54.037549728651356 99.241983699371474 0 99.241983699371474 13.387276386918671 0 0 0 0 122.05101975548678 74.796999040727286 0 74.796999040727286 -22.374008125418868 0 0 0 0 46.44988004550396 117.92724084806581 0 117.92724084806581 -46.442966756563209 0 0 0 0 14.012760667792463 110.07918541507189 0 110.07918541507189 -26.608819654584863 0 0 0 0 -1.8356851351693635 -0.085808582866413907 0 -0.085808582866413907 0.054737227473614591 0 0 0 0 -42.582248800121306 141.45468813856502 0 141.45468813856502 -48.295136070110274 0 0 0 0 -21.600722692608542 -15.57630729229545 0 -15.57630729229545 21.487597632592212 0 0 0 0 -170.44530219124135 40.961041860619886 0 40.961041860619886 0.019662573653508382 0 0 0 0 -250.39578198191884 -39.980961322843243 0 -39.980961322843243 7.8471726678460172 0 0 0 0 -194.28555278085332 126.37225288410693 0 126.37225288410693 11.464246570167813 0 0 0 0 -54.924943327969231 -12.535721544852498 0 -12.535721544852498 -113.20016518615806 0 0 0 0 -9.6977148493606364 -43.658661151356057 0 -43.658661151356057 -0.07953151545395995 0 0 0 0 -55.708492041817408 -2.3552255738536907 0 -2.3552255738536907 -20.080782142140023 0 0 0 0 -23.770281761568185 -66.356296861617167 0 -66.356296861617167 -3.2650720547546328 0 0 0 0 -13.722565686810412 -39.446664975007877 0 -39.446664975007877 35.166054484157712 0 0 0 0 -17.872829401931085 -56.106335421550114 0 -56.106335421550114 95.218167928027583 0 0 0 0 -10.565325739542459 23.985966897376017 0 23.985966897376017 132.26151403055547 0 0 0 0 18.564607350868755 -63.915396488081342 0 -63.915396488081342 43.812680891476688 0 0 0 0 -0.33241662677028216 -31.891878077752679 0 -31.891878077752679 49.946060246574902 0 0 0 0 -12.406013862051623 -44.079381411782038 0 -44.079381411782038 39.202557301819454 0 0 0 0 -8.416260159679041 -64.234329728838958 0 -64.234329728838958 25.162046649722328 0 0 0 0 13.948613025004306 -32.838112432656807 0 -32.838112432656807 3.7318017137745421 0 0 0 0 16.122835436317473 -26.719207300383623 0 -26.719207300383623 20.818957111547618 0 0 0 0 31.488188169647401 -31.210609022801787 0 -31.210609022801787 0.064476792348852549 0 0 0 0 -0.030943213476053444 -0.087258632498002697 0 -0.087258632498002697 0.07681082989900738 0 0 0 0 -44.600167741527912 11.903071601439994 0 11.903071601439994 -0.3149157414818351 0 0 0 0 -23.527819769395137 8.8813808489492363 0 8.8813808489492363 -4.9318491003585656 0 0 0 0 -15.868835127967031 0.79026798411214472 0 0.79026798411214472 -1.0461966379324661 0 0 0 0 -1.3393144289711607 0.23321661254496107 0 0.23321661254496107 0.40093054343762041 0 0 0 0 5.1282313320934918 -33.956674443789936 0 -33.956674443789936 21.927382056484205 0 0 0 0 1.8951867552665362 -21.16791057339606 0 -21.16791057339606 34.304421351234453 0 0 0 0 -7.0628969048320869 -4.8527769482444123 0 -4.8527769482444123 -3.3309578479932385 0 0 0 0 -13.949451095163568 -6.8100128543936904 0 -6.8100128543936904 0.014123543330375486 0 0 0 0 -26.344442590685503 -5.2003256904564523 0 -5.2003256904564523 -0.037058969158898156 0 0 0 0 -17.581616946673421 -1.706324943209395 0 -1.706324943209395 -2.3357174978214372 0 0 0 0 -20.311012273734377 -7.277299489202111 0 -7.277299489202111 -1.5204337127871086 0 0 0 0 -14.651895163095105 -3.3379839739209718 0 -3.3379839739209718 0.98693728080569798 0 0 0 0 -14.237654100729287 -3.6772359995477633 0 -3.6772359995477633 0.99162007392530427 0 0 0 0 -16.478947260993664 -3.5161798940091735 0 -3.5161798940091735 4.0247957743049927 0 0 0 0 -18.69681540938609 1.274914008709489 0 1.274914008709489 10.954137959438775 0 0 0 0 -12.181861036751087 0.024241667345417994 0 0.024241667345417994 0.33511303027938011 0 0 0 0 -19.381164443674606 -19.035716536326746 0 -19.035716536326746 -7.5463415954492632 0 0 0 0 -13.996961920608591 0.69449806499685351 0 0.69449806499685351 0.29355303819758394 0 0 0 0 -27.094087376341122 0.31452101760842766 0 0.31452101760842766 23.274639643060567 0 0 0 0 -17.119205760878685 7.0061132551033154 0 7.0061132551033154 6.9803146794079112 0 0 0 0 -15.958006140564976 9.3099337017828674 0 9.3099337017828674 2.2595701633507801 0 0 0 0 -5.7105399759384454 2.56347736421273 0 2.56347736421273 -2.5696957456999598 0 0 0 0 -9.7337946782893852 0.43230923909371821 0 0.43230923909371821 0.025292763870511048 0 0 0 0 -8.1708418976631947 4.4553750690346803 0 4.4553750690346803 0.55231010388484236 0 0 0 0 -14.86704341649056 4.7897326148942767 0 4.7897326148942767 10.701514262315474 0 0 0 0 -16.159065514044414 -10.029600075469645 0 -10.029600075469645 -1.0746547761889467 0 0 0 0 -12.396299807721334 1.5452866811357708 0 1.5452866811357708 9.3129414373717623 0 0 0 0 -4.6947056743502564 0.88369440343695516 0 0.88369440343695516 -0.67080759149189473 0 0 0 0 -10.942190277615737 -4.3546266540068075 0 -4.3546266540068075 11.593945670385928 0 0 0 0 -12.437461887006066 -1.0340371896384966 0 -1.0340371896384966 14.455012262700606 0 0 0 0 -18.09455427665489 -7.769922608781755 0 -7.769922608781755 23.809864174777545 0 0 0 0 -18.048865675173147 -18.012362727949721 0 -18.012362727949721 12.056302995421476 0 0 0 0 -22.745711195024342 -14.086954407343086 0 -14.086954407343086 20.051503316798915 0 0 0 0 -23.88998222245209 -1.8107219919386353 0 -1.8107219919386353 35.496994295976862 0 0 0 0 -16.406797740693946 -3.7179003642474555 0 -3.7179003642474555 31.175465459703844 0 0 0 0 -2.7881143234239971 16.243047118443208 0 16.243047118443208 36.489882207728357 0 0 0 0 -2.2130376775388498 1.1209166843024274 0 1.1209166843024274 -0.17615072703259904 0 0 0 0 -17.36130523393706 3.9604151330799393 0 3.9604151330799393 3.138522355868588 0 0 0 0 -0.21700726890594524 57.643162638144645 0 57.643162638144645 28.822223829142672 0 0 0 0 -1.0513779629536053 0.2922422508165532 0 0.2922422508165532 0.10766735847098896 0 0 0 0 -59.765629765210178 -48.011513272178348 0 -48.011513272178348 -30.592364163407808 0 0 0 0 20.585364470399327 19.535763896667333 0 19.535763896667333 18.37303941792635 0 0 0 0 -30.766746851568314 24.231260875588077 0 24.231260875588077 2.8009355130009226 0 0 0 0 -33.726279359389082 20.480240918038874 0 20.480240918038874 19.498117892929827 0 0 0 0 -27.131559003242728 45.941267510102136 0 45.941267510102136 25.386731521663592 0 0 0 0 -16.850430437198156 48.165417682806492 0 48.165417682806492 14.921949794667626 0 0 0 0 -21.923400008114186 29.163202548950494 0 29.163202548950494 -10.073431000079552 0 0 0 0 -27.035056037440256 24.643943831144639 0 24.643943831144639 -2.7481422951310606 0 0 0 0 -72.359701915146616 24.464344306775814 0 24.464344306775814 2.8243768352427878 0 0 0 0 -29.220732489333386 48.492330518049869 0 48.492330518049869 -56.136361391471922 0 0 0 0 -88.240340242135971 1.0690548112413865 0 1.0690548112413865 25.765782110180112 0 0 0 0 -49.316117100953306 0.91915277252593341 0 0.91915277252593341 7.0095630460456277 0 0 0 0 -47.968615038429562 -32.793276293162251 0 -32.793276293162251 31.129836043501768 0 0 0 0 -53.279403869906673 -6.5749233790895119 0 -6.5749233790895119 30.981265163462254 0 0 0 0 -42.85858361110877 -11.136530474051654 0 -11.136530474051654 -8.9799738784715935 0 0 0 0 10.826356815783583 8.6078248934982255 0 8.6078248934982255 -26.860086718957433 0 0 0 0 -34.803995009691789 -25.326589683229574 0 -25.326589683229574 -24.647190330095427 0 0 0 0 -28.448519769697668 -17.260589577047213 0 -17.260589577047213 -20.151889253063018 0 0 0 0 -33.693717236496013 -30.520065738601865 0 -30.520065738601865 -31.509694807552464 0 0 0 0 -49.95348800290958 -15.784298719684955 0 -15.784298719684955 -17.243916008108215 0 0 0 0 -6.7940115094133944 17.289107761740357 0 17.289107761740357 2.5611858124350633 0 0 0 0 -24.792361630932646 -15.027540839018627 0 -15.027540839018627 -29.84303791746035 0 0 0 0 -26.60504500717434 30.818812464233531 0 30.818812464233531 8.169219025160487 0 0 0 0 -0.048256399144520401 13.204744198048164 0 13.204744198048164 1.0376796413395368 0 0 0 0 1.9564248130892885 6.8620516411315329 0 6.8620516411315329 -1.3936596499668656 0 0 0 0 -27.159505958740624 22.784098616655093 0 22.784098616655093 30.378224499107773 0 0 0 0 -3.0907364005925047 -3.9372984473317842 0 -3.9372984473317842 -18.956420494140957 0 0 0 0 0.05027531411711017 0.14938330433074754 0 0.14938330433074754 0.27952870603454483 0 0 0 0 -77.616470030228811 -19.810211059032213 0 -19.810211059032213 8.0307040607914928 0 0 0 0 23.404651487596311 7.9662621166896486 0 7.9662621166896486 7.967624900031467 0 0 0 0 3.5506158447935814 6.4662968347864052 0 6.4662968347864052 -2.5360044611080901 0 0 0 0 -42.395717292568406 15.255311673431208 0 15.255311673431208 0.76302906414389327 0 0 0 0 -27.52288666352797 8.5041213663430426 0 8.5041213663430426 -7.1055863420258447 0 0 0 0 25.940722924850888 4.8899651942821833 0 4.8899651942821833 -26.668390196596931 0 0 0 0 0.60125957999452595 0.71114691371346161 0 0.71114691371346161 1.0362910560228011 0 0 0 0 -27.452871108390354 13.7608960701765 0 13.7608960701765 -9.9077051681363173 0 0 0 0 -81.414814873052819 13.191484923347666 0 13.191484923347666 14.387062028572018 0 0 0 0 5.3413962926169916 54.873637731629515 0 54.873637731629515 -40.566325717529111 0 0 0 0 -13.520821222813538 19.701987669968759 0 19.701987669968759 -5.649263239619188 0 0 0 0 -63.479099059666623 43.152692146095376 0 43.152692146095376 -4.7112120406749227 0 0 0 0 -44.227215805742162 -4.5444216736908913 0 -4.5444216736908913 -0.34461664673395376 0 0 0 0 -29.481414866597333 24.091821817009958 0 24.091821817009958 2.6013887982795723 0 0 0 0 -24.455984866817744 25.944686953093786 0 25.944686953093786 19.945741274794912 0 0 0 0 -20.475428637746518 17.187008828670574 0 17.187008828670574 6.6490366410550958 0 0 0 0 -0.033081940786360065 7.7343691871436704 0 7.7343691871436704 -3.3913331922242644 0 0 0 0 -3.3870026392421657 2.1584160796783145 0 2.1584160796783145 2.3751454419536731 0 0 0 0 -16.424402502771045 12.435756508965174 0 12.435756508965174 12.206203465367622 0 0 0 0 -29.033773887404095 11.446483822547293 0 11.446483822547293 -4.0951603437604263 0 0 0 0 -33.964363625627811 10.267477592156581 0 10.267477592156581 0.60047472181878447 0 0 0 0 -16.1773084601341 12.414400871906125 0 12.414400871906125 5.4061627441977862 0 0 0 0 -19.834873639685611 17.998287117482192 0 17.998287117482192 3.4945815561322502 0 0 0 0 1.4600228694514357 6.3086487485589835 0 6.3086487485589835 -3.1078060439152182 0 0 0 0 -37.306569938715256 -21.400839284742624 0 -21.400839284742624 -12.580463497559567 0 0 0 0 -53.860943556806887 20.00797488082814 0 20.00797488082814 21.726832915162589 0 0 0 0 -63.865473368496168 34.035712684508084 0 34.035712684508084 2.3548664925440903 0 0 0 0 -85.333314420629904 38.343217739559236 0 38.343217739559236 27.621275834422114 0 0 0 0 -109.42449613423742 -64.855321281499869 0 -64.855321281499869 -23.681485543630785 0 0 0 0 -0.14382047882827464 66.002400360811009 0 66.002400360811009 56.244304984064954 0 0 0 0 33.428378997195068 20.296823361363213 0 20.296823361363213 12.872758287933081 0 0 0 0 -0.6999141657263408 0.16339056110209071 0 0.16339056110209071 0.12939214118756373 0 0 0 0 -28.618084239916243 -1.6853093506602157 0 -1.6853093506602157 14.233781899369092 0 0 0 0 -54.181242455702886 27.326319010072069 0 27.326319010072069 51.332650086887284 0 0 0 0 -8.7461222914716927 25.759607750669886 0 25.759607750669886 11.721200186834409 0 0 0 0 -44.917206266272842 13.164513159536369 0 13.164513159536369 11.641203759498341 0 0 0 0 -41.966104305276531 9.2629201030736965 0 9.2629201030736965 -5.581210779936697 0 0 0 0 -22.038424034706622 6.4390405146788581 0 6.4390405146788581 -9.4237288715157348 0 0 0 0 -53.321967926462094 -1.7195846097622649 0 -1.7195846097622649 -11.528320250896542 0 0 0 0 -44.536982425130191 6.8138155443215815 0 6.8138155443215815 -11.452959219897878 0 0 0 0 -58.667689347648775 19.684123210046828 0 19.684123210046828 -8.7482958663619854 0 0 0 0 -29.260926291798569 10.874907992798914 0 10.874907992798914 -1.78449958138388 0 0 0 0 -75.010258761321893 9.9334171682361898 0 9.9334171682361898 2.3266074820967901 0 0 0 0 0.57556740263637352 1.7965655964273375 0 1.7965655964273375 -1.0674106201895563 0 0 0 0 -13.414367819563154 5.2167904948012822 0 5.2167904948012822 0.32032623592644854 0 0 0 0 -3.2891351318611584 0.69398100306572275 0 0.69398100306572275 -0.10182127484052415 0 0 0 0 -31.605822562036337 0.97238765029182161 0 0.97238765029182161 -3.6402047983940236 0 0 0 0 -1.5637738057075641 0.046270178130143336 0 0.046270178130143336 -0.37002282484477717 0 0 0 0 -65.822931764905661 8.428695979177169 0 8.428695979177169 -5.1389956650514463 0 0 0 0 -63.789920443305164 1.71503579626145 0 1.71503579626145 -12.655180619371857 0 0 0 0 -63.731681947569086 -0.46711443491980731 0 -0.46711443491980731 -8.0726470018554437 0 0 0 0 -4.6292743573060422 -0.01505793447870829 0 -0.01505793447870829 0.10834956471834761 0 0 0 0 -13.71951556843851 22.487989581326524 0 22.487989581326524 45.906027022900389 0 0 0 0 -24.076018468378606 -4.2763970106355913 0 -4.2763970106355913 35.691021139106908 0 0 0 0 -20.367252253641709 7.8730124492257403 0 7.8730124492257403 8.4353941210101908 0 0 0 0 -15.565043381390645 0.92418445221462964 0 0.92418445221462964 0.50790883902082651 0 0 0 0 -16.041075967918005 1.364941898051915 0 1.364941898051915 0.46872252552596327 0 0 0 0 -14.357334239270131 0.063543427030722244 0 0.063543427030722244 -0.5558681905039986 0 0 0 0 -17.608366914217186 -0.75050039352943276 0 -0.75050039352943276 -0.73597949727113177 0 0 0 0 -16.924831181861009 0.8348894161269711 0 0.8348894161269711 0.250139106905654 0 0 0 0 -2.9546193334055668 -0.1674114355100329 0 -0.1674114355100329 0.1576524732033944 0 0 0 0 -15.961291843655999 0.53262100910631793 0 0.53262100910631793 0.1578965198870399 0 0 0 0 -15.934972814553703 0.23521821482859065 0 0.23521821482859065 -0.8361024443168148 0 0 0 0 -18.265200004541839 0.3948665098041042 0 0.3948665098041042 0.92587379979983453 0 0 0 0 -16.052506669820559 1.197818218477658 0 1.197818218477658 0.0016217452421071975 0 0 0 0 -16.446720055254445 0.80607207276777948 0 0.80607207276777948 0.88017605488732942 0 0 0 0 -14.419544434440468 0.35971638078926493 0 0.35971638078926493 -0.26874638816195501 0 0 0 0 0.29131244609255091 -0.0066417885452665359 0 -0.0066417885452665359 0.052026428474222439 0 0 0 0 -103.63662185491012 -8.9415852567463254 0 -8.9415852567463254 -6.7191594284818024 0 0 0 0 -28.555539862260048 7.2634063009171399 0 7.2634063009171399 4.7404262953999297 0 0 0 0 -15.274160153985576 2.8566302699906405 0 2.8566302699906405 0.61697145936581399 0 0 0 0 -20.796379011837416 -1.489680663397112 0 -1.489680663397112 0.15206620791115233 0 0 0 0 -16.906035849580803 1.5457521119740991 0 1.5457521119740991 -0.00073324779661082767 0 0 0 0 -0.043614745590401682 -0.22633744081684171 0 -0.22633744081684171 -0.080859405075130897 0 0 0 0 -117.93457105438256 -10.739174073455359 0 -10.739174073455359 -1.8034434108491837 0 0 0 0 -104.17158943942195 -18.589499979468144 0 -18.589499979468144 -0.0089553507020202015 0 0 0 0 -110.3938040191606 -26.744035542250977 0 -26.744035542250977 -10.654279203837415 0 0 0 0 -84.372248742298325 -24.124467135490928 0 -24.124467135490928 -10.853023483800891 0 0 0 0 -113.38483416656709 -42.597939280083736 0 -42.597939280083736 -13.205217280001811 0 0 0 0 -116.67878204282351 -27.471051608869629 0 -27.471051608869629 -0.0097486480355204533 0 0 0 0 -123.94065580502684 -31.018645998218719 0 -31.018645998218719 1.460422537211258 0 0 0 0 -130.11654243588691 -26.273942178915973 0 -26.273942178915973 0.022303422960187363 0 0 0 0 -122.47905578354221 -23.367742360746362 0 -23.367742360746362 -2.3263716085447967 0 0 0 0 -129.81884017089305 -21.315790134685141 0 -21.315790134685141 -1.66572163943151 0 0 0 0 -142.36666525972214 -31.080488333725821 0 -31.080488333725821 1.4632427382629944 0 0 0 0 -101.18496577800533 -41.913141060446129 0 -41.913141060446129 -10.058919030309156 0 0 0 0 -0.17848375553924178 -0.14711375564633755 0 -0.14711375564633755 -0.36354679001069551 0 0 0 0 -133.52776060080214 -37.527785091689289 0 -37.527785091689289 -8.7157646896163641 0 0 0 0 -199.14255256660226 -49.347206301521602 0 -49.347206301521602 35.906163717208273 0 0 0 0 -242.53345405526852 -83.766422316664077 0 -83.766422316664077 14.112566831202741 0 0 0 0 -80.514916343141522 -37.160765837793122 0 -37.160765837793122 -23.266800908044488 0 0 0 0 -80.639062315194678 -38.727902944687294 0 -38.727902944687294 -7.7028413024579692 0 0 0 0 -58.803039446707771 -25.177056162560909 0 -25.177056162560909 -12.544011082527874 0 0 0 0 -62.403504546351542 -12.436273861755765 0 -12.436273861755765 -6.9439794871151861 0 0 0 0 -47.89753500075949 -8.9146027157955423 0 -8.9146027157955423 -12.00427337040361 0 0 0 0 -80.762036236759741 -9.728881768450492 0 -9.728881768450492 -9.7206510822977705 0 0 0 0 -85.439314862605897 -35.046427532996006 0 -35.046427532996006 -13.468157339255463 0 0 0 0 -83.197657208867895 -35.506112951649222 0 -35.506112951649222 -15.457145952842081 0 0 0 0 -52.190674149920596 -17.738586453412658 0 -17.738586453412658 -2.1811616855690161 0 0 0 0 -36.281805643002372 -10.506890071659656 0 -10.506890071659656 -3.1138678642728586 0 0 0 0 -38.174957179439843 -10.63407943406132 0 -10.63407943406132 -0.012353399683720706 0 0 0 0 -0.14499055968748209 -0.026568228824423556 0 -0.026568228824423556 0.042850778534785985 0 0 0 0 -87.955269272708392 -10.747802765377173 0 -10.747802765377173 -1.8380649530496243 0 0 0 0 -77.363046762933664 -27.282381423758743 0 -27.282381423758743 -4.5036493137473741 0 0 0 0 -92.046271801815237 -20.561888872017203 0 -20.561888872017203 -7.1126899741015874 0 0 0 0 -97.379035447223941 -25.837175917854211 0 -25.837175917854211 -0.030507825521589316 0 0 0 0 -123.52813335287829 -15.407771548473496 0 -15.407771548473496 3.2038633623205044 0 0 0 0 -140.2283623160256 -10.177719253648213 0 -10.177719253648213 10.616329399894241 0 0 0 0 -66.176752549281446 13.247781321638797 0 13.247781321638797 9.477791949768374 0 0 0 0 -85.573395833987888 -5.6419284597630508 0 -5.6419284597630508 20.189794402779555 0 0 0 0 -48.594188667389972 -11.682289232857354 0 -11.682289232857354 -12.319781344940282 0 0 0 0 -0.13012860063001952 -0.053534230532051197 0 -0.053534230532051197 0.16660526735469505 0 0 0 0 -55.227170755790439 -20.1600581707829 0 -20.1600581707829 -6.6847973559549132 0 0 0 0 -27.259271750066546 2.0247702773965841 0 2.0247702773965841 9.8990777222997792 0 0 0 0 -54.796579205777562 -41.55787693925884 0 -41.55787693925884 -2.2714066672898383 0 0 0 0 -37.295353809947756 -11.351993372923825 0 -11.351993372923825 37.651146526409832 0 0 0 0 -0.056149861338731455 -0.073358777691463928 0 -0.073358777691463928 0.094854066958823258 0 0 0 0 -37.669862378079415 -10.184368786110914 0 -10.184368786110914 -6.1070017160726238 0 0 0 0 -6.2114867734198924 -0.42789435496749206 0 -0.42789435496749206 36.514792612196914 0 0 0 0 -15.35176371637499 -17.808672102473714 0 -17.808672102473714 13.053616456664827 0 0 0 0 -37.288765532761317 -24.285706434945837 0 -24.285706434945837 55.991149381871708 0 0 0 0 -25.87435760725748 -27.18771034709107 0 -27.18771034709107 46.910167216228075 0 0 0 0 -26.86367801234428 -9.8620660574452437 0 -9.8620660574452437 51.006755065498282 0 0 0 0 -0.68468040127845597 -27.815109399223587 0 -27.815109399223587 61.982299788575403 0 0 0 0 -23.616546360783104 -24.019209423649443 0 -24.019209423649443 25.38657630636564 0 0 0 0 -2.8014487432414157 0.48400739659872372 0 0.48400739659872372 0.36818929228003483 0 0 0 0 -2.5076414774991136 0.017032994816124969 0 0.017032994816124969 0.33637956447984818 0 0 0 0 -19.973408970648961 4.310169567972963 0 4.310169567972963 92.082268259491215 0 0 0 0 -205.99922418338974 141.66040743303074 0 141.66040743303074 181.25945162663697 0 0 0 0 -717.40071129144781 -200.27314802279068 0 -200.27314802279068 16.699815349923369 0 0 0 0 -201.23299486736323 -271.71443371493956 0 -271.71443371493956 -320.57410855805296 0 0 0 0 -1.6316632688493087 0.14107419988456549 0 0.14107419988456549 0.13946534433752955 0 0 0 0 554.14143771004092 22.852082782659295 0 22.852082782659295 -101.86941760273672 0 0 0 0 -367.7723017337803 -163.59536373495445 0 -163.59536373495445 -121.50978091786101 0 0 0 0 38.676655855451827 22.30911333713928 0 22.30911333713928 41.817044457293946 0 0 0 0 -62.116602501771013 92.725892683202105 0 92.725892683202105 114.50428185171154 0 0 0 0 -45.648392429744945 27.746841689312092 0 27.746841689312092 42.36138541790632 0 0 0 0 -204.78156165322434 50.843180704511894 0 50.843180704511894 102.2888860197661 0 0 0 0 -223.90914180135587 -140.50388168367522 0 -140.50388168367522 -183.48869488283191 0 0 0 0 -248.47314905251915 -146.64364721905847 0 -146.64364721905847 -14.252466406094413 0 0 0 0 -301.15324503842294 -38.51609014690915 0 -38.51609014690915 -116.46323580185742 0 0 0 0 -230.34045905092717 -60.365509542802954 0 -60.365509542802954 -126.22165891155259 0 0 0 0 -226.26183621092588 11.872534141698313 0 11.872534141698313 23.144033424230429 0 0 0 0 -176.53253296631829 -1.8422886914338825 0 -1.8422886914338825 -53.948196880605806 0 0 0 0 -136.09131955604971 48.167742358569868 0 48.167742358569868 -56.874947925498816 0 0 0 0 -212.71980924081981 14.851076166231195 0 14.851076166231195 -59.553431218615501 0 0 0 0 -64.62058076147332 78.514940101986838 0 78.514940101986838 0.56025180211763015 0 0 0 0 -247.44009131066196 13.00295634073359 0 13.00295634073359 34.369629535165359 0 0 0 0 104.88880657645677 -49.657071956504069 0 -49.657071956504069 1.5528613350092826 0 0 0 0 -167.10050956219402 -60.208389269365718 0 -60.208389269365718 2.2151738785138662 0 0 0 0 -55.216864941321546 -30.571574657387515 0 -30.571574657387515 -115.29761581633316 0 0 0 0 -205.54332385207272 -121.03294057504046 0 -121.03294057504046 -125.53664656948303 0 0 0 0 -153.52368100404783 -107.18129699707721 0 -107.18129699707721 -180.68888538525175 0 0 0 0 -52.240609279982891 -127.76486522994784 0 -127.76486522994784 -303.44961590422429 0 0 0 0 -137.54717511827039 -120.90080689469863 0 -120.90080689469863 -161.65243778116758 0 0 0 0 129.33698987351818 -3.105844609022256 0 -3.105844609022256 -102.41755859244509 0 0 0 0 -57.766169021360838 -131.95215326261825 0 -131.95215326261825 -70.286009176111264 0 0 0 0 -56.624736935750178 -185.74932430887796 0 -185.74932430887796 -128.3406867329565 0 0 0 0 -10.515813950425581 -262.64443405005102 0 -262.64443405005102 -229.98302431029828 0 0 0 0 -83.67996020269311 -158.0952357970491 0 -158.0952357970491 -179.93718425671312 0 0 0 0 -250.25588376356973 -228.23688745562845 0 -228.23688745562845 -113.67608046281225 0 0 0 0 32.753026316633623 -161.28589201368084 0 -161.28589201368084 -237.38578458303078 0 0 0 0 -93.102694255791903 -181.06981714804638 0 -181.06981714804638 -105.97877307007036 0 0 0 0 -7.3574584354734256 1.8843951759940385 0 1.8843951759940385 0.19394928715345694 0 0 0 0 166.86352876741512 12.274279554738882 0 12.274279554738882 158.00301505709083 0 0 0 0 -34.058128629669227 -35.7095831547648 0 -35.7095831547648 -11.857196888315116 0 0 0 0 -76.024715733929042 -24.770051271375323 0 -24.770051271375323 16.921256428202213 0 0 0 0 -9.27397105284399 -13.525002390934333 0 -13.525002390934333 33.869794237696915 0 0 0 0 -22.189111281628357 2.384333190275413 0 2.384333190275413 14.273035912955464 0 0 0 0 -46.399117899434714 -29.62360279345237 0 -29.62360279345237 -1.0391899563237814 0 0 0 0 -42.930166431729049 -15.796812411223975 0 -15.796812411223975 -8.7232489691788544 0 0 0 0 -17.554779083426183 0.66717824805293446 0 0.66717824805293446 -0.83606987332819926 0 0 0 0 -45.884568485096679 -26.433738085398318 0 -26.433738085398318 -13.69713129414551 0 0 0 0 -78.801305971196001 -26.277017829779069 0 -26.277017829779069 6.0006869228998596 0 0 0 0 -79.080245030892684 -41.882225081903186 0 -41.882225081903186 -13.648423718656346 0 0 0 0 -122.35559210324391 -24.676543471457148 0 -24.676543471457148 -3.9806097748149085 0 0 0 0 -145.51846112396197 -57.443474670221875 0 -57.443474670221875 0.1492602313863074 0 0 0 0 -0.26015365337394236 0.0023342112103428292 0 0.0023342112103428292 -1.0181418184849957 0 0 0 0 -91.818250778918809 -72.352134767924866 0 -72.352134767924866 -102.53495552187104 0 0 0 0 -86.897387451303075 -29.900713757873874 0 -29.900713757873874 -28.02184880487961 0 0 0 0 -80.306651857807083 -13.563447140166694 0 -13.563447140166694 -11.942211842630304 0 0 0 0 -104.76442586041594 -34.557053609492257 0 -34.557053609492257 4.893736492131616 0 0 0 0 -104.85655320799196 -53.219817129614533 0 -53.219817129614533 -28.065740006839867 0 0 0 0 -141.35729872071897 -22.735416412377916 0 -22.735416412377916 19.649510414006158 0 0 0 0 -152.51644066682275 -42.323142577822708 0 -42.323142577822708 3.0524969488249667 0 0 0 0 -0.36733984423326227 0.31583662093525788 0 0.31583662093525788 -0.54696227975791456 0 0 0 0 -211.51579093112741 4.9908218803780642 0 4.9908218803780642 -19.006825909164917 0 0 0 0 -240.56686740450823 -87.544199553709745 0 -87.544199553709745 -15.940612361540303 0 0 0 0 -263.38625248998142 49.386794525498146 0 49.386794525498146 47.260266822287633 0 0 0 0 -33.713304505590969 13.1514100322098 0 13.1514100322098 21.820678006328009 0 0 0 0 -36.590114696798992 -55.788532092193037 0 -55.788532092193037 -40.845442540117119 0 0 0 0 -110.4742536095473 -91.492970178973707 0 -91.492970178973707 -17.979271050518037 0 0 0 0 -2.1167563028359098 0.36764796971259273 0 0.36764796971259273 0.5568711048982975 0 0 0 0 22.766184052834433 -68.212066346210719 0 -68.212066346210719 -21.373486436852403 0 0 0 0 0.78540362281637499 -18.073865174011416 0 -18.073865174011416 -4.2202712438903376 0 0 0 0 -1.6382371164127321 0.37351128072739925 0 0.37351128072739925 0.34840643327704407 0 0 0 0 -3.5847736533487478 39.036590889961097 0 39.036590889961097 43.118562391875564 0 0 0 0 -39.262224996178702 -15.790077242440013 0 -15.790077242440013 -31.374074417760475 0 0 0 0 -29.649374079707286 9.2391738379183259 0 9.2391738379183259 -22.497004760520014 0 0 0 0 -50.728135904959345 -5.0251908247620918 0 -5.0251908247620918 -29.436116700997101 0 0 0 0 -1.0257915837159288 0.088566151915593139 0 0.088566151915593139 0.2053274474785855 0 0 0 0 1.9022443773392297 -69.942697892436797 0 -69.942697892436797 -62.153991465016304 0 0 0 0 94.680559575179359 20.222603579747727 0 20.222603579747727 -21.582745706727273 0 0 0 0 19.076560762860026 -111.57378982440105 0 -111.57378982440105 -45.924413896204726 0 0 0 0 6.2322025710745947 -82.022262868806024 0 -82.022262868806024 -20.781590532443591 0 0 0 0 77.320413203400676 -93.112983189303321 0 -93.112983189303321 -54.90242127713185 0 0 0 0 -12.2602724634271 0.42419788616115284 0 0.42419788616115284 4.5384235887588602 0 0 0 0 -10.870752585313241 0.90197393650166813 0 0.90197393650166813 0.31954864147558204 0 0 0 0 -64.739751101520596 -2.8742063999341667 0 -2.8742063999341667 61.29252298824332 0 0 0 0 -12.816397320316582 1.4135630921582347 0 1.4135630921582347 3.1343419932345569 0 0 0 0 -12.703269696725329 0.84545052150542688 0 0.84545052150542688 1.1328794466651289 0 0 0 0 -13.964233497892565 -1.4101311503339957 0 -1.4101311503339957 1.5454683276600178 0 0 0 0 -15.243072338282218 -2.1070258378452991 0 -2.1070258378452991 2.360809811785515 0 0 0 0 -14.236390568801653 -1.2754636322828219 0 -1.2754636322828219 2.8034747935271298 0 0 0 0 -14.351319707380753 -1.1854354494149675 0 -1.1854354494149675 3.2932054398583688 0 0 0 0 -13.285992114218971 -0.1813156157232072 0 -0.1813156157232072 3.1139458889106209 0 0 0 0 -12.639775782397919 -0.66890952341725551 0 -0.66890952341725551 3.4041997609590027 0 0 0 0 -12.555171178333694 0.025234315873035484 0 0.025234315873035484 4.1199727916779239 0 0 0 0 -10.054517017839316 -0.42826174429029606 0 -0.42826174429029606 3.9248434039861309 0 0 0 0 -10.73131563194238 0.16322911665008633 0 0.16322911665008633 3.9977437035561252 0 0 0 0 -11.782972671549942 -0.68776108681481674 0 -0.68776108681481674 3.3539996004968486 0 0 0 0 -10.55231044231914 -0.074158404757440621 0 -0.074158404757440621 3.2190715096312488 0 0 0 0 -10.676938100070402 0.67074688856399689 0 0.67074688856399689 3.1315185748064778 0 0 0 0 -13.306733204030024 -0.76618907545321235 0 -0.76618907545321235 2.7849770138078327 0 0 0 0 -12.746319415658036 0.053398871153916616 0 0.053398871153916616 3.0143838447950202 0 0 0 0 -11.46789125666146 0.53616925807966709 0 0.53616925807966709 2.0077893586430946 0 0 0 0 -13.889387912422535 0.1487890863170378 0 0.1487890863170378 2.0286186653183762 0 0 0 0 -13.313517078699078 -0.60697255632049973 0 -0.60697255632049973 2.1960124766048921 0 0 0 0 -14.885752079473605 -0.52530523634300152 0 -0.52530523634300152 2.2049281764057866 0 0 0 0 -16.324875263475406 -0.98153341674219519 0 -0.98153341674219519 2.7359952262382308 0 0 0 0 -14.704486025897495 -1.3172284101564173 0 -1.3172284101564173 2.7716976465592325 0 0 0 0 -15.844370059355242 -1.5441658631839061 0 -1.5441658631839061 3.010513684884927 0 0 0 0 -13.007278563833552 -0.98358570580691662 0 -0.98358570580691662 2.7441956027109882 0 0 0 0 -14.903079517382139 -0.89981487113163894 0 -0.89981487113163894 2.8784329590012021 0 0 0 0 -21.125147025612932 4.132788325094225 0 4.132788325094225 -40.024759412185858 0 0 0 0 -23.226464799650785 8.5463957046370069 0 8.5463957046370069 28.782922543562563 0 0 0 0 -9.2822669696815865 1.6402029125342779 0 1.6402029125342779 1.8407556046399804 0 0 0 0 -9.4677594056956877 0.70504949538792516 0 0.70504949538792516 1.2072068628515353 0 0 0 0 -10.478715261970137 -0.27214137160439122 0 -0.27214137160439122 2.402007426941509 0 0 0 0 -8.0500757093359425 1.0971940251085925 0 1.0971940251085925 6.0807410985683816 0 0 0 0 -6.5252391317244474 0.53418513296043102 0 0.53418513296043102 2.2106061925971972 0 0 0 0 -9.1379997796793759 0.23191064934803762 0 0.23191064934803762 3.0763231563862519 0 0 0 0 -9.3208494627770051 0.48955054167589651 0 0.48955054167589651 4.6007591720440359 0 0 0 0 -8.2013714333916141 0.53125695029905273 0 0.53125695029905273 3.4223764872758125 0 0 0 0 -8.2962876472392963 2.0064604497918026 0 2.0064604497918026 4.4918979260119372 0 0 0 0 -1.7131033546738763 -17.425396598556063 0 -17.425396598556063 -16.152156709379824 0 0 0 0 -3.7343575305890795 -0.88851025785869631 0 -0.88851025785869631 3.2112451325961757 0 0 0 0 -5.9816644977331634 -0.92605084323454889 0 -0.92605084323454889 4.7571187814340874 0 0 0 0 1.5292570271826662 2.8583656488196993 0 2.8583656488196993 21.119093060111481 0 0 0 0 -7.8821710084600412 -0.68929227569050422 0 -0.68929227569050422 1.1204602593859609 0 0 0 0 -14.097810827395733 -262.3370525891512 0 -262.3370525891512 -256.53031111179723 0 0 0 0 -4.2356432574956813 0.061637130795238804 0 0.061637130795238804 0.68806274415076829 0 0 0 0 -35.846645055673434 -110.64572973428642 0 -110.64572973428642 -172.47549546117034 0 0 0 0 -2.3527708537172671 -2.0714759202028343 0 -2.0714759202028343 1.1539864879140986 0 0 0 0 -77.585583862732165 -101.83050362190204 0 -101.83050362190204 -114.36152732459823 0 0 0 0 -52.794477938444743 -62.864503802493857 0 -62.864503802493857 -216.64253232879946 0 0 0 0 -51.503236672755747 -88.961565152645534 0 -88.961565152645534 -190.47443967553227 0 0 0 0 -11.639716715471877 -92.840708272584493 0 -92.840708272584493 -206.71288843378926 0 0 0 0 -540.36606305814712 321.13526637128217 0 321.13526637128217 314.50990036644271 0 0 0 0 -1.9233667931984044 0.20211088114593423 0 0.20211088114593423 0.63437014816134085 0 0 0 0 -43.074907249392709 -8.6711900030798006 0 -8.6711900030798006 25.202902973906475 0 0 0 0 40.327203613824167 -31.716559020381737 0 -31.716559020381737 -45.694770794925489 0 0 0 0 -45.493177942462353 -350.11015790494673 0 -350.11015790494673 -49.902126608169091 0 0 0 0 -73.693374689158105 102.12028803609981 0 102.12028803609981 226.85645115214652 0 0 0 0 -313.84645727843963 236.29868234962521 0 236.29868234962521 5.8891565511478916 0 0 0 0 -64.439391205178254 -105.19949884432293 0 -105.19949884432293 -16.052347560675003 0 0 0 0 -463.64010668974515 316.84882523986278 0 316.84882523986278 164.83280375962272 0 0 0 0 -268.74800801067613 -112.33646967617079 0 -112.33646967617079 -2.9792834648800408 0 0 0 0 -1.2901485595294133 0.14386719018075844 0 0.14386719018075844 0.50458387422357465 0 0 0 0 -452.22213134361664 101.81213560999322 0 101.81213560999322 -206.77478798498942 0 0 0 0 -260.46266554873773 -5.6262074243371956 0 -5.6262074243371956 83.4025836474774 0 0 0 0 -341.12937742992108 -49.122328493957781 0 -49.122328493957781 76.90556640230659 0 0 0 0 266.27633911520752 -192.91640669733977 0 -192.91640669733977 -230.59952313104986 0 0 0 0 -74.766236640080024 118.88389890115729 0 118.88389890115729 98.659677344548527 0 0 0 0 -2.5070421982400077 -1.4339133206455505 0 -1.4339133206455505 -0.31187791811396914 0 0 0 0 -272.47360835607742 35.928494911360389 0 35.928494911360389 180.43403818476895 0 0 0 0 -37.598463934804386 -131.4076081492417 0 -131.4076081492417 -19.378526659161309 0 0 0 0 7.1381662741207492 -43.083004356340723 0 -43.083004356340723 17.8073056427138 0 0 0 0 -98.701813348843643 -69.071931096937419 0 -69.071931096937419 12.533058460772679 0 0 0 0 -223.79284461667066 12.409318745295479 0 12.409318745295479 60.685403483279742 0 0 0 0 -8.1987848829419647 0.60812843609227762 0 0.60812843609227762 0.95028447856942755 0 0 0 0 -5.1802662014337102 -120.34383172516242 0 -120.34383172516242 -17.984498346753867 0 0 0 0 -12.317559361516317 -70.707646153344285 0 -70.707646153344285 -229.28069307938222 0 0 0 0 -220.83584745736516 101.60534799889624 0 101.60534799889624 200.11719772805066 0 0 0 0 -2.958393380247422 -1.5894256653689265 0 -1.5894256653689265 -0.32499678439022894 0 0 0 0 33.045221734510051 124.59692829743091 0 124.59692829743091 58.832672536633027 0 0 0 0 -118.85974718115904 -116.98262050779834 0 -116.98262050779834 235.58160219975179 0 0 0 0 -103.72324442552326 -75.649931406005578 0 -75.649931406005578 216.44242635163641 0 0 0 0 -5.5935472335523784 -2.6247449462855328 0 -2.6247449462855328 -0.25808557918087571 0 0 0 0 50.809133748673048 -130.88873739832178 0 -130.88873739832178 38.501763392641578 0 0 0 0 -66.277043815205616 -143.69893136705872 0 -143.69893136705872 -251.51678727150352 0 0 0 0 -29.528124051441409 -50.345928427334115 0 -50.345928427334115 -175.62298317576165 0 0 0 0 -71.008076810696366 -65.106385673718592 0 -65.106385673718592 -63.620947194051041 0 0 0 0 -248.57486319243617 -67.936113686030239 0 -67.936113686030239 -63.252829382767757 0 0 0 0 -163.69627164264421 -65.287105191552826 0 -65.287105191552826 39.790575448925438 0 0 0 0 -119.47601707018384 73.758849988237529 0 73.758849988237529 -4.0753986857907876 0 0 0 0 -225.44772862100945 16.29386823926734 0 16.29386823926734 -32.549558383166072 0 0 0 0 -141.34342664154792 -18.326540103881939 0 -18.326540103881939 -95.245681221269479 0 0 0 0 -155.75589092294194 100.41394110054625 0 100.41394110054625 -104.97876444571375 0 0 0 0 -166.08784567681869 48.063153801311614 0 48.063153801311614 33.362328447678465 0 0 0 0 -149.54282905220111 119.15809062190974 0 119.15809062190974 65.546379418616084 0 0 0 0 -24.901179434374171 23.684693183432159 0 23.684693183432159 -222.06096487357672 0 0 0 0 -90.65937846664383 100.04664582982059 0 100.04664582982059 -252.29600218927317 0 0 0 0 -197.10579911892455 59.709188115233928 0 59.709188115233928 -84.601457735087479 0 0 0 0 -452.1007340767419 -49.533345677933426 0 -49.533345677933426 -85.901112747965499 0 0 0 0 -290.76861994887986 171.49233851162001 0 171.49233851162001 -165.52542241346737 0 0 0 0 -201.54831931955505 -218.68023567738646 0 -218.68023567738646 -252.83846344155086 0 0 0 0 7.4142227542924957 175.65400060993079 0 175.65400060993079 30.532821660859355 0 0 0 0 -3.9048648602460574 0.56536337765660249 0 0.56536337765660249 0.055786287908346388 0 0 0 0 -51.754925823639496 25.102236191189149 0 25.102236191189149 5.8890809894643326 0 0 0 0 -361.93994455749726 -41.033901780487327 0 -41.033901780487327 -22.487816719659349 0 0 0 0 -109.55880385768251 14.553493374132017 0 14.553493374132017 -105.63225613609529 0 0 0 0 -258.96901978801179 52.850038023142247 0 52.850038023142247 -71.738084911069336 0 0 0 0 -35.241798765871863 100.97714614266977 0 100.97714614266977 -68.883743526889248 0 0 0 0 -118.3589113146827 -29.676132919564225 0 -29.676132919564225 -95.921404442003222 0 0 0 0 -499.20145962920105 -47.712506719277712 0 -47.712506719277712 77.10462942125946 0 0 0 0 36.104734599373842 131.42598011630616 0 131.42598011630616 6.3983911828693181 0 0 0 0 -324.6438897052758 -167.51646061278382 0 -167.51646061278382 -70.575336771570392 0 0 0 0 -0.8366104954472533 0.050351367507850853 0 0.050351367507850853 0.64628921311463028 0 0 0 0 -20.717520220761799 7.8937806799290229 0 7.8937806799290229 20.689568185130611 0 0 0 0 -62.929820351217131 -181.56477779049101 0 -181.56477779049101 -312.13263669628202 0 0 0 0 -4.806897427894242 0.095336550336671877 0 0.095336550336671877 0.967354411787821 0 0 0 0 -241.54816217500411 110.42416398645332 0 110.42416398645332 27.879553870704228 0 0 0 0 -42.367561811499399 -3.0917009686754682 0 -3.0917009686754682 -46.111604878394246 0 0 0 0 -17.047560670293024 -21.986578019149192 0 -21.986578019149192 -7.1610063781158715 0 0 0 0 -21.296794713925919 17.367492528706634 0 17.367492528706634 55.097983748863044 0 0 0 0 -46.572983377674973 -10.006966326837301 0 -10.006966326837301 34.784936128485924 0 0 0 0 -27.780210798608096 -49.56372141473048 0 -49.56372141473048 -245.99533783976767 0 0 0 0 -2.2293739102213621 -1.6337939802485923 0 -1.6337939802485923 2.0473848225206432 0 0 0 0 -557.56020195305609 -274.61802650148684 0 -274.61802650148684 82.686373878177477 0 0 0 0 248.56405507543695 -190.01167192661075 0 -190.01167192661075 -421.17598376085789 0 0 0 0 185.06581469233424 150.44579267126414 0 150.44579267126414 -139.88531796212101 0 0 0 0 311.33791072165241 -6.7371869419289396 0 -6.7371869419289396 -362.16489869679663 0 0 0 0 -45.439862341660046 -96.717539122471862 0 -96.717539122471862 -153.75511132115753 0 0 0 0 -439.98288395106101 -161.5237390282075 0 -161.5237390282075 -31.34649492501967 0 0 0 0 -78.045464455855836 -338.98287983935688 0 -338.98287983935688 -327.5183892848288 0 0 0 0 -140.08350903340761 -47.291869454828657 0 -47.291869454828657 -6.2268667194343834 0 0 0 0 -145.51278844316221 -68.087751109884152 0 -68.087751109884152 -58.564088377582721 0 0 0 0 -17.158054612131309 -78.025221497298048 0 -78.025221497298048 -141.62236621620104 0 0 0 0 -130.97817506024512 -78.5895576108162 0 -78.5895576108162 -123.83518194220687 0 0 0 0 -126.40856056442863 -46.821442442353828 0 -46.821442442353828 -84.313580256781279 0 0 0 0 -140.52350186454714 -47.535364748574693 0 -47.535364748574693 -70.327417512432476 0 0 0 0 -125.96844125155985 -31.179863222760105 0 -31.179863222760105 -59.107453321024877 0 0 0 0 -130.33457712947347 -33.124464718950094 0 -33.124464718950094 -49.107360430417884 0 0 0 0 -115.74064058285876 5.5029558845367319 0 5.5029558845367319 -25.514395753273902 0 0 0 0 -178.7640009036204 -10.940940215021897 0 -10.940940215021897 -29.459246995654212 0 0 0 0 -62.500375848612748 52.008146156310204 0 52.008146156310204 -55.389737877114214 0 0 0 0 -53.481609301967183 15.724826625376409 0 15.724826625376409 -23.72500647451875 0 0 0 0 -57.518372998742052 27.443611042553812 0 27.443611042553812 -13.78077411085269 0 0 0 0 -72.71086031183404 7.3726579526471596 0 7.3726579526471596 -29.130470768007854 0 0 0 0 -65.491826265133568 22.674994961541415 0 22.674994961541415 -21.940580119865899 0 0 0 0 -41.132073853610564 24.937327793208055 0 24.937327793208055 -29.9923728610338 0 0 0 0 -45.2239562584532 33.526927410389078 0 33.526927410389078 -20.239153194020219 0 0 0 0 -63.943617347234976 16.764829376116495 0 16.764829376116495 -25.887259255301615 0 0 0 0 -67.367340275402967 20.099629224351929 0 20.099629224351929 -28.279857830575907 0 0 0 0 -72.152768286928222 8.7101054270891609 0 8.7101054270891609 -38.515939747797802 0 0 0 0 -95.355097812633176 12.301909645911792 0 12.301909645911792 -31.391901449288525 0 0 0 0 -71.628317672590128 6.8915728626557211 0 6.8915728626557211 -34.83830856835857 0 0 0 0 -115.44242074081922 -7.9311606662395207 0 -7.9311606662395207 -37.134510511390772 0 0 0 0 -107.2803509888945 -12.110799433421789 0 -12.110799433421789 -37.922942332447747 0 0 0 0 -127.35462919225108 -28.173917039992233 0 -28.173917039992233 -53.099162467538918 0 0 0 0 -130.48633039868218 -19.600993736289638 0 -19.600993736289638 -64.086909115745584 0 0 0 0 -126.11476505540031 -29.079779130937936 0 -29.079779130937936 -47.544123496257271 0 0 0 0 -129.56018734417739 -8.8420156153140397 0 -8.8420156153140397 -35.577709815773119 0 0 0 0 -110.50008686510773 -20.260686505904459 0 -20.260686505904459 -30.235180910824965 0 0 0 0 -107.25996191403829 -2.9544614570527301 0 -2.9544614570527301 -27.86096652213871 0 0 0 0 -79.84600481616144 -4.8215337907940921 0 -4.8215337907940921 -29.884255265229285 0 0 0 0 -100.36907744419659 4.6896584853020613 0 4.6896584853020613 -30.083116948975999 0 0 0 0 -95.014109231850966 2.9360272006681285 0 2.9360272006681285 -17.720833758681692 0 0 0 0 -87.171840848788634 -14.866686092256032 0 -14.866686092256032 -15.364246371550962 0 0 0 0 -64.717330428187779 1.2625661557757439 0 1.2625661557757439 -18.790090892669923 0 0 0 0 -84.031206273892167 -2.2555090777786972 0 -2.2555090777786972 -6.2688444178472764 0 0 0 0 -93.524409280546706 -17.309539245297643 0 -17.309539245297643 -13.524573682610935 0 0 0 0 -124.05994540663869 -31.666386422284404 0 -31.666386422284404 -16.01274444421415 0 0 0 0 -110.12457352929141 -14.74286046375812 0 -14.74286046375812 -11.59158051241684 0 0 0 0 -81.176382243225817 -14.09860491539348 0 -14.09860491539348 6.4153596850235033 0 0 0 0 -106.70780712809574 -22.824099472120338 0 -22.824099472120338 6.8825963961407979 0 0 0 0 -71.089240628509287 -14.716876592650124 0 -14.716876592650124 5.6064507398150454 0 0 0 0 -83.029704214863159 -12.909988857904636 0 -12.909988857904636 25.186251236124917 0 0 0 0 -62.917172564510111 -5.3261816262065622 0 -5.3261816262065622 7.3909412092729099 0 0 0 0 -57.077345526420686 -16.150164865539182 0 -16.150164865539182 27.325135792126275 0 0 0 0 -41.761918711537874 -2.0107906497580643 0 -2.0107906497580643 8.7936182142857433 0 0 0 0 -58.254919368127958 3.2908973630118226 0 3.2908973630118226 -7.7553522720190813 0 0 0 0 -45.614147371205036 -10.233240659150397 0 -10.233240659150397 6.3713222663853912 0 0 0 0 -28.985108507387849 7.2105098663018907 0 7.2105098663018907 -15.600373742486227 0 0 0 0 -7.7726408333801373 0.061198099865578115 0 0.061198099865578115 -6.8827119016842744 0 0 0 0 2.8628652946499642 -16.287823215826108 0 -16.287823215826108 18.148293489255593 0 0 0 0 -5.5220412327144004 24.905077830698474 0 24.905077830698474 -25.78573873065443 0 0 0 0 13.089553736838752 15.769351375261607 0 15.769351375261607 -29.365158099997188 0 0 0 0 -29.207801328542701 5.8607167205798305 0 5.8607167205798305 -8.261051039560698 0 0 0 0 -42.740409237907443 31.179133139515557 0 31.179133139515557 -28.57310236121657 0 0 0 0 -6.4681178134760557 26.375688600711555 0 26.375688600711555 -28.024382276030792 0 0 0 0 -30.839931688717115 18.662983593809031 0 18.662983593809031 -27.922923229183198 0 0 0 0 -59.989983793599094 -4.8170077051070166 0 -4.8170077051070166 -11.204596160524034 0 0 0 0 -55.136350288081303 14.807822924008633 0 14.807822924008633 -17.108614065766687 0 0 0 0 -135.39037520368038 -70.449080415853473 0 -70.449080415853473 -48.771001760915965 0 0 0 0 -191.27849648707888 -123.87217718757324 0 -123.87217718757324 -96.503991724674052 0 0 0 0 -163.4973995661403 -56.227607095508461 0 -56.227607095508461 -28.58554886017464 0 0 0 0 -202.82965900406634 -66.025914249378047 0 -66.025914249378047 -68.136039191319696 0 0 0 0 -199.53381488513116 -36.539252813140443 0 -36.539252813140443 -37.673353132371176 0 0 0 0 -155.56639301291762 -34.229079147693142 0 -34.229079147693142 -48.588929984130573 0 0 0 0 -181.98319393766906 -6.1574133676701877 0 -6.1574133676701877 -72.923325297354722 0 0 0 0 -150.71951238709698 -13.343139606704653 0 -13.343139606704653 -27.472764118331725 0 0 0 0 -140.87318922016584 -39.771379817947434 0 -39.771379817947434 6.9600590900704447 0 0 0 0 -142.77101535052861 -30.534406246986691 0 -30.534406246986691 -14.291362259438984 0 0 0 0 -167.70989773324345 -70.339500897021679 0 -70.339500897021679 -9.5198698778597191 0 0 0 0 -121.51394819525194 -43.926280130969644 0 -43.926280130969644 -3.6582292828856282 0 0 0 0 -112.36922573862739 -42.494768611771178 0 -42.494768611771178 10.775365990221644 0 0 0 0 -133.77129335574591 -51.226100340083974 0 -51.226100340083974 11.045773721168644 0 0 0 0 -103.79871331163667 -21.044128971994041 0 -21.044128971994041 23.201681810488878 0 0 0 0 -136.86912264772218 -38.715583856470062 0 -38.715583856470062 24.739573204152748 0 0 0 0 -103.74925674764563 -23.799581026221631 0 -23.799581026221631 5.3691431640669549 0 0 0 0 -95.452428156578208 -25.133324446552081 0 -25.133324446552081 14.066428875611905 0 0 0 0 -98.131381815564055 -26.258335313419025 0 -26.258335313419025 26.960844967134335 0 0 0 0 -71.772046282258543 -7.690231519211693 0 -7.690231519211693 22.447531466576038 0 0 0 0 -106.87441377907862 -43.212573875035815 0 -43.212573875035815 7.8710261026299122 0 0 0 0 -120.65583717031313 -38.633303969656311 0 -38.633303969656311 21.3495381208445 0 0 0 0 -96.958991909226825 -25.739125818854518 0 -25.739125818854518 19.229616242125189 0 0 0 0 -32.919892312776938 24.402698010404947 0 24.402698010404947 80.001002088612836 0 0 0 0 -30.221129078374361 -6.3291884647610459 0 -6.3291884647610459 63.177914833932846 0 0 0 0 -41.385699970865971 7.8721720249153577 0 7.8721720249153577 55.720783136712271 0 0 0 0 -33.662547825821093 19.879166783279743 0 19.879166783279743 102.2166783890325 0 0 0 0 -16.595835092433845 33.365926642024533 0 33.365926642024533 130.16249839901684 0 0 0 0 -21.559012968282332 28.233853796287804 0 28.233853796287804 87.564619061664786 0 0 0 0 -17.302632460414316 37.893547748704805 0 37.893547748704805 109.47963209877707 0 0 0 0 -7.7936865312149166 15.725861548235571 0 15.725861548235571 162.75721648434501 0 0 0 0 11.064050505061459 -10.600195912448953 0 -10.600195912448953 108.43605262759229 0 0 0 0 23.575170442682065 -44.316847351972342 0 -44.316847351972342 178.54817350808025 0 0 0 0 109.68321746747097 -56.29857914552349 0 -56.29857914552349 96.133093603791622 0 0 0 0 -25.720716820462258 22.43599966394504 0 22.43599966394504 96.410445689373773 0 0 0 0 -22.991578977147583 12.059255804164422 0 12.059255804164422 127.06041032291159 0 0 0 0 -23.485826336589525 18.047873178264126 0 18.047873178264126 146.05252357695917 0 0 0 0 -13.117753255024581 0.73340246324823966 0 0.73340246324823966 92.503598523619075 0 0 0 0 -2.6905424544966081 -17.860806663475159 0 -17.860806663475159 124.6597704645601 0 0 0 0 -21.033361527079251 -5.5133349008228834 0 -5.5133349008228834 97.135098089041989 0 0 0 0 -9.4746879965532571 -12.445081975984067 0 -12.445081975984067 56.226461034699241 0 0 0 0 -8.7572406436956953 -18.831086773259358 0 -18.831086773259358 90.634300644283826 0 0 0 0 12.729322163853794 -10.443307695980366 0 -10.443307695980366 58.607940790107023 0 0 0 0 5.9236528803157853 -20.55607989493592 0 -20.55607989493592 55.637847627555061 0 0 0 0 42.785733010350668 -6.45385115249519 0 -6.45385115249519 59.031787744269423 0 0 0 0 30.767538922737003 -36.826397050785999 0 -36.826397050785999 96.753252117042166 0 0 0 0 55.855951141078549 -18.021951758401428 0 -18.021951758401428 44.214433160948374 0 0 0 0 27.694591583673173 -13.767875661977541 0 -13.767875661977541 9.289648157660622 0 0 0 0 32.595824489242659 6.2383098579055059 0 6.2383098579055059 22.290050110024822 0 0 0 0 2.0978321442853485 -6.6925607166301688 0 -6.6925607166301688 20.987692330535538 0 0 0 0 -22.357610747647414 -11.919053324546439 0 -11.919053324546439 56.825164859165852 0 0 0 0 -36.992843222873489 -12.771016624523554 0 -12.771016624523554 32.872298597442295 0 0 0 0 -21.861129489153427 -10.544525178269623 0 -10.544525178269623 30.682862679836944 0 0 0 0 -27.174258272170846 4.0214721733377701 0 4.0214721733377701 83.932665230807288 0 0 0 0 -45.612659647918917 0.047721683872623544 0 0.047721683872623544 61.621775933856043 0 0 0 0 -46.726370285464782 -8.8764897380821139 0 -8.8764897380821139 41.523455821872631 0 0 0 0 -64.021891295709793 -0.75920499483800086 0 -0.75920499483800086 38.003285569503305 0 0 0 0 -63.947401177182655 -8.6939868219124516 0 -8.6939868219124516 24.156392313293964 0 0 0 0 -85.380750479700509 -4.1783283726251739 0 -4.1783283726251739 44.116501227310437 0 0 0 0 -111.52404696008853 -13.668132624554801 0 -13.668132624554801 30.642084168294332 0 0 0 0 -84.641516022104042 -20.649165626075273 0 -20.649165626075273 27.96806774059678 0 0 0 0 -76.314442184873769 -2.5027425073353697 0 -2.5027425073353697 29.16092622513861 0 0 0 0 -94.239838719219506 -1.923370217722578 0 -1.923370217722578 44.144162408214015 0 0 0 0 -49.839031837578659 9.3371799217397893 0 9.3371799217397893 39.737732983799901 0 0 0 0 -80.437925116717452 -1.9110116846002256 0 -1.9110116846002256 50.79803540157036 0 0 0 0 -52.223379073177057 24.00689775328533 0 24.00689775328533 70.580096866453005 0 0 0 0 -60.769178738879418 7.9395848840404142 0 7.9395848840404142 63.144505064376972 0 0 0 0 -61.804094145314593 -5.990375611587524 0 -5.990375611587524 39.743080939723995 0 0 0 0 -31.48481405495113 13.437698600593194 0 13.437698600593194 26.311792996631993 0 0 0 0 -29.92855146130546 33.134748321294595 0 33.134748321294595 47.66924070653431 0 0 0 0 -63.716626016072041 12.777602322639495 0 12.777602322639495 49.328612879870207 0 0 0 0 -66.841223908118991 -3.8431248333172334 0 -3.8431248333172334 26.52294386263452 0 0 0 0 -44.876624399657885 5.7947234382972965 0 5.7947234382972965 13.959422375561189 0 0 0 0 -75.226061318984648 1.5494809893448291 0 1.5494809893448291 36.885530643791753 0 0 0 0 -46.350450852480208 18.752150548737518 0 18.752150548737518 31.989062761485116 0 0 0 0 -39.137629720360337 -15.769284258768408 0 -15.769284258768408 12.956700943757028 0 0 0 0 -51.354794871788272 10.947500759059835 0 10.947500759059835 -10.609438729977683 0 0 0 0 15.014373842292116 57.535010495870665 0 57.535010495870665 37.487163415374198 0 0 0 0 -16.037908704117537 13.63733085566696 0 13.63733085566696 5.8456472727257829 0 0 0 0 5.6974269080928934 61.635592030564908 0 61.635592030564908 80.25334139311849 0 0 0 0 16.593194358943947 31.597004222929399 0 31.597004222929399 13.564289930863197 0 0 0 0 17.556025868865618 51.171796036582577 0 51.171796036582577 30.340738122816106 0 0 0 0 -16.791875876657286 35.694625438715093 0 35.694625438715093 45.793150205988923 0 0 0 0 -15.530245414465753 58.536731577014734 0 58.536731577014734 88.174400049491652 0 0 0 0 -16.77756636921913 36.085244608498897 0 36.085244608498897 43.180284822512476 0 0 0 0 -30.548482389948617 -22.29977139124167 0 -22.29977139124167 17.74715487730532 0 0 0 0 -32.393033947970821 -7.5100222219466275 0 -7.5100222219466275 3.9878275878679688 0 0 0 0 -29.927195555748312 -11.409375127414251 0 -11.409375127414251 5.9867932056179711 0 0 0 0 -25.245991848436006 -10.534807963552907 0 -10.534807963552907 5.183255253646962 0 0 0 0 -28.495343650841669 -11.189140647500809 0 -11.189140647500809 -1.7358884023553487 0 0 0 0 -141.98688707859037 50.563040969824215 0 50.563040969824215 60.48919279393084 0 0 0 0 -81.960013157551657 -21.038392394302036 0 -21.038392394302036 174.75564740196063 0 0 0 0 3.9082310895355477 41.11427772613024 0 41.11427772613024 35.713799046790427 0 0 0 0 1.8500916907614737 3.2399013452385361 0 3.2399013452385361 -65.99015063915499 0 0 0 0 86.10838147924369 44.947194444102479 0 44.947194444102479 38.932520686179487 0 0 0 0 120.77208670744221 8.8588968006380924 0 8.8588968006380924 50.933806586352148 0 0 0 0 66.920739803565084 53.177532383422658 0 53.177532383422658 37.43316331119604 0 0 0 0 36.753828066237475 31.930820993381644 0 31.930820993381644 44.663642054949378 0 0 0 0 -23.089515299561754 51.80211378632066 0 51.80211378632066 -51.762735250621859 0 0 0 0 -12.144265067418019 -29.288297359610795 0 -29.288297359610795 35.090539300475797 0 0 0 0 -30.564652741483314 -21.761325572418002 0 -21.761325572418002 -4.9472128626809422 0 0 0 0 -47.692419739914385 8.5780083668150837 0 8.5780083668150837 38.332159398314047 0 0 0 0 -25.696876261772054 -8.78201680750945 0 -8.78201680750945 -2.1215751744732323 0 0 0 0 -25.247169645277381 -10.194277962349673 0 -10.194277962349673 3.9721889408579045 0 0 0 0 -22.160169357414816 -0.36670975090760294 0 -0.36670975090760294 -0.3844498042621467 0 0 0 0 -22.695959854681103 -4.7541309900807258 0 -4.7541309900807258 0.59820400844264254 0 0 0 0 -15.62765148161364 1.532130875369722 0 1.532130875369722 0.64756586102013025 0 0 0 0 -9.8019861697448505 0.35655119556668069 0 0.35655119556668069 4.3986894868121453 0 0 0 0 -16.072850684210607 0.077681444819063472 0 0.077681444819063472 -2.0754988251546251 0 0 0 0 -9.2451677487574262 -0.35605238562581043 0 -0.35605238562581043 -2.1234313095181063 0 0 0 0 -8.0173376139546235 1.4322632439054246 0 1.4322632439054246 -4.8525621801234706 0 0 0 0 -2.0530351330053236 2.4857395727275389 0 2.4857395727275389 -5.6455808568321686 0 0 0 0 -14.562272111029415 -3.0696652922333101 0 -3.0696652922333101 -4.7594644333458334 0 0 0 0 -10.532845734156581 0.039588087965398699 0 0.039588087965398699 -3.8729963284564519 0 0 0 0 -3.4048492521237188 0.043041120847669756 0 0.043041120847669756 1.1387593804971505 0 0 0 0 1.9455699334196837 14.374610085157867 0 14.374610085157867 -0.069372951798641225 0 0 0 0 -11.482284142983806 3.3765242975917835 0 3.3765242975917835 -0.47933762540908664 0 0 0 0 -13.167409746132762 -2.8552122132040267 0 -2.8552122132040267 -3.9353236388790265 0 0 0 0 -13.892627124414958 3.2199145811248968 0 3.2199145811248968 4.1896625120417639 0 0 0 0 -8.2026992098435585 1.221047018862464 0 1.221047018862464 -1.6520157044035386 0 0 0 0 -32.855651155407031 9.5500549009954625 0 9.5500549009954625 -4.477511765162717 0 0 0 0 -10.982509739840552 -0.78706951973665618 0 -0.78706951973665618 0.64770016710198353 0 0 0 0 -14.424841676138385 1.5111893647241885 0 1.5111893647241885 2.2920572344953598 0 0 0 0 -5.8951636491893851 3.1910885168306553 0 3.1910885168306553 0.18435742888557272 0 0 0 0 -7.4676957085619113 -2.1481000125229031 0 -2.1481000125229031 0.37706697486375118 0 0 0 0 7.5142483284302557 5.7264053780168993 0 5.7264053780168993 10.540102561402136 0 0 0 0 -10.90007518457378 -3.112990458590172 0 -3.112990458590172 -0.46714387756082942 0 0 0 0 -14.549983518908107 1.7642247459251426 0 1.7642247459251426 -0.41064843192384615 0 0 0 0 -13.465599993208315 -0.85464462085848858 0 -0.85464462085848858 1.5832702283932378 0 0 0 0 -14.863670785833165 0.043952154095507012 0 0.043952154095507012 1.1440170559201306 0 0 0 0 -14.128900219784555 -0.85531931486298163 0 -0.85531931486298163 0.83665037613627646 0 0 0 0 -14.971348864290121 0.27611434073651253 0 0.27611434073651253 -0.44983983512133818 0 0 0 0 -15.943685395177454 -0.098325179968355769 0 -0.098325179968355769 1.2003721751477769 0 0 0 0 -2.8080392039003765 0.40026052398394896 0 0.40026052398394896 0.0037460680973846472 0 0 0 0 -13.591429592961504 2.4471173779595574 0 2.4471173779595574 -0.49101390122245903 0 0 0 0 -12.856272966279903 -0.64783814665725004 0 -0.64783814665725004 0.39206852902816536 0 0 0 0 -14.280774968130572 -0.85997896783396754 0 -0.85997896783396754 2.0508787313533219 0 0 0 0 -13.608907196699874 -0.014972416135606181 0 -0.014972416135606181 -0.13890640063243609 0 0 0 0 -14.527204777319639 -0.055052608589448937 0 -0.055052608589448937 -0.14032874071790502 0 0 0 0 -14.80612052102606 -0.88198525504404302 0 -0.88198525504404302 2.0087223248251576 0 0 0 0 -16.096590554378054 -0.19768538439194572 0 -0.19768538439194572 1.6808635231316202 0 0 0 0 -16.081555384314925 -0.54819589157068549 0 -0.54819589157068549 2.4664415783040567 0 0 0 0 -14.850687804369016 2.8666679426641899 0 2.8666679426641899 0.50896814252655531 0 0 0 0 -14.938300546760729 -1.3134416981512231 0 -1.3134416981512231 -0.20909613201978061 0 0 0 0 -14.539251043599506 -0.35734828742346281 0 -0.35734828742346281 1.230544179232993 0 0 0 0 -13.181486483626941 -0.35682071088552902 0 -0.35682071088552902 1.2186286797622188 0 0 0 0 -2.495632100919071 -1.6696998319907124 0 -1.6696998319907124 2.1329859002326055 0 0 0 0 -38.697964119697644 14.643211345739473 0 14.643211345739473 12.946037789988964 0 0 0 0 -10.21343470039028 1.9397170807901034 0 1.9397170807901034 0.48272687165899697 0 0 0 0 5.2987507860980259 -7.1673656120148053 0 -7.1673656120148053 -17.800623434897034 0 0 0 0 -25.665488141059541 37.474051324109723 0 37.474051324109723 -23.9806780105298 0 0 0 0 -24.038721028387954 42.844202089115015 0 42.844202089115015 -23.787225407620667 0 0 0 0 -21.442456916268611 22.337053111469487 0 22.337053111469487 -12.80214595320831 0 0 0 0 -92.825232132145175 62.787661859585455 0 62.787661859585455 -7.3082090574171161 0 0 0 0 -46.444152932142515 36.319529690167599 0 36.319529690167599 7.5302089179490395 0 0 0 0 -39.268654431187315 55.739143939239057 0 55.739143939239057 -30.839307851460035 0 0 0 0 -0.91268658324770513 53.42372742100838 0 53.42372742100838 -35.247163432247476 0 0 0 0 -37.097309623239198 83.260004630106664 0 83.260004630106664 -55.02098152368194 0 0 0 0 -1.3077471084873942 0.33299062060575935 0 0.33299062060575935 -0.039579847497950182 0 0 0 0 -3.6322282694165544 -1.7216851209627393 0 -1.7216851209627393 1.5910688631904963 0 0 0 0 -17.981605227920227 -8.4405152215613271 0 -8.4405152215613271 3.7263048732745006 0 0 0 0 2.2566643176269281 -12.989924646355462 0 -12.989924646355462 -9.392284911229126 0 0 0 0 -67.13687036632291 -0.095826508692880452 0 -0.095826508692880452 5.5803100782345609 0 0 0 0 4.7683328090829491 15.285152881727669 0 15.285152881727669 -9.6256467830171459 0 0 0 0 -56.717976204479783 -94.755474140709794 0 -94.755474140709794 -116.10895763334179 0 0 0 0 -151.88316525697894 49.668570649098939 0 49.668570649098939 -27.032975985227949 0 0 0 0 -50.933510822957942 -125.75478588945543 0 -125.75478588945543 -131.22366363846845 0 0 0 0 -217.54414262214459 -119.1301402575715 0 -119.1301402575715 -14.635954837117424 0 0 0 0 -94.408826146185675 -64.581834920340157 0 -64.581834920340157 5.9658587179300753 0 0 0 0 -8.6813738866512722 0.64642639855560446 0 0.64642639855560446 -10.312504977754088 0 0 0 0 -1.7120817250846656 -0.65069938801325122 0 -0.65069938801325122 -1.5527335569686498 0 0 0 0 -12.194526955129732 2.9095086288290588 0 2.9095086288290588 -6.6025564988053702 0 0 0 0 -17.273325637444032 -3.6358973056039758 0 -3.6358973056039758 -7.7155431161099841 0 0 0 0 -39.447914269418504 -3.2559847782998332 0 -3.2559847782998332 1.285105160535295 0 0 0 0 -26.819257387448943 -3.2877356442377277 0 -3.2877356442377277 0.88783767243185707 0 0 0 0 -95.873810618692914 -64.010399363268107 0 -64.010399363268107 -14.377652940937566 0 0 0 0 0.72306724882941076 -0.40826071357615668 0 -0.40826071357615668 -2.3949359809585191 0 0 0 0 -14.60153218654068 -46.634951708895869 0 -46.634951708895869 -82.606932343576773 0 0 0 0 -38.223067327711306 -11.677421602368781 0 -11.677421602368781 3.3951993776668132 0 0 0 0 -68.487170552569296 -11.34118471602028 0 -11.34118471602028 8.2298714241683228 0 0 0 0 -22.570305473152985 1.5405197336892229 0 1.5405197336892229 -23.492376353062582 0 0 0 0 0.10653272081292986 -0.32197845252596657 0 -0.32197845252596657 -1.7917189422309323 0 0 0 0 -109.66579356687544 -64.225874762730655 0 -64.225874762730655 -14.259202086432197 0 0 0 0 -112.51759995623979 -63.209672009580402 0 -63.209672009580402 9.8574202682589203 0 0 0 0 -95.759042654171935 -42.729851442848485 0 -42.729851442848485 6.3992151620222444 0 0 0 0 -131.38294545222743 -122.9373256238211 0 -122.9373256238211 -67.294142656727672 0 0 0 0 -0.79345025017557624 -1.4915046631795246 0 -1.4915046631795246 -1.3282756635751944 0 0 0 0 -170.15498017216794 16.98529476667477 0 16.98529476667477 4.8339959295726658 0 0 0 0 -193.52166292858374 -73.836924487840747 0 -73.836924487840747 -2.1347004981917053 0 0 0 0 -32.599055672709255 12.058007759941574 0 12.058007759941574 -18.449094747217373 0 0 0 0 -75.588729675937884 -49.071391129516769 0 -49.071391129516769 -10.125696365669683 0 0 0 0 -3.3971326826470545 -9.8670068864996168 0 -9.8670068864996168 -2.7686680194215114 0 0 0 0 -1.1891832878135276 -3.8912909206761146 0 -3.8912909206761146 -5.377557496469171 0 0 0 0 5.1384399031630892 -7.1508537728639112 0 -7.1508537728639112 -2.8211722817836744 0 0 0 0 -0.40261195682269779 -1.8804760643933598 0 -1.8804760643933598 2.6667552129900174 0 0 0 0 -6.1776255562699589 -13.711494855732468 0 -13.711494855732468 8.2894816822048369 0 0 0 0 -47.247140837671395 0.6048595148234881 0 0.6048595148234881 -3.1085663047895338 0 0 0 0 -1.2052474655841259 -1.9497359039679036 0 -1.9497359039679036 3.6767826553408183 0 0 0 0 -3.2623876541431969 -12.032916948682356 0 -12.032916948682356 -3.2123142411996923 0 0 0 0 -13.141727764563257 -9.4068015097436728 0 -9.4068015097436728 -2.9327832312274893 0 0 0 0 2.2591966200479874 -18.617217697970659 0 -18.617217697970659 -14.870122223627732 0 0 0 0 -4.4139837551992969 9.7848212597784823 0 9.7848212597784823 -76.693305929801909 0 0 0 0 -0.80933514118934902 -0.81596980472088454 0 -0.81596980472088454 -0.094250466813782019 0 0 0 0 18.05353533939342 -3.6458012816897281 0 -3.6458012816897281 -7.1792448987602029 0 0 0 0 -112.50747091134144 -44.179195551558905 0 -44.179195551558905 13.255522839118214 0 0 0 0 -119.70769104947976 -50.458662497395835 0 -50.458662497395835 10.996086671116927 0 0 0 0 -60.138880381068702 -38.71382943477488 0 -38.71382943477488 -6.4985520207040963 0 0 0 0 -102.81940005000251 -30.82286485635143 0 -30.82286485635143 14.814586681225592 0 0 0 0 -93.942116908611752 -50.044669447600086 0 -50.044669447600086 -10.028801034483763 0 0 0 0 -13.049580074879486 -9.7203959797348034 0 -9.7203959797348034 -4.2016904852621337 0 0 0 0 -1.4129663726174329 -0.63164922474303964 0 -0.63164922474303964 3.4657016736769419 0 0 0 0 -94.134583219534761 -46.346403680099911 0 -46.346403680099911 -8.0872558898360012 0 0 0 0 -109.41929118743701 -67.774856861065729 0 -67.774856861065729 -38.023880681534592 0 0 0 0 -140.29479115764809 -89.653899250701272 0 -89.653899250701272 -42.282102048787237 0 0 0 0 -20.612255225179979 -14.795286783787333 0 -14.795286783787333 -1.2113296264076325 0 0 0 0 -32.072971030082044 -27.702050065768276 0 -27.702050065768276 -9.9514050385610062 0 0 0 0 -38.666649463106296 -61.94129635294621 0 -61.94129635294621 -31.766313661550271 0 0 0 0 -22.521851245172002 -33.769700933742115 0 -33.769700933742115 -6.2384132275637967 0 0 0 0 -48.783034999743904 -26.840949892274466 0 -26.840949892274466 41.541178042438105 0 0 0 0 -4.8483268259133183 8.9524895726500517 0 8.9524895726500517 24.563062103721677 0 0 0 0 -1.6337428049109697 -0.1108188345929122 0 -0.1108188345929122 2.107553699918415 0 0 0 0 21.064438980341947 -47.902670917903833 0 -47.902670917903833 -61.640715716075192 0 0 0 0 -9.3564418999412737 -19.320944839022559 0 -19.320944839022559 -14.885306906145082 0 0 0 0 -10.305532910214424 -24.618104980549845 0 -24.618104980549845 -27.942834246872735 0 0 0 0 -12.893978673138918 -57.248841133011354 0 -57.248841133011354 -48.663163517604289 0 0 0 0 -29.706543291857088 -47.427196971474018 0 -47.427196971474018 -27.698119648646625 0 0 0 0 -98.893141974606806 -77.436756597770227 0 -77.436756597770227 -29.379065326274258 0 0 0 0 -45.759527081945635 -91.063093156123387 0 -91.063093156123387 -72.333436140986237 0 0 0 0 -51.901050825707443 -57.744162838003277 0 -57.744162838003277 -21.218190155071625 0 0 0 0 -54.415548517233788 -69.704947481205593 0 -69.704947481205593 -39.850313201807694 0 0 0 0 -30.507320029743369 -57.677895189691526 0 -57.677895189691526 -46.66652784619896 0 0 0 0 -32.625831614099297 -59.358779107680903 0 -59.358779107680903 -35.22031906867926 0 0 0 0 -30.56327056903865 -50.230937910398495 0 -50.230937910398495 -51.47226498290479 0 0 0 0 -34.527120462173116 -54.422282046553391 0 -54.422282046553391 -43.981985661033491 0 0 0 0 -26.548426141407617 -39.261821138762798 0 -39.261821138762798 -29.390723520858614 0 0 0 0 -44.484726896257143 -36.278237670803556 0 -36.278237670803556 -15.050628869353204 0 0 0 0 -46.498959518545234 -52.717802983981528 0 -52.717802983981528 -38.089707371424083 0 0 0 0 -64.231004854870889 -94.14762453792693 0 -94.14762453792693 -19.147127743871124 0 0 0 0 -40.429069668514785 -32.876578059610324 0 -32.876578059610324 -63.546806649585506 0 0 0 0 -37.019962705753642 -55.413790018664031 0 -55.413790018664031 -35.137555112125483 0 0 0 0 -34.230562839433333 -64.807206173226405 0 -64.807206173226405 -49.85532737858648 0 0 0 0 -34.245087038486361 -47.325052287022118 0 -47.325052287022118 -63.505080365645199 0 0 0 0 -52.137818298078855 -46.089734850775926 0 -46.089734850775926 -55.527397002615999 0 0 0 0 -46.511606867672526 -43.869471925650373 0 -43.869471925650373 -73.046454641137643 0 0 0 0 -57.762736790702547 -6.0031901700087928 0 -6.0031901700087928 -109.87663713719451 0 0 0 0 -193.00165728633328 52.256929955091778 0 52.256929955091778 -7.4338340334052759 0 0 0 0 -136.06129278264416 56.692870572466518 0 56.692870572466518 -11.904586026461175 0 0 0 0 -142.44311706359986 38.209588518983253 0 38.209588518983253 -64.269766542602156 0 0 0 0 -101.38781363858834 -6.0374570616063465 0 -6.0374570616063465 -25.411076556928379 0 0 0 0 -200.0155803443613 -0.90410822311321226 0 -0.90410822311321226 10.242255259099011 0 0 0 0 -140.25322991413304 -55.335104251754046 0 -55.335104251754046 59.803882288451518 0 0 0 0 -110.42764318939771 -49.410738105210839 0 -49.410738105210839 -22.272080411429329 0 0 0 0 -97.179074599313708 -33.08959380170797 0 -33.08959380170797 -27.871318310196784 0 0 0 0 -57.426516222234568 -33.131227980842027 0 -33.131227980842027 -62.013625368033047 0 0 0 0 -36.923422981645672 -55.0118172769333 0 -55.0118172769333 -60.349278838250939 0 0 0 0 1.523033617209876 -36.58615405534897 0 -36.58615405534897 -59.324586192184896 0 0 0 0 -62.065806501195766 -86.610082296402425 0 -86.610082296402425 -71.705987902015181 0 0 0 0 81.202905419511808 -52.031840366672157 0 -52.031840366672157 -70.123258999901168 0 0 0 0 14.782334465426175 -22.347533780218868 0 -22.347533780218868 -61.370161130913573 0 0 0 0 213.57277855839857 158.970936453951 0 158.970936453951 39.682797184232541 0 0 0 0 162.9033561942706 -153.35121579642515 0 -153.35121579642515 -233.62928834615801 0 0 0 0 -136.3932109380512 -258.47975271065792 0 -258.47975271065792 -139.36743311954098 0 0 0 0 -393.98016845194616 -137.87922467566329 0 -137.87922467566329 38.303477408379194 0 0 0 0 -328.98489011094352 12.703190306270244 0 12.703190306270244 127.07309822659442 0 0 0 0 -18.068990342154393 -13.313175896164807 0 -13.313175896164807 -19.370684011499861 0 0 0 0 -27.34987266273265 -5.7240134220273262 0 -5.7240134220273262 -7.624334969365691 0 0 0 0 -32.662996957997109 -15.772198413439178 0 -15.772198413439178 -9.4019203094237582 0 0 0 0 -33.567728666726623 -30.513295760608941 0 -30.513295760608941 -37.297425786612621 0 0 0 0 -14.626754053517288 -29.466706322437005 0 -29.466706322437005 -50.925421471788411 0 0 0 0 -20.16454205530863 -32.361665140152809 0 -32.361665140152809 -43.214191073136021 0 0 0 0 -13.538804666000942 4.2336453811395387 0 4.2336453811395387 8.666553966084507 0 0 0 0 25.578641402820722 8.5008413264008311 0 8.5008413264008311 -36.138544510226758 0 0 0 0 -12.254809260764887 -23.011500495044231 0 -23.011500495044231 -38.87897291835327 0 0 0 0 -29.459891359125322 3.3787776378171515 0 3.3787776378171515 7.1705262859097445 0 0 0 0 -13.952525900142064 -0.63099608890748016 0 -0.63099608890748016 -16.161686570200562 0 0 0 0 -24.883086646534139 -12.300980974112008 0 -12.300980974112008 -16.312435001268227 0 0 0 0 -25.47038371394774 -1.795795555712516 0 -1.795795555712516 -9.7140068585808876 0 0 0 0 -21.060009465170879 5.4350621952469851 0 5.4350621952469851 0.31801893802108339 0 0 0 0 -28.608089661799568 0.42512840409234798 0 0.42512840409234798 -2.3418207605738246 0 0 0 0 -30.853090368958874 -0.72232995145228074 0 -0.72232995145228074 3.0090025189215908 0 0 0 0 -0.9198462402051355 -0.2139184543458299 0 -0.2139184543458299 0.019970552171368894 0 0 0 0 -5.0343223172003491 14.178395892336141 0 14.178395892336141 1.4621845889705583 0 0 0 0 -3.441877669195037 3.8965514288812813 0 3.8965514288812813 4.1834310730200741 0 0 0 0 -30.559040774196546 5.6076011096158709 0 5.6076011096158709 0.44521872461950807 0 0 0 0 -6.8932752686650653 6.7622614886104735 0 6.7622614886104735 2.718646252200986 0 0 0 0 -28.916509134334774 3.4925308545883809 0 3.4925308545883809 2.9641725469241464 0 0 0 0 -36.887481801757531 -1.4046210279182105 0 -1.4046210279182105 3.3824348503284227 0 0 0 0 -33.147790111517679 -11.783162248866915 0 -11.783162248866915 -13.486798963162641 0 0 0 0 -47.672998377018303 -30.03089978202388 0 -30.03089978202388 -21.7552380407908 0 0 0 0 -71.600757244726992 -26.645790174088233 0 -26.645790174088233 -10.479535134281946 0 0 0 0 -44.759527734614721 -12.008262321722626 0 -12.008262321722626 -3.2373133670225798 0 0 0 0 -43.01369298899408 -13.452196950089501 0 -13.452196950089501 -2.5181243699961442 0 0 0 0 -31.190386364799451 6.3340660239010731 0 6.3340660239010731 0.54413802149474577 0 0 0 0 -30.018600582489398 4.9060154237735105 0 4.9060154237735105 -10.165808579001578 0 0 0 0 -6.448855776024172 8.2875423891437077 0 8.2875423891437077 -1.0832297270535722 0 0 0 0 -126.48488955569792 5.8273402171944326 0 5.8273402171944326 1.7845671540860621 0 0 0 0 -1.8902134168637179 1.0221388447894491 0 1.0221388447894491 -0.26995285266653823 0 0 0 0 -62.841977674432201 11.566741019115057 0 11.566741019115057 2.1877760150466656 0 0 0 0 -118.26979190257407 -46.371807153691179 0 -46.371807153691179 -5.7961993161636656 0 0 0 0 -68.500909303823278 -29.857978443385264 0 -29.857978443385264 -7.1764473602106591 0 0 0 0 -70.917031107705043 -49.992638004621881 0 -49.992638004621881 -21.869638989928717 0 0 0 0 -40.473607205846974 14.146115978847263 0 14.146115978847263 -36.000714747414804 0 0 0 0 -36.326454865691858 -0.047260213536418405 0 -0.047260213536418405 -3.8236866395054676 0 0 0 0 -14.907671971825948 0.54871075402058977 0 0.54871075402058977 -24.532494274044438 0 0 0 0 -15.177186697907018 -9.756321405737026 0 -9.756321405737026 2.1015658042315408 0 0 0 0 4.0813617550275012 -14.307491420515248 0 -14.307491420515248 -6.1501746501417074 0 0 0 0 -30.948996666071253 7.2727360540870336 0 7.2727360540870336 -0.53660708506208721 0 0 0 0 -12.870689031524055 -7.1351549508868057 0 -7.1351549508868057 1.7103296793601654 0 0 0 0 -22.73685051776738 -15.117477982828177 0 -15.117477982828177 13.207477051544174 0 0 0 0 -20.117601999520957 -12.42424142144705 0 -12.42424142144705 0.66075925324594209 0 0 0 0 -34.170086489442838 -18.905134970856466 0 -18.905134970856466 -1.5801648499258363 0 0 0 0 -33.970415942455233 -7.9220513790951426 0 -7.9220513790951426 -4.0420031280746116 0 0 0 0 -31.784615718037458 -17.874091228036377 0 -17.874091228036377 9.7418056126584816 0 0 0 0 -28.72671105905647 -10.149457236441606 0 -10.149457236441606 7.4977384382491437 0 0 0 0 -40.645090573845664 -17.567187224389954 0 -17.567187224389954 2.8859039528620087 0 0 0 0 -17.288366399296137 -10.520209752890423 0 -10.520209752890423 13.074566572663798 0 0 0 0 -28.149726625209951 -13.080787905943566 0 -13.080787905943566 20.462423198893475 0 0 0 0 -20.486444948182985 -4.1825653021345346 0 -4.1825653021345346 0.85480675566824882 0 0 0 0 -38.762987107164008 7.117701084076316 0 7.117701084076316 19.868334244925791 0 0 0 0 -29.60326245008946 5.8793896452761487 0 5.8793896452761487 -0.59599127276555919 0 0 0 0 -30.830309102018873 6.2883501760585432 0 6.2883501760585432 0.98152190664768568 0 0 0 0 -15.279505365359 -21.623619693596993 0 -21.623619693596993 8.3575607891915524 0 0 0 0 -33.69181406241114 -17.980968919178054 0 -17.980968919178054 -1.042251567094354 0 0 0 0 -14.096610563342979 -7.4912582225439568 0 -7.4912582225439568 1.2521175932739252 0 0 0 0 -45.690988563132123 21.104540725154948 0 21.104540725154948 46.351235954731806 0 0 0 0 1.1265056686671926 -2.9073784959850375 0 -2.9073784959850375 -0.62895787856344609 0 0 0 0 -47.910858483799529 9.1660822532362545 0 9.1660822532362545 3.3330632902882371 0 0 0 0 -23.690341856883606 15.237259553714011 0 15.237259553714011 4.7251893924950537 0 0 0 0 -50.993698553095783 106.97443048464595 0 106.97443048464595 -117.27201997937891 0 0 0 0 -41.399236250454123 32.867638563762966 0 32.867638563762966 13.700198561258276 0 0 0 0 -28.858267274470563 24.148889523409935 0 24.148889523409935 -4.2464568405900991 0 0 0 0 -3.4234669479351254 0.96928808665934341 0 0.96928808665934341 1.7707285476576846 0 0 0 0 -27.605875128654588 -80.387257544366776 0 -80.387257544366776 126.0780902448646 0 0 0 0 -205.71933524361157 65.573637508118509 0 65.573637508118509 105.03661158650323 0 0 0 0 14.438470407603745 -123.92587167787337 0 -123.92587167787337 -144.51316344244742 0 0 0 0 -42.056953640880238 70.490394040753358 0 70.490394040753358 -145.1553130992952 0 0 0 0 -156.09706050952445 10.559083690779403 0 10.559083690779403 -12.904213962914696 0 0 0 0 -18.268096808080145 -35.762647217930002 0 -35.762647217930002 1.3939607368670295 0 0 0 0 -73.625046751327318 -27.480640969401236 0 -27.480640969401236 9.9006001263001906 0 0 0 0 -68.790087394164402 -40.557807144828516 0 -40.557807144828516 11.402255900157527 0 0 0 0 -36.568915894480597 -27.109111057191399 0 -27.109111057191399 -3.0421309848934186 0 0 0 0 -14.858375750530286 -9.8072886944721063 0 -9.8072886944721063 2.2676220864016159 0 0 0 0 -1.9029137785619881 -0.039501526490146599 0 -0.039501526490146599 -0.071750590301546957 0 0 0 0 -51.396176254467719 -59.716066535475591 0 -59.716066535475591 -41.242315174173655 0 0 0 0 -5.3943653179984281 0.66700714718170939 0 0.66700714718170939 0.3002113799506162 0 0 0 0 -5.6810777948467148 -0.11583359246037617 0 -0.11583359246037617 5.1788122346254113 0 0 0 0 -22.889512626261421 -6.6524847760152852 0 -6.6524847760152852 14.747000560510038 0 0 0 0 -2.65512305243778 3.736795740074208 0 3.736795740074208 2.5655915459351508 0 0 0 0 -31.441679158307124 -6.1869771227537882 0 -6.1869771227537882 18.710672559892032 0 0 0 0 -3.999662618833618 1.6152337126840486 0 1.6152337126840486 2.1820141782197244 0 0 0 0 -11.481300507321066 -1.0732354514641429 0 -1.0732354514641429 0.4468323055932979 0 0 0 0 -23.251500854852196 1.509410323991472 0 1.509410323991472 1.5111274297978889 0 0 0 0 -2.7019531290991647 -2.7032446696251924 0 -2.7032446696251924 3.6495559266816766 0 0 0 0 -5.5126061360369931 21.964639749475225 0 21.964639749475225 14.018571023627828 0 0 0 0 -27.620028021443431 -7.0161913712020976 0 -7.0161913712020976 -0.092549205134446311 0 0 0 0 -1.2049102990349638 -2.5033761058002142 0 -2.5033761058002142 20.711457347435513 0 0 0 0 -35.724274179778149 6.0441477161321018 0 6.0441477161321018 19.354856845719269 0 0 0 0 -53.884589464634701 -18.425461485146286 0 -18.425461485146286 11.398069768738566 0 0 0 0 -52.493023621797875 -13.086327330169212 0 -13.086327330169212 -9.2019754024663314 0 0 0 0 -45.57840941255472 24.208422324888396 0 24.208422324888396 35.698995230713649 0 0 0 0 25.073601614960353 31.248556006953351 0 31.248556006953351 53.534356824975362 0 0 0 0 64.424865754013808 55.470688545706395 0 55.470688545706395 20.843002886852446 0 0 0 0 -0.098689526444314168 -0.58241831391041643 0 -0.58241831391041643 -0.042152242188506328 0 0 0 0 -24.724815916790249 -20.277588513279682 0 -20.277588513279682 -3.7268016622800815 0 0 0 0 27.364430159715994 46.443369495610227 0 46.443369495610227 27.604313688935576 0 0 0 0 -24.012325798430538 21.608163172777409 0 21.608163172777409 68.8293892295398 0 0 0 0 -6.5361091707964079 -13.000619418601104 0 -13.000619418601104 20.121447376136643 0 0 0 0 -71.660247367432021 28.461401398111128 0 28.461401398111128 34.269677922767826 0 0 0 0 -120.26739989825364 -111.75936503040708 0 -111.75936503040708 -50.365603693531568 0 0 0 0 -130.68551745411787 -23.436432413311088 0 -23.436432413311088 51.874388428496644 0 0 0 0 -1.0865882795532471 0.27889657762618114 0 0.27889657762618114 0.25331437309936111 0 0 0 0 1.8056921428687929 43.866148604134793 0 43.866148604134793 54.514114540152882 0 0 0 0 -17.047465323255892 -8.5805456462125083 0 -8.5805456462125083 24.197096683802833 0 0 0 0 4.1048828385755769 -3.0375721064416723 0 -3.0375721064416723 15.880296855665563 0 0 0 0 -11.883832543242534 -17.478701932917851 0 -17.478701932917851 4.2033249490158955 0 0 0 0 -10.027651550568407 -8.3346316784012799 0 -8.3346316784012799 15.034365676696268 0 0 0 0 -8.5186163015159764 -4.2254792037304298 0 -4.2254792037304298 14.004376311382913 0 0 0 0 -2.4342515514157839 1.1072209951161085 0 1.1072209951161085 0.052316297481436402 0 0 0 0 -9.1144314139819471 -5.3844178216428986 0 -5.3844178216428986 21.559653066595331 0 0 0 0 -0.77296790319314823 12.086707934113953 0 12.086707934113953 19.3347300603441 0 0 0 0 -68.342416514484285 -48.286850198945388 0 -48.286850198945388 -4.0131957075098796 0 0 0 0 -160.53875190042891 59.739673149499481 0 59.739673149499481 129.3729729796267 0 0 0 0 34.419647137103311 98.157793586947435 0 98.157793586947435 136.56610276855105 0 0 0 0 -1.1314270981265508 0.35523009209563483 0 0.35523009209563483 0.0609147815526912 0 0 0 0 -66.376168622936348 50.654470577496355 0 50.654470577496355 -22.722742800545205 0 0 0 0 -1.6785466815171048 0.40439620744699328 0 0.40439620744699328 -0.44338770378967274 0 0 0 0 -13.518432106798208 3.1489819193426545 0 3.1489819193426545 -0.34373887449971308 0 0 0 0 -506.72090157624007 -109.15955528962195 0 -109.15955528962195 -145.34740977031149 0 0 0 0 -90.322654005994991 88.585126461435266 0 88.585126461435266 119.79846035120985 0 0 0 0 -3.6442245088585636 -2.6782730569309612 0 -2.6782730569309612 2.0624786183664705 0 0 0 0 40.718449209465689 21.833780464888008 0 21.833780464888008 18.130021725625397 0 0 0 0 4.105710601188548 -30.306927348508225 0 -30.306927348508225 30.391913662197794 0 0 0 0 -115.53350379868789 4.9247173663997899 0 4.9247173663997899 23.215423856451451 0 0 0 0 -36.680475696495705 34.810505429400223 0 34.810505429400223 -27.505115123312294 0 0 0 0 -59.751320274583122 -29.465407664036206 0 -29.465407664036206 -0.84730196226561816 0 0 0 0 -18.816111051955886 -7.1052241082048226 0 -7.1052241082048226 0.21218283696765639 0 0 0 0 -18.52539785496765 -15.321403333115121 0 -15.321403333115121 17.45341032622207 0 0 0 0 -13.493537702906906 1.0285045814670184 0 1.0285045814670184 9.9986364638913301 0 0 0 0 -20.870564745036638 1.9113295749519033 0 1.9113295749519033 -0.2238052057940971 0 0 0 0 -24.887037221596984 -11.355070993082336 0 -11.355070993082336 68.976362991983081 0 0 0 0 -31.290854889872207 3.9946208288845071 0 3.9946208288845071 9.7164503394628099 0 0 0 0 -17.142076914395147 5.2125672733033923 0 5.2125672733033923 29.398099186110016 0 0 0 0 -17.961281582305674 -8.4971217227322597 0 -8.4971217227322597 17.742203275382451 0 0 0 0 -30.88168230546944 -9.805894872744318 0 -9.805894872744318 23.912177884323988 0 0 0 0 -29.916092344255958 -6.4348891404869448 0 -6.4348891404869448 18.0327273868578 0 0 0 0 -27.039851163001003 -17.775060013458159 0 -17.775060013458159 4.7838527836663047 0 0 0 0 -20.714622072169732 -6.8848126974621664 0 -6.8848126974621664 1.8718737991362104 0 0 0 0 -28.274247321260191 -13.111324413868886 0 -13.111324413868886 -0.8347033052962729 0 0 0 0 -23.429904432312469 -17.666357272007446 0 -17.666357272007446 -9.1312730348703894 0 0 0 0 -0.13778531373299074 -0.73902297583462939 0 -0.73902297583462939 2.1467287918062388 0 0 0 0 -28.489190989610506 -7.4388754293611044 0 -7.4388754293611044 -4.7647367171866506 0 0 0 0 -41.223482995610539 -23.643482446066983 0 -23.643482446066983 -2.2194451677956977 0 0 0 0 -36.167796448262379 -8.6646124129588458 0 -8.6646124129588458 -1.0003415785093352 0 0 0 0 0.035897926793882817 -0.18791776657043258 0 -0.18791776657043258 0.77074746445614073 0 0 0 0 -32.970053119870499 -31.046213253596587 0 -31.046213253596587 -6.3555407628238587 0 0 0 0 77.988103012090505 57.566186423741946 0 57.566186423741946 14.298750255576422 0 0 0 0 -38.107217706626216 -31.343325677130853 0 -31.343325677130853 44.606284797560569 0 0 0 0 -21.604252099888981 -9.6338564579491788 0 -9.6338564579491788 -5.5595975371250006 0 0 0 0 -24.255577471311881 0.81232811920098769 0 0.81232811920098769 -4.9335934808468096 0 0 0 0 -55.45928800850379 -3.5434832664847278 0 -3.5434832664847278 11.496694808601433 0 0 0 0 -50.124812040167853 -15.753818540934638 0 -15.753818540934638 29.707055286334651 0 0 0 0 -38.206440852325613 -24.95066546749517 0 -24.95066546749517 21.697756059776424 0 0 0 0 -52.217017869619667 -12.815354861509597 0 -12.815354861509597 44.924221997951264 0 0 0 0 -54.341142896426391 -23.802766487360046 0 -23.802766487360046 40.698882839591661 0 0 0 0 -65.062832283085299 -17.042768323004054 0 -17.042768323004054 36.850490022042237 0 0 0 0 -43.954654608551209 -39.825479396512158 0 -39.825479396512158 35.265730277516923 0 0 0 0 -37.443561108137146 -11.922726267066803 0 -11.922726267066803 7.2371060004090495 0 0 0 0 -49.479971719718378 -27.033825139681909 0 -27.033825139681909 37.385314318191604 0 0 0 0 -12.285010670573683 1.7853766939411706 0 1.7853766939411706 3.0635763775063136 0 0 0 0 -32.701267127078836 -6.3539642371791833 0 -6.3539642371791833 15.4664742295042 0 0 0 0 -31.694214312758049 -11.327498991729637 0 -11.327498991729637 5.2579592309908634 0 0 0 0 -1.1753561969053408 -19.50376271287363 0 -19.50376271287363 -17.450852837861056 0 0 0 0 -14.858010278938309 20.866506250537114 0 20.866506250537114 49.962923594166 0 0 0 0 -52.576749621368435 -20.053276968440226 0 -20.053276968440226 64.1446829695345 0 0 0 0 -34.410406356193562 20.552515289649243 0 20.552515289649243 77.579587580524844 0 0 0 0 33.533717079678354 -28.911845981134196 0 -28.911845981134196 9.913499392691854 0 0 0 0 -30.09805032528493 -18.986840945880878 0 -18.986840945880878 8.9400850675926371 0 0 0 0 -26.014012760876312 -33.075749750436145 0 -33.075749750436145 -23.290951835574667 0 0 0 0 -23.302194450583556 -15.52271013664652 0 -15.52271013664652 -0.030291983169543266 0 0 0 0 -28.400694495092011 -21.185487811547109 0 -21.185487811547109 -6.242628344272326 0 0 0 0 -23.155430400473051 -8.5389848688334915 0 -8.5389848688334915 -4.5506353260089369 0 0 0 0 -28.694401744389324 -9.5283877505444998 0 -9.5283877505444998 -4.7184220182026166 0 0 0 0 -35.096872653277387 -12.500050629978919 0 -12.500050629978919 0.0088689376632303547 0 0 0 0 1.7309777292339277 -3.9714758984512457 0 -3.9714758984512457 -29.719918114223567 0 0 0 0 -6.6630199053324759 -8.0671646999829676 0 -8.0671646999829676 -14.609350870643084 0 0 0 0 -11.765629001831257 -15.769318496228419 0 -15.769318496228419 -17.134199410184582 0 0 0 0 -8.4915417770607746 -14.499064763781973 0 -14.499064763781973 -19.326188368969348 0 0 0 0 -8.8480088806390995 -28.406005906882278 0 -28.406005906882278 -29.567701734832642 0 0 0 0 -7.5197807361437299 -22.017933122817936 0 -22.017933122817936 -8.0719205515022647 0 0 0 0 -5.021494950990018 -12.376785996301429 0 -12.376785996301429 -6.7066073221273363 0 0 0 0 -14.57209474701267 -19.238365940283757 0 -19.238365940283757 1.1858314347014449 0 0 0 0 -27.415862693081181 -18.814954019148189 0 -18.814954019148189 1.561566665112224 0 0 0 0 -73.39450791867057 4.2979334864439247 0 4.2979334864439247 56.240103622444721 0 0 0 0 -96.211870532863031 -23.182678496094773 0 -23.182678496094773 26.058044671516562 0 0 0 0 -23.976028797203981 -19.787580525361118 0 -19.787580525361118 -30.824766719908972 0 0 0 0 -33.01674717579499 -3.8207137533830036 0 -3.8207137533830036 -28.785215171838317 0 0 0 0 -67.019008951563592 -56.071782207251466 0 -56.071782207251466 -33.462424890902497 0 0 0 0 -99.540553263650509 -26.195969428058639 0 -26.195969428058639 25.993172206545161 0 0 0 0 -101.18712047886947 -49.640919357085608 0 -49.640919357085608 3.5610109145805957 0 0 0 0 -39.75905392864297 -45.970792496135125 0 -45.970792496135125 -35.313750434639879 0 0 0 0 -57.942470938605766 -28.995856113179585 0 -28.995856113179585 0.010236416254429073 0 0 0 0 -54.21626153951911 -23.003415657539808 0 -23.003415657539808 9.638287287952096 0 0 0 0 -47.670135509624743 -20.367836157745334 0 -20.367836157745334 0.022759680332618371 0 0 0 0 -1.8295653585810214 7.2903450197251392 0 7.2903450197251392 5.9515405106699646 0 0 0 0 -8.3547667266411736 -26.922939438787466 0 -26.922939438787466 -77.066037117815085 0 0 0 0 -0.79433505490093381 -0.44095591736708339 0 -0.44095591736708339 -0.22674664755659729 0 0 0 0 -52.130645519629979 -4.4075979005959578 0 -4.4075979005959578 28.35609825355246 0 0 0 0 -4.7194390759941598 -3.8997606783518393 0 -3.8997606783518393 -5.8792091851677242 0 0 0 0 -6.7394763905067521 -5.7796118506483936 0 -5.7796118506483936 -4.5882129419355522 0 0 0 0 -2.229157877085612 -0.86770789360068701 0 -0.86770789360068701 -0.16278710175174627 0 0 0 0 7.4950948908458486 -16.68068049528156 0 -16.68068049528156 6.245786187506372 0 0 0 0 10.810129831483209 -12.498493650786189 0 -12.498493650786189 -0.014233373642030703 0 0 0 0 5.6858650489739375 -14.385622527028705 0 -14.385622527028705 13.065002803927932 0 0 0 0 9.472526469915465 -7.3811977629093937 0 -7.3811977629093937 8.5798429116306263 0 0 0 0 1.0571515389488013 1.2176743279152653 0 1.2176743279152653 -0.022386275583569204 0 0 0 0 -0.56514458975677861 -0.15753479002177784 0 -0.15753479002177784 -0.018421516011167399 0 0 0 0 -5.1462406704049499 7.9735020320025667 0 7.9735020320025667 -2.0815380226459217 0 0 0 0 -0.32968615094250708 0.11398102256524201 0 0.11398102256524201 0.10406099172617174 0 0 0 0 -9.897265912630246 -6.1510332474290621 0 -6.1510332474290621 -4.5763168852650402 0 0 0 0 -4.4667689853936281 -0.26229444345002584 0 -0.26229444345002584 3.3860577305783792 0 0 0 0 -2.9781257027002894 -1.1539228894698805 0 -1.1539228894698805 -0.31243497999937886 0 0 0 0 -4.4019514616811648 -4.3766427062746232 0 -4.3766427062746232 -4.541531602853297 0 0 0 0 -1.148669614097745 0.94061109421727451 0 0.94061109421727451 0.69859928528038373 0 0 0 0 -2.233651109553648 0.96904080748343091 0 0.96904080748343091 -3.8499191809182776 0 0 0 0 -9.0916852323971398 -5.0682802462825407 0 -5.0682802462825407 -2.8201288585501629 0 0 0 0 -11.286112229350692 -10.200804903961469 0 -10.200804903961469 -12.2055958739179 0 0 0 0 -25.241075929758154 -13.764086791344713 0 -13.764086791344713 -8.4271583975509063 0 0 0 0 -20.918191689390369 -16.687163869628023 0 -16.687163869628023 -10.676542203581773 0 0 0 0 -8.6842327674189619 -11.533484291393547 0 -11.533484291393547 -11.583965588374951 0 0 0 0 -17.290286070012371 -2.4724097659621265 0 -2.4724097659621265 7.3302860169151245 0 0 0 0 -0.33517681821413703 0.23081132157549078 0 0.23081132157549078 0.081187357968909524 0 0 0 0 -0.56147378459161956 0.012203808345674361 0 0.012203808345674361 0.093437808113917442 0 0 0 0 -3.1358882968979742 -0.17197237957863543 0 -0.17197237957863543 -0.8245103132024667 0 0 0 0 -3.4150312795809441 -0.76444905412424191 0 -0.76444905412424191 -0.16194719551307912 0 0 0 0 -3.3492633696187113 0.032825076903506556 0 0.032825076903506556 -0.5165890802322366 0 0 0 0 -13.234587973012822 -20.832196826072391 0 -20.832196826072391 -8.4522466861484276 0 0 0 0 -35.397914928802493 -12.418241663571379 0 -12.418241663571379 -8.6414762555376807 0 0 0 0 -10.169983032257733 -25.206682872865329 0 -25.206682872865329 -5.3415468351349773 0 0 0 0 -8.0445037542285718 -1.687101117834473 0 -1.687101117834473 -0.18424523595425057 0 0 0 0 -4.0741181504454289 -2.6192084962874702 0 -2.6192084962874702 -0.96782416569638485 0 0 0 0 -3.6845377115951123 0.16722956924995458 0 0.16722956924995458 -0.034823753486591613 0 0 0 0 -2.5903962035481527 -0.37471120001101355 0 -0.37471120001101355 -1.531394505845924 0 0 0 0 -3.2551387185758358 0.23814433631293497 0 0.23814433631293497 -0.13292181803277359 0 0 0 0 -4.7779419706639601 -0.91423758245979059 0 -0.91423758245979059 -0.9539852816331944 0 0 0 0 -3.4084053893548116 -0.62556297687089568 0 -0.62556297687089568 -1.6980075041053055 0 0 0 0 -4.7368844794888219 -1.5416807122189455 0 -1.5416807122189455 -2.3651717917261976 0 0 0 0 -5.5559611995377054 -1.2675900582346458 0 -1.2675900582346458 -0.76595303880753818 0 0 0 0 -5.2327599222426215 -0.75764897497492711 0 -0.75764897497492711 -2.0537839173957764 0 0 0 0 -7.3857175405419184 -1.7473348376047682 0 -1.7473348376047682 -0.68773374492852213 0 0 0 0 -3.849550500128224 -1.7226778203920627 0 -1.7226778203920627 -0.67626648148217283 0 0 0 0 14.782906145213929 3.8332377941620548 0 3.8332377941620548 -7.5041913514719845 0 0 0 0 -23.668679854548827 -4.6743185502207405 0 -4.6743185502207405 0.025264662726300381 0 0 0 0 -8.7337355918465391 -17.438249886941495 0 -17.438249886941495 -0.13665122600436419 0 0 0 0 -3.4375700223284991 -0.16833050579729303 0 -0.16833050579729303 0.66525534482570947 0 0 0 0 -3.1795750281671644 -1.2359596105623041 0 -1.2359596105623041 -0.085152328320191373 0 0 0 0 -3.0716537466098259 -0.47027879234454417 0 -0.47027879234454417 0.47596866715770486 0 0 0 0 -3.271982193816207 -0.4027018917436429 0 -0.4027018917436429 -0.51259761922827318 0 0 0 0 -1.0110611517778096 -0.72149733821193607 0 -0.72149733821193607 -0.33556129460990897 0 0 0 0 -3.7365056720373104 -0.23221492438116992 0 -0.23221492438116992 -0.00025282805483778706 0 0 0 0 -4.0949492465078947 -0.80876179557315531 0 -0.80876179557315531 0.20768448358882743 0 0 0 0 -1.3760179195878228 -0.1926538340351911 0 -0.1926538340351911 -0.026661734346518636 0 0 0 0 -1.9028747557363204 -0.16632296738497776 0 -0.16632296738497776 0.0007282500893004099 0 0 0 0 -0.42256822684900897 0.27727656598635342 0 0.27727656598635342 0.071335199160832502 0 0 0 0 -6.5086683127187825 5.9529638192935836 0 5.9529638192935836 -3.1226796385465025 0 0 0 0 -31.18186872152728 -6.0765062148657538 0 -6.0765062148657538 0.0043246550378160621 0 0 0 0 -20.906276626225008 -2.7081250086502324 0 -2.7081250086502324 1.5921139957172006 0 0 0 0 -13.093992088478444 -9.6019645167264773 0 -9.6019645167264773 -2.8044943147600883 0 0 0 0 -8.3988821474231372 -7.8352507765810335 0 -7.8352507765810335 -2.2473390446365649 0 0 0 0 -0.91714948047329958 -0.66664973721644571 0 -0.66664973721644571 -1.8669875728645773 0 0 0 0 -5.4532698050319155 1.5784737680395082 0 1.5784737680395082 2.2333504836582838 0 0 0 0 -9.396329881527663 -5.4760826023327951 0 -5.4760826023327951 -4.6318611467444271 0 0 0 0 -9.7358940019166766 -1.1411076904507045 0 -1.1411076904507045 1.1424220509517213 0 0 0 0 -26.116663648332178 -10.821311472568215 0 -10.821311472568215 0.6959324349099123 0 0 0 0 -41.024121224185365 -10.25445306416975 0 -10.25445306416975 2.1869270683443967 0 0 0 0 -20.777088276852282 -14.832181913460321 0 -14.832181913460321 -0.14154194317854873 0 0 0 0 -20.28622342201561 -15.478968399690284 0 -15.478968399690284 -3.9322624740271124 0 0 0 0 -39.743074990787136 -9.6515804971652042 0 -9.6515804971652042 1.8578935517054909 0 0 0 0 -68.134320662717073 1.3373880994316876 0 1.3373880994316876 1.0980484554436423 0 0 0 0 -43.717630997445667 -12.678040750144403 0 -12.678040750144403 2.3571727223295866 0 0 0 0 -54.066950724700291 -18.274246634606218 0 -18.274246634606218 8.6348879758514343 0 0 0 0 -21.874600043538521 -31.14765497327604 0 -31.14765497327604 13.430421872050847 0 0 0 0 -162.71486737190935 -45.236349082112994 0 -45.236349082112994 16.044925047857451 0 0 0 0 66.38166297705925 12.146989449656466 0 12.146989449656466 -24.855863237392075 0 0 0 0 -20.761355497014335 -10.313071912173182 0 -10.313071912173182 1.3733288638309062 0 0 0 0 23.876669711811246 -128.30211171397838 0 -128.30211171397838 -57.097067907083058 0 0 0 0 -86.12849987825939 39.085568682277511 0 39.085568682277511 -6.9493769583081999 0 0 0 0 -1.5172009268177575 -0.53939751461879748 0 -0.53939751461879748 -0.24803741770764165 0 0 0 0 -9.8738168625750404 0.51705586556823846 0 0.51705586556823846 -2.7382214894460191 0 0 0 0 -6.9463181797480615 2.9799517757379927 0 2.9799517757379927 1.1024965654125438 0 0 0 0 -12.096591527901182 -4.6181458531880892 0 -4.6181458531880892 -0.083633887033691678 0 0 0 0 -12.946283274739471 -1.9856309504191998 0 -1.9856309504191998 0.15663264135667987 0 0 0 0 -6.5922536634843709 -1.3143945094929634 0 -1.3143945094929634 -2.4921553575617708 0 0 0 0 -9.9325850038967474 -3.742084273729958 0 -3.742084273729958 0.31837087171876988 0 0 0 0 0.34156430113138114 -0.47529848739201697 0 -0.47529848739201697 -0.57447313914247655 0 0 0 0 -7.4104961557777642 -0.37664026493526848 0 -0.37664026493526848 3.4059663486912655 0 0 0 0 -0.62927331940897613 -0.74349220532666038 0 -0.74349220532666038 0.63716132838348405 0 0 0 0 -5.7911657036329416 -2.4357894529718465 0 -2.4357894529718465 -0.34394777201282523 0 0 0 0 -10.264756621502784 -6.4141535042624298 0 -6.4141535042624298 -1.5816661024101677 0 0 0 0 -11.692948478676044 -4.7637634537954057 0 -4.7637634537954057 1.6354499073643183 0 0 0 0 -7.5415849917153537 -1.6408509026822458 0 -1.6408509026822458 0.51002333316898785 0 0 0 0 -0.82501272881563636 0.48286666336684902 0 0.48286666336684902 2.003673179354621 0 0 0 0 -5.5325332225656894 -1.042651838098152 0 -1.042651838098152 -0.69883424877457401 0 0 0 0 -0.49134181114937903 0.27555374403567612 0 0.27555374403567612 -0.14322068002979038 0 0 0 0 -4.0459055910396273 -1.2873273560149983 0 -1.2873273560149983 -2.3431245366943614 0 0 0 0 -1.3498791014856266 0.14798330416127392 0 0.14798330416127392 0.2003110950886462 0 0 0 0 -4.0113290742865502 -1.1674256030899066 0 -1.1674256030899066 -1.8995109156149397 0 0 0 0 -3.5020115839787032 1.2329902569682005 0 1.2329902569682005 0.67124953076483695 0 0 0 0 -5.791307727436374 -0.49087658458809713 0 -0.49087658458809713 0.47369919737282684 0 0 0 0 -4.0354987794562476 -0.09194782646591193 0 -0.09194782646591193 1.0762030987657454 0 0 0 0 -2.6755686864733903 -0.70810879455035058 0 -0.70810879455035058 1.5130154196319312 0 0 0 0 -0.18352575983590214 1.8174782647370193 0 1.8174782647370193 1.5722474707981746 0 0 0 0 -4.0069720007031719 -1.0171999891181827 0 -1.0171999891181827 -0.17790244937259558 0 0 0 0 -8.8543461586526888 0.35709484151786341 0 0.35709484151786341 1.4619294393869939 0 0 0 0 -4.3494649858621415 -1.8078821921510553 0 -1.8078821921510553 1.0746544320552402 0 0 0 0 -3.4313829864676499 -1.3644890393685394 0 -1.3644890393685394 -0.33284101573394009 0 0 0 0 -1.7995787395411753 -0.48555808758351304 0 -0.48555808758351304 -0.17139993712225987 0 0 0 0 -146.93985959859128 89.248912277247342 0 89.248912277247342 30.810400759047134 0 0 0 0 -13.694464956639308 9.8679644810847957 0 9.8679644810847957 6.4885102797381933 0 0 0 0 -7.8636261717962981 3.5398036207935171 0 3.5398036207935171 0.86887951965015808 0 0 0 0 -15.852482485153814 -47.33986832753024 0 -47.33986832753024 -51.584803175259367 0 0 0 0 -14.229444765753215 -3.2575005931246892 0 -3.2575005931246892 0.81046786446185592 0 0 0 0 -26.476228262232326 -10.608049719766996 0 -10.608049719766996 -0.61647606407302646 0 0 0 0 -5.4508027728770685 -8.6351274973462324 0 -8.6351274973462324 -9.6908612413981245 0 0 0 0 -28.405643636213426 -21.729361018625696 0 -21.729361018625696 -17.039451835282421 0 0 0 0 -0.54451088034634409 -0.1983202696437143 0 -0.1983202696437143 0.090000729934523349 0 0 0 0 -58.071612970959904 -0.74413138951484825 0 -0.74413138951484825 3.0125280916724932 0 0 0 0 -21.073722685775465 2.0207614719664093 0 2.0207614719664093 2.6362025258283666 0 0 0 0 -31.096196797438097 6.7180297435336342 0 6.7180297435336342 8.293088752920653 0 0 0 0 2.9918023159907534 5.4658139154633432 0 5.4658139154633432 -14.638332633572873 0 0 0 0 -31.996800674703081 20.523420405920888 0 20.523420405920888 -18.334979429218492 0 0 0 0 -3.1296099494938971 -0.69361337880923202 0 -0.69361337880923202 -4.5338638436776364 0 0 0 0 -0.48650380674757798 -7.7368529671798285 0 -7.7368529671798285 -0.66526946387716634 0 0 0 0 -1.6817565695200756 -0.31419284021092153 0 -0.31419284021092153 -21.754879768138082 0 0 0 0 -70.098463409705801 3.6299482341026987 0 3.6299482341026987 37.977603472269948 0 0 0 0 -12.190066254853448 0.98084483616031815 0 0.98084483616031815 0.48666955473686091 0 0 0 0 -24.325119192973943 0.21350251829801437 0 0.21350251829801437 42.689635798753216 0 0 0 0 33.59792117242614 -1.4440267113825485 0 -1.4440267113825485 -44.67379997038023 0 0 0 0 -19.657178215336899 -10.673907825895185 0 -10.673907825895185 12.37722267468223 0 0 0 0 -9.770885986101348 -4.5914633648496306 0 -4.5914633648496306 5.4093982901874824 0 0 0 0 -9.8025484547206361 -11.557474969482882 0 -11.557474969482882 11.397977262747645 0 0 0 0 -8.8028886641004647 -0.65546298012793613 0 -0.65546298012793613 -0.45241676851912871 0 0 0 0 -1.9932647997543915 -2.5306358501240904 0 -2.5306358501240904 -0.83445496264063035 0 0 0 0 -3.0978733331555333 -2.2403423075976185 0 -2.2403423075976185 -1.182823231355973 0 0 0 0 -7.5786553945226842 -2.5292727894718894 0 -2.5292727894718894 -1.4810170066966748 0 0 0 0 -6.2181490490044595 -3.3765910164654982 0 -3.3765910164654982 0.16022722489658581 0 0 0 0 -8.2019146655429722 19.440687672797992 0 19.440687672797992 12.498942789659395 0 0 0 0 -15.019728674347789 -4.4679532038510388 0 -4.4679532038510388 -0.14358035492841736 0 0 0 0 -12.482393197104422 0.62644205392499952 0 0.62644205392499952 0.65292865880675222 0 0 0 0 -17.720422229114774 -8.748451992256264 0 -8.748451992256264 12.707746628014377 0 0 0 0 -9.6246377656589175 -10.059092341904261 0 -10.059092341904261 0.68789573554261096 0 0 0 0 -12.125423156532634 -18.084244467210908 0 -18.084244467210908 -17.593129235683591 0 0 0 0 0.17392119571700526 -2.4067200968978959 0 -2.4067200968978959 -1.5800629362992531 0 0 0 0 -6.1412149763591515 -1.8605323780902836 0 -1.8605323780902836 -1.2955102050591449 0 0 0 0 -8.2477719154658189 -3.0673028512509291 0 -3.0673028512509291 -0.68624199256601059 0 0 0 0 -3.7531805170692678 -2.0557466599486816 0 -2.0557466599486816 -2.0469600982760312 0 0 0 0 -10.917097956098587 -4.8346949601627784 0 -4.8346949601627784 0.86794605068882902 0 0 0 0 -4.203012068873484 -2.5822302170592017 0 -2.5822302170592017 -1.3468695046755013 0 0 0 0 -1.2107369025609387 -4.0558707747350695 0 -4.0558707747350695 -4.6304828539252867 0 0 0 0 -0.96093678057695797 -5.5746676372741035 0 -5.5746676372741035 -2.623527092814129 0 0 0 0 -6.2300996195554035 -5.416573657780873 0 -5.416573657780873 -4.5096511369079337 0 0 0 0 -22.589833141913914 -8.3692805362676381 0 -8.3692805362676381 0.36767560679004418 0 0 0 0 -10.617482114874292 -6.8328184244073782 0 -6.8328184244073782 -6.0713790822646843 0 0 0 0 -8.5921159869649273 -9.7848053385216645 0 -9.7848053385216645 -9.8679634122194102 0 0 0 0 -13.395783346107237 -4.6349361598742007 0 -4.6349361598742007 1.6702089198763588 0 0 0 0 -12.587459716056401 -3.6605698137835816 0 -3.6605698137835816 1.6298853806167699 0 0 0 0 -17.400753751673619 -2.7261175546317418 0 -2.7261175546317418 1.8779594161331232 0 0 0 0 -7.2155211800618915 1.8749103342086926 0 1.8749103342086926 3.1397996258256544 0 0 0 0 -5.472451409939822 -3.0784331386226427 0 -3.0784331386226427 2.7759879311909117 0 0 0 0 -19.206448402486785 -3.2933677609056247 0 -3.2933677609056247 0.24094038603141144 0 0 0 0 -35.942266162138139 59.598502742001337 0 59.598502742001337 -19.262811033087473 0 0 0 0 -3.5627666486763978 1.5921412812534381 0 1.5921412812534381 -0.47875323138401438 0 0 0 0 -0.96482894901371097 -0.93456108020995288 0 -0.93456108020995288 0.95751646167778537 0 0 0 0 -12.97838814242823 3.0854174610596772 0 3.0854174610596772 6.0906139830636903 0 0 0 0 -1.9308544288422329 1.1701301639679684 0 1.1701301639679684 1.4656772658458506 0 0 0 0 -10.704826655771285 2.5693587948896663 0 2.5693587948896663 1.9896478674272657 0 0 0 0 -23.90749332219093 6.0430971942560916 0 6.0430971942560916 9.3145892371987884 0 0 0 0 -18.137778053096554 -4.4071708630530111 0 -4.4071708630530111 0.71315120457734338 0 0 0 0 -47.837394916892663 -35.555206234780883 0 -35.555206234780883 -8.3956793303148061 0 0 0 0 -39.852772539416037 -12.56254653594408 0 -12.56254653594408 3.3099622174381693 0 0 0 0 -23.424418226626585 -14.122274268907177 0 -14.122274268907177 -10.464710047650215 0 0 0 0 -29.032712707186874 -2.2710768483451602 0 -2.2710768483451602 12.204849307373934 0 0 0 0 -28.712876686329764 -1.1593239530720325 0 -1.1593239530720325 7.6502843842956736 0 0 0 0 -75.911881428870402 -19.140181669955609 0 -19.140181669955609 22.916588037956046 0 0 0 0 -36.738213738804916 17.591434055126115 0 17.591434055126115 -5.196628240523296 0 0 0 0 -1.633837712781542 -0.61236318624459152 0 -0.61236318624459152 -0.077419573952226983 0 0 0 0 -23.021629336217302 0.78632343598417265 0 0.78632343598417265 5.8418236496068232 0 0 0 0 -0.46681511277202681 0.28271899810611956 0 0.28271899810611956 1.0953227817889801 0 0 0 0 23.973190311109647 29.046200194261473 0 29.046200194261473 18.88393401756926 0 0 0 0 -0.16483264055178992 0.22735175044159206 0 0.22735175044159206 0.44616340607645544 0 0 0 0 68.970586764566178 28.411852241886947 0 28.411852241886947 -39.1084683885868 0 0 0 0 -18.718153274341603 -9.2933388510076043 0 -9.2933388510076043 23.810156902682309 0 0 0 0 -20.383567943608796 -12.135353172844418 0 -12.135353172844418 9.925140591220412 0 0 0 0 -7.7914942240458913 54.327373927315023 0 54.327373927315023 -21.82727193792806 0 0 0 0 -48.538084532063294 -61.554883890071295 0 -61.554883890071295 6.4106545382054492 0 0 0 0 16.089460103163219 -14.997603870204415 0 -14.997603870204415 -3.7977670156806482 0 0 0 0 -10.655483958267723 2.7911146471453208 0 2.7911146471453208 6.212161133048653 0 0 0 0 -53.712834872252643 -19.567282844204499 0 -19.567282844204499 14.188846266136125 0 0 0 0 -5.9252264523711347 -0.59148427529633807 0 -0.59148427529633807 1.6627494974281092 0 0 0 0 -0.066718030026287067 0.091034083955001677 0 0.091034083955001677 0.090931142644162244 0 0 0 0 -1.0633943505655736 -0.10479449837967447 0 -0.10479449837967447 0.069723213941420836 0 0 0 0 -50.294781855680412 -34.420906684071539 0 -34.420906684071539 -12.946425767754249 0 0 0 0 -75.257164274669776 -16.762279800589681 0 -16.762279800589681 -4.2660645645601871 0 0 0 0 -92.946208661582205 1.2570294918273248 0 1.2570294918273248 9.1073417892571342 0 0 0 0 -4.9751036770394421 0.78566260603044213 0 0.78566260603044213 3.4677809513066222 0 0 0 0 -1.4176937646807346 1.2421194109844009 0 1.2421194109844009 0.18708756971240348 0 0 0 0 -2.4491191112319939 3.2896046618648427 0 3.2896046618648427 4.8672118829284443 0 0 0 0 1.6823650653823279 0.83892451322384431 0 0.83892451322384431 0.74854897419081823 0 0 0 0 -2.5478793141037386 -0.61985469668962878 0 -0.61985469668962878 0.50561246136172144 0 0 0 0 -4.7979062753111066 -0.15987330622138529 0 -0.15987330622138529 0.17991541191982208 0 0 0 0 -1.7896020187763497 -2.7771507068152346 0 -2.7771507068152346 2.4509085531215646 0 0 0 0 -1.3630530228687405 -0.89939799833339062 0 -0.89939799833339062 0.019671153084305781 0 0 0 0 -3.0498889045257869 -0.029584884327175764 0 -0.029584884327175764 0.22707678055234443 0 0 0 0 -5.9024728759904974 -1.504214387794093 0 -1.504214387794093 4.220615931432917 0 0 0 0 -2.305676166783087 -1.5055301653517859 0 -1.5055301653517859 -1.3505355006713842 0 0 0 0 -0.46128731128919753 -5.9179004316387704 0 -5.9179004316387704 -2.1145783327655039 0 0 0 0 -1.97702649819621 1.020478869857925 0 1.020478869857925 -5.8024689455916132 0 0 0 0 -3.994324805913493 -8.748178895463866 0 -8.748178895463866 -24.924935747859536 0 0 0 0 -0.66200316366303014 -2.2748794062337083 0 -2.2748794062337083 -12.369725557422271 0 0 0 0 -0.51329442535863734 -0.31978761700634983 0 -0.31978761700634983 0.25169215770143327 0 0 0 0 -3.4359202468258445 3.828866319710869 0 3.828866319710869 -14.199497166688104 0 0 0 0 -20.482788892826647 -29.37266889048567 0 -29.37266889048567 -32.474865719353375 0 0 0 0 -23.843697073316434 -16.039662512502673 0 -16.039662512502673 -9.1990987491739702 0 0 0 0 -74.005528976960704 -5.800801227763011 0 -5.800801227763011 -0.11699633650571992 0 0 0 0 -498.78966859674983 178.41655375553657 0 178.41655375553657 39.576265843629727 0 0 0 0 -288.63745447913425 121.60929221281367 0 121.60929221281367 54.889328283340632 0 0 0 0 -158.42901027460721 219.0147079318285 0 219.0147079318285 -182.14658300507674 0 0 0 0 -30.358236928651877 -4.7454714928611059 0 -4.7454714928611059 -36.671605756488788 0 0 0 0 -489.34876965842705 3.6191209590835882 0 3.6191209590835882 -1.074073320152551 0 0 0 0 -1.9059116030404368 0.37846910804858402 0 0.37846910804858402 -0.15650395929980329 0 0 0 0 -202.79407066295244 -156.22611993621786 0 -156.22611993621786 -53.618694913106182 0 0 0 0 -1.5743187936707841 -0.087744350057125331 0 -0.087744350057125331 -0.16398776284265604 0 0 0 0 -282.70091466907797 -70.826321524733245 0 -70.826321524733245 -15.998694037301938 0 0 0 0 -498.04519213549889 -166.28514264468137 0 -166.28514264468137 35.452018694756696 0 0 0 0 52.548703226548241 14.318666477173357 0 14.318666477173357 -50.102508134589975 0 0 0 0 10.238977264426467 44.390172518148596 0 44.390172518148596 58.024937825623986 0 0 0 0 9.1460145645396551 -6.6433428311450546 0 -6.6433428311450546 -22.062801515358068 0 0 0 0 2.1301403854013188 -1.7664989587949993 0 -1.7664989587949993 -1.6878375212178405 0 0 0 0 -4.6173620122525989 -0.2903364495220222 0 -0.2903364495220222 0.11134136765798422 0 0 0 0 -7.2787653564664652 2.816744425168082 0 2.816744425168082 7.7688518830443467 0 0 0 0 -53.222399058693554 7.3121414731201746 0 7.3121414731201746 64.758498450766339 0 0 0 0 -4.0480614199407512 -0.48599766673371758 0 -0.48599766673371758 0.1740656043589944 0 0 0 0 -3.6590643305475083 0.69443197102233167 0 0.69443197102233167 0.22149551945783263 0 0 0 0 -64.644049785698371 -4.5981435241422659 0 -4.5981435241422659 -5.1534944013132744 0 0 0 0 -106.82371871246687 86.570079461480134 0 86.570079461480134 -48.20019463452558 0 0 0 0 3.3381573698434295 -5.4198640034641423 0 -5.4198640034641423 -31.585999165252261 0 0 0 0 -8.8351097678478254 -21.381745899006631 0 -21.381745899006631 30.180958984319055 0 0 0 0 5.8043064947719358 -13.206750256725432 0 -13.206750256725432 -18.0676108865079 0 0 0 0 4.258088022348602 -11.087821362419513 0 -11.087821362419513 5.0391285901563618 0 0 0 0 -0.54577460393430854 -1.1020834924502267 0 -1.1020834924502267 0.36272591963516398 0 0 0 0 -8.1601674007133624 -6.7532804643239075 0 -6.7532804643239075 -5.763872735591093 0 0 0 0 -5.4175615132357038 -0.84864494633516063 0 -0.84864494633516063 0.21276406881181678 0 0 0 0 -4.9607008793336718 -1.8830060784721461 0 -1.8830060784721461 2.2110234430408608 0 0 0 0 -0.79167533097097476 -1.2966623096906762 0 -1.2966623096906762 -2.5748866454560542 0 0 0 0 -7.9152291491027427 1.6915935153881634 0 1.6915935153881634 6.1281198281718616 0 0 0 0 -0.16433860697770797 4.9671688257628599 0 4.9671688257628599 0.036074480325104123 0 0 0 0 -3.5496680096672506 -0.0050400825581815578 0 -0.0050400825581815578 0.036245143484462623 0 0 0 0 -3.7820893680336667 5.5026656071543929 0 5.5026656071543929 15.005737976122765 0 0 0 0 -2.9375419615361409 -0.29300994919623946 0 -0.29300994919623946 0.10575824868397678 0 0 0 0 -0.67345408354412939 1.713055309803927 0 1.713055309803927 6.0945887903017155 0 0 0 0 -4.9048082133158459 9.2875546784362299 0 9.2875546784362299 8.9426532686335474 0 0 0 0 -38.104136711335741 -8.162490537325187 0 -8.162490537325187 2.6261325243382529 0 0 0 0 -45.426161706098355 5.1487972753901516 0 5.1487972753901516 -0.89699657450849202 0 0 0 0 -0.13478053107114363 -0.16918125622044111 0 -0.16918125622044111 -0.11690590433133843 0 0 0 0 -54.256337511862512 -5.9816211045569858 0 -5.9816211045569858 2.3636180006200291 0 0 0 0 -39.168154991839401 3.1330557710418088 0 3.1330557710418088 -0.85165705150537718 0 0 0 0 -0.27493334566968031 -0.1119963218442237 0 -0.1119963218442237 -0.020947966261357108 0 0 0 0 -13.869085445912788 -13.719925745840541 0 -13.719925745840541 -9.9378170974851994 0 0 0 0 -5.2799392176057154 6.716817690302646 0 6.716817690302646 -3.5223214843576454 0 0 0 0 -56.670063930278047 11.644913740832685 0 11.644913740832685 -1.7316158081822106 0 0 0 0 -1.0060713638458765 -2.3840812590269165 0 -2.3840812590269165 -4.2153423084597916 0 0 0 0 -10.470188998617232 -12.623735718070886 0 -12.623735718070886 6.3021268777854615 0 0 0 0 -0.28404707079479508 -1.4414488542466302 0 -1.4414488542466302 0.019491915795634002 0 0 0 0 -4.2212399778701197 -1.7306618109534075 0 -1.7306618109534075 -0.11278576297186393 0 0 0 0 -11.486791290790279 -11.667450030630647 0 -11.667450030630647 -11.686040255819165 0 0 0 0 0.73115347145721898 -22.548276908198289 0 -22.548276908198289 -83.121383310755164 0 0 0 0 -1.2441944204874744 -14.683163403177289 0 -14.683163403177289 -36.961346538747534 0 0 0 0 -18.363227656107483 -42.941954648048309 0 -42.941954648048309 -11.468392284742777 0 0 0 0 -30.312157100733174 -13.060080406157027 0 -13.060080406157027 -7.2672100297874067 0 0 0 0 -7.2502892861721158 3.096626312085494 0 3.096626312085494 1.2954148599271531 0 0 0 0 -30.666793928513471 -28.350958285777494 0 -28.350958285777494 2.20216141364142 0 0 0 0 1.9828795889552566 4.655138775804005 0 4.655138775804005 1.8430930767283371 0 0 0 0 -4.1015432391541253 -4.6775492814978747 0 -4.6775492814978747 7.8987270408836139 0 0 0 0 -8.7055095801079005 0.36327460875827455 0 0.36327460875827455 2.4494517258933683 0 0 0 0 -11.552398860998892 0.40375852385966016 0 0.40375852385966016 0.59572070991171033 0 0 0 0 -33.39239831456689 16.38978627450274 0 16.38978627450274 56.048511982283458 0 0 0 0 -1.6776763735711029 10.73047885164771 0 10.73047885164771 7.2185372239573553 0 0 0 0 -7.5078319617200577 4.7529987639885434 0 4.7529987639885434 3.50320278934214 0 0 0 0 -7.3606872495223641 1.931932960879454 0 1.931932960879454 1.7796335240394301 0 0 0 0 -9.2026274379296424 1.9858741280397183 0 1.9858741280397183 1.2494599127651194 0 0 0 0 -5.9324977420783398 34.336806762231163 0 34.336806762231163 34.919612557716903 0 0 0 0 -21.308102956361836 -16.385694379138215 0 -16.385694379138215 -22.048836995304704 0 0 0 0 -32.078495103107343 -29.217585282561572 0 -29.217585282561572 -21.405107190264737 0 0 0 0 -31.182655682179643 -15.354142940896416 0 -15.354142940896416 -13.292427207512901 0 0 0 0 -53.047860036340353 -34.647102704919917 0 -34.647102704919917 5.3205603198096512 0 0 0 0 -26.6069340514141 -42.533368675444535 0 -42.533368675444535 -63.330054104239252 0 0 0 0 -0.31548072400811122 1.5879203506489128 0 1.5879203506489128 0.63772652401622754 0 0 0 0 -10.896250510025993 14.499099014034073 0 14.499099014034073 6.5802214837310657 0 0 0 0 -19.655816773007246 -18.792577164663442 0 -18.792577164663442 -14.114135389854255 0 0 0 0 -26.358760242757853 -12.75981984266042 0 -12.75981984266042 -0.99073234595084614 0 0 0 0 -8.1027059602129157 -2.3604237689344245 0 -2.3604237689344245 -5.5724334744575259 0 0 0 0 -21.749174693482928 -16.646816777057367 0 -16.646816777057367 -7.7456119613394208 0 0 0 0 8.4523931202038511 12.172514517722339 0 12.172514517722339 -9.4083340191864373 0 0 0 0 -0.22143505174344824 0.96855505068752734 0 0.96855505068752734 -2.0579420379965057 0 0 0 0 -57.086004489479819 30.13696563034803 0 30.13696563034803 -34.140029797742081 0 0 0 0 -151.69350031726026 -38.753276073432062 0 -38.753276073432062 15.805312971725826 0 0 0 0 -23.642486239414211 -20.054247782029719 0 -20.054247782029719 -4.2738736865068603 0 0 0 0 -1.3132483137028608 2.3659071175819975 0 2.3659071175819975 -4.1769634680592107 0 0 0 0 11.408616904149312 30.296443950466589 0 30.296443950466589 -15.492112441016474 0 0 0 0 -1.7444642104391441 3.3428170264987731 0 3.3428170264987731 -5.4830933741446408 0 0 0 0 5.1321695601991451 30.228791090532241 0 30.228791090532241 -80.091954310025358 0 0 0 0 2.1149880645352823 42.004740844740809 0 42.004740844740809 -15.855020527098532 0 0 0 0 -2.6014027853543666 32.418586207548401 0 32.418586207548401 -8.7973961484741388 0 0 0 0 -46.011721874483555 -61.107830715602148 0 -61.107830715602148 -40.167748656409131 0 0 0 0 -65.700512718579375 -39.885968984939751 0 -39.885968984939751 6.1002685906724139 0 0 0 0 -89.315136230901771 -7.4548294066764136 0 -7.4548294066764136 -11.1380169860861 0 0 0 0 -220.41535228043722 -55.325518199431542 0 -55.325518199431542 24.537433644707562 0 0 0 0 -216.70140092053208 -100.57716081089512 0 -100.57716081089512 35.554599308858293 0 0 0 0 -499.25344690560115 -307.76281603790699 0 -307.76281603790699 -53.660015304841487 0 0 0 0 -303.1568395641425 -142.53917760442332 0 -142.53917760442332 16.294714743301867 0 0 0 0 -499.82320022876229 -75.240956155307117 0 -75.240956155307117 90.366177923345205 0 0 0 0 -288.84792443221522 -19.672357877378921 0 -19.672357877378921 94.561764359657587 0 0 0 0 -225.17225084998609 50.58346335062059 0 50.58346335062059 22.151333875126156 0 0 0 0 -239.36597825982244 37.560396521333502 0 37.560396521333502 24.320813843959471 0 0 0 0 -500.22308999030611 60.449000969797417 0 60.449000969797417 101.02701206125383 0 0 0 0 -21.864460010330731 -47.212582002652482 0 -47.212582002652482 -15.505307257915813 0 0 0 0 -1.1415617903086002 0.5931171422744832 0 0.5931171422744832 -0.0090910201319988199 0 0 0 0 -499.58001830375997 -134.72280757602817 0 -134.72280757602817 14.030855348984325 0 0 0 0 -2.5026140576230986 2.5536468440521496 0 2.5536468440521496 -2.3433844264177868 0 0 0 0 -15.458229226936965 12.204190821233574 0 12.204190821233574 -10.298170057269754 0 0 0 0 31.693772092718518 37.154566798214574 0 37.154566798214574 8.1311035964055236 0 0 0 0 -9.6012637786016057 -12.37029991046311 0 -12.37029991046311 -11.841218577941728 0 0 0 0 -3.1268694818054659 0.5040469553961362 0 0.5040469553961362 -1.0610468135187847 0 0 0 0 -188.84409197691232 1.1812998861340793 0 1.1812998861340793 -5.1779996960274808 0 0 0 0 -500.0431256585216 -134.60298810078257 0 -134.60298810078257 14.000880730168834 0 0 0 0 -188.84409197690184 38.786648255360568 0 38.786648255360568 -9.5008100668682207 0 0 0 0 -499.10970120954335 206.63436175034599 0 206.63436175034599 -27.152692958857408 0 0 0 0 -148.14208570791925 37.78033524597673 0 37.78033524597673 -9.4829928013446398 0 0 0 0 -1.9025479557947023 -0.80059313408856081 0 -0.80059313408856081 -0.77516306813691571 0 0 0 0 -67.044124280902906 -194.10853727709056 0 -194.10853727709056 -325.58209574404083 0 0 0 0 -64.392815185429981 -23.381699767521134 0 -23.381699767521134 5.5117889471079877 0 0 0 0 -72.598061085804147 -122.46585741890354 0 -122.46585741890354 -173.78147292355214 0 0 0 0 -11.923483503955595 10.190267780203214 0 10.190267780203214 -58.651470779703573 0 0 0 0 -37.052825808164926 -26.591256227840802 0 -26.591256227840802 25.672534053464631 0 0 0 0 -4.8427772229288166 -1.4062231782231072 0 -1.4062231782231072 -2.222293954096084 0 0 0 0 -148.1420857079201 -6.8973658234018398 0 -6.8973658234018398 -4.9967954606816782 0 0 0 0 12.550279781675272 -1.3670054623910346 0 -1.3670054623910346 -14.016139214842838 0 0 0 0 -7.938639055346826 -4.014630020243164 0 -4.014630020243164 -4.2060873794754716 0 0 0 0 -9.0878348054393427 -6.0592656123874349 0 -6.0592656123874349 -7.1049455232264336 0 0 0 0 1.5346705531242151 25.024151381200546 0 25.024151381200546 -26.92018536763851 0 0 0 0 -2.9806110153168888 2.6444863407849386 0 2.6444863407849386 -6.2980294688826959 0 0 0 0 8.8708386174562293 -26.081872168682139 0 -26.081872168682139 -15.455533654659121 0 0 0 0 -50.035345565807802 -59.416108416932275 0 -59.416108416932275 -40.576866380958563 0 0 0 0 -22.461260523894452 -33.88847019393188 0 -33.88847019393188 -4.2609334842842372 0 0 0 0 -26.923729997168266 -28.838607298388069 0 -28.838607298388069 -0.21974737467917294 0 0 0 0 -47.732564111585816 -33.246360953764906 0 -33.246360953764906 0.96693225141871153 0 0 0 0 -45.309761304023596 -37.23675691035362 0 -37.23675691035362 7.4118192599598842 0 0 0 0 -1.7329890463095836 5.1396105814592881 0 5.1396105814592881 2.1957740893144013 0 0 0 0 -23.375182341147593 -9.0877273999224144 0 -9.0877273999224144 -9.5168658945995048 0 0 0 0 -13.657914192919634 -15.901038445421364 0 -15.901038445421364 -8.9306564526869749 0 0 0 0 -35.232012982969536 2.5616461459248967 0 2.5616461459248967 5.6682002106470577 0 0 0 0 -10.364710988284909 3.3473035543100629 0 3.3473035543100629 2.1232784714267279 0 0 0 0 -3.140602585053557 10.73140766019101 0 10.73140766019101 17.416895573866896 0 0 0 0 -6.6891403999725298 25.67071239505583 0 25.67071239505583 34.387091754791982 0 0 0 0 -6.7262649293334107 25.344782313088956 0 25.344782313088956 38.792799612105682 0 0 0 0 -5.4256943674454305 20.52700113832941 0 20.52700113832941 37.891325429471635 0 0 0 0 -5.4305530953070047 21.20402874361389 0 21.20402874361389 31.916674222059555 0 0 0 0 -11.125851338594657 24.323546637956042 0 24.323546637956042 30.216164898432226 0 0 0 0 -9.8857360018191685 22.377939965646874 0 22.377939965646874 18.643189916792949 0 0 0 0 -8.3916712565251146 18.388467197208911 0 18.388467197208911 24.800329059837168 0 0 0 0 -2.3836328887700802 28.259403354234564 0 28.259403354234564 23.627271172078736 0 0 0 0 9.7455456859333935 24.102173326424236 0 24.102173326424236 24.76489416431491 0 0 0 0 4.3366766263852696 25.239054841423581 0 25.239054841423581 53.811454973216314 0 0 0 0 16.611959834543086 37.136434456301913 0 37.136434456301913 5.4594248622033774 0 0 0 0 -2.7230779846209501 2.5463536847050925 0 2.5463536847050925 1.3694177106538201 0 0 0 0 7.9853963057594228 35.083468121041051 0 35.083468121041051 29.787191854321463 0 0 0 0 -4.4551994133429851 2.5458433114125238 0 2.5458433114125238 -3.4918262221637777 0 0 0 0 -7.9062049475736558 -0.56520968367490632 0 -0.56520968367490632 -7.505844542878549 0 0 0 0 -1.4227605858668539 30.455039711284257 0 30.455039711284257 32.35986865499018 0 0 0 0 3.4869360260945541 14.159689322758254 0 14.159689322758254 19.412976408675945 0 0 0 0 8.5338910100381327 21.835159320646312 0 21.835159320646312 -1.8115638926251449 0 0 0 0 -4.8447210508220451 23.427915613394816 0 23.427915613394816 10.904340509086978 0 0 0 0 1.674574671411392 16.026348415503776 0 16.026348415503776 -9.4554595922326143 0 0 0 0 -3.8926781557784125 27.058380802503507 0 27.058380802503507 -4.2624846361190976 0 0 0 0 -12.940643049418213 20.141626157822429 0 20.141626157822429 6.9667530519150205 0 0 0 0 -17.745321928414342 27.41328367275753 0 27.41328367275753 -2.7095038296235998 0 0 0 0 -6.3121449587979441 25.273284758537102 0 25.273284758537102 7.8961549650139204 0 0 0 0 -19.042735969160276 20.425168462981446 0 20.425168462981446 18.456294730966334 0 0 0 0 4.9496215152576042 27.130382821442367 0 27.130382821442367 10.300764096538614 0 0 0 0 -6.8031925281939039 20.768229491071224 0 20.768229491071224 19.983052015285125 0 0 0 0 -22.41892639544858 6.6650343938606511 0 6.6650343938606511 16.007931060533792 0 0 0 0 -36.926642055206685 9.7951520780727606 0 9.7951520780727606 15.844623232539107 0 0 0 0 -15.601453410392423 15.388294441419021 0 15.388294441419021 11.359302662287291 0 0 0 0 -18.181795590804541 20.791164060565507 0 20.791164060565507 18.083610515695227 0 0 0 0 -30.04232271543151 19.686212148466439 0 19.686212148466439 10.10681377532876 0 0 0 0 -17.644455443193436 17.251168308239532 0 17.251168308239532 1.1337705882101545 0 0 0 0 -47.127188697699239 15.171314965771444 0 15.171314965771444 7.8903314002102434 0 0 0 0 -25.564754782539694 10.337821833187405 0 10.337821833187405 8.9044811317194217 0 0 0 0 -42.17733803201736 8.0839963572175293 0 8.0839963572175293 8.07090360968391 0 0 0 0 -53.205253609596184 -9.6135528539019788 0 -9.6135528539019788 18.358332391052272 0 0 0 0 -58.676450241920975 1.2234526578705527 0 1.2234526578705527 13.900937864681339 0 0 0 0 -65.396623045675369 -16.814736374763811 0 -16.814736374763811 18.559644731830076 0 0 0 0 -60.094444420758919 -26.774448847691076 0 -26.774448847691076 26.986824113445437 0 0 0 0 -55.919454395110733 -31.475071237449811 0 -31.475071237449811 15.435420654310292 0 0 0 0 -37.707620071018027 -18.734988866513959 0 -18.734988866513959 18.273175801994967 0 0 0 0 -31.232368119242892 -1.6072781658053827 0 -1.6072781658053827 13.862035674899857 0 0 0 0 -20.265793848768226 -5.8495709221369907 0 -5.8495709221369907 16.025998708273988 0 0 0 0 -44.819232890439707 -9.9327884837123861 0 -9.9327884837123861 15.707256767245781 0 0 0 0 -16.924867486670337 -6.654893245154426 0 -6.654893245154426 13.99811064599271 0 0 0 0 3.0230533128924435 -11.135489728359744 0 -11.135489728359744 10.254276807424503 0 0 0 0 -27.441575193707649 -29.607864825328875 0 -29.607864825328875 14.383805322836906 0 0 0 0 -36.867379393655938 -18.488723746137566 0 -18.488723746137566 13.033123154094483 0 0 0 0 -3.5850360655135773 -39.951037232100134 0 -39.951037232100134 8.1818277553347798 0 0 0 0 -18.902130989677971 -44.722783280476051 0 -44.722783280476051 20.55468240719847 0 0 0 0 -12.187442199291581 0.58866268214887896 0 0.58866268214887896 24.350943850532531 0 0 0 0 19.325796419139806 -0.51277947605694862 0 -0.51277947605694862 18.13656132839435 0 0 0 0 -6.7678190219121461 14.028852545102382 0 14.028852545102382 26.467539716890485 0 0 0 0 -14.283125281017419 10.301347905666262 0 10.301347905666262 25.857740787213288 0 0 0 0 -15.393709195451436 14.128750519481457 0 14.128750519481457 21.575934198705909 0 0 0 0 -15.443386507725791 20.915645010528564 0 20.915645010528564 30.724023361517993 0 0 0 0 -18.004573398429784 16.895242051847845 0 16.895242051847845 24.209461243682654 0 0 0 0 -10.740833374715294 18.667305805464821 0 18.667305805464821 24.261324280952735 0 0 0 0 -5.7771643384185154 24.350406659461214 0 24.350406659461214 30.450746868655941 0 0 0 0 -10.984603937697102 23.235320552749499 0 23.235320552749499 38.025991611036943 0 0 0 0 -2.6065981551134385 2.0638272595179137 0 2.0638272595179137 1.0968436915256881 0 0 0 0 -12.078022448906268 17.040361677043279 0 17.040361677043279 55.076838639390871 0 0 0 0 3.5111786496254354 14.251493183176763 0 14.251493183176763 -3.2675827736361498 0 0 0 0 -3.9651754812175568 12.766288816913161 0 12.766288816913161 39.047156776356132 0 0 0 0 3.6061890032806332 26.727559714412678 0 26.727559714412678 40.958248408158624 0 0 0 0 -11.19751209880263 3.2559482756108071 0 3.2559482756108071 3.340077032418248 0 0 0 0 -25.056475985803445 21.690626264125427 0 21.690626264125427 16.398828013444927 0 0 0 0 16.39982513787254 12.76005875685405 0 12.76005875685405 -15.127793326062147 0 0 0 0 -114.9750132405261 9.7139491118673504 0 9.7139491118673504 24.853825004444843 0 0 0 0 -5.7059910202033279 2.9341224531888201 0 2.9341224531888201 -11.862336813439015 0 0 0 0 -7.6332921826351594 11.170033204256583 0 11.170033204256583 11.261778727890174 0 0 0 0 1.104013679435468 14.692692687403337 0 14.692692687403337 7.7045944480721573 0 0 0 0 1.7200971435468091 25.070461254253701 0 25.070461254253701 11.892196014332512 0 0 0 0 -11.983016404271673 3.253992114500849 0 3.253992114500849 2.86296432406 0 0 0 0 -8.0940471184476337 9.0810771655955023 0 9.0810771655955023 6.3162896053252098 0 0 0 0 -43.027621002982869 -16.32546174734415 0 -16.32546174734415 142.26193821986601 0 0 0 0 2.4306770957609842 4.9002854212980083 0 4.9002854212980083 -26.888708045793237 0 0 0 0 1.8794133507763036 9.071496898939813 0 9.071496898939813 -29.232837075066755 0 0 0 0 -3.3027571715211899 -0.31927326393770716 0 -0.31927326393770716 0.037059311095639536 0 0 0 0 50.040523351746629 225.26143891809573 0 225.26143891809573 -322.33243631337973 0 0 0 0 -6.1304641408205498 18.642912527498083 0 18.642912527498083 -23.861320124057102 0 0 0 0 -4.4524603909742382 5.6996264707090631 0 5.6996264707090631 -29.107545870661397 0 0 0 0 -4.7197346178470525 2.7736891349191524 0 2.7736891349191524 -42.702324775788838 0 0 0 0 -3.9237144996532152 19.319497092054235 0 19.319497092054235 -36.568129964186483 0 0 0 0 -11.343281640855821 12.813437937489311 0 12.813437937489311 21.746652474793564 0 0 0 0 -0.57450236690237944 15.538839762400812 0 15.538839762400812 -15.543628785118017 0 0 0 0 -2.718000099936944 11.597884386678913 0 11.597884386678913 -18.131232667836912 0 0 0 0 -7.352533888666585 29.197103627493902 0 29.197103627493902 -3.7306748237162992 0 0 0 0 -42.320954213006189 28.866817222083341 0 28.866817222083341 -13.486561809810837 0 0 0 0 -18.3106603902404 6.240423884712925 0 6.240423884712925 6.1154302326274319 0 0 0 0 16.958819665896954 -143.18613730818538 0 -143.18613730818538 -2.0424286028446659 0 0 0 0 -36.455456209650947 36.076588091405711 0 36.076588091405711 -73.818364865617582 0 0 0 0 -35.293956582921965 12.836989206894714 0 12.836989206894714 -26.384144958243496 0 0 0 0 -1.8585276435301523 -0.45676241595161304 0 -0.45676241595161304 -0.10620678799409022 0 0 0 0 -4.4024749362761213 16.613728823456086 0 16.613728823456086 -51.802038621776319 0 0 0 0 -3.1279256540583447 4.8051599052118945 0 4.8051599052118945 -53.711549822045072 0 0 0 0 61.375328868522047 -238.13655511233355 0 -238.13655511233355 -127.60026183251011 0 0 0 0 -44.132337295492107 -109.83026220275246 0 -109.83026220275246 -14.903063657194366 0 0 0 0 -39.580951354375429 -35.911494446544566 0 -35.911494446544566 65.650999478612448 0 0 0 0 54.955447073957885 -43.345224354700797 0 -43.345224354700797 26.913251266898897 0 0 0 0 -157.86306902597426 -9.7202502507728923 0 -9.7202502507728923 9.8299720504887773 0 0 0 0 -0.75376330245306633 -1.0363782594953488 0 -1.0363782594953488 -1.3730253447568908 0 0 0 0 56.966151812337728 -78.553135209439858 0 -78.553135209439858 -76.43110163265942 0 0 0 0 -45.844816454224201 121.05159412308376 0 121.05159412308376 42.231798279040731 0 0 0 0 -98.830629308133211 -88.944861656411149 0 -88.944861656411149 -103.25498697002013 0 0 0 0 -45.145585920283338 -36.768069446442496 0 -36.768069446442496 33.424369332149638 0 0 0 0 -54.093628817439821 -18.65735514052426 0 -18.65735514052426 7.1749451898881489 0 0 0 0 -56.159572668082546 -41.680154509499971 0 -41.680154509499971 19.109234130673485 0 0 0 0 -21.335536817761749 -32.062902727830306 0 -32.062902727830306 8.7330310816937526 0 0 0 0 -47.18403700682029 -33.327246169960745 0 -33.327246169960745 17.976765355339467 0 0 0 0 -50.696161943645166 -46.368420509920298 0 -46.368420509920298 -9.9810988781837295 0 0 0 0 -53.971289103301388 -42.806920845492186 0 -42.806920845492186 10.793546920349115 0 0 0 0 -97.345940351076933 3.1638832706391895 0 3.1638832706391895 9.4460069767776531 0 0 0 0 -98.620770429055483 -60.543392494312684 0 -60.543392494312684 11.771790917939597 0 0 0 0 -91.05486902832854 -30.469364712158722 0 -30.469364712158722 30.386636939279697 0 0 0 0 -64.647909037990757 -28.648646458817666 0 -28.648646458817666 30.466435405267816 0 0 0 0 -70.310770187250455 -44.245489293159835 0 -44.245489293159835 20.514877263711242 0 0 0 0 -54.408200267364009 -35.139712373202087 0 -35.139712373202087 23.093375677601671 0 0 0 0 -70.124621217608365 -33.844409996155719 0 -33.844409996155719 23.180381359810099 0 0 0 0 -71.193785981564361 -35.417427804512954 0 -35.417427804512954 31.373429379527806 0 0 0 0 -65.893947708173073 -28.740101139622652 0 -28.740101139622652 28.278607279990922 0 0 0 0 -45.815725331010981 -35.088604862027069 0 -35.088604862027069 28.685935632450992 0 0 0 0 -65.170849960628402 -32.357226729491458 0 -32.357226729491458 32.925420143907104 0 0 0 0 -38.559205198367181 -22.698836992383036 0 -22.698836992383036 13.246370482856946 0 0 0 0 -0.90422691415551526 -42.160791768574086 0 -42.160791768574086 21.54191832409947 0 0 0 0 32.991429930189042 -11.443607313198413 0 -11.443607313198413 -2.9462337666627718 0 0 0 0 -0.63677981302456388 -1.0590408644285874 0 -1.0590408644285874 -0.57671842815019314 0 0 0 0 -8.1458732487699308 -33.52465893981298 0 -33.52465893981298 63.464072852604659 0 0 0 0 -1.970573234944041 -11.35882822895789 0 -11.35882822895789 -0.67165598096357826 0 0 0 0 -2.7067880120072658 -3.2345623502097052 0 -3.2345623502097052 -2.79777689603059 0 0 0 0 -41.241332068564589 -6.9436285379147193 0 -6.9436285379147193 10.303956956534989 0 0 0 0 -1.7395805626438232 -21.925501008449828 0 -21.925501008449828 7.4967610131570837 0 0 0 0 -18.088596963097189 -30.866432989826365 0 -30.866432989826365 17.034542465540426 0 0 0 0 17.802371204299561 -42.885655091026251 0 -42.885655091026251 -17.776953916511331 0 0 0 0 36.125985914167359 -25.97772940057132 0 -25.97772940057132 -6.0424343248500918 0 0 0 0 14.652567911109145 -30.540192192342715 0 -30.540192192342715 37.373118871132533 0 0 0 0 25.506106704671765 -40.217686989964591 0 -40.217686989964591 3.6547018287587889 0 0 0 0 -0.24776141182701394 -12.635511179344576 0 -12.635511179344576 33.852076106655204 0 0 0 0 -30.525788826351345 -42.879510886764365 0 -42.879510886764365 13.835867197663219 0 0 0 0 -37.017126640146671 -31.808973717639105 0 -31.808973717639105 24.36901715839565 0 0 0 0 -78.250801856314865 -42.647220498192951 0 -42.647220498192951 24.45323348142972 0 0 0 0 -73.105274224137247 -27.041341249845686 0 -27.041341249845686 24.711542895692105 0 0 0 0 -76.0208645400362 -33.802092947104597 0 -33.802092947104597 29.694486140142089 0 0 0 0 -113.17597429137913 -36.392887181850938 0 -36.392887181850938 26.982835828466023 0 0 0 0 -77.241606212252009 -53.818905855159073 0 -53.818905855159073 13.144910309233353 0 0 0 0 -31.839987970779475 -48.492795314643786 0 -48.492795314643786 9.1629278832906493 0 0 0 0 -70.196002456817951 -38.680683499931433 0 -38.680683499931433 9.0300136297666995 0 0 0 0 -146.58310114524465 -61.980413670920711 0 -61.980413670920711 13.125909174556398 0 0 0 0 -81.593092354126384 -56.16929917468471 0 -56.16929917468471 -19.741937320475415 0 0 0 0 -87.729847064347268 -93.005814692822298 0 -93.005814692822298 -15.630322749518626 0 0 0 0 14.04356553810976 -70.115566958475455 0 -70.115566958475455 -23.712355350903294 0 0 0 0 41.700260214243826 -27.888629482624594 0 -27.888629482624594 -14.80451287078111 0 0 0 0 53.409058082228967 -31.430452261019269 0 -31.430452261019269 -36.65411056664027 0 0 0 0 72.472477221982444 -80.736655938019652 0 -80.736655938019652 30.040536946348993 0 0 0 0 -3.8715375262581038 4.9853168320335115 0 4.9853168320335115 1.7277820991441217 0 0 0 0 224.28042733564507 48.494198161653941 0 48.494198161653941 -1.1515514182106017 0 0 0 0 188.28915262394821 32.757946208308539 0 32.757946208308539 3.0699525995839849 0 0 0 0 33.004279346470867 52.706021215130136 0 52.706021215130136 -18.688835465997499 0 0 0 0 74.34623216628097 -66.958254221671538 0 -66.958254221671538 -109.5117729835016 0 0 0 0 29.546605816114607 48.907745912224698 0 48.907745912224698 76.618992026598633 0 0 0 0 172.92539584071255 101.2341082469178 0 101.2341082469178 -120.79250057512769 0 0 0 0 23.99487806137995 22.08993247799441 0 22.08993247799441 25.733651424531445 0 0 0 0 -361.18091719111726 -69.349672070026998 0 -69.349672070026998 38.748502559747749 0 0 0 0 -18.894695626751854 103.33956288974218 0 103.33956288974218 30.889974212284159 0 0 0 0 -160.6343445756238 190.4152552053325 0 190.4152552053325 -125.87182214405524 0 0 0 0 -21.254404438041092 -64.178118001822156 0 -64.178118001822156 -265.51857469534337 0 0 0 0 -316.6970475571805 -127.32781301590101 0 -127.32781301590101 -32.880914702350481 0 0 0 0 -332.45778428701186 156.03031207276391 0 156.03031207276391 -65.926660150592738 0 0 0 0 -53.651632816242454 97.653878346802884 0 97.653878346802884 -193.43188990638208 0 0 0 0 -3.0233809467413657 0.79899566070125116 0 0.79899566070125116 -0.36386557459508001 0 0 0 0 -23.196083548919887 -209.86476041895401 0 -209.86476041895401 48.592880598733245 0 0 0 0 -39.842434579944893 -206.73615955845719 0 -206.73615955845719 105.44300023433138 0 0 0 0 -153.5654797715606 -240.73116982590147 0 -240.73116982590147 -178.588788782569 0 0 0 0 9.5823295722948387 2.200052572750451 0 2.200052572750451 51.937865889920317 0 0 0 0 -22.538380542318919 -101.89277215380693 0 -101.89277215380693 -39.273340957187656 0 0 0 0 -28.194732906823901 -98.997179659415664 0 -98.997179659415664 116.4826560558763 0 0 0 0 -30.774236614048277 8.5511060429365813 0 8.5511060429365813 12.95780080902184 0 0 0 0 -8.2591140097504336 2.601778153641126 0 2.601778153641126 -0.51827284830548659 0 0 0 0 -469.03210576165202 -11.805193964272803 0 -11.805193964272803 304.9308861094255 0 0 0 0 -5.3474856349848778 -4.7422894527469488 0 -4.7422894527469488 -18.883008795280087 0 0 0 0 14.66931071235922 -9.8919520230743494 0 -9.8919520230743494 -75.162636407678747 0 0 0 0 -11.300213455225276 36.054331379091977 0 36.054331379091977 -73.133304975043472 0 0 0 0 -39.650609257447286 81.178440186925627 0 81.178440186925627 -126.36413849578832 0 0 0 0 -36.899070745876088 32.129540976216319 0 32.129540976216319 -12.912167518908628 0 0 0 0 -24.391303836757288 59.838463609137413 0 59.838463609137413 -79.728988420559403 0 0 0 0 -23.867830010577336 57.286863322917469 0 57.286863322917469 -70.249604819863976 0 0 0 0 -14.074575739042302 53.947720453386708 0 53.947720453386708 -69.516195249354951 0 0 0 0 -37.872132173767568 39.056979097093972 0 39.056979097093972 -32.820041147078427 0 0 0 0 -40.084231652605013 43.505046002131962 0 43.505046002131962 -40.862152349162386 0 0 0 0 -68.810629747165876 59.375781872410016 0 59.375781872410016 -48.147802503546473 0 0 0 0 -68.125383135848097 57.009220272433879 0 57.009220272433879 -40.509148193678641 0 0 0 0 -133.41604408607054 87.45978139543837 0 87.45978139543837 -54.703266977549788 0 0 0 0 -129.22717737297899 47.163456654670483 0 47.163456654670483 -23.462446283985969 0 0 0 0 -121.79046641617606 47.685348072603233 0 47.685348072603233 -23.460039419942476 0 0 0 0 -177.60508592804763 7.8482553300889037 0 7.8482553300889037 20.727154261434634 0 0 0 0 -118.70850386696384 41.977172381945024 0 41.977172381945024 -14.209341672788241 0 0 0 0 -95.422128949496255 21.664054059473642 0 21.664054059473642 4.055727292890424 0 0 0 0 -73.627492782673926 23.782331947230389 0 23.782331947230389 -6.8943609205340408 0 0 0 0 -102.04103874573048 -4.7404035858844509 0 -4.7404035858844509 22.12352039133566 0 0 0 0 -95.479994940532833 -10.013734643366007 0 -10.013734643366007 22.391376689830281 0 0 0 0 -82.126294295116168 -19.511989501303333 0 -19.511989501303333 24.642758777469908 0 0 0 0 -80.056342335901718 -2.7228284683829997 0 -2.7228284683829997 16.597964959035835 0 0 0 0 -73.293436972304335 -13.843503801043767 0 -13.843503801043767 22.533335512033318 0 0 0 0 -69.81737470696271 16.926004772258267 0 16.926004772258267 5.2424122803051887 0 0 0 0 -64.271103470153321 5.5770279998947672 0 5.5770279998947672 12.34980104678732 0 0 0 0 -48.482112210540436 27.376705614130742 0 27.376705614130742 -7.8088594773626596 0 0 0 0 -29.643424591263283 21.398387200511308 0 21.398387200511308 -5.9491091708084696 0 0 0 0 -31.178238621243509 21.79891076025558 0 21.79891076025558 -0.37788744403178498 0 0 0 0 -19.380160616680769 32.034442506586345 0 32.034442506586345 -20.129092190892379 0 0 0 0 -26.224834018787988 39.20395669359371 0 39.20395669359371 -30.620451907409233 0 0 0 0 -24.149874058429759 33.919445741343878 0 33.919445741343878 -31.141945261922046 0 0 0 0 -79.742121121653781 36.769742322377027 0 36.769742322377027 -12.91697900240456 0 0 0 0 -45.366409023654342 23.278572905003955 0 23.278572905003955 -7.7316095962338522 0 0 0 0 17.99292397859972 24.197459692145799 0 24.197459692145799 -43.554173963973824 0 0 0 0 -4.0941851396078164 26.830520528699424 0 26.830520528699424 -23.03317743160892 0 0 0 0 -7.4619834548575454 26.025530618530638 0 26.025530618530638 -21.395887156266099 0 0 0 0 -8.7255351422113563 29.184586366816731 0 29.184586366816731 -23.196984018681405 0 0 0 0 -10.176465549488057 20.06456562826645 0 20.06456562826645 -4.5837704053597577 0 0 0 0 8.4894044754073548 -0.60346322151133336 0 -0.60346322151133336 -29.132744700315129 0 0 0 0 -1.4092930733058893 22.008059161454412 0 22.008059161454412 -1.5459488014979001 0 0 0 0 17.47367016289661 19.224083343317655 0 19.224083343317655 -53.426720843946441 0 0 0 0 32.63204056846007 20.625462347184396 0 20.625462347184396 -53.362638829997636 0 0 0 0 36.536083083090489 20.794738732858448 0 20.794738732858448 -57.415576971006658 0 0 0 0 35.984812001792307 20.205333515220488 0 20.205333515220488 -56.87008755706006 0 0 0 0 48.945615327684209 34.884681366810597 0 34.884681366810597 -59.832002677576369 0 0 0 0 17.962261516332546 35.303302661078945 0 35.303302661078945 -57.594782237430707 0 0 0 0 6.2962757391233026 30.858869101385295 0 30.858869101385295 -46.415387801234331 0 0 0 0 5.3820557763046963 35.472907958291046 0 35.472907958291046 -52.440759825288922 0 0 0 0 89.658852302591185 15.400658256612836 0 15.400658256612836 -67.376453219764329 0 0 0 0 -52.907184574145504 58.287799396364171 0 58.287799396364171 -53.662811026704418 0 0 0 0 -67.896058440695924 -17.054017334510323 0 -17.054017334510323 7.2251200560096436 0 0 0 0 -47.570598943921141 32.539502563525502 0 32.539502563525502 29.173697304292403 0 0 0 0 -0.25086322257781557 -0.1683330701639516 0 -0.1683330701639516 0.065793549216838165 0 0 0 0 -3.8201159988556945 1.1573718076471646 0 1.1573718076471646 -0.031606810978877686 0 0 0 0 12.471818884211643 5.8829325483691832 0 5.8829325483691832 -8.3265219504055494 0 0 0 0 -17.997186284522286 8.3590229255060251 0 8.3590229255060251 5.0422635286341375 0 0 0 0 -18.839951398123958 8.2507366545248715 0 8.2507366545248715 5.9835254000911391 0 0 0 0 -11.612670582549647 5.0586396927862598 0 5.0586396927862598 -1.775851620221607 0 0 0 0 64.594042806022117 65.12459259104341 0 65.12459259104341 36.348295164375031 0 0 0 0 -21.832842054116554 9.5666136040210574 0 9.5666136040210574 6.5551343856298248 0 0 0 0 -3.1409340653456326 0.50477623430978902 0 0.50477623430978902 0.6778322299869759 0 0 0 0 31.527921195020099 81.166925630070693 0 81.166925630070693 38.209121568021914 0 0 0 0 26.919850884722109 28.189363468280455 0 28.189363468280455 46.279568979186102 0 0 0 0 148.358447346307 71.67722930544609 0 71.67722930544609 -44.434904038637747 0 0 0 0 0.24177125943305988 -0.1155269528643732 0 -0.1155269528643732 -0.3284354388586147 0 0 0 0 42.27199636039586 67.3744116585288 0 67.3744116585288 -17.908356289473183 0 0 0 0 38.22451277769062 30.794712406371261 0 30.794712406371261 -80.32214328518792 0 0 0 0 -67.969677117514948 67.898259314760566 0 67.898259314760566 -3.3363657093780716 0 0 0 0 -249.29060782708257 150.84795265795441 0 150.84795265795441 -55.970680994554598 0 0 0 0 -69.880061072906074 35.627472550932026 0 35.627472550932026 0.32901074868843239 0 0 0 0 21.736142529875906 45.58446006889973 0 45.58446006889973 -12.068960409089783 0 0 0 0 -65.240902734049087 68.892524082256799 0 68.892524082256799 38.265888411758567 0 0 0 0 29.369455434226325 28.817685845486515 0 28.817685845486515 41.57910323281618 0 0 0 0 -198.09048640749825 73.38077369061628 0 73.38077369061628 32.664858391573134 0 0 0 0 -73.307274416321661 -2.2353107325387986 0 -2.2353107325387986 39.103177730430588 0 0 0 0 -37.697318858613471 41.39731157906472 0 41.39731157906472 34.240407355846202 0 0 0 0 -163.6403792590354 2.7501519131456149 0 2.7501519131456149 82.64681489316547 0 0 0 0 -45.754815662949113 39.771256493358067 0 39.771256493358067 87.829411907085671 0 0 0 0 -500.22196734411682 -5.2052488528136251 0 -5.2052488528136251 156.7724893848484 0 0 0 0 -335.01239556485962 -68.667430272614965 0 -68.667430272614965 117.73892041438657 0 0 0 0 -318.83141638142661 0.66947740389811372 0 0.66947740389811372 103.5514802820115 0 0 0 0 -152.95798938141525 -47.626281345705237 0 -47.626281345705237 59.497222277431803 0 0 0 0 -230.83576534979875 -18.469412225960724 0 -18.469412225960724 67.432445399940093 0 0 0 0 -364.88118386159476 79.650340715253819 0 79.650340715253819 78.349910918490437 0 0 0 0 -276.89202518712409 74.152301684426575 0 74.152301684426575 70.592863927220918 0 0 0 0 -498.80628135869864 196.33549442117396 0 196.33549442117396 11.56097945766264 0 0 0 0 -204.38123044025451 222.02814456146953 0 222.02814456146953 -213.47970250029687 0 0 0 0 -15.755784718185168 58.79172080738519 0 58.79172080738519 -97.838166305707446 0 0 0 0 -25.166319403406305 38.032215451842887 0 38.032215451842887 -63.119274019999466 0 0 0 0 35.381816626187401 27.913199018568491 0 27.913199018568491 -95.502457814316529 0 0 0 0 -32.316596867840417 -34.194477200930294 0 -34.194477200930294 -33.174112483744693 0 0 0 0 1.7196865242125341 24.079786843533853 0 24.079786843533853 12.671946749143331 0 0 0 0 -0.98703098445585269 0.92205749963706651 0 0.92205749963706651 -1.2552419753153572 0 0 0 0 -494.10391282628558 78.935599889779624 0 78.935599889779624 -29.45097331436255 0 0 0 0 52.600127376028468 38.27846588337826 0 38.27846588337826 -208.3289846498202 0 0 0 0 -7.7403128990536061 0.38747733270292883 0 0.38747733270292883 0.11267254270802596 0 0 0 0 -6.1483572985071078 -0.82331351857817481 0 -0.82331351857817481 1.57517435596219 0 0 0 0 -4.108016235471041 0.036676655659675816 0 0.036676655659675816 -0.21920048605556985 0 0 0 0 -6.9942733910847892 -0.41716956685809237 0 -0.41716956685809237 1.1807223757343763 0 0 0 0 -3.6245354362805955 -0.68608021392891816 0 -0.68608021392891816 0.21225048953610465 0 0 0 0 -5.1150495804404272 -0.85165995604830869 0 -0.85165995604830869 0.92729416238489648 0 0 0 0 -5.703481014270892 -2.0159737801764948 0 -2.0159737801764948 1.8341924234462113 0 0 0 0 -4.3652087370719528 1.3282255459480439 0 1.3282255459480439 -5.1362991568391578 0 0 0 0 -0.39959500704966189 -0.11197419101158479 0 -0.11197419101158479 0.17027003744156533 0 0 0 0 22.478395129161072 -57.346703496094506 0 -57.346703496094506 8.6664393748992552 0 0 0 0 -4.42609084002288 -0.39324031861247022 0 -0.39324031861247022 -1.6032452030922286 0 0 0 0 -3.0471547143828772 -0.35330257515025565 0 -0.35330257515025565 1.0369887658560524 0 0 0 0 -3.5128326741833007 -2.2089432044658679 0 -2.2089432044658679 1.5720516094199297 0 0 0 0 -1.4038857146307517 -0.17836244699254777 0 -0.17836244699254777 0.5462771579483201 0 0 0 0 -4.3607856889841106 -0.077288980184190947 0 -0.077288980184190947 1.1712683922606004 0 0 0 0 -4.5126270027030841 -2.1630645530466381 0 -2.1630645530466381 -1.5068359754595519 0 0 0 0 -3.7306573103815026 -1.4819043439663346 0 -1.4819043439663346 1.049211641692068 0 0 0 0 -3.9530882746294083 -0.13435992466872904 0 -0.13435992466872904 0.021535791457495179 0 0 0 0 -4.259803744797388 -0.67079472433490483 0 -0.67079472433490483 0.6271548797577513 0 0 0 0 -4.4802108545172814 -0.057468955705076041 0 -0.057468955705076041 1.3450538599858248 0 0 0 0 -0.98892874362229399 -0.22594465352656989 0 -0.22594465352656989 -1.3914780762864178 0 0 0 0 -3.3006208259034793 -1.1922743618714549 0 -1.1922743618714549 -1.1061281882272809 0 0 0 0 -3.3145619440861083 -1.0004155707914606 0 -1.0004155707914606 -0.92418966306544803 0 0 0 0 -2.5020665408396781 -1.1189143202482796 0 -1.1189143202482796 1.1321925422823824 0 0 0 0 -3.1279096677819815 -0.70732592582568143 0 -0.70732592582568143 0.095510902845626439 0 0 0 0 -1.7957229523628655 -1.0616235615387168 0 -1.0616235615387168 -0.84132909084783425 0 0 0 0 -1.8257532987768172 -0.5437830780639672 0 -0.5437830780639672 -9.7027800740447674 0 0 0 0 -0.43188035028797067 0.1369447122349321 0 0.1369447122349321 -0.06710093156572805 0 0 0 0 -0.77537070384687468 -7.8179739982933256 0 -7.8179739982933256 -11.274836367196485 0 0 0 0 -3.4000638619681922 0.8574875567071274 0 0.8574875567071274 7.3703396238984169 0 0 0 0 -0.96620082648587413 0.47449675044754258 0 0.47449675044754258 0.086075439138767251 0 0 0 0 -1.5545871314032418 0.51014999559985119 0 0.51014999559985119 -0.054502129932030241 0 0 0 0 -0.59964819185552187 0.47968039244187821 0 0.47968039244187821 0.38426055072909548 0 0 0 0 -1.9920642754966664 0.15192218154183257 0 0.15192218154183257 -0.43897766332906729 0 0 0 0 -3.8489036445103535 -0.32349084741128742 0 -0.32349084741128742 0.16314494052957018 0 0 0 0 -67.994275048217787 -5.5002929862279188 0 -5.5002929862279188 0.60955117037383388 0 0 0 0 -29.536321156265331 31.958103485927268 0 31.958103485927268 -38.980643104422938 0 0 0 0 -0.47799394868649969 0.19799655157146656 0 0.19799655157146656 -0.14515336213163238 0 0 0 0 -39.731366255110515 -23.113474925778803 0 -23.113474925778803 -15.019421781935307 0 0 0 0 -65.313133558925983 -31.331830962866889 0 -31.331830962866889 -21.215573654664809 0 0 0 0 -88.857393138298448 23.888736688524261 0 23.888736688524261 0.8047146855592473 0 0 0 0 -43.993897193609882 9.3020072684021216 0 9.3020072684021216 4.7816680384362371 0 0 0 0 -49.902313882696035 27.129999319602348 0 27.129999319602348 4.2914996186800636 0 0 0 0 -29.790643503250976 32.483789215106299 0 32.483789215106299 -16.878584801523175 0 0 0 0 -21.040293541393112 21.749703974670069 0 21.749703974670069 4.2381362603773596 0 0 0 0 -34.653111225481553 9.7363184623714005 0 9.7363184623714005 9.8734574610875399 0 0 0 0 -53.771872311956031 -1.3690988266678232 0 -1.3690988266678232 13.539123570991251 0 0 0 0 -37.167303542266382 13.028154994738657 0 13.028154994738657 6.678227997799695 0 0 0 0 -42.13724364502923 4.0415167136017089 0 4.0415167136017089 0.28083098288914243 0 0 0 0 -2.5187837486374605 1.3778833722733737 0 1.3778833722733737 0.061644748529161575 0 0 0 0 -5.2755794427012006 7.1348401117684261 0 7.1348401117684261 0.53289534122995974 0 0 0 0 -3.2633290292382178 -0.0083904746281202591 0 -0.0083904746281202591 0.46176885576391236 0 0 0 0 -4.9520527160202619 -0.015742284961561381 0 -0.015742284961561381 0.93448554485712521 0 0 0 0 -2.4748272344621469 -0.046294232792579271 0 -0.046294232792579271 -0.1221343789332765 0 0 0 0 -0.73110232696853927 0.4746286146340708 0 0.4746286146340708 -0.035168003601029341 0 0 0 0 -2.6517979244454182 0.082435838799483463 0 0.082435838799483463 0.35143843476726033 0 0 0 0 -1.0266233814825938 0.50251750205600265 0 0.50251750205600265 -0.16562264815428152 0 0 0 0 -1.6843732090856065 6.4046961863859906 0 6.4046961863859906 -20.740094569768189 0 0 0 0 -1.6842945888322269 0.62246367348996934 0 0.62246367348996934 -0.25211385239329154 0 0 0 0 0.29369737309812649 0.45474669665441314 0 0.45474669665441314 -0.36169748540635061 0 0 0 0 -1.2164086005286663 0.20862226144117813 0 0.20862226144117813 -0.93608201552433457 0 0 0 0 -15.256764465444576 9.0996633511508662 0 9.0996633511508662 20.137792158900993 0 0 0 0 10.865121328359237 6.9120479589696515 0 6.9120479589696515 -22.011890574832705 0 0 0 0 -26.509805169558604 32.560634014152924 0 32.560634014152924 3.7349975382130651 0 0 0 0 -10.010161099954757 0.47927285013065557 0 0.47927285013065557 -0.46157380533759351 0 0 0 0 -3.6167198904909519 2.8435870906107947 0 2.8435870906107947 -0.2661839723997419 0 0 0 0 -3.9598071209200274 -0.58045980098694727 0 -0.58045980098694727 0.16524745431237875 0 0 0 0 -3.3762761343596139 17.894206161856005 0 17.894206161856005 1.4040540505945955 0 0 0 0 -42.648087405006663 -6.3928242749115611 0 -6.3928242749115611 -0.080280345820938237 0 0 0 0 -11.759227707136233 1.8143777818032731 0 1.8143777818032731 11.945950060806354 0 0 0 0 -20.806036677655356 -9.1063883349386288 0 -9.1063883349386288 16.144119364010521 0 0 0 0 -38.655561906787625 -9.884728452499985 0 -9.884728452499985 16.185873709793668 0 0 0 0 -29.054243075031991 1.0757686372480748 0 1.0757686372480748 13.692557581921051 0 0 0 0 -27.563776674729525 -0.69409920332918773 0 -0.69409920332918773 15.713410482851486 0 0 0 0 -22.19563414275035 11.226948572152651 0 11.226948572152651 9.923841229551293 0 0 0 0 -19.657234909740886 -2.7308853669021307 0 -2.7308853669021307 0.44961613142271561 0 0 0 0 -19.972658059607056 -0.27072861394071879 0 -0.27072861394071879 17.115771170396783 0 0 0 0 -24.033428982293117 1.3987619784013532 0 1.3987619784013532 16.861128954451942 0 0 0 0 22.210106082486618 -26.364415355548601 0 -26.364415355548601 7.1395218687180204 0 0 0 0 -28.86504882452391 -17.614316693908563 0 -17.614316693908563 72.241170357096053 0 0 0 0 -15.210757207743882 -17.157686365052541 0 -17.157686365052541 15.732096712806992 0 0 0 0 -10.700427450006828 -77.453207044564351 0 -77.453207044564351 61.939489273344861 0 0 0 0 9.6289897464921523 -51.433859143437303 0 -51.433859143437303 -42.764799019850443 0 0 0 0 -5.7745645851027554 0.44288040048567723 0 0.44288040048567723 0.61464297674112078 0 0 0 0 -23.434512242349228 -3.2309607655671471 0 -3.2309607655671471 0.22783947266793803 0 0 0 0 -7.4907771242897141 1.5537408266718362 0 1.5537408266718362 1.6706437033037309 0 0 0 0 -4.7739979586859045 -2.3667252239796781 0 -2.3667252239796781 0.22144177901130213 0 0 0 0 -23.440285736349807 -2.5438975710708434 0 -2.5438975710708434 0.29198757704762102 0 0 0 0 -9.2133888805105926 1.0184845667700415 0 1.0184845667700415 0.63040173881654482 0 0 0 0 -14.13339504104988 -2.9062052136514467 0 -2.9062052136514467 1.8438292084167642 0 0 0 0 -6.7028817678779333 1.0593770009637344 0 1.0593770009637344 -0.24110582938226144 0 0 0 0 -13.305083199056249 -1.7429636766469256 0 -1.7429636766469256 0.48851877600385207 0 0 0 0 -9.1514175994125253 0.61187309395745615 0 0.61187309395745615 -0.53197252001905326 0 0 0 0 -13.567429949485813 -1.7668476243967461 0 -1.7668476243967461 -1.6176161960902391 0 0 0 0 -8.5241359851157767 -2.1629671044364596 0 -2.1629671044364596 -0.015422804764634535 0 0 0 0 -5.7294425770778616 -1.7513984603042445 0 -1.7513984603042445 1.9398112146969879 0 0 0 0 -2.8825704941718868 -9.2480256780488617 0 -9.2480256780488617 1.4719548326906988 0 0 0 0 -6.2889135973466139 -1.0252255357327495 0 -1.0252255357327495 -0.47365415943149536 0 0 0 0 -6.8609569531765437 -1.8286056686728536 0 -1.8286056686728536 -0.4704058541592202 0 0 0 0 -7.8171492170085912 -2.1215349941222712 0 -2.1215349941222712 -0.6130459245723614 0 0 0 0 -4.1323569577665946 -1.7104602349933131 0 -1.7104602349933131 0.10443750513288919 0 0 0 0 -12.252167385096982 4.7930950703516828 0 4.7930950703516828 -5.3101039834714356 0 0 0 0 -19.036878017021081 4.434790207666083 0 4.434790207666083 -3.7136126378641166 0 0 0 0 -18.35562719450536 -1.1225109571146277 0 -1.1225109571146277 1.6027961029035396 0 0 0 0 -10.222851545466256 0.58255568605136432 0 0.58255568605136432 -2.3780427927690653 0 0 0 0 -9.1630589597511971 4.3425076224434633 0 4.3425076224434633 -5.4982471142038776 0 0 0 0 -47.045062804070767 26.406636837840779 0 26.406636837840779 -37.851866954100842 0 0 0 0 -6.6810723743046765 -3.005014787397613 0 -3.005014787397613 -2.6591081451877585 0 0 0 0 -3.9456806542370195 0.49770704868223792 0 0.49770704868223792 0.59265988897982247 0 0 0 0 -23.592540096346056 0.90399714950922316 0 0.90399714950922316 1.3822503281808167 0 0 0 0 -12.184482387860044 -10.322003750851309 0 -10.322003750851309 1.3918486155876053 0 0 0 0 -18.20758216278773 -9.0089014067470998 0 -9.0089014067470998 1.3184565855626715 0 0 0 0 -14.734506700619022 -0.99254513506764397 0 -0.99254513506764397 1.6074035318761162 0 0 0 0 -10.022867480668765 1.123014672485283 0 1.123014672485283 -0.33004957976072546 0 0 0 0 -8.6356622130115284 -4.1617668729497836 0 -4.1617668729497836 3.123150474974409 0 0 0 0 -9.12521334959456 -5.4511369459964953 0 -5.4511369459964953 4.9811908105567682 0 0 0 0 -3.8012627513107873 -2.0887688787338448 0 -2.0887688787338448 -0.87399739772536122 0 0 0 0 -4.3806719688309919 -2.4535260520448778 0 -2.4535260520448778 -1.1887494498348179 0 0 0 0 -11.832374695704857 -3.8858857929114947 0 -3.8858857929114947 4.156762093648922 0 0 0 0 -5.7339473553320204 -3.3555844809002338 0 -3.3555844809002338 -1.4350339760858333 0 0 0 0 -3.9620241584398173 -0.71950225193404549 0 -0.71950225193404549 2.0267395678706634 0 0 0 0 -1.8394667574580126 -0.4156073439240231 0 -0.4156073439240231 -1.1276498042502681 0 0 0 0 -4.0503737568912825 -1.9556981360768431 0 -1.9556981360768431 -0.6917448487103226 0 0 0 0 -2.8056399826973575 -1.5400953949214227 0 -1.5400953949214227 0.63490340885209662 0 0 0 0 15.644372507449589 -10.079818823638902 0 -10.079818823638902 -12.224663740279993 0 0 0 0 -0.42453507656830247 -0.56736936173697039 0 -0.56736936173697039 -0.75384993830561697 0 0 0 0 -7.1350719186666538 -9.644792226248228 0 -9.644792226248228 8.22954119280638 0 0 0 0 0.34147283650171545 -0.94748572949597332 0 -0.94748572949597332 -0.72485717997822796 0 0 0 0 15.207152405599118 6.9992259550124345 0 6.9992259550124345 7.8972233718008056 0 0 0 0 -3.1935482736480481 0.94855280477372617 0 0.94855280477372617 -3.6436509144338629 0 0 0 0 -0.23705202799828839 -1.3152179926089502 0 -1.3152179926089502 -4.631829533442783 0 0 0 0 -4.0504744830523123 -0.038480370396655417 0 -0.038480370396655417 -2.7199557898065905 0 0 0 0 -2.2455343339115643 -0.7153276157671371 0 -0.7153276157671371 -0.86237750567306648 0 0 0 0 -30.620621399735683 -5.4553398389213044 0 -5.4553398389213044 10.672001126447071 0 0 0 0 -83.602469488081624 -30.428240957071466 0 -30.428240957071466 -1.0577672596430148 0 0 0 0 -23.350487756009898 -29.120142853774212 0 -29.120142853774212 -4.0647594818091761 0 0 0 0 -8.0463936549372761 -28.795143836663954 0 -28.795143836663954 -18.287600010037977 0 0 0 0 -23.936427213736351 -19.339165222244219 0 -19.339165222244219 -9.4594648327442883 0 0 0 0 -6.1116772433797451 -5.7291709407130611 0 -5.7291709407130611 -11.820698593143334 0 0 0 0 7.6067200811612565 -16.691980651864242 0 -16.691980651864242 -21.654277920677941 0 0 0 0 -25.286453430961956 -2.3681619832676688 0 -2.3681619832676688 -53.145919903870663 0 0 0 0 -106.5973537988919 -86.516551814078284 0 -86.516551814078284 -139.29879144147571 0 0 0 0 -115.00733348311587 29.178761331890996 0 29.178761331890996 -29.194906880607277 0 0 0 0 -25.587371832043573 -2.3072726257062186 0 -2.3072726257062186 94.152075356905243 0 0 0 0 -147.20128754477264 -38.454882520270417 0 -38.454882520270417 86.747287544458686 0 0 0 0 -17.314013369230452 95.170561603040824 0 95.170561603040824 -98.366467326525878 0 0 0 0 9.8930483078429461 -11.674778034543692 0 -11.674778034543692 -16.577868974973626 0 0 0 0 0.93426546979050329 0.07962217498857127 0 0.07962217498857127 0.13709167426551738 0 0 0 0 5.0395815784768274 10.98781618483838 0 10.98781618483838 -11.172348045289482 0 0 0 0 -32.260876224211188 50.138420947731845 0 50.138420947731845 52.773568269493239 0 0 0 0 -6.2841296966042925 -0.806987491844112 0 -0.806987491844112 1.181703731908589 0 0 0 0 -10.097288723591191 -4.2570178355429107 0 -4.2570178355429107 1.4056353504081471 0 0 0 0 -11.092450790255498 -5.75070781939678 0 -5.75070781939678 0.99342793721598355 0 0 0 0 -4.7515381523844553 -2.2461084891710925 0 -2.2461084891710925 -1.2169577704019048 0 0 0 0 -31.342404758186603 26.124310566211079 0 26.124310566211079 36.14443946647998 0 0 0 0 -6.3475792772076147 1.9959976510807991 0 1.9959976510807991 1.5205492272241372 0 0 0 0 -0.769163304779795 -2.0148313815379879 0 -2.0148313815379879 0.5459908444828443 0 0 0 0 -4.4653573609156254 -1.7464577563065498 0 -1.7464577563065498 1.1239312169256275 0 0 0 0 1.8350249687173346 -6.3236766063823779 0 -6.3236766063823779 27.721918715431684 0 0 0 0 -3.5154994644793369 -1.3776467599144944 0 -1.3776467599144944 0.29809257366441155 0 0 0 0 -1.7032369331122936 -2.7435094718444475 0 -2.7435094718444475 -1.6053684424882704 0 0 0 0 -7.4956132230116737 -6.9319575529430466 0 -6.9319575529430466 -3.8329679858888994 0 0 0 0 -1.2375902500273597 -0.55376041092371953 0 -0.55376041092371953 -0.46121466991815385 0 0 0 0 -7.1980398740452074 -5.3774779605193999 0 -5.3774779605193999 -21.184801933451126 0 0 0 0 33.257690586218814 4.827078184050265 0 4.827078184050265 -18.148315786605053 0 0 0 0 -2.7006927289339728 -1.9952670026208352 0 -1.9952670026208352 -2.0037321386931808 0 0 0 0 -0.42932999186277598 -0.45755095153733905 0 -0.45755095153733905 -0.94413851686729 0 0 0 0 30.046343171903573 2.4760269814150888 0 2.4760269814150888 -9.1446048769948902 0 0 0 0 -8.4142602518932108 -4.7773801188319567 0 -4.7773801188319567 -0.92746912317443275 0 0 0 0 -2.6597428883574175 -0.34174613602451576 0 -0.34174613602451576 0.36786897003093122 0 0 0 0 -3.6382364658825388 -0.52927105234497285 0 -0.52927105234497285 0.92400607020400327 0 0 0 0 -4.8279513771030906 -1.9876753510776553 0 -1.9876753510776553 -0.33053670447391426 0 0 0 0 -2.0169733116479716 -2.0303658121131498 0 -2.0303658121131498 -1.0327467307466192 0 0 0 0 -3.4289982482296182 -0.72728735169039282 0 -0.72728735169039282 -0.75882938126142108 0 0 0 0 -8.7996895782162028 -5.8857227398291343 0 -5.8857227398291343 -4.112856576560489 0 0 0 0 -4.919794878975722 -2.0584379733827518 0 -2.0584379733827518 0.021181638778216438 0 0 0 0 -4.3992531408966897 0.33124444635245709 0 0.33124444635245709 0.62698973436386041 0 0 0 0 -4.4091023056500944 -1.8975600933826797 0 -1.8975600933826797 -1.0852460678658531 0 0 0 0 -5.1270327060615273 -1.4820468094117274 0 -1.4820468094117274 0.34033261689887695 0 0 0 0 -5.819462018741433 -2.5943721395415764 0 -2.5943721395415764 -1.1883803365225845 0 0 0 0 -4.4972236727408017 -2.7863834433260308 0 -2.7863834433260308 -2.3546160284422513 0 0 0 0 -3.9131708590553131 -2.8610648182218492 0 -2.8610648182218492 -1.1785034561026455 0 0 0 0 -4.0666098940228039 -2.237948904989878 0 -2.237948904989878 -3.0933417851183549 0 0 0 0 -1.9621486556431531 -1.3383330384704486 0 -1.3383330384704486 -0.41463740929274095 0 0 0 0 -6.8716321421143221 -0.070643769210960272 0 -0.070643769210960272 -1.9323315723055998 0 0 0 0 -5.3736430129029031 -1.8348908017971439 0 -1.8348908017971439 -1.0544565327051316 0 0 0 0 -4.386892073257286 -1.3827330458828868 0 -1.3827330458828868 -1.2398690318444778 0 0 0 0 30.260080347842404 -14.099779311811943 0 -14.099779311811943 10.818961899935402 0 0 0 0 2.3054591254017396 -8.971540115010157 0 -8.971540115010157 11.754512805673698 0 0 0 0 -2.5780762699164459 -1.0992151371284464 0 -1.0992151371284464 -0.18098232734742581 0 0 0 0 -2.4886985914235993 -1.9472904242365985 0 -1.9472904242365985 1.4478248021368927 0 0 0 0 7.9322555828766781 0.43159553802593109 0 0.43159553802593109 -2.3001855934940068 0 0 0 0 -0.50798288204496522 -0.28462704244860326 0 -0.28462704244860326 -0.12570301336303435 0 0 0 0 -4.6112680260794505 -1.7454386130184059 0 -1.7454386130184059 -0.58695045755984654 0 0 0 0 -3.593416788671675 -10.45785871230305 0 -10.45785871230305 -0.50673211780656402 0 0 0 0 -3.5843191641688463 -11.338422939949282 0 -11.338422939949282 -7.3213529012813012 0 0 0 0 -21.585853599932307 -5.7314735976490283 0 -5.7314735976490283 -0.85705534710392328 0 0 0 0 -7.9709680238302099 -1.0738769079123358 0 -1.0738769079123358 3.1190159711368324 0 0 0 0 -10.989392704624152 6.0276653030563807 0 6.0276653030563807 -6.585037418684351 0 0 0 0 0.13821323978171662 0.44526431046094239 0 0.44526431046094239 0.36213324387330337 0 0 0 0 -11.59956644603335 -10.889255068049238 0 -10.889255068049238 -9.9666364905799583 0 0 0 0 -12.297243195911506 4.6076549458297222 0 4.6076549458297222 4.3207568291186362 0 0 0 0 -4.4248550761156427 -0.49111765030367582 0 -0.49111765030367582 0.86069358577599442 0 0 0 0 -6.7133387242730578 -2.5322964133420705 0 -2.5322964133420705 -0.1599493113991457 0 0 0 0 -11.076393739287141 -3.3351721249926811 0 -3.3351721249926811 -0.42974152113004038 0 0 0 0 -4.5332083388471283 -3.0723476803285426 0 -3.0723476803285426 -0.97436956544166842 0 0 0 0 -11.058163441485704 -3.3624743608826577 0 -3.3624743608826577 -3.7289084028350885 0 0 0 0 -3.9747492977207912 -0.65770643417623376 0 -0.65770643417623376 0.25418637665237043 0 0 0 0 -4.941109637798534 1.3590740183707721 0 1.3590740183707721 1.6701105884606253 0 0 0 0 68.932217325187594 -6.4335831948889393 0 -6.4335831948889393 -18.134756822178275 0 0 0 0 -1.6304232386800335 0.24383615314248885 0 0.24383615314248885 -0.13344850196938607 0 0 0 0 -15.212049491423386 0.38921570330889921 0 0.38921570330889921 -1.2395652079437873 0 0 0 0 2.3579504420062882 0.62638838391780105 0 0.62638838391780105 -0.35333909613031556 0 0 0 0 -12.467449020231925 -3.5691152025119024 0 -3.5691152025119024 2.3064942583722683 0 0 0 0 -1.3941683986722964 -0.60903557462096636 0 -0.60903557462096636 1.4622971184771718 0 0 0 0 -8.0591185316034171 -2.0047453046513155 0 -2.0047453046513155 -2.430701263999044 0 0 0 0 0.0027667362679291152 0.078749930621895281 0 0.078749930621895281 1.0399903211304546 0 0 0 0 -2.9418634710655169 -5.579630907278073 0 -5.579630907278073 2.6443716350693052 0 0 0 0 -20.630594214032044 -3.2217416509782879 0 -3.2217416509782879 8.1804951884357706 0 0 0 0 -19.618997025820363 -2.9659537741106767 0 -2.9659537741106767 7.7630019421893621 0 0 0 0 0.18986042981850915 2.4558104498266289 0 2.4558104498266289 -3.0448374307164272 0 0 0 0 -11.549362494317393 8.8179424920190854 0 8.8179424920190854 1.8001021328409479 0 0 0 0 -15.272588657901679 -4.0297746341886409 0 -4.0297746341886409 0.17448660182128606 0 0 0 0 -6.0423659005361969 -2.1455823180234717 0 -2.1455823180234717 -0.25232284710284603 0 0 0 0 -7.8312416188140332 -8.9913486707414663 0 -8.9913486707414663 1.4457408062980335 0 0 0 0 -0.24528206058585056 -2.2560641322939148 0 -2.2560641322939148 -3.1021034272904195 0 0 0 0 -2.9502703023328714 -3.2648125343104173 0 -3.2648125343104173 -2.9533427062579367 0 0 0 0 -19.779625819181092 -10.051071416344143 0 -10.051071416344143 1.1745178469796826 0 0 0 0 -2.8995942688875402 -1.0783972775728117 0 -1.0783972775728117 -0.70639496826604109 0 0 0 0 -0.76076614065277681 7.738819642164799 0 7.738819642164799 -3.3469159065482472 0 0 0 0 -15.007088156862665 -11.855447440540445 0 -11.855447440540445 -6.0982211715486727 0 0 0 0 1.595899907065359 -10.429589222104717 0 -10.429589222104717 0.53087069815912002 0 0 0 0 -2.4428253696713291 -2.2486850312235189 0 -2.2486850312235189 -1.8969029757965206 0 0 0 0 -2.6498862361968349 1.6534961152297001 0 1.6534961152297001 -5.8729598030763555 0 0 0 0 -0.025931848441997474 -0.054306186809832013 0 -0.054306186809832013 -0.097061067153825675 0 0 0 0 -2.6810320275817503 2.3892796874615669 0 2.3892796874615669 -1.0345534944391375 0 0 0 0 -2.0442036838310287 0.40904570509870553 0 0.40904570509870553 0.0094755691671934983 0 0 0 0 -1.4397946227290959 0.014803080273509295 0 0.014803080273509295 -8.1638249701527457 0 0 0 0 -2.2594577632135042 -0.63195415381704834 0 -0.63195415381704834 -4.8433489538367667 0 0 0 0 -4.660938437713412 1.9448997967225523 0 1.9448997967225523 0.0081100932918616309 0 0 0 0 0.1152889724828321 0.031874137080666998 0 0.031874137080666998 -0.90704085291510506 0 0 0 0 1.5532210847363785 -0.98340627685195159 0 -0.98340627685195159 -4.2972117114460104 0 0 0 0 -6.8017090236189688 -1.2887154498212539 0 -1.2887154498212539 4.033689341128138 0 0 0 0 -2.2680298289669736 -0.85557094727565186 0 -0.85557094727565186 -1.4540323744070065 0 0 0 0 -5.6269167026775904 -6.4322256508413034 0 -6.4322256508413034 -8.0850318624742386 0 0 0 0 -4.8232332240440883 -2.4651118122949072 0 -2.4651118122949072 -0.87057224199890015 0 0 0 0 -4.3726208381194738 -3.43584746132899 0 -3.43584746132899 -1.1696222385453652 0 0 0 0 -5.6859393815129806 -2.2137863244880407 0 -2.2137863244880407 -0.93768177342252557 0 0 0 0 -2.097572594328085 -2.4658517252330228 0 -2.4658517252330228 -1.8080117187483893 0 0 0 0 -0.47439309524973261 -0.48130343659044605 0 -0.48130343659044605 -0.43635313607185622 0 0 0 0 -3.0596244632706657 -4.1812260973679258 0 -4.1812260973679258 0.15623423028625893 0 0 0 0 -4.6408276387360274 -1.9454008305374799 0 -1.9454008305374799 -1.5005493255287092 0 0 0 0 -1.7937463752414011 -1.6584409919355014 0 -1.6584409919355014 -1.3298320827863599 0 0 0 0 -4.293486044571182 -2.0948849506541762 0 -2.0948849506541762 -1.6805832757106884 0 0 0 0 -4.517615246306832 -2.135718909509734 0 -2.135718909509734 -1.4698216377547624 0 0 0 0 -4.2779315783391212 -2.4507685529819696 0 -2.4507685529819696 -1.2156721233720305 0 0 0 0 -39.408791254772723 -3.5680738899081348 0 -3.5680738899081348 3.5781949170072949 0 0 0 0 -40.118562630241286 -0.9042148483163146 0 -0.9042148483163146 0.99064119525803562 0 0 0 0 -29.422376255455674 -6.4638352883898733 0 -6.4638352883898733 2.6795398116623801 0 0 0 0 -47.545751039332572 -8.4150166010685439 0 -8.4150166010685439 2.738277558412392 0 0 0 0 -28.003681031912492 -3.161041296761482 0 -3.161041296761482 1.2935642731697499 0 0 0 0 -24.471072660831851 -17.972470667049265 0 -17.972470667049265 -13.545765353869911 0 0 0 0 -7.927118817842711 1.6403949729850638 0 1.6403949729850638 -4.6968951907899736 0 0 0 0 -18.971417642040251 -4.8920940210666686 0 -4.8920940210666686 -0.94867023292897557 0 0 0 0 -0.71261103119576674 -1.274703117586732 0 -1.274703117586732 -2.0566350433905685 0 0 0 0 -33.377971337959025 7.1228753587456026 0 7.1228753587456026 -0.76678349428857473 0 0 0 0 -46.790791613497277 -3.0209223626050061 0 -3.0209223626050061 6.4852584347399613 0 0 0 0 -39.528340421020403 -2.5746853035110462 0 -2.5746853035110462 6.4060438049700679 0 0 0 0 -49.514812034180977 7.0554526514393956 0 7.0554526514393956 0.67429198140774815 0 0 0 0 2.5977516830669174 -6.7401773912655187 0 -6.7401773912655187 4.032734742676098 0 0 0 0 -1.189238701497743 0.88199091353175163 0 0.88199091353175163 -1.807577384125068 0 0 0 0 -0.64062203661201167 -0.87060221099036461 0 -0.87060221099036461 -1.1645532788629342 0 0 0 0 -3.5434232757829704 -0.15298288043658204 0 -0.15298288043658204 -2.9969131433733764 0 0 0 0 -3.6999107213696334 2.5346205982823449 0 2.5346205982823449 7.0342723547548189 0 0 0 0 11.461549749649748 -17.254718415537809 0 -17.254718415537809 -7.2315486767656694 0 0 0 0 -129.28599351626872 21.913222305020213 0 21.913222305020213 3.9083340920559522 0 0 0 0 -52.057766359159814 12.725150011451007 0 12.725150011451007 -10.981511454246174 0 0 0 0 -0.21615477703575792 -0.24880221237084221 0 -0.24880221237084221 -0.45141853659675935 0 0 0 0 -110.84353194542746 2.6534385996891388 0 2.6534385996891388 16.124045772840191 0 0 0 0 -53.944470766080485 -43.866318526547275 0 -43.866318526547275 -17.536977363423148 0 0 0 0 -16.830299629550154 -6.7745478737667213 0 -6.7745478737667213 1.4310516599030052 0 0 0 0 -19.067915713719231 -3.5398775954736266 0 -3.5398775954736266 -1.1914866791132681 0 0 0 0 -13.416519168931245 -2.5361101371406676 0 -2.5361101371406676 -1.1649493683580658 0 0 0 0 -61.461117892431503 -17.444157030930342 0 -17.444157030930342 -0.032005267886233923 0 0 0 0 -20.359305894999125 11.34444473767644 0 11.34444473767644 -5.5616540074022396 0 0 0 0 -25.263937494135462 17.592700403912886 0 17.592700403912886 -1.5563612881746849 0 0 0 0 -52.09582988416787 -0.22291031854538801 0 -0.22291031854538801 9.9022785172213617 0 0 0 0 -62.943805182981123 -15.82970403586944 0 -15.82970403586944 -1.4718827892322679 0 0 0 0 -120.94397806763118 -63.317393474086998 0 -63.317393474086998 -36.165541178564581 0 0 0 0 -102.91597084302521 21.23630103600658 0 21.23630103600658 23.95920800261365 0 0 0 0 -73.825915604982583 8.617405791425881 0 8.617405791425881 5.167854340534177 0 0 0 0 6.8597532481553571 43.792940972133579 0 43.792940972133579 -12.31131393682017 0 0 0 0 -18.52900978928119 45.268600911467274 0 45.268600911467274 8.4645409023664797 0 0 0 0 -70.979161126459076 37.740139904485886 0 37.740139904485886 13.129321084467847 0 0 0 0 -169.645067587222 -23.786845329432026 0 -23.786845329432026 -23.274247727118563 0 0 0 0 3.8338084969982447 -41.115064198508833 0 -41.115064198508833 5.914213504705458 0 0 0 0 -58.373895405007715 -107.40316151364505 0 -107.40316151364505 18.005176578190913 0 0 0 0 -0.58521831458869045 -1.0791354199665921 0 -1.0791354199665921 -0.84247334493797776 0 0 0 0 -0.42332931699973209 -0.54581433071000873 0 -0.54581433071000873 -0.75525494009563676 0 0 0 0 -101.45030555734411 -136.94281468924282 0 -136.94281468924282 -74.294639198959885 0 0 0 0 -145.21240673888246 -80.431316029046329 0 -80.431316029046329 -71.174778101150423 0 0 0 0 -159.40139898067173 -102.25488357341237 0 -102.25488357341237 -159.88378790066781 0 0 0 0 -186.8113833051284 -99.426550329455722 0 -99.426550329455722 -67.110149516732235 0 0 0 0 -158.52600901278856 -94.008093765780814 0 -94.008093765780814 -84.155055482651278 0 0 0 0 -176.63582577249872 -73.191774028594182 0 -73.191774028594182 -19.743718325792088 0 0 0 0 2.5298259111004882 -80.196507492386104 0 -80.196507492386104 100.00385343245438 0 0 0 0 13.029803321506961 -25.731226426127449 0 -25.731226426127449 31.114273538953171 0 0 0 0 -2.0574333886412877 -1.9214732092312459 0 -1.9214732092312459 -1.0982684862300998 0 0 0 0 18.722098333099893 -12.04925125720888 0 -12.04925125720888 54.033614551015944 0 0 0 0 12.032107362147144 5.5951556100278594 0 5.5951556100278594 49.958733904854171 0 0 0 0 23.398210057041069 2.2215005421387559 0 2.2215005421387559 39.891470468183229 0 0 0 0 31.750776130104896 2.0695193459489474 0 2.0695193459489474 33.354437094904142 0 0 0 0 4.7278909176202433 -15.955445033280114 0 -15.955445033280114 21.83776329035004 0 0 0 0 8.6528212340454047 -7.0876140154266523 0 -7.0876140154266523 16.900018592250035 0 0 0 0 21.101633580983162 8.6387791026290301 0 8.6387791026290301 23.642841041224074 0 0 0 0 -33.591569792872178 -3.1915032331335169 0 -3.1915032331335169 26.31622111210487 0 0 0 0 5.7829701776126967 -20.535330619292381 0 -20.535330619292381 -7.1426963213723411 0 0 0 0 9.3041473260689145 -18.28377777685256 0 -18.28377777685256 13.006013282280264 0 0 0 0 15.799897966044227 -9.6141289584617198 0 -9.6141289584617198 -1.7069531484360141 0 0 0 0 5.7420301531128644 -9.3523839913329994 0 -9.3523839913329994 26.82013520466171 0 0 0 0 7.0521831092692082 -7.2336727139613686 0 -7.2336727139613686 11.667457618576236 0 0 0 0 -3.2260782929743073 -7.9103476798987913 0 -7.9103476798987913 7.6261738168120132 0 0 0 0 9.3804490801469456 -10.10391310325744 0 -10.10391310325744 5.1538936122701671 0 0 0 0 -0.69104642611788547 0.17306914164639409 0 0.17306914164639409 0.1054635954110128 0 0 0 0 -2.3787706730326321 -0.17580194223796219 0 -0.17580194223796219 -0.67976425496094772 0 0 0 0 14.389467792975665 -9.7654077145709834 0 -9.7654077145709834 -6.1705195190879749 0 0 0 0 -7.5499585132693028 -6.4900239192758136 0 -6.4900239192758136 -7.7301130849346009 0 0 0 0 -0.1020873976398331 0.077346264228741468 0 0.077346264228741468 -0.40909894261871083 0 0 0 0 23.363629988122739 12.44618328962639 0 12.44618328962639 -19.122761886553235 0 0 0 0 3.8588826200348194 1.4959161006440809 0 1.4959161006440809 -6.6122465004783253 0 0 0 0 -0.63118415873759659 1.0526961582850163 0 1.0526961582850163 -0.8436219671057188 0 0 0 0 -1.055772339955551 -1.2588342158384425 0 -1.2588342158384425 -1.7795642969816021 0 0 0 0 1.0627297618398188 3.6589804947164168 0 3.6589804947164168 -3.9301322769563285 0 0 0 0 -0.40174994693850596 -0.055564026372152853 0 -0.055564026372152853 -1.580448007918815 0 0 0 0 -5.7737014329441081 4.4719631905886672 0 4.4719631905886672 -6.0301134478156655 0 0 0 0 -5.0375689066295308 0.76367748907568966 0 0.76367748907568966 3.0180648620056445 0 0 0 0 -3.5579759086733702 1.0565114767413206 0 1.0565114767413206 -2.2344555542117064 0 0 0 0 6.1975388503196882 -3.3642069528293632 0 -3.3642069528293632 1.5592252346054281 0 0 0 0 -0.56868754539209476 2.2755307854496891 0 2.2755307854496891 -0.93302722844759955 0 0 0 0 -1.0555238188298972 1.1808105609875099 0 1.1808105609875099 -0.1361550358774366 0 0 0 0 -1.5769065580431576 -1.1725305194191913 0 -1.1725305194191913 -0.82836250013437251 0 0 0 0 -0.36570285446213191 0.083552011668035497 0 0.083552011668035497 -0.53244865612937553 0 0 0 0 -7.7258168448552169 0.099103312157581058 0 0.099103312157581058 -0.48994182106002881 0 0 0 0 4.854319460878628 -7.5998624555991867 0 -7.5998624555991867 5.9726970270312449 0 0 0 0 2.722566352847025 -4.076581642489657 0 -4.076581642489657 0.20894984834168362 0 0 0 0 -7.5969482347613848 -1.0712631046838155 0 -1.0712631046838155 -4.1092987023904755 0 0 0 0 -4.4168733364297168 -7.8254681336486129 0 -7.8254681336486129 9.3346731632495903 0 0 0 0 0.49295498220908485 -8.4064656808084237 0 -8.4064656808084237 9.2583394846448073 0 0 0 0 -14.116708399199524 -8.8390106174662151 0 -8.8390106174662151 21.99286832477344 0 0 0 0 0.85906034146546517 -10.001630960755904 0 -10.001630960755904 15.021282781459604 0 0 0 0 9.036546784890561 -8.5210665220101873 0 -8.5210665220101873 5.1606244535812493 0 0 0 0 -17.650458367590431 -12.456417043892237 0 -12.456417043892237 11.871375098736905 0 0 0 0 -24.849036473240176 -0.4466669543963917 0 -0.4466669543963917 16.422315214905211 0 0 0 0 7.1063905439305017 -8.0457069454739667 0 -8.0457069454739667 10.276248134222783 0 0 0 0 67.183250841205108 -23.483546119234973 0 -23.483546119234973 -21.922745560324074 0 0 0 0 -30.99276868352581 -3.5072342316365734 0 -3.5072342316365734 19.672078701072337 0 0 0 0 33.261895852421731 -3.6117789743327648 0 -3.6117789743327648 25.552092765239991 0 0 0 0 -0.066473178201667649 0.19832534789234746 0 0.19832534789234746 0.41093771114281985 0 0 0 0 -0.79835561500703811 -0.57880719422237137 0 -0.57880719422237137 -0.30922036804587782 0 0 0 0 -10.403715862918943 -17.539947220601107 0 -17.539947220601107 29.007453720712988 0 0 0 0 -9.0605602924165396 16.803196478086932 0 16.803196478086932 -65.359409719421706 0 0 0 0 -71.754191580397219 -43.529084609837184 0 -43.529084609837184 23.750680673983425 0 0 0 0 13.156140543496349 -62.584845488620886 0 -62.584845488620886 -1.2551615724889871 0 0 0 0 -86.509364690502366 34.461157082728327 0 34.461157082728327 1.8734100016067714 0 0 0 0 -76.487167664191702 24.662975302270894 0 24.662975302270894 21.702957230610082 0 0 0 0 -17.419911443027559 -20.897658725095198 0 -20.897658725095198 108.86282556584644 0 0 0 0 0.25951077128625055 -0.031544916413309032 0 -0.031544916413309032 -0.13124644591150858 0 0 0 0 -66.100002524606339 46.405832353761241 0 46.405832353761241 49.862032752271602 0 0 0 0 -23.088742145400374 24.73629906462935 0 24.73629906462935 60.642035991610896 0 0 0 0 -54.511344260531587 17.753350611987514 0 17.753350611987514 62.364856199801238 0 0 0 0 -30.49752001390425 35.742163386573225 0 35.742163386573225 9.2678898111346371 0 0 0 0 -19.190422717325873 25.417390128633429 0 25.417390128633429 18.92111021600715 0 0 0 0 -50.454700348035033 37.146666296896768 0 37.146666296896768 62.815824488492581 0 0 0 0 9.1778289572357608 -13.548282219817281 0 -13.548282219817281 13.972081693610335 0 0 0 0 -1.7295407936103402 -18.570606593624802 0 -18.570606593624802 26.562541286500846 0 0 0 0 -2.1845560187149573 -1.4938444799646673 0 -1.4938444799646673 -0.67157606025478866 0 0 0 0 3.9627902900995196 -24.026993341794679 0 -24.026993341794679 75.863334060776992 0 0 0 0 -57.396438806821152 -53.981176741734089 0 -53.981176741734089 165.79369592796394 0 0 0 0 -60.252997874643825 25.081117330433926 0 25.081117330433926 83.877449601388435 0 0 0 0 -47.934916818806414 44.588507744396281 0 44.588507744396281 81.03103574608366 0 0 0 0 -21.524462949582357 26.305280138455828 0 26.305280138455828 -39.725854548382586 0 0 0 0 -37.452098732295326 -35.664314109772647 0 -35.664314109772647 -93.553598249520576 0 0 0 0 -169.48782876251971 -54.768550922850011 0 -54.768550922850011 -62.155336907214632 0 0 0 0 -146.01246411144643 -120.24734132229382 0 -120.24734132229382 90.716957893497124 0 0 0 0 -60.119022541857589 34.145943314803617 0 34.145943314803617 17.903626695910475 0 0 0 0 -72.433254219841729 15.142922013220584 0 15.142922013220584 4.2170165672380904 0 0 0 0 -42.945953721387923 23.251513781165556 0 23.251513781165556 -51.826351728583404 0 0 0 0 -84.676676303116437 1.6650168456882284 0 1.6650168456882284 -57.64338763148595 0 0 0 0 -44.428597022387521 22.495092944585622 0 22.495092944585622 -101.89853230050903 0 0 0 0 -70.958093135534909 39.165357826584682 0 39.165357826584682 -114.75682814444514 0 0 0 0 -73.23919397640293 41.372257349589859 0 41.372257349589859 -113.38797441403449 0 0 0 0 -113.00364142274475 22.360783412747992 0 22.360783412747992 -72.537657286504327 0 0 0 0 -98.421352127138334 87.607304534978539 0 87.607304534978539 -190.90470272860534 0 0 0 0 -34.358471262636613 39.732787751762999 0 39.732787751762999 -180.85830451957 0 0 0 0 -39.056297250700709 41.361850793048916 0 41.361850793048916 -180.92162307327862 0 0 0 0 -97.423490262580742 -13.732576671965333 0 -13.732576671965333 -53.418854817553552 0 0 0 0 -173.43050990872507 39.270482581535362 0 39.270482581535362 -61.967440209921335 0 0 0 0 -243.49679215868264 133.32949635316629 0 133.32949635316629 -184.39289523651428 0 0 0 0 -266.3973562599183 -106.34931063370004 0 -106.34931063370004 -68.146440949463567 0 0 0 0 3.7133966920291641 8.6707077077964527 0 8.6707077077964527 -33.212714418934979 0 0 0 0 42.620886967416538 -140.87620981992296 0 -140.87620981992296 15.190339412225057 0 0 0 0 -1.4127668350027101 -2.3420878934124696 0 -2.3420878934124696 -2.5858289209694738 0 0 0 0 42.937924533453952 -129.1938653610307 0 -129.1938653610307 46.290572532887154 0 0 0 0 69.503357667423643 14.268071852481398 0 14.268071852481398 -90.274237888072321 0 0 0 0 -0.50692611413830413 -1.1092574887337001 0 -1.1092574887337001 -1.4860775717746124 0 0 0 0 -117.26748878899343 -21.951267132007615 0 -21.951267132007615 90.540942584803702 0 0 0 0 -125.02618687003815 -81.962311549892775 0 -81.962311549892775 76.801400018297443 0 0 0 0 -41.451372397044906 8.2511957121896558 0 8.2511957121896558 37.173422527350453 0 0 0 0 -48.584798030892443 -74.041674201265153 0 -74.041674201265153 -87.017605326832381 0 0 0 0 -75.030952255143802 -102.97717135943816 0 -102.97717135943816 -62.591098712518487 0 0 0 0 -106.89349849814062 -28.493344342972932 0 -28.493344342972932 16.60177705145702 0 0 0 0 -130.19052884640951 0.19859259140639551 0 0.19859259140639551 9.7483579211514098 0 0 0 0 -80.7673136505 4.8403330305873169 0 4.8403330305873169 -39.692237978068079 0 0 0 0 -100.39883368492883 -8.235700071928477 0 -8.235700071928477 -43.57022258194047 0 0 0 0 -132.99225548610093 -3.753230233402121 0 -3.753230233402121 -44.181052223470033 0 0 0 0 -96.973651754218736 -11.075260667392968 0 -11.075260667392968 -98.702318079799113 0 0 0 0 -165.55742357783311 -17.41348609049237 0 -17.41348609049237 -44.954386447215597 0 0 0 0 -121.90322191334053 -21.218963610520973 0 -21.218963610520973 -105.53112080205256 0 0 0 0 -178.87571880845644 -21.885247489857193 0 -21.885247489857193 -101.9579948957894 0 0 0 0 -178.87733397427291 -48.789494551219263 0 -48.789494551219263 -146.42343898516901 0 0 0 0 -131.34995350432655 -65.501804905574772 0 -65.501804905574772 -162.18059399383628 0 0 0 0 -119.23864467959902 -45.344272201484159 0 -45.344272201484159 -150.21216560505673 0 0 0 0 -124.59226796412167 -49.312627264113985 0 -49.312627264113985 -88.419839159027106 0 0 0 0 -54.929649943905133 -128.36360224282612 0 -128.36360224282612 -195.05469340600666 0 0 0 0 -122.56762691804215 -110.12099378040148 0 -110.12099378040148 -103.16956614608171 0 0 0 0 -233.78549237281914 -100.84870242375064 0 -100.84870242375064 -103.94139520592176 0 0 0 0 -153.21938298916575 -20.641504032186276 0 -20.641504032186276 -203.97140319361915 0 0 0 0 -228.04380735124323 -125.7540559663513 0 -125.7540559663513 -214.25265381922236 0 0 0 0 -141.87701701875631 -217.70843473154264 0 -217.70843473154264 -120.49594700304124 0 0 0 0 54.275969691988394 -62.769524954979829 0 -62.769524954979829 -178.23081130441005 0 0 0 0 67.987360723196616 -85.83914925793988 0 -85.83914925793988 -172.40493857376219 0 0 0 0 48.257150707984692 -78.099428080081225 0 -78.099428080081225 -212.12832189866299 0 0 0 0 61.363183688889876 -55.71047664060734 0 -55.71047664060734 -152.30472726666858 0 0 0 0 -45.349148419221805 -182.2681829549476 0 -182.2681829549476 -102.2802636219169 0 0 0 0 112.28304409993189 -49.853373957906911 0 -49.853373957906911 -151.51683288435254 0 0 0 0 -0.57447902880906021 -1.2106407802966981 0 -1.2106407802966981 -1.5258214694831191 0 0 0 0 115.37114508810237 -39.046148228169329 0 -39.046148228169329 -137.71884470032546 0 0 0 0 -7.2012460720316085 -20.527761991426587 0 -20.527761991426587 17.909847662256254 0 0 0 0 -142.59356749471408 -63.444476459646026 0 -63.444476459646026 71.119743579183421 0 0 0 0 -499.04700974029492 -29.381736713337911 0 -29.381736713337911 69.227075723252312 0 0 0 0 0.97781259013027011 2.5653562743633813 0 2.5653562743633813 -2.6465042453245928 0 0 0 0 -1.1291681731872814 1.9348599064621794 0 1.9348599064621794 0.54471186197019961 0 0 0 0 -1.1823763812274617 2.3119376461838232 0 2.3119376461838232 -1.8465272034535278 0 0 0 0 -56.957144267616286 70.411180462366573 0 70.411180462366573 -78.571043151617758 0 0 0 0 -1.9092427735638466 1.9669051105074686 0 1.9669051105074686 -1.8011384106073933 0 0 0 0 -499.0995426471618 156.75414967618025 0 156.75414967618025 12.218930625662802 0 0 0 0 -22.063964877651415 56.246951777322096 0 56.246951777322096 -25.341207703700974 0 0 0 0 -0.99454041371036794 0.57091156904130003 0 0.57091156904130003 -0.61665536338961058 0 0 0 0 -497.73318831386769 1.6126995132101902 0 1.6126995132101902 -0.69105180363356422 0 0 0 0 -0.86374598493421217 0.11180972775630593 0 0.11180972775630593 -4.381601736834928 0 0 0 0 -2.0558881718635682 1.2160466696315968 0 1.2160466696315968 -0.74690802404656087 0 0 0 0 -499.28902743485611 -228.02743417577179 0 -228.02743417577179 25.106015479513296 0 0 0 0 -312.67193599672464 -250.64455952490329 0 -250.64455952490329 -203.22471259390235 0 0 0 0 -0.99037449080494966 -0.15957376847242877 0 -0.15957376847242877 -0.27383726161499661 0 0 0 0 62.216751519215904 -70.081352645406341 0 -70.081352645406341 -89.283507881577677 0 0 0 0 -0.57600197141051268 0.13695078472206568 0 0.13695078472206568 0.044665209347991924 0 0 0 0 -309.20597269278323 -140.06673479373782 0 -140.06673479373782 42.211064984858048 0 0 0 0 -349.83468995364638 -63.843329566669311 0 -63.843329566669311 121.24944825269797 0 0 0 0 -4.1139610585096307 3.4811103253407794 0 3.4811103253407794 -1.859745052781193 0 0 0 0 -4.8265877038977045 3.3404568806742336 0 3.3404568806742336 -1.4000409342624442 0 0 0 0 -24.52072303832756 -0.93961885260517874 0 -0.93961885260517874 15.806457994303344 0 0 0 0 -1.3139040187301116 -0.23540000739671996 0 -0.23540000739671996 0.78964476955960317 0 0 0 0 41.245656705745205 100.49267426733809 0 100.49267426733809 57.49217327109919 0 0 0 0 6.5593890098698466 -36.911220757304264 0 -36.911220757304264 27.017379899518446 0 0 0 0 -97.966187036468 14.979461763445613 0 14.979461763445613 60.995617813062687 0 0 0 0 -2.3609464002721268 0.63929297141994557 0 0.63929297141994557 -0.013292924043156393 0 0 0 0 -2.0141168603149708 0.51687780245367776 0 0.51687780245367776 0.42751521511317492 0 0 0 0 -3.3776215621421386 1.3581341444700747 0 1.3581341444700747 -0.55221777596614874 0 0 0 0 -4.6074421495286515 3.8105445658303836 0 3.8105445658303836 -0.39098809353464503 0 0 0 0 -8.9155319608790933 -33.248313241431312 0 -33.248313241431312 34.519091879510569 0 0 0 0 -5.1717297615014104 2.4364192482370584 0 2.4364192482370584 -1.6087804923199513 0 0 0 0 -1.9111135686071918 1.1865818701319233 0 1.1865818701319233 -0.82578032629919162 0 0 0 0 -2.125850138197646 3.9135070963569376 0 3.9135070963569376 -2.385622781735897 0 0 0 0 11.4547801015608 10.915219713205772 0 10.915219713205772 -11.529587439527859 0 0 0 0 -11.285210555518233 23.423175113169066 0 23.423175113169066 -18.955713857783394 0 0 0 0 -2.1246094964876647 7.1379922215446072 0 7.1379922215446072 2.8492163611888373 0 0 0 0 -5.7117923563254465 4.3052970372245776 0 4.3052970372245776 -1.6126280478031703 0 0 0 0 0.22758070450345258 16.96890550209946 0 16.96890550209946 -2.9709789470908277 0 0 0 0 -13.571016136532762 8.4829073714837477 0 8.4829073714837477 5.9384175648040127 0 0 0 0 -22.049264713467892 8.7912133580329055 0 8.7912133580329055 7.6893936500109703 0 0 0 0 -11.973474920103399 -1.4216700930741695 0 -1.4216700930741695 5.247462665608964 0 0 0 0 -18.063183869584464 11.018680338209265 0 11.018680338209265 7.8920589028523409 0 0 0 0 -37.604843307661639 -3.3466049571053418 0 -3.3466049571053418 6.3675942276627211 0 0 0 0 -39.911762359069144 16.490799707584074 0 16.490799707584074 6.5481476668917935 0 0 0 0 -32.943532163272721 2.9966686485532961 0 2.9966686485532961 -4.0640086868611434 0 0 0 0 -37.170134506993691 16.429476320617027 0 16.429476320617027 -5.9964240462672933 0 0 0 0 -32.679117302063787 8.1503760524432209 0 8.1503760524432209 -7.6484213614324972 0 0 0 0 -29.376787197690646 13.843560854994848 0 13.843560854994848 0.93033511691601234 0 0 0 0 -26.745862036088511 6.0393277067671534 0 6.0393277067671534 -2.0122864761588062 0 0 0 0 0.25248251640032304 0.22603450981522899 0 0.22603450981522899 -0.46732067801059118 0 0 0 0 2.1560183899541698 -1.222303041314774 0 -1.222303041314774 -1.6441393593002545 0 0 0 0 2.0932071205561442 0.22394885735877779 0 0.22394885735877779 -17.879699599530404 0 0 0 0 0.51772213513371845 2.0662723731123407 0 2.0662723731123407 -1.4572786639234638 0 0 0 0 -10.456878507048714 -8.0528481733217632 0 -8.0528481733217632 0.88876010579156173 0 0 0 0 5.9427042471506866 -11.06057797515632 0 -11.06057797515632 -4.7216972041769623 0 0 0 0 0.27719085020421108 0.60260330433839027 0 0.60260330433839027 -0.65841458789860097 0 0 0 0 0.054926532811805373 1.3441437268752452 0 1.3441437268752452 -0.53533057240281323 0 0 0 0 -0.81546956725584252 0.97260818597406606 0 0.97260818597406606 -0.83587415882994942 0 0 0 0 0.66646955833221 1.7291777352621125 0 1.7291777352621125 -0.62632110863160051 0 0 0 0 -0.64213585291114761 1.6096503307972645 0 1.6096503307972645 -1.6092552985238355 0 0 0 0 0.34064019996003481 2.2911305066460272 0 2.2911305066460272 -0.084904146809094527 0 0 0 0 -27.233011890702983 4.4084250754673349 0 4.4084250754673349 2.7977983921149985 0 0 0 0 -0.1669829626811925 0.25132752244112577 0 0.25132752244112577 -0.066272022807631004 0 0 0 0 -25.979087455920308 10.247720482708928 0 10.247720482708928 -5.0811269430691794 0 0 0 0 -50.051672062001217 22.3925178287937 0 22.3925178287937 -3.1199146783335436 0 0 0 0 -12.011786521265094 11.153565276653808 0 11.153565276653808 -4.1575881561941515 0 0 0 0 5.112620989646075 -2.4153332932834246 0 -2.4153332932834246 -1.1223101197847427 0 0 0 0 -82.829291357460534 18.135156509011267 0 18.135156509011267 5.3004033320152359 0 0 0 0 -109.79643473187639 59.712407293183787 0 59.712407293183787 2.1395593365396053 0 0 0 0 -102.51108021309324 30.394457371300689 0 30.394457371300689 -7.8307669323966138 0 0 0 0 -95.843190665168095 38.17384180577335 0 38.17384180577335 1.2246712810240297 0 0 0 0 -45.498836822358044 8.3092634409091488 0 8.3092634409091488 -5.0613095839260041 0 0 0 0 -74.573887030268907 5.8299091040479993 0 5.8299091040479993 1.7182465685314128 0 0 0 0 -0.012107961170257475 -0.28758209031696325 0 -0.28758209031696325 -0.027217089342863154 0 0 0 0 -171.88153784005931 29.309643952104949 0 29.309643952104949 4.9984753677540539 0 0 0 0 -5.7274002009189644 1.4562150557615041 0 1.4562150557615041 -23.02757750106224 0 0 0 0 -221.40629270273439 -245.72064911601001 0 -245.72064911601001 -158.029396491493 0 0 0 0 -2.7596412363753027 0.44820651633749353 0 0.44820651633749353 0.081185632157291909 0 0 0 0 -199.65711973395693 151.79791619761713 0 151.79791619761713 -59.613324798077315 0 0 0 0 -2.0282365729904885 -1.3457115477673005 0 -1.3457115477673005 -0.8604566658425723 0 0 0 0 -81.593183746825616 41.110248298393344 0 41.110248298393344 -16.833226528914679 0 0 0 0 -6.8953144429406041 -2.7843296458138873 0 -2.7843296458138873 -0.6772200413688676 0 0 0 0 -89.098231137505195 11.663083361072978 0 11.663083361072978 -5.1906236103799301 0 0 0 0 -94.942052189681817 39.463141422626677 0 39.463141422626677 124.72343120002461 0 0 0 0 -19.208940410375362 -1.7811132515514601 0 -1.7811132515514601 138.13823561306276 0 0 0 0 29.685895636068381 62.257570241753228 0 62.257570241753228 64.284309803724682 0 0 0 0 -13.426847609708943 22.551365221823545 0 22.551365221823545 -15.254040414188466 0 0 0 0 -4.2615409225153726 5.0843565251820619 0 5.0843565251820619 2.9508644775742221 0 0 0 0 -9.8079443805058872 -11.88061418170463 0 -11.88061418170463 18.322965929832264 0 0 0 0 -1.08337968928452 1.1295004287957 0 1.1295004287957 0.82667095954647274 0 0 0 0 -13.683822344653947 14.281873038235524 0 14.281873038235524 37.112423354644875 0 0 0 0 2.9929590205356362 16.514684181682298 0 16.514684181682298 29.160638531997108 0 0 0 0 -91.098992553858238 6.967199476281337 0 6.967199476281337 11.321983550362347 0 0 0 0 -49.235881054322363 25.906199140509841 0 25.906199140509841 -15.354136653210588 0 0 0 0 -1.7181721323858508 0.26228334359850525 0 0.26228334359850525 0.37470426374782573 0 0 0 0 -178.62893230894451 11.108696108995787 0 11.108696108995787 15.554432951619503 0 0 0 0 -0.091888354204648692 0.24043369296763117 0 0.24043369296763117 0.10383434186272256 0 0 0 0 54.474025613928916 67.412971856623443 0 67.412971856623443 11.308671461830045 0 0 0 0 -30.201255238425802 35.22158220991912 0 35.22158220991912 44.219866415446234 0 0 0 0 -22.945118270052717 35.013212169933126 0 35.013212169933126 -50.726762788314772 0 0 0 0 -52.421091178710412 65.807771418682592 0 65.807771418682592 13.950845129698052 0 0 0 0 -63.546516127665356 34.677050230496285 0 34.677050230496285 -25.864851238617121 0 0 0 0 -63.358689159908863 41.305605829178717 0 41.305605829178717 -27.910963172166277 0 0 0 0 -57.412883912580128 32.717008794629692 0 32.717008794629692 -68.987524574216422 0 0 0 0 -57.986873033833604 28.897815890301104 0 28.897815890301104 -51.670662044007258 0 0 0 0 -40.33128608225752 35.35847807994918 0 35.35847807994918 -94.130306068280333 0 0 0 0 -49.608901186653384 10.569264612241682 0 10.569264612241682 -107.07075937559159 0 0 0 0 -25.11687655567539 16.931822627305678 0 16.931822627305678 -200.1094379040602 0 0 0 0 -11.220776666945767 30.023232819626628 0 30.023232819626628 -201.16762563749114 0 0 0 0 -38.283596875995045 35.894389544978367 0 35.894389544978367 -143.49099854397423 0 0 0 0 -34.429314927720952 6.6261504879296353 0 6.6261504879296353 -143.04284643788696 0 0 0 0 -32.779454526295922 -16.658025200938937 0 -16.658025200938937 -219.72782390473594 0 0 0 0 -40.746782375605562 14.255009597560388 0 14.255009597560388 -141.95776818350876 0 0 0 0 -67.854149678163594 4.6464416122122998 0 4.6464416122122998 -71.646054713982949 0 0 0 0 -58.525549992363267 22.468906100966763 0 22.468906100966763 -71.416580775374769 0 0 0 0 -52.044851908081455 7.5427194003912064 0 7.5427194003912064 -55.01893466077513 0 0 0 0 -49.540431120092308 -35.438122067534664 0 -35.438122067534664 -129.22300854652178 0 0 0 0 -57.829840664609947 13.76137271896971 0 13.76137271896971 -174.01729466590234 0 0 0 0 -124.72282344292125 -42.770790001604723 0 -42.770790001604723 -217.7332958745825 0 0 0 0 -37.072510754715495 87.780164461981514 0 87.780164461981514 -272.86705195379363 0 0 0 0 -28.806512270110943 68.017918279358753 0 68.017918279358753 -266.24251479616305 0 0 0 0 -127.45931416569056 66.475382423865597 0 66.475382423865597 -265.40887564938453 0 0 0 0 -47.548206368769513 27.601607663037463 0 27.601607663037463 -16.227402904783048 0 0 0 0 -49.579880582874836 -22.151135328468101 0 -22.151135328468101 -14.142298425608942 0 0 0 0 0.074500096235890823 -0.010598926259481445 0 -0.010598926259481445 -0.32451987791686143 0 0 0 0 -64.814312545857774 32.751719680993688 0 32.751719680993688 -4.7721215018805196 0 0 0 0 -8.588019799848098 21.244498426564292 0 21.244498426564292 -24.211707509474763 0 0 0 0 -64.64362185849177 35.267454752412561 0 35.267454752412561 -19.540084433587197 0 0 0 0 -65.7075179947783 35.674462308517889 0 35.674462308517889 -19.69567141813036 0 0 0 0 -62.625736879697854 51.911602229343892 0 51.911602229343892 3.4277656091664994 0 0 0 0 -28.073236270615325 11.148961911444019 0 11.148961911444019 3.9180303209384419 0 0 0 0 -63.321462435924559 34.209846508565647 0 34.209846508565647 7.048577623809706 0 0 0 0 -1.3447485399005927 -1.0063844694950035 0 -1.0063844694950035 9.2591875066507328 0 0 0 0 -6.6873114368231654 7.7908528669405541 0 7.7908528669405541 4.4264681347391388 0 0 0 0 -12.528729525186009 19.563276441016626 0 19.563276441016626 -16.839046011278015 0 0 0 0 -2.6722891038579064 4.809150437823277 0 4.809150437823277 1.9158783897796638 0 0 0 0 -1.2013443821656438 3.3409078488560908 0 3.3409078488560908 0.14509819190948292 0 0 0 0 -0.43104729813467202 5.7616184292907064 0 5.7616184292907064 -12.075599905291028 0 0 0 0 2.1137396607232404 4.6017537786324283 0 4.6017537786324283 -14.915049189443423 0 0 0 0 -0.0060997224263701355 2.2749429992830983 0 2.2749429992830983 -9.5949497203679357 0 0 0 0 -9.9134887634929783 81.007823367280309 0 81.007823367280309 -285.48655160480689 0 0 0 0 1.282168905963772 35.706939799701836 0 35.706939799701836 -158.50367443411395 0 0 0 0 12.076091026802033 66.481789492659431 0 66.481789492659431 -113.659858262711 0 0 0 0 0.77539765728507426 -0.33712127877381048 0 -0.33712127877381048 -0.7027014872398164 0 0 0 0 18.209318533863552 46.297501772994565 0 46.297501772994565 -166.4092365211784 0 0 0 0 -78.649444021740692 13.340951418464503 0 13.340951418464503 -162.37551596848255 0 0 0 0 17.895966485753831 48.221051741860997 0 48.221051741860997 -160.0016272176691 0 0 0 0 49.667262073863185 20.289908775580617 0 20.289908775580617 -177.10089878370223 0 0 0 0 -241.66168832260155 -72.747623606432143 0 -72.747623606432143 -25.299479077507321 0 0 0 0 -498.62407658956499 58.394455147241487 0 58.394455147241487 -16.112762175317073 0 0 0 0 -248.31794130242179 53.289647233086647 0 53.289647233086647 -44.092757798412329 0 0 0 0 -492.35322826406082 196.40308338875471 0 196.40308338875471 -106.14894663273799 0 0 0 0 -499.93036392729209 268.76685156884344 0 268.76685156884344 -407.79819473837637 0 0 0 0 -138.08353809041728 117.30380530592112 0 117.30380530592112 -195.67100547035176 0 0 0 0 -99.832147528642963 58.241125774871591 0 58.241125774871591 -163.06290433865766 0 0 0 0 -18.484370746440618 30.213100331132694 0 30.213100331132694 -226.22545544790265 0 0 0 0 -167.26285326721791 267.96588338785813 0 267.96588338785813 -356.91068506554438 0 0 0 0 -577.60258343481246 126.90557891367224 0 126.90557891367224 -30.942821020123546 0 0 0 0 -0.38575801861500025 0.44636556121692994 0 0.44636556121692994 -0.97088736895355066 0 0 0 0 102.64850731978549 27.509508346715222 0 27.509508346715222 -321.67464362686866 0 0 0 0 0.28181494781561867 -0.14469221265780607 0 -0.14469221265780607 -0.45568963568165366 0 0 0 0 -497.92414874182498 1.3378977617666252 0 1.3378977617666252 12.615406662058325 0 0 0 0 1.665667653813216 3.3203727251134083 0 3.3203727251134083 -18.578957610757861 0 0 0 0 -1.0567255509698388 0.45545559820039561 0 0.45545559820039561 -0.56659641117939807 0 0 0 0 0.024002610731594487 0.25837053355421169 0 0.25837053355421169 -0.61266058315942384 0 0 0 0 0.31645642690102704 0.84067695179269464 0 0.84067695179269464 -1.5775587559487483 0 0 0 0 2.2546399499988183 2.2208830096874976 0 2.2208830096874976 0.15168535922589399 0 0 0 0 31.301620199843455 64.593112626774314 0 64.593112626774314 13.945648039285459 0 0 0 0 -47.139326147344491 -47.877845530110505 0 -47.877845530110505 -54.716106308967255 0 0 0 0 -30.06682536882181 -35.567537366277122 0 -35.567537366277122 -59.085419964977895 0 0 0 0 -53.285497177316756 -6.299612028631941 0 -6.299612028631941 -56.365134522521828 0 0 0 0 1.1383212794506559 0.38230683016978606 0 0.38230683016978606 -1.0970985373772177 0 0 0 0 0.5109128390230353 6.2265864028557161 0 6.2265864028557161 -5.4899870860484725 0 0 0 0 -0.96376087670686772 1.7411015561349723 0 1.7411015561349723 -1.737944708224697 0 0 0 0 -2.8082080226731705 2.5538439217140976 0 2.5538439217140976 0.63748444250259695 0 0 0 0 -1.2473358393847374 1.0533782848522648 0 1.0533782848522648 -0.73367327500546908 0 0 0 0 1.6685451937851212 3.5045221485072773 0 3.5045221485072773 0.46053245684495892 0 0 0 0 -121.2741513550236 -117.85126427125098 0 -117.85126427125098 -122.05768465008774 0 0 0 0 -2.1156739185589686 1.175532632778669 0 1.175532632778669 -0.39109711274443271 0 0 0 0 -1.9030243676408194 1.90935097617536 0 1.90935097617536 -0.8990169721078054 0 0 0 0 -146.52686251147134 117.09262767809939 0 117.09262767809939 -93.343551105955797 0 0 0 0 -498.20008767511081 -51.967968070777431 0 -51.967968070777431 41.274738808538267 0 0 0 0 -1.3682437007343005 0.63182914424840853 0 0.63182914424840853 -0.76486012573387807 0 0 0 0 0.035303980637763743 1.8361369528478235 0 1.8361369528478235 -0.69068195922113773 0 0 0 0 0.89694689864690069 1.2525778292598613 0 1.2525778292598613 -1.7192233830555719 0 0 0 0 -1.2049973299623495 0.45498332093983596 0 0.45498332093983596 -1.1677900640125118 0 0 0 0 -2.6772399909692517 3.4864499121542751 0 3.4864499121542751 -1.880332858553007 0 0 0 0 -499.265650279699 -167.43084174358148 0 -167.43084174358148 14.015210922167384 0 0 0 0 -218.41349699201214 -222.82886231902179 0 -222.82886231902179 -125.4425622689549 0 0 0 0 -40.71781267669121 -115.05472713226706 0 -115.05472713226706 -150.48746175121389 0 0 0 0 -16.770517793695262 30.745076107924589 0 30.745076107924589 -41.431257965901935 0 0 0 0 -248.15719204013067 -31.253494946147086 0 -31.253494946147086 -18.967378989322974 0 0 0 0 -359.08596975676892 -64.565206692058524 0 -64.565206692058524 -25.529737871914907 0 0 0 0 -499.22796517770121 81.091707710367345 0 81.091707710367345 -26.419671598323553 0 0 0 0 -1.7467849595752956 0.44963055980797834 0 0.44963055980797834 -0.25353976899458386 0 0 0 0 -216.27903703220113 171.19997370793732 0 171.19997370793732 -195.9341666156806 0 0 0 0 0.14470241312983489 9.8745112207535541 0 9.8745112207535541 -165.80693068512846 0 0 0 0 -185.96283648110648 48.664100683041497 0 48.664100683041497 -136.04129638609049 0 0 0 0 -2.189058508252856 -18.650512013320721 0 -18.650512013320721 -157.5021846919679 0 0 0 0 -20.439768634843063 -51.840992402024597 0 -51.840992402024597 -142.155416201923 0 0 0 0 -2.9421280783465278 0.70233770443992638 0 0.70233770443992638 -0.29959297265731288 0 0 0 0 -1.9858650147020853 -12.819636657355829 0 -12.819636657355829 -90.579741999092136 0 0 0 0 8.7510392884570365 -20.726908209540333 0 -20.726908209540333 -181.80621941532752 0 0 0 0 1.0625988778735973 -60.328662913183976 0 -60.328662913183976 -173.12460159104648 0 0 0 0 3.8366219776025901 -36.646833869905187 0 -36.646833869905187 -104.5448875797623 0 0 0 0 -6.2109924312208022 -11.873376859059377 0 -11.873376859059377 -108.44025985762541 0 0 0 0 -89.526898717285576 -51.052210688800372 0 -51.052210688800372 -114.00079383125882 0 0 0 0 3.3877518323884033 -24.305238957130513 0 -24.305238957130513 -130.80257645086331 0 0 0 0 -24.04431097232191 -1.7268855869717186 0 -1.7268855869717186 -30.890966221571148 0 0 0 0 5.5230816943480932 -4.2817729753389528 0 -4.2817729753389528 -30.672065661142515 0 0 0 0 -26.354774144997691 -9.2512918126157757 0 -9.2512918126157757 -29.44527562442795 0 0 0 0 -2.9942191659206401 6.3217314434612035 0 6.3217314434612035 -31.422058915687863 0 0 0 0 -6.9199848876894521 3.804550146084992 0 3.804550146084992 -24.698770484476796 0 0 0 0 -11.563091045083638 17.751658575487241 0 17.751658575487241 0.78266758339600528 0 0 0 0 -10.973594276713811 13.466400480190714 0 13.466400480190714 -8.5789656807450712 0 0 0 0 -0.44540543531797994 13.575082070658439 0 13.575082070658439 -25.059624717476709 0 0 0 0 6.7748505386459783 -9.3998171995773561 0 -9.3998171995773561 -28.22169747272514 0 0 0 0 -50.710861517419971 -57.847121690598243 0 -57.847121690598243 -69.255948716601694 0 0 0 0 -14.603513830003749 10.324115115076744 0 10.324115115076744 -30.074030891239317 0 0 0 0 -1.1847609130316723 0.37356095110181531 0 0.37356095110181531 -0.33647258162211491 0 0 0 0 -100.49273939918271 -45.193574056539575 0 -45.193574056539575 -128.35523341067625 0 0 0 0 -107.01806625804284 -4.5067615154319469 0 -4.5067615154319469 -264.19328898808021 0 0 0 0 -32.736679982106125 10.109652280159139 0 10.109652280159139 -291.47933131806093 0 0 0 0 -92.442984165460643 32.825259044614796 0 32.825259044614796 -239.35329349867425 0 0 0 0 -31.399365908830532 -5.2785034896824357 0 -5.2785034896824357 14.209872678479144 0 0 0 0 -17.517851443789141 58.748639373439971 0 58.748639373439971 -278.34405321987219 0 0 0 0 -47.319885317983335 22.582850549467651 0 22.582850549467651 -299.98294917385954 0 0 0 0 -0.52526573336800908 -0.42931961830748255 0 -0.42931961830748255 -0.50205813790415565 0 0 0 0 -24.120820426702721 65.747290770132338 0 65.747290770132338 -183.09456527027606 0 0 0 0 -18.125434222067724 41.452787766779011 0 41.452787766779011 -164.97680081442195 0 0 0 0 -3.4258613546367087 51.693180232821533 0 51.693180232821533 -240.6926198686333 0 0 0 0 -14.079665566848234 18.341178002635104 0 18.341178002635104 -235.89076357270051 0 0 0 0 -30.407243492627913 24.025337475960441 0 24.025337475960441 -217.98186556432742 0 0 0 0 -21.035270381461487 39.927002938607131 0 39.927002938607131 -211.05781570707927 0 0 0 0 -8.8647866166215863 46.288394120592898 0 46.288394120592898 -211.18348427281092 0 0 0 0 -10.56038401621754 41.365609912044079 0 41.365609912044079 -186.38498193090845 0 0 0 0 -7.9860183235164186 54.911810820399978 0 54.911810820399978 -195.05325232909445 0 0 0 0 -6.742523919008363 65.019156309105483 0 65.019156309105483 -162.07663849693904 0 0 0 0 -7.1040952142363381 55.713871327181351 0 55.713871327181351 -191.47231713747055 0 0 0 0 -22.648115728484299 12.61127851756919 0 12.61127851756919 -94.420220604709698 0 0 0 0 -1.7779674832886805 -1.343065181299171 0 -1.343065181299171 -1.6507512501785142 0 0 0 0 1.7392909449254716 -0.78198850757598137 0 -0.78198850757598137 -4.8382402131799722 0 0 0 0 3.3675220842947056 -10.392607573961442 0 -10.392607573961442 1.7008904796710169 0 0 0 0 -1.1990890136008439 -1.2517001607016978 0 -1.2517001607016978 -1.0676195090922529 0 0 0 0 2.5077796012087674 0.6675607248069042 0 0.6675607248069042 -11.27646729255099 0 0 0 0 3.1564129315395348 6.0160500334509379 0 6.0160500334509379 -10.730453314069308 0 0 0 0 1.3784630339605428 3.7040801208976077 0 3.7040801208976077 -8.2015707734215653 0 0 0 0 0.21328919822258285 2.7540271336084032 0 2.7540271336084032 -5.7737880043099494 0 0 0 0 -1.6798237314703783 1.2045522972535281 0 1.2045522972535281 -5.9408831985375059 0 0 0 0 -3.5989021050536394 4.0889342231695451 0 4.0889342231695451 -4.6608374733370646 0 0 0 0 -3.1250967560542904 5.6930715142836217 0 5.6930715142836217 0.75384949280839919 0 0 0 0 -11.3542619385845 -9.7778156357691941 0 -9.7778156357691941 11.042075441125572 0 0 0 0 -4.0222133388992916 2.8716007048000787 0 2.8716007048000787 -1.5390843801542573 0 0 0 0 -4.5094189482238107 2.3851652735100544 0 2.3851652735100544 -0.55886519382498534 0 0 0 0 -5.2578138679854867 -0.52038774399918875 0 -0.52038774399918875 -0.66658797417974147 0 0 0 0 15.341391415035787 22.725643958235423 0 22.725643958235423 -23.040697406981053 0 0 0 0 -1.0556633587950446 1.6872870967582756 0 1.6872870967582756 -4.7186778732260466 0 0 0 0 -4.4848559926583675 2.1499940276727969 0 2.1499940276727969 -2.6467722626302468 0 0 0 0 -13.621558994776024 25.610135875264859 0 25.610135875264859 3.9767712596694764 0 0 0 0 11.780256760838711 33.752354599258069 0 33.752354599258069 9.3824428368861845 0 0 0 0 120.1312660259573 -28.886501423115988 0 -28.886501423115988 24.55368741055463 0 0 0 0 91.272791117733505 -54.219244372153298 0 -54.219244372153298 -55.199157979128358 0 0 0 0 130.54874362850023 13.730356994950398 0 13.730356994950398 -40.990843175719419 0 0 0 0 66.127316248408533 72.357467244479267 0 72.357467244479267 17.02194605856721 0 0 0 0 0.11683585817834974 0.057151341420256241 0 0.057151341420256241 -0.79160339141034064 0 0 0 0 -10.018227155786008 0.39439642998240743 0 0.39439642998240743 37.36602875863764 0 0 0 0 -8.8224680038357235 12.111753142832285 0 12.111753142832285 -91.588909271419652 0 0 0 0 -76.64217659957103 -24.519859768323613 0 -24.519859768323613 47.668777275733646 0 0 0 0 19.794002798994825 -1.591669117513689 0 -1.591669117513689 -14.620774069796084 0 0 0 0 -2.5245494938323221 -0.97020965592040076 0 -0.97020965592040076 -4.6543436135033813 0 0 0 0 0.078512355649706933 -8.9944962531141073 0 -8.9944962531141073 -11.438805094880991 0 0 0 0 26.128883327275616 -75.404103927368851 0 -75.404103927368851 -47.660359007666557 0 0 0 0 63.949906037270011 -17.943707506936335 0 -17.943707506936335 -47.887494435420194 0 0 0 0 44.498577359855517 -35.115892044879729 0 -35.115892044879729 -28.500278926684132 0 0 0 0 12.685206371498225 -35.875635940444454 0 -35.875635940444454 -14.351129083124761 0 0 0 0 -65.966636064769773 -78.132059474211474 0 -78.132059474211474 4.1669078241939133 0 0 0 0 14.448459572756065 -0.40309217807835296 0 -0.40309217807835296 -7.727485465892471 0 0 0 0 0.11801821872313667 -9.5749374918300418 0 -9.5749374918300418 -2.9200893930574239 0 0 0 0 -8.2161197034320139 -1.3858418845524056 0 -1.3858418845524056 -3.9723840995034152 0 0 0 0 -24.592129092580308 -26.049463673220998 0 -26.049463673220998 -9.1870442098088461 0 0 0 0 -3.546212719672611 -0.65052325742224149 0 -0.65052325742224149 0.87294785982883738 0 0 0 0 6.7338076840301255 -29.923869738683379 0 -29.923869738683379 -31.46067552655586 0 0 0 0 -38.532034617777754 -6.4317995444228018 0 -6.4317995444228018 5.4374294158487828 0 0 0 0 -41.673262620322021 -74.496248003480105 0 -74.496248003480105 -19.08159322085703 0 0 0 0 -22.026664400181744 0.26383776728312114 0 0.26383776728312114 3.4185880054183144 0 0 0 0 3.7984989235865214 -6.3837950007431346 0 -6.3837950007431346 32.602402947317387 0 0 0 0 -14.398600208545098 -1.5047677940941704 0 -1.5047677940941704 -0.031418038006104161 0 0 0 0 13.181098117303918 -13.33806492705628 0 -13.33806492705628 37.161947976456759 0 0 0 0 -3.4105479911613656 -16.388705136276712 0 -16.388705136276712 49.548555173179921 0 0 0 0 2.0059070175557281 -18.474340440850256 0 -18.474340440850256 37.878286804162258 0 0 0 0 2.2193282531916338 -17.612458258943889 0 -17.612458258943889 41.207080037425612 0 0 0 0 -11.181407975356706 6.350827690719143 0 6.350827690719143 43.509988494428626 0 0 0 0 -47.64699336322974 20.485165611394763 0 20.485165611394763 95.55429093616317 0 0 0 0 -2.5459373241488299 0.22294075568034533 0 0.22294075568034533 0.40315699868057298 0 0 0 0 -18.064644898731785 -32.952626026674807 0 -32.952626026674807 92.747953877954316 0 0 0 0 -18.690723581574275 -21.167613072039558 0 -21.167613072039558 48.541061617251444 0 0 0 0 -2.4219211644171992 -44.097948603261699 0 -44.097948603261699 36.733568772723174 0 0 0 0 31.434866353670941 -24.402601448864502 0 -24.402601448864502 11.913256981819586 0 0 0 0 -1.9569665494600486 -48.755791373867055 0 -48.755791373867055 64.19352040205797 0 0 0 0 20.223472005016447 -17.489685585001041 0 -17.489685585001041 30.108545517163066 0 0 0 0 12.628881796505084 -32.594048793702768 0 -32.594048793702768 16.316473355666616 0 0 0 0 17.001474235992646 -23.931155485121621 0 -23.931155485121621 28.188724847166668 0 0 0 0 1.7791115130858088 -21.831548368609674 0 -21.831548368609674 40.04850459681802 0 0 0 0 2.0076957896490057 -21.987446661608146 0 -21.987446661608146 37.177697824235054 0 0 0 0 -2.0505782190957689 -24.816254038135867 0 -24.816254038135867 47.123216692470578 0 0 0 0 -62.88215565758037 24.996007339038329 0 24.996007339038329 48.051599748856745 0 0 0 0 -10.684378283501188 1.196459920226792 0 1.196459920226792 -0.35000059783163817 0 0 0 0 13.349164016153281 -18.981144338453618 0 -18.981144338453618 64.994235010556395 0 0 0 0 -67.895944867271282 16.290388407761952 0 16.290388407761952 49.706284269593539 0 0 0 0 -35.758435911919946 3.0950876279098338 0 3.0950876279098338 7.7829715353966833 0 0 0 0 -66.493754212196905 11.07497357171529 0 11.07497357171529 33.824163690937894 0 0 0 0 -3.5813049020368908 -3.0894536405526907 0 -3.0894536405526907 -32.485714399404955 0 0 0 0 -21.810234783013925 -22.467128237738066 0 -22.467128237738066 -4.2572242701565273 0 0 0 0 -1.5542330053506248 -9.9374470931633425 0 -9.9374470931633425 -12.098163515724536 0 0 0 0 15.119352756014905 -8.3732237049656817 0 -8.3732237049656817 -15.770746730418693 0 0 0 0 -0.48084280335140583 0.019159006165193129 0 0.019159006165193129 0.016056498324268031 0 0 0 0 -13.581575995425055 23.31191695882427 0 23.31191695882427 -22.379134992980831 0 0 0 0 9.066603016569843 -0.62491882218866124 0 -0.62491882218866124 0.21299004892061646 0 0 0 0 -63.082814685218523 18.095031556411612 0 18.095031556411612 1.7626227655151467 0 0 0 0 20.97202583356966 5.9085072815130388 0 5.9085072815130388 -0.61209669475238115 0 0 0 0 -9.4090556727723573 2.6114049548453213 0 2.6114049548453213 0.58874759043525104 0 0 0 0 4.9445924277315498 46.903573012473998 0 46.903573012473998 1.6716741394247947 0 0 0 0 -81.321831700252005 74.664587910377463 0 74.664587910377463 -2.1398395618421162 0 0 0 0 14.924998612237914 23.174006464256223 0 23.174006464256223 -84.446670713726121 0 0 0 0 -4.7642849397187961 0.55505150688566607 0 0.55505150688566607 0.17346719364547727 0 0 0 0 29.747126935278459 48.677353813334491 0 48.677353813334491 -105.17491244325959 0 0 0 0 5.39249430047321 62.856175560431453 0 62.856175560431453 -58.155145902471986 0 0 0 0 -45.211581312802537 14.659536334214749 0 14.659536334214749 -19.666584320126791 0 0 0 0 14.347570239622314 27.900877103110815 0 27.900877103110815 -57.791780896056821 0 0 0 0 -3.2308404241740618 -2.93906561353851 0 -2.93906561353851 6.3033386622323917 0 0 0 0 -6.5267071158752401 4.0960654091682045 0 4.0960654091682045 3.405494471441088 0 0 0 0 -3.4505171540000803 0.66973687999644071 0 0.66973687999644071 0.11651598531033219 0 0 0 0 -6.4735493789978591 -4.116302146136448 0 -4.116302146136448 10.589519150879262 0 0 0 0 -7.4942839304404529 5.7867227544615529 0 5.7867227544615529 -6.1733878979649113 0 0 0 0 -7.3790304666265243 4.033952188111412 0 4.033952188111412 -13.202206738326709 0 0 0 0 -5.2738851311186723 -0.48388996897299208 0 -0.48388996897299208 0.15853250924201689 0 0 0 0 -9.2196185244138178 3.6539110269521444 0 3.6539110269521444 16.828850626211803 0 0 0 0 -4.6503339767764373 11.367397301234149 0 11.367397301234149 -5.5088558181723783 0 0 0 0 -3.2888703897397136 7.4424133402845953 0 7.4424133402845953 -5.280821965293967 0 0 0 0 -0.86659185330017863 1.1991512349675411 0 1.1991512349675411 7.465941733319994 0 0 0 0 -6.2436121022572024 12.675466601062812 0 12.675466601062812 7.0387423311327382 0 0 0 0 -10.273500333598577 21.896116566296907 0 21.896116566296907 14.168433579576927 0 0 0 0 -19.966068733837801 -1.5431128380394341 0 -1.5431128380394341 49.562808718578864 0 0 0 0 -4.8944134695960493 -0.55795026930771496 0 -0.55795026930771496 0.037307109187345741 0 0 0 0 23.740689026836435 9.429502673072637 0 9.429502673072637 -32.811447529606127 0 0 0 0 -33.832675747818485 -16.65930092784658 0 -16.65930092784658 65.942810041201597 0 0 0 0 -4.216508047946963 -0.6953742791156261 0 -0.6953742791156261 -0.07213262922772419 0 0 0 0 -12.50524554727042 -5.3779400668383541 0 -5.3779400668383541 -8.489908191819536 0 0 0 0 7.5757931462164834 6.0145993317162016 0 6.0145993317162016 7.6582148182176084 0 0 0 0 -2.0511535473709008 -0.51561213817053142 0 -0.51561213817053142 0.15453397300487759 0 0 0 0 -3.9461783158685648 -3.1582497068818327 0 -3.1582497068818327 8.1392884917238675 0 0 0 0 -2.9337148954969052 -7.8744777830479791 0 -7.8744777830479791 -9.4446133645786432 0 0 0 0 -2.0156387861808014 3.8777905617429655 0 3.8777905617429655 -10.182761026665339 0 0 0 0 -12.190478495153911 13.471903453473256 0 13.471903453473256 -19.165888865739806 0 0 0 0 -7.5362834473062321 6.4488226419802146 0 6.4488226419802146 -16.614613583432394 0 0 0 0 -11.518479542704426 5.6124645075525734 0 5.6124645075525734 -7.8057984804428528 0 0 0 0 -12.551610484800904 10.017510881294839 0 10.017510881294839 -9.8115838965358648 0 0 0 0 -20.593560791524169 6.0073546879027564 0 6.0073546879027564 -9.2864638147673091 0 0 0 0 -2.6907299762415473 -0.1840977594175921 0 -0.1840977594175921 0.41152652095796427 0 0 0 0 1.9686222568807352 -0.71836174877296344 0 -0.71836174877296344 5.3131806350743318 0 0 0 0 -1.3894128567981707 -0.065603827309006338 0 -0.065603827309006338 0.0067587367066904575 0 0 0 0 1.9644639795667445 1.8768869183488874 0 1.8768869183488874 -7.6433093054402406 0 0 0 0 -2.4495489156308849 -2.1697482090595201 0 -2.1697482090595201 5.5791557090410748 0 0 0 0 -7.1955697967564447 3.0490170591165224 0 3.0490170591165224 -105.13516164306822 0 0 0 0 2.6878996177592853 17.68746149189343 0 17.68746149189343 -86.894784484283207 0 0 0 0 -102.90690583952231 121.73055814831221 0 121.73055814831221 -251.73426340562116 0 0 0 0 -1.8072543796839242 0.71025837351749521 0 0.71025837351749521 -0.19402412831646024 0 0 0 0 -20.130405041112638 -10.694810972121701 0 -10.694810972121701 -7.1788373137652286 0 0 0 0 -242.29041766299915 98.457963535241262 0 98.457963535241262 1.7261139841161253 0 0 0 0 -285.18948805885032 255.70098297278346 0 255.70098297278346 -131.43186208634552 0 0 0 0 -338.55732385696137 126.33589813651405 0 126.33589813651405 -71.175494484517785 0 0 0 0 -348.53518943768404 163.16836382655163 0 163.16836382655163 -134.08517653556154 0 0 0 0 -499.93056485550267 148.1031458859286 0 148.1031458859286 15.838655819003325 0 0 0 0 -509.07160766320692 314.14562257930686 0 314.14562257930686 -108.42495426458696 0 0 0 0 -328.42026403406845 233.5603293395958 0 233.5603293395958 -119.78159504234426 0 0 0 0 -545.26964259805368 213.25080948303372 0 213.25080948303372 -81.64256500975489 0 0 0 0 -1.5489464060842977 0.29373369268735761 0 0.29373369268735761 0.060732554539301875 0 0 0 0 -173.75863956319927 -89.661271685669703 0 -89.661271685669703 45.039830716791194 0 0 0 0 -499.46761674652168 234.53001373878686 0 234.53001373878686 -266.09926445715524 0 0 0 0 -0.94696623698559579 0.17983488123703606 0 0.17983488123703606 0.20593839446772239 0 0 0 0 -276.46623061096744 378.78519483759624 0 378.78519483759624 -356.77368090508276 0 0 0 0 38.960300793506349 28.075602185102301 0 28.075602185102301 -10.058851083758974 0 0 0 0 -192.41749102027012 -1.7096224200074062 0 -1.7096224200074062 40.115697679202867 0 0 0 0 -4.2839744303671523 103.7717369096257 0 103.7717369096257 -151.36879156381596 0 0 0 0 -2.6654915977627165 0.61389887528299458 0 0.61389887528299458 0.55917554141618342 0 0 0 0 43.621100040771239 29.990068017983461 0 29.990068017983461 -83.679960827183493 0 0 0 0 -215.61758063041634 62.774246835832798 0 62.774246835832798 -66.238694461739243 0 0 0 0 -1.8504709483112443 -0.46585846502554129 0 -0.46585846502554129 -0.23899055364560917 0 0 0 0 -496.86861442416136 -30.129627449351663 0 -30.129627449351663 51.893383808083101 0 0 0 0 -116.29166391257093 62.849837855984674 0 62.849837855984674 -50.211765272399361 0 0 0 0 -109.90044518848021 69.077226257155814 0 69.077226257155814 -138.40046388934979 0 0 0 0 -168.16626980843785 161.29197738007974 0 161.29197738007974 -114.13091362091723 0 0 0 0 -0.32206760551219027 0.047627552504417192 0 0.047627552504417192 -0.37195056441806074 0 0 0 0 -64.178403341618946 89.458895809588512 0 89.458895809588512 -109.15796239539634 0 0 0 0 -144.2247196315634 101.21439467847654 0 101.21439467847654 -62.450185436280435 0 0 0 0 -106.66622623400713 77.271045808514373 0 77.271045808514373 -33.701720740765609 0 0 0 0 -61.562462942819963 13.067405096596024 0 13.067405096596024 -6.3131624919194564 0 0 0 0 29.083606600711391 31.820817579324569 0 31.820817579324569 -13.848106768128673 0 0 0 0 -71.155272528662863 -8.4437334624374216 0 -8.4437334624374216 17.925562109137445 0 0 0 0 -9.5870529166157574 -6.2812179760702023 0 -6.2812179760702023 -3.979223788744024 0 0 0 0 0.25716396512871142 -89.364314749022242 0 -89.364314749022242 30.932719767184153 0 0 0 0 26.302007895614224 -13.435689759834418 0 -13.435689759834418 -1.3191841449571484 0 0 0 0 -49.658404513135224 -100.17468434089434 0 -100.17468434089434 -100.13897762014221 0 0 0 0 -107.33220935127588 2.4240385942640046 0 2.4240385942640046 14.940342467441951 0 0 0 0 82.50481652168628 -30.746010420282914 0 -30.746010420282914 -147.36675412491377 0 0 0 0 24.725383298278757 -3.4128886565289349 0 -3.4128886565289349 -87.800101703254995 0 0 0 0 30.159913151774106 -41.878764850932384 0 -41.878764850932384 -62.646063128649985 0 0 0 0 -6.5613682747291477 -4.2867655018806037 0 -4.2867655018806037 -3.0024993357306609 0 0 0 0 21.320167316037356 23.132511026165638 0 23.132511026165638 -229.15813865802647 0 0 0 0 -2.4300938171907838 -1.4533925707979058 0 -1.4533925707979058 -1.3598598954303087 0 0 0 0 -131.71963168888897 3.8141811627627931 0 3.8141811627627931 -302.74735598342045 0 0 0 0 -182.0823987751819 55.276821803162306 0 55.276821803162306 -118.42609720023529 0 0 0 0 -333.67975485476381 -28.551253816732697 0 -28.551253816732697 -163.46289688801312 0 0 0 0 -358.54555000122991 141.80782678771698 0 141.80782678771698 -92.122286613359051 0 0 0 0 -54.314786932035531 61.677502299070738 0 61.677502299070738 -199.79825976474285 0 0 0 0 -30.394405380623994 46.078199788314464 0 46.078199788314464 -210.69002322472232 0 0 0 0 -70.054393003904352 38.324276745565044 0 38.324276745565044 -212.77720297892319 0 0 0 0 -122.17781735906942 57.298883160697414 0 57.298883160697414 -196.24519894542732 0 0 0 0 -176.52728758823287 33.116404102715023 0 33.116404102715023 -158.4894736278643 0 0 0 0 -75.93573837476788 37.685392265003543 0 37.685392265003543 -218.38485304781125 0 0 0 0 -75.214104165132568 45.812055167154782 0 45.812055167154782 -178.98071776992469 0 0 0 0 -37.225162926334633 48.665001296400305 0 48.665001296400305 -182.28902454794036 0 0 0 0 -37.424232723052683 40.803484203937842 0 40.803484203937842 -149.87804272034941 0 0 0 0 -29.983434570542158 48.790315160110254 0 48.790315160110254 -193.39386476032428 0 0 0 0 -0.93017941793277181 -0.56153352485644303 0 -0.56153352485644303 -0.38315954057586676 0 0 0 0 11.571551729456132 25.517926850255549 0 25.517926850255549 -183.84479623256811 0 0 0 0 -66.767899920298532 32.779376991947174 0 32.779376991947174 -148.2814355584793 0 0 0 0 -36.442804036055918 93.967850957895905 0 93.967850957895905 -97.833323246324426 0 0 0 0 -172.22050903647596 87.34573564145785 0 87.34573564145785 -114.2580146047876 0 0 0 0 -68.478939502244273 72.557264667667638 0 72.557264667667638 -146.23685381256382 0 0 0 0 -28.674999469778868 82.045223186213519 0 82.045223186213519 -122.72214669729806 0 0 0 0 -82.74495090720302 14.030432515808343 0 14.030432515808343 -56.708377535594366 0 0 0 0 -0.44326195192451223 10.145763617754284 0 10.145763617754284 -2.2680160782788334 0 0 0 0 -3.339841908735969 -0.65343714008067266 0 -0.65343714008067266 -0.62310479537101893 0 0 0 0 -1.1670088724914924 1.5116929465758644 0 1.5116929465758644 -3.7364723752014832 0 0 0 0 -12.13453474509015 -0.65213183192565793 0 -0.65213183192565793 7.6605160677647746 0 0 0 0 -258.97906357836132 89.644589394797322 0 89.644589394797322 -76.066204030186327 0 0 0 0 -206.86908509264299 138.33488974894101 0 138.33488974894101 -99.210537896639551 0 0 0 0 -211.20491711750674 53.003110991845233 0 53.003110991845233 -112.91125992199795 0 0 0 0 -225.4818999387569 141.79637582242907 0 141.79637582242907 -124.44191429827094 0 0 0 0 -259.13079612658885 86.579408163605535 0 86.579408163605535 -75.882491513246976 0 0 0 0 -1.4312013575250635 -0.24356748259956484 0 -0.24356748259956484 -0.076402828165557102 0 0 0 0 -172.52963898905404 39.706464631903543 0 39.706464631903543 -107.98239732482614 0 0 0 0 -135.5475565353488 110.7389085685204 0 110.7389085685204 -88.886134888994548 0 0 0 0 -201.23828734837599 100.22881465526854 0 100.22881465526854 -34.592646430712648 0 0 0 0 -163.9235746414065 -27.231435154935383 0 -27.231435154935383 -8.7252547630373556 0 0 0 0 -140.40122764312173 58.334944875510928 0 58.334944875510928 -9.3208580862248027 0 0 0 0 -136.11431455088328 102.55626265829359 0 102.55626265829359 -54.038295032155474 0 0 0 0 -9.8958380907854462 -9.3134054864506197 0 -9.3134054864506197 1.7139109814241351 0 0 0 0 8.1029934458642856 -8.552465609686692 0 -8.552465609686692 -14.225271122880258 0 0 0 0 -17.539598911701205 9.4164290497196816 0 9.4164290497196816 -8.7859853191648654 0 0 0 0 -20.005326538277814 -41.361836259140659 0 -41.361836259140659 -48.741065117343624 0 0 0 0 -6.6664256533781554 -8.03256035026061 0 -8.03256035026061 -46.24555045228476 0 0 0 0 -23.707838331574749 -0.81394339526400472 0 -0.81394339526400472 -31.609651939843843 0 0 0 0 -11.318512742277392 -35.517771500505006 0 -35.517771500505006 -29.750264141868684 0 0 0 0 -26.080492171129094 -38.595600005597703 0 -38.595600005597703 -16.517097233393315 0 0 0 0 -28.725962852510975 54.826629820952803 0 54.826629820952803 -14.1920045308716 0 0 0 0 -63.493932076366946 -8.2791056050675707 0 -8.2791056050675707 -8.7109170088879182 0 0 0 0 62.704295877376353 -47.363241130645974 0 -47.363241130645974 -16.842313169686953 0 0 0 0 -92.417778921682725 63.422731811200293 0 63.422731811200293 -22.117794775772381 0 0 0 0 -51.161729471918079 33.997743037764849 0 33.997743037764849 -29.450155364837656 0 0 0 0 -31.345502701047735 17.129738090555293 0 17.129738090555293 -10.975124168568641 0 0 0 0 -56.506300817653937 9.995908596879417 0 9.995908596879417 -7.5005174837443747 0 0 0 0 -59.214183228566981 45.935025386791494 0 45.935025386791494 10.144119178189612 0 0 0 0 -132.00490290987727 -33.619951822952771 0 -33.619951822952771 8.6686119394325942 0 0 0 0 -0.69370701221588682 -0.61858738069155539 0 -0.61858738069155539 -0.38261647919423636 0 0 0 0 -212.78938283924103 55.787146803871195 0 55.787146803871195 28.990044917266687 0 0 0 0 -177.68235337430724 -128.61381280180603 0 -128.61381280180603 -24.442582567044838 0 0 0 0 -5.0217336465275366 -15.083594809046872 0 -15.083594809046872 29.647395835084126 0 0 0 0 7.7083553904946029 0.31641188683869359 0 0.31641188683869359 -7.8676328440178622 0 0 0 0 -4.9338821869793037 -5.6574153402344223 0 -5.6574153402344223 10.019890935428975 0 0 0 0 -5.5985534190810995 -2.9386272659929773 0 -2.9386272659929773 30.619382373492954 0 0 0 0 14.791288236824585 -31.297582860243438 0 -31.297582860243438 17.493484495690154 0 0 0 0 24.77160581106682 -8.8813607648214656 0 -8.8813607648214656 67.153428361329134 0 0 0 0 -2.6145750112584665 -21.124307821939226 0 -21.124307821939226 42.19331569132919 0 0 0 0 48.024012673567086 -10.821259764331444 0 -10.821259764331444 15.765501404232737 0 0 0 0 64.500640159471004 16.339943655933212 0 16.339943655933212 35.623760520589713 0 0 0 0 -47.778286773675404 73.852572876599822 0 73.852572876599822 -4.4979014898190144 0 0 0 0 -81.434457449887987 -39.755636617550124 0 -39.755636617550124 10.407211679517332 0 0 0 0 91.768580526857022 -50.656760532326871 0 -50.656760532326871 8.2282010350236305 0 0 0 0 46.498586376384992 -52.786976290398343 0 -52.786976290398343 26.752320225118353 0 0 0 0 -1.7446579042971819 -1.8748301522806718 0 -1.8748301522806718 -1.0796679552834916 0 0 0 0 -27.246904546886185 -2.9175144897623113 0 -2.9175144897623113 -2.7462341234440828 0 0 0 0 25.389585766162782 -37.924554205558223 0 -37.924554205558223 -0.093311953438842465 0 0 0 0 -63.95695643465308 17.092519704694098 0 17.092519704694098 4.136523039437634 0 0 0 0 -64.449398304335773 18.407471283903305 0 18.407471283903305 10.460053855883416 0 0 0 0 -60.020082774599359 15.785388438995938 0 15.785388438995938 -8.8239556240578167 0 0 0 0 -57.623923267350165 21.859685574835567 0 21.859685574835567 1.5060982669656369 0 0 0 0 -54.813792612279826 13.410814852698024 0 13.410814852698024 5.1727022013046735 0 0 0 0 -55.401818406446182 18.933875645696617 0 18.933875645696617 39.151183944525201 0 0 0 0 -15.848017606146982 36.397155676245291 0 36.397155676245291 0.33566192470789247 0 0 0 0 -107.09167866660687 75.948821689985209 0 75.948821689985209 -39.878169901738374 0 0 0 0 -78.093209404805975 34.758355462544955 0 34.758355462544955 -28.642821916608113 0 0 0 0 -44.181415213847345 15.902138175430139 0 15.902138175430139 -6.0849605532987425 0 0 0 0 -95.050612064783934 25.801185057058348 0 25.801185057058348 12.149987901696477 0 0 0 0 -55.752794641302444 -22.043575293831736 0 -22.043575293831736 -9.9232004310786124 0 0 0 0 -59.519487469166961 1.3518063661483666 0 1.3518063661483666 20.884678275358738 0 0 0 0 -50.269411742852242 -3.1229760318539057 0 -3.1229760318539057 2.1454027386241705 0 0 0 0 -50.361734944039881 -1.7728999984761913 0 -1.7728999984761913 20.180724404199736 0 0 0 0 -4.1432366243253114 -11.596128743147403 0 -11.596128743147403 -16.158308213871351 0 0 0 0 -65.580910191707062 -2.1911612253444446 0 -2.1911612253444446 17.547225762342947 0 0 0 0 -36.990462243322838 38.707467754479353 0 38.707467754479353 -31.146693639201658 0 0 0 0 -135.36452796623081 49.63278793457016 0 49.63278793457016 -98.559908796093623 0 0 0 0 -135.24450934893116 60.412558986422027 0 60.412558986422027 -20.630363086177908 0 0 0 0 -147.1017832009409 103.13222457681499 0 103.13222457681499 -75.635877164278781 0 0 0 0 -140.39996721283535 80.674134798257001 0 80.674134798257001 -48.568597989758246 0 0 0 0 -107.66055990934808 85.880882112085033 0 85.880882112085033 -61.705572728495895 0 0 0 0 -97.695983792816378 45.829124267484076 0 45.829124267484076 -14.734003603774681 0 0 0 0 -126.62114141015422 77.686250271941844 0 77.686250271941844 -32.217662829350502 0 0 0 0 -117.18827629459236 92.408210299672334 0 92.408210299672334 -72.223494342496906 0 0 0 0 -133.89519349610373 105.86566734371024 0 105.86566734371024 -63.836057126687706 0 0 0 0 -0.42715626828437636 -0.20588529112131271 0 -0.20588529112131271 -1.0009538257786224 0 0 0 0 -60.368898877577351 110.80371450382711 0 110.80371450382711 -108.42976172883823 0 0 0 0 -115.82739464190195 128.25086590229159 0 128.25086590229159 -96.914750317343987 0 0 0 0 -129.64573586444192 92.891123845241964 0 92.891123845241964 -66.843016266289283 0 0 0 0 -23.57767012062908 -44.600623899853645 0 -44.600623899853645 -7.1481316216404593 0 0 0 0 -5.4789743922548837 5.6558483930924126 0 5.6558483930924126 -44.072061529568145 0 0 0 0 -213.54987217221367 11.379145427782419 0 11.379145427782419 -1.215295193519637 0 0 0 0 -242.25771832256282 161.40110171233778 0 161.40110171233778 -57.289721555443748 0 0 0 0 -116.59815714704858 87.279730586277054 0 87.279730586277054 -14.645925187872308 0 0 0 0 -357.05692908953881 58.730939759522016 0 58.730939759522016 -41.302346935774722 0 0 0 0 -95.381249529456966 183.70002581073885 0 183.70002581073885 -181.1290397357584 0 0 0 0 -162.80280998854434 188.80652904415126 0 188.80652904415126 -229.93752149301622 0 0 0 0 -2.6334587146112391 -0.10108973196258564 0 -0.10108973196258564 -0.089427424393472954 0 0 0 0 -54.981199788117124 -42.329962158526087 0 -42.329962158526087 -25.323465969528343 0 0 0 0 -44.633515347626144 83.340790527877971 0 83.340790527877971 -166.09629634779094 0 0 0 0 -204.7771725122638 98.554815350583794 0 98.554815350583794 -90.569351375070028 0 0 0 0 -0.57726751205973326 -0.25292307943512382 0 -0.25292307943512382 -0.41180482568955146 0 0 0 0 -131.11911086845942 24.438961839883632 0 24.438961839883632 -87.431704433744187 0 0 0 0 -208.90663073104326 20.108954237834041 0 20.108954237834041 2.982866543423313 0 0 0 0 -50.632367041280077 94.425663837450827 0 94.425663837450827 -93.606161724673598 0 0 0 0 -81.875125674712365 115.48949078241992 0 115.48949078241992 -58.248510299346208 0 0 0 0 -87.528370711637933 110.34625997885007 0 110.34625997885007 -54.596910575228321 0 0 0 0 -108.99103502141861 126.50999956531223 0 126.50999956531223 -53.392790409855365 0 0 0 0 -143.4216016504306 63.323760929349589 0 63.323760929349589 -26.885521767289447 0 0 0 0 -63.351162717296916 81.662688776769983 0 81.662688776769983 -79.76601470529431 0 0 0 0 -13.190629338202598 8.832280034250914 0 8.832280034250914 -19.926061448087694 0 0 0 0 -7.0295736322734337 -1.0265491723463063 0 -1.0265491723463063 -0.044736266972239758 0 0 0 0 -48.426421324676539 59.920755192454408 0 59.920755192454408 -63.458439974030739 0 0 0 0 24.625648984413601 60.925264968051351 0 60.925264968051351 11.350260063064979 0 0 0 0 -10.805730269304263 -22.92272875664807 0 -22.92272875664807 32.436963796453256 0 0 0 0 -26.798470030515546 32.313202604517755 0 32.313202604517755 83.429910360826966 0 0 0 0 -52.819212668014643 -10.248357193402853 0 -10.248357193402853 4.1881443498698303 0 0 0 0 -26.765151120653854 18.792767301192896 0 18.792767301192896 -16.499519188055274 0 0 0 0 -3.5009110496867613 1.0021335023009446 0 1.0021335023009446 -2.3421116387315548 0 0 0 0 -24.031720857409709 8.3063735402170096 0 8.3063735402170096 -0.020284468856900162 0 0 0 0 -14.918125888155373 -0.70408963992167628 0 -0.70408963992167628 -0.59946246060735575 0 0 0 0 -37.321105963611444 -6.4571845476177145 0 -6.4571845476177145 6.5250097725572687 0 0 0 0 -10.801466770164094 -1.3206549908936398 0 -1.3206549908936398 -0.50177302877069296 0 0 0 0 -7.715593146712715 2.3933991730937034 0 2.3933991730937034 1.8233365551966683 0 0 0 0 -9.8516927163354922 3.5119935038939332 0 3.5119935038939332 -0.11413437507098934 0 0 0 0 -11.838693144724669 0.0388419437887495 0 0.0388419437887495 -1.3752601160722318 0 0 0 0 -14.996105108389701 11.182873340921645 0 11.182873340921645 6.7447735529114556 0 0 0 0 -37.802172355967514 -18.800140240801511 0 -18.800140240801511 -11.471359905463487 0 0 0 0 -13.719614252760875 -5.9943472341991644 0 -5.9943472341991644 -3.2838139809784144 0 0 0 0 -15.700963983505972 -1.5713925676304825 0 -1.5713925676304825 -13.068575632420334 0 0 0 0 -34.115217351295087 -9.2986404214620393 0 -9.2986404214620393 -10.828095173822931 0 0 0 0 -11.073105405544993 -5.5457043780222648 0 -5.5457043780222648 -10.54212218475368 0 0 0 0 -13.682508841607159 3.0987166699214868 0 3.0987166699214868 -3.8474994646339837 0 0 0 0 -32.599999904309243 -14.196739884399562 0 -14.196739884399562 -8.5038164425436662 0 0 0 0 -10.286537040006124 -12.641274826801293 0 -12.641274826801293 -16.29626868959258 0 0 0 0 -37.777452139416255 -5.3617942288631184 0 -5.3617942288631184 -22.270386441477058 0 0 0 0 -5.9637707149308881 -4.9043262311015496 0 -4.9043262311015496 3.4750413312033288 0 0 0 0 0.95769829597179523 8.5430026140705877 0 8.5430026140705877 -7.0739689922147591 0 0 0 0 1.7377763967044757 7.2628295615169236 0 7.2628295615169236 -21.195410926394572 0 0 0 0 -5.3153297249356228 -11.647334215968385 0 -11.647334215968385 -15.354326943365777 0 0 0 0 -10.847428829193413 -7.3157474691616837 0 -7.3157474691616837 -4.7233529226040911 0 0 0 0 -7.7705102858725468 5.6028737599839928 0 5.6028737599839928 -1.410718868695767 0 0 0 0 1.4257334636342875 12.414157406739434 0 12.414157406739434 -31.53497528501498 0 0 0 0 -92.00333191221489 -44.001875191735962 0 -44.001875191735962 80.654874858400035 0 0 0 0 3.2850193906078857 24.720198654134037 0 24.720198654134037 14.671764220844125 0 0 0 0 -11.208600442544164 -7.0518049988444176 0 -7.0518049988444176 -4.2411354811704758 0 0 0 0 -11.583738865794658 16.771950997773956 0 16.771950997773956 10.957790004719755 0 0 0 0 -74.312689112851331 -4.6876155028799076 0 -4.6876155028799076 30.101064930791154 0 0 0 0 -0.96618865870285475 0.031678398222253268 0 0.031678398222253268 0.16165419291882355 0 0 0 0 13.795416351405493 7.868801003848489 0 7.868801003848489 4.5529343109737965 0 0 0 0 1.8114879995027877 9.7561221704613672 0 9.7561221704613672 -3.4335815819893014 0 0 0 0 -3.4119765820832981 10.733112535712735 0 10.733112535712735 4.1022873625297507 0 0 0 0 0.81029791737091728 0.97840504753685309 0 0.97840504753685309 -5.0375158992205797 0 0 0 0 -9.770231772860825 14.477957321260874 0 14.477957321260874 9.9108646586619216 0 0 0 0 -2.8515296189762012 -8.3954210922370294 0 -8.3954210922370294 -6.7642248845663744 0 0 0 0 -32.068984317433205 3.0955582982142005 0 3.0955582982142005 -7.5625897239954156 0 0 0 0 -33.553805127727173 6.032554812425019 0 6.032554812425019 38.487518600173644 0 0 0 0 -15.628741345968592 17.477066091761344 0 17.477066091761344 -1.8417110650980248 0 0 0 0 6.9402591582293098 -5.6170322378266064 0 -5.6170322378266064 21.617202832983821 0 0 0 0 -1.9541611604416183 0.40831406734108588 0 0.40831406734108588 0.071939140412220937 0 0 0 0 -3.1752314154068699 0.60675233272422702 0 0.60675233272422702 22.371514288161052 0 0 0 0 4.6875605046743658 28.620394065605069 0 28.620394065605069 34.998583233345812 0 0 0 0 -5.9569290656158955 -5.2920700311389055 0 -5.2920700311389055 -14.436681770731411 0 0 0 0 -22.477165628890361 -0.14758086089432254 0 -0.14758086089432254 54.306747638662273 0 0 0 0 3.9518002898303166 12.154923883005722 0 12.154923883005722 17.884507475832834 0 0 0 0 -31.284553776373286 2.4877366529858591 0 2.4877366529858591 43.28575275835442 0 0 0 0 -1.9289810712751354 0.38552938040289519 0 0.38552938040289519 0.044163651458953623 0 0 0 0 24.588492754110575 20.428750623128167 0 20.428750623128167 -47.079720611454832 0 0 0 0 6.6297190278683047 -4.8296705198406471 0 -4.8296705198406471 -14.642335490470032 0 0 0 0 3.1834908020973671 -11.504512214193483 0 -11.504512214193483 -8.4444335744904038 0 0 0 0 -0.1946509062975661 0.28407512831742388 0 0.28407512831742388 -0.13264406589862077 0 0 0 0 12.783257174660775 12.065706583870849 0 12.065706583870849 -20.973849885706159 0 0 0 0 -15.860266331652383 -0.84616529183767852 0 -0.84616529183767852 -11.525070011494336 0 0 0 0 -25.633939696524067 -34.251436488647187 0 -34.251436488647187 -94.70677731133344 0 0 0 0 -63.333583648396143 26.432555310859016 0 26.432555310859016 -41.244602258270334 0 0 0 0 0.84883782654469542 -20.847346266120212 0 -20.847346266120212 -8.4465501975678308 0 0 0 0 0.82284904449170426 24.731117019405019 0 24.731117019405019 -4.8705438040401532 0 0 0 0 4.5049405829668103 28.181775111247134 0 28.181775111247134 25.067277580645623 0 0 0 0 37.891331463883944 47.724306292460028 0 47.724306292460028 8.8872406245178013 0 0 0 0 6.9467945245046394 14.367981759614167 0 14.367981759614167 -2.6409171811260421 0 0 0 0 -2.3291349330138473 24.130850473753526 0 24.130850473753526 12.399067874144066 0 0 0 0 30.784312763587423 22.075199717121222 0 22.075199717121222 -3.2693475964218806 0 0 0 0 7.5525525666748763 13.060957530663018 0 13.060957530663018 2.7752559559028214 0 0 0 0 -17.005748314096309 14.477834414127608 0 14.477834414127608 4.2758540497886433 0 0 0 0 -111.09643468896047 -21.443951214020217 0 -21.443951214020217 12.85621745634171 0 0 0 0 -90.304892455638765 20.833263301312627 0 20.833263301312627 -69.762867830762843 0 0 0 0 -15.700602599702506 25.720852802115587 0 25.720852802115587 -24.734230667419297 0 0 0 0 -98.398047222008245 33.225733919006416 0 33.225733919006416 -3.4219163327613842 0 0 0 0 2.3695759823622211 -11.164425506447742 0 -11.164425506447742 -5.1784954307877342 0 0 0 0 -96.280613970446211 -49.959143787489197 0 -49.959143787489197 6.844843588499316 0 0 0 0 -0.9351912244331082 0.010202434316643139 0 0.010202434316643139 0.10046928921691878 0 0 0 0 -16.288466017173864 13.497435875315773 0 13.497435875315773 5.2333531862960108 0 0 0 0 22.985069302326792 39.712479764409068 0 39.712479764409068 14.672383009575015 0 0 0 0 -75.980030750464721 -47.039381871479918 0 -47.039381871479918 7.2294524761892376 0 0 0 0 -31.186164337879291 12.336463335089775 0 12.336463335089775 -8.4169080814717745 0 0 0 0 -77.582215540971447 -37.374520017012856 0 -37.374520017012856 -8.5667794684391083 0 0 0 0 -28.133598103018244 -30.815419815310207 0 -30.815419815310207 -28.798018597999089 0 0 0 0 -3.2861170950882297 18.142774317571821 0 18.142774317571821 17.105232032201798 0 0 0 0 -3.3568090904818746 19.957787906375415 0 19.957787906375415 1.7960566287963502 0 0 0 0 -27.106737705139039 8.9025133432919574 0 8.9025133432919574 9.0356139504742998 0 0 0 0 13.587853621150771 15.253281172637259 0 15.253281172637259 5.343736484427609 0 0 0 0 -2.8971797016674827 24.405670552991751 0 24.405670552991751 11.796134132503084 0 0 0 0 -14.234935637209219 2.7953321320981104 0 2.7953321320981104 -1.525007403887912 0 0 0 0 -18.343589395169602 13.101319944005809 0 13.101319944005809 10.442413095459187 0 0 0 0 -27.212331386487222 7.5843958518973977 0 7.5843958518973977 7.532429400516321 0 0 0 0 -26.96464240990932 -1.2412838863575733 0 -1.2412838863575733 1.9984855604484437 0 0 0 0 -44.090650259547033 5.3431338622743567 0 5.3431338622743567 3.4084189198811146 0 0 0 0 -39.382733014300356 21.642816203128746 0 21.642816203128746 0.32988580402297885 0 0 0 0 -67.965136537659419 -2.7592196904533921 0 -2.7592196904533921 8.3498872138505078 0 0 0 0 -47.63814750081383 4.5708943670817916 0 4.5708943670817916 9.0997498687738982 0 0 0 0 -16.836519350501021 9.0423791836681175 0 9.0423791836681175 0.24648841787544029 0 0 0 0 -13.172011876384659 22.195987269504826 0 22.195987269504826 -15.466788516256884 0 0 0 0 -22.373589399753655 13.681068384300033 0 13.681068384300033 -5.9683776168762961 0 0 0 0 -55.241990534554589 36.543183435798937 0 36.543183435798937 -16.132697915345489 0 0 0 0 -72.243209100727427 18.137498921625422 0 18.137498921625422 11.332849755654024 0 0 0 0 -77.693827204972877 14.527291007565054 0 14.527291007565054 9.7601270893137553 0 0 0 0 16.519059395206114 34.731454888304484 0 34.731454888304484 11.827315124050301 0 0 0 0 -15.463151645499924 12.540105808117195 0 12.540105808117195 6.3408231031592308 0 0 0 0 -3.8952764589139406 26.346476213186804 0 26.346476213186804 1.5047572484254488 0 0 0 0 12.324505534877517 18.117121381976403 0 18.117121381976403 0.51037520287081861 0 0 0 0 4.7207526580984904 15.201536882115988 0 15.201536882115988 -7.7026713605064288 0 0 0 0 -0.23953537069792219 9.8568838466680972 0 9.8568838466680972 -5.1502137234953125 0 0 0 0 4.6053508350046286 11.828853725224803 0 11.828853725224803 5.7616829879576414 0 0 0 0 12.717548085404587 20.490381338064878 0 20.490381338064878 -0.7549697897520673 0 0 0 0 -4.0879488946934543 13.253251972298244 0 13.253251972298244 3.5200108244433181 0 0 0 0 -1.1115359226614974 4.6146097474476759 0 4.6146097474476759 1.748124741529411 0 0 0 0 1.9395868869501101 3.1411892018843446 0 3.1411892018843446 -10.323160867187653 0 0 0 0 1.7682721535620658 5.2480111275478976 0 5.2480111275478976 -6.306346939941875 0 0 0 0 1.194201954995151 7.4483226734995469 0 7.4483226734995469 -13.571849976406156 0 0 0 0 -14.804065563331278 15.279407894152655 0 15.279407894152655 7.5541276109388491 0 0 0 0 -11.055728698091116 -30.577206052916608 0 -30.577206052916608 33.564468528020825 0 0 0 0 0.50183510564622402 1.491312938654239 0 1.491312938654239 1.0916277525832845 0 0 0 0 2.7021022432363679 2.2232605347834351 0 2.2232605347834351 -9.6456040044521387 0 0 0 0 -4.2841759326118023 -0.94421646019987715 0 -0.94421646019987715 -0.26276361878695331 0 0 0 0 15.19348387719765 10.061685154745874 0 10.061685154745874 14.633067735772102 0 0 0 0 -65.750633887274489 57.966399451015263 0 57.966399451015263 -19.581786273924536 0 0 0 0 -72.032241576065644 73.551856537271078 0 73.551856537271078 -24.175449107052373 0 0 0 0 -23.185089621025327 25.008619953982929 0 25.008619953982929 -19.258622613589068 0 0 0 0 4.436089505761629 8.3862574720822067 0 8.3862574720822067 -17.897591161911294 0 0 0 0 -18.428569088599261 26.695433106507949 0 26.695433106507949 -29.560717121880771 0 0 0 0 23.358054689391793 3.1682024640572308 0 3.1682024640572308 -35.674650230876523 0 0 0 0 -4.9079246125684151 -1.0584655209200786 0 -1.0584655209200786 -0.12598124515694442 0 0 0 0 3.2818856367321132 -4.3168552699191878 0 -4.3168552699191878 13.474443738987247 0 0 0 0 -7.9437585176301582 -19.717548561662625 0 -19.717548561662625 14.770872038137213 0 0 0 0 1.5146434694688651 6.2757701942216499 0 6.2757701942216499 -0.71134396488287166 0 0 0 0 3.7413809084464447 1.7100817272398672 0 1.7100817272398672 -13.574499495318992 0 0 0 0 27.377506440879188 -62.862194754675329 0 -62.862194754675329 30.281378430644963 0 0 0 0 32.950953420221595 -15.711833881798384 0 -15.711833881798384 -13.097128147050626 0 0 0 0 17.360585659997696 57.424728458957219 0 57.424728458957219 -113.59925291042418 0 0 0 0 140.53579898463204 -44.044291023250935 0 -44.044291023250935 -73.432807145896277 0 0 0 0 -251.56734807840803 217.45216441391949 0 217.45216441391949 -56.219880267497501 0 0 0 0 -372.18140425301942 -32.011994725146621 0 -32.011994725146621 56.031946766574492 0 0 0 0 76.149418102913046 171.40999749231509 0 171.40999749231509 -217.45459274905988 0 0 0 0 -123.68108723681144 -39.832248498129729 0 -39.832248498129729 44.622668685904216 0 0 0 0 -143.61486717606155 -20.251074895633451 0 -20.251074895633451 25.648011802132714 0 0 0 0 -143.8630651834269 46.054239023801529 0 46.054239023801529 10.34108747427149 0 0 0 0 -128.50408927651233 -57.999821451838898 0 -57.999821451838898 9.1845958621900081 0 0 0 0 -56.545767048709877 -78.339030551865108 0 -78.339030551865108 -15.297103397408932 0 0 0 0 -42.363341112985836 -120.07199273111769 0 -120.07199273111769 25.314112392483821 0 0 0 0 -158.33065761781199 -133.07744608307496 0 -133.07744608307496 30.281431468323717 0 0 0 0 -38.890595551789829 -55.814440903477589 0 -55.814440903477589 -5.9207786965512241 0 0 0 0 58.213400282113071 -22.918058436833235 0 -22.918058436833235 12.82890479712978 0 0 0 0 1.6593799167280849 -48.559792439531748 0 -48.559792439531748 -9.4054044199879172 0 0 0 0 -40.606445859945779 -60.26783443616705 0 -60.26783443616705 9.1385903185732786 0 0 0 0 -32.587065017823079 -8.0524653294246491 0 -8.0524653294246491 86.402415415924366 0 0 0 0 -2.4213535941935334 -27.479752722684907 0 -27.479752722684907 33.772589735103793 0 0 0 0 -19.086425411560413 -6.5197990438027773 0 -6.5197990438027773 26.851961366450439 0 0 0 0 -24.874962855575859 -27.211221364151854 0 -27.211221364151854 -1.8290879620822125 0 0 0 0 -42.43546123122951 -10.133683573243616 0 -10.133683573243616 -13.839243045730313 0 0 0 0 -39.53345658254193 -41.249575667223326 0 -41.249575667223326 -10.932100412201407 0 0 0 0 -52.60802450067149 -41.776033723441287 0 -41.776033723441287 -4.692341860304623 0 0 0 0 -72.695490622070793 -30.454540859142526 0 -30.454540859142526 1.3258519628127488 0 0 0 0 -77.069014230980883 -37.021905979394091 0 -37.021905979394091 -6.0750366567856418 0 0 0 0 -58.584743766645715 -14.44168121850862 0 -14.44168121850862 -10.338162928946304 0 0 0 0 -70.100212133853802 -12.588244196815026 0 -12.588244196815026 -6.4130804333888136 0 0 0 0 -85.003555257138714 -20.284369810533917 0 -20.284369810533917 3.8703015091264206 0 0 0 0 -95.035598364787802 -12.746992004472759 0 -12.746992004472759 0.4838561579567795 0 0 0 0 -88.645107133749207 -24.507343685637125 0 -24.507343685637125 -0.88964315624014034 0 0 0 0 -84.232335612867246 -32.232914009406841 0 -32.232914009406841 4.2544165604178943 0 0 0 0 -78.951741656150261 -26.495892753736143 0 -26.495892753736143 10.439728321507362 0 0 0 0 -83.137825220407194 -19.534071109730235 0 -19.534071109730235 11.157193753958609 0 0 0 0 -65.193659733013874 -7.3484958487771337 0 -7.3484958487771337 14.95128244352054 0 0 0 0 -99.193917216590307 -11.548738200222715 0 -11.548738200222715 14.982224229335792 0 0 0 0 -90.650843092405012 -20.389570250289466 0 -20.389570250289466 23.347176287475577 0 0 0 0 -78.895233517502504 -46.854405091618645 0 -46.854405091618645 11.66040994885816 0 0 0 0 -100.21698726931891 -34.938938335983721 0 -34.938938335983721 10.463418789216465 0 0 0 0 -1.0418837766403612 2.7728649480222458 0 2.7728649480222458 2.154392721649856 0 0 0 0 -2.1791984590954598 1.269245838715392 0 1.269245838715392 4.8487037719362434 0 0 0 0 -1.9968942553848592 3.928188405337977 0 3.928188405337977 1.4500138382692285 0 0 0 0 0.87838986131136565 1.5306384098641888 0 1.5306384098641888 0.65648273664859869 0 0 0 0 -178.44216854530168 -54.91892859838299 0 -54.91892859838299 79.843839187777121 0 0 0 0 -33.409312524282541 99.391553518483988 0 99.391553518483988 179.16433494666944 0 0 0 0 -290.56570567131166 58.583086933864706 0 58.583086933864706 100.1098942979761 0 0 0 0 -0.3723560232471268 0.47937159904040683 0 0.47937159904040683 0.58029932427231046 0 0 0 0 -232.12346371048443 -84.017664730021806 0 -84.017664730021806 56.578127799862955 0 0 0 0 -93.588950903956174 114.43685450214139 0 114.43685450214139 45.525067838629639 0 0 0 0 8.9935198674138519 4.0527545989201599 0 4.0527545989201599 -11.268528352783051 0 0 0 0 -1.1193090912505799 -0.097853299199306853 0 -0.097853299199306853 2.6003371125548687 0 0 0 0 -3.0267193474855958 74.753215746952833 0 74.753215746952833 -14.632746300226515 0 0 0 0 -48.57876376583863 -16.860285728751251 0 -16.860285728751251 -1.5203051925841464 0 0 0 0 -67.249234242283819 41.957598076586464 0 41.957598076586464 -3.6106350770255631 0 0 0 0 -161.36972675679306 -2.8868403201001058 0 -2.8868403201001058 9.3779862429325931 0 0 0 0 -126.65499829761939 57.119438799524005 0 57.119438799524005 -26.11587367546997 0 0 0 0 -0.21966297005776703 0.50004799607581596 0 0.50004799607581596 -0.8057862558486022 0 0 0 0 -27.32215940613969 22.118256617260158 0 22.118256617260158 -58.088611656859257 0 0 0 0 -45.33302897116846 23.294233378468334 0 23.294233378468334 56.832945785673701 0 0 0 0 -55.76171001162129 108.60072785593752 0 108.60072785593752 -16.318543746669533 0 0 0 0 18.166187060581251 130.16778727965198 0 130.16778727965198 52.765680588698615 0 0 0 0 -70.554310470487593 -28.189249489363576 0 -28.189249489363576 18.235067621570124 0 0 0 0 -5.0494823953940795 -24.561238550714393 0 -24.561238550714393 20.848329470889439 0 0 0 0 -48.830698750771262 -2.2282922707552189 0 -2.2282922707552189 20.558529330784292 0 0 0 0 -64.014742851578703 21.713858082720485 0 21.713858082720485 -19.335854653904789 0 0 0 0 -64.371847763454298 10.232715660772556 0 10.232715660772556 -12.031304159546039 0 0 0 0 -20.787613651577715 5.1727642619974432 0 5.1727642619974432 -23.563952175937175 0 0 0 0 -81.097323940671004 12.234128141129105 0 12.234128141129105 1.0601497628144898 0 0 0 0 -57.951312404048089 9.2047528453175467 0 9.2047528453175467 -15.282384696242389 0 0 0 0 -80.212609831760346 9.7502603464689628 0 9.7502603464689628 -5.3937993229963013 0 0 0 0 -89.792512831578733 8.7001288363537697 0 8.7001288363537697 -0.94263797164489915 0 0 0 0 -60.412331716506287 -14.741264657513739 0 -14.741264657513739 -1.8123148546342236 0 0 0 0 -80.584130791111875 10.228269729760768 0 10.228269729760768 -3.5222174917378197 0 0 0 0 -103.39709590270596 -13.100108967434323 0 -13.100108967434323 2.5080788122099875 0 0 0 0 -106.86997794243007 26.070022514102448 0 26.070022514102448 -5.9389409788986995 0 0 0 0 -9.4539368685059344 -13.565734379097421 0 -13.565734379097421 17.362106051618412 0 0 0 0 -13.669443480031077 2.8866469645481629 0 2.8866469645481629 20.637924791380556 0 0 0 0 -9.6181136490085919 7.4067174036517827 0 7.4067174036517827 14.425937532878379 0 0 0 0 -33.850342543076067 14.311614459573434 0 14.311614459573434 -10.745244034490725 0 0 0 0 -1.5953969843559843 1.0838386170793752 0 1.0838386170793752 -2.0677675991825222 0 0 0 0 -1.1794045207043382 8.1768294548476206 0 8.1768294548476206 6.4875760822783377 0 0 0 0 -7.7432782801197391 3.4731255392803178 0 3.4731255392803178 3.0129299503801121 0 0 0 0 -11.513590782667961 -2.6108834376882442 0 -2.6108834376882442 4.4995932005367649 0 0 0 0 -6.638741948925599 2.7994729381348407 0 2.7994729381348407 2.6203349270474519 0 0 0 0 -5.2556779451877027 -0.38478343259688375 0 -0.38478343259688375 2.119909304845228 0 0 0 0 -1.3922169703785361 -0.4615760646535616 0 -0.4615760646535616 3.7681988782358884 0 0 0 0 -14.805893782001021 -6.4909337322037572 0 -6.4909337322037572 11.252151347904601 0 0 0 0 -9.5612347859178044 -5.6262487496956055 0 -5.6262487496956055 -12.03630428419865 0 0 0 0 -9.2118013867402624 -1.0600545242289172 0 -1.0600545242289172 3.7025855588933609 0 0 0 0 -6.719554461311418 -2.87061375304188 0 -2.87061375304188 4.8735209536553157 0 0 0 0 -1.9081726150214751 -0.62890416878934641 0 -0.62890416878934641 -0.12193678715084566 0 0 0 0 -8.109095635000358 -5.0911109469666371 0 -5.0911109469666371 -1.6171284909382848 0 0 0 0 -9.3261592306046737 -6.1899950044669083 0 -6.1899950044669083 -1.0171087450253253 0 0 0 0 -6.0422976186326949 -2.2001925931512591 0 -2.2001925931512591 0.77770747459723832 0 0 0 0 -8.6258519837047061 -0.9680938248725397 0 -0.9680938248725397 -2.501476038742112 0 0 0 0 -5.5099769181787659 -0.55871673271833533 0 -0.55871673271833533 -0.3454592614983536 0 0 0 0 -2.8061726757168799 -1.1516438283597381 0 -1.1516438283597381 1.229460797594129 0 0 0 0 -4.9412395830050286 -1.9520247413459078 0 -1.9520247413459078 -1.0537646233068561 0 0 0 0 -5.0434283157534079 -2.471364736389992 0 -2.471364736389992 -1.8179491032990018 0 0 0 0 -7.816822413232785 -4.0820559844942181 0 -4.0820559844942181 -5.2547151589278656 0 0 0 0 -28.193909780353351 -9.8756275751511566 0 -9.8756275751511566 -7.7340394971745354 0 0 0 0 -0.20078160901809206 -0.29992356366271355 0 -0.29992356366271355 -0.92352392095337921 0 0 0 0 -4.0458391313353257 -3.230707783670089 0 -3.230707783670089 -2.6840020547866708 0 0 0 0 -7.754573962541599 -5.1023874658499153 0 -5.1023874658499153 6.4851719927041813 0 0 0 0 -29.891478799714605 -14.598983684545601 0 -14.598983684545601 -6.9716760892568459 0 0 0 0 10.506596277137305 3.166066667961104 0 3.166066667961104 -3.6171621974153823 0 0 0 0 -11.200384999443941 -3.6529840209389022 0 -3.6529840209389022 6.5692180267008808 0 0 0 0 -83.071111216045665 21.148909324554438 0 21.148909324554438 -4.1311725752236725 0 0 0 0 0.1784399175235194 -12.983079944730321 0 -12.983079944730321 0.19106113369230115 0 0 0 0 -2.7783623323128532 -2.2113322143867236 0 -2.2113322143867236 -1.8411420538408709 0 0 0 0 -73.570009180476973 16.335016311757272 0 16.335016311757272 -6.4229295931693287 0 0 0 0 -19.868168545416154 11.080190564724091 0 11.080190564724091 -10.52262970332049 0 0 0 0 -82.470033866775339 11.74509331976526 0 11.74509331976526 -4.4554519173984772 0 0 0 0 -130.38238115677132 16.878850106114783 0 16.878850106114783 4.4330283499881489 0 0 0 0 -83.083498116920396 12.4529922890178 0 12.4529922890178 1.1029893465140503 0 0 0 0 -82.961182452432851 20.304136638348204 0 20.304136638348204 -11.736140943228293 0 0 0 0 -246.69059761581116 56.06423146843872 0 56.06423146843872 -15.899018555759994 0 0 0 0 -3.963236900419588 -55.926009842197345 0 -55.926009842197345 -118.90215499960925 0 0 0 0 -0.9704345808132766 -0.79285448337157072 0 -0.79285448337157072 -0.84893643844184208 0 0 0 0 -131.28136120655063 -110.40723050039651 0 -110.40723050039651 -68.25082127923929 0 0 0 0 -235.8734589086389 8.1467133674221941 0 8.1467133674221941 -8.9625406399466101 0 0 0 0 -30.062916750610611 -52.376765736005041 0 -52.376765736005041 -58.41763084190201 0 0 0 0 -58.136381580778334 -38.371950943478623 0 -38.371950943478623 -32.622646908374008 0 0 0 0 -14.040570158650553 -4.8099661483469163 0 -4.8099661483469163 -0.56535381393021567 0 0 0 0 4.0817229004057225 7.374194298974416 0 7.374194298974416 -54.060566243569838 0 0 0 0 -5.9988469480318827 -2.2061234884064334 0 -2.2061234884064334 -25.465925277969291 0 0 0 0 -11.614538964135477 -27.471993764211902 0 -27.471993764211902 -33.805970157574393 0 0 0 0 -13.32892691417419 -26.741248509417574 0 -26.741248509417574 -23.726058453441738 0 0 0 0 -6.6185003031389442 -17.304954379825858 0 -17.304954379825858 -35.194553180145363 0 0 0 0 -9.5664649028375948 -12.902217117620069 0 -12.902217117620069 -13.42967215172439 0 0 0 0 -7.5002981335412642 -8.2920737098238533 0 -8.2920737098238533 -17.885390488564326 0 0 0 0 -10.501218237387548 -15.546919414869762 0 -15.546919414869762 -15.946460585923887 0 0 0 0 -9.0186619726933941 -5.7891238373813394 0 -5.7891238373813394 -1.844235501967205 0 0 0 0 -9.3055384048965379 -6.0663832000473121 0 -6.0663832000473121 -5.9337379355374651 0 0 0 0 -9.8568590157003655 -0.27278665011897374 0 -0.27278665011897374 -5.9059462054174219 0 0 0 0 -7.9756984548058654 -0.79523799433718523 0 -0.79523799433718523 -2.4501043174623192 0 0 0 0 -71.553133661955826 -26.711869717371428 0 -26.711869717371428 -16.754113364745081 0 0 0 0 -83.980213040726085 -18.687699453594632 0 -18.687699453594632 -10.544591837459848 0 0 0 0 -64.677329582485072 -15.403352493152056 0 -15.403352493152056 -0.49735800061966984 0 0 0 0 -35.282675217216365 -9.0845234696932948 0 -9.0845234696932948 -20.959531754453565 0 0 0 0 -18.114880750264412 3.8963369697843984 0 3.8963369697843984 -4.8731288949443297 0 0 0 0 -42.163173584440756 -13.402182627030697 0 -13.402182627030697 -4.4881089882968048 0 0 0 0 -58.941567138679375 -16.695139935463715 0 -16.695139935463715 2.2668315680407432 0 0 0 0 -53.640612111173368 -8.4244520468784003 0 -8.4244520468784003 7.6163187755512354 0 0 0 0 -78.74899522807732 -20.810639570987405 0 -20.810639570987405 4.2774065467247055 0 0 0 0 -65.588629702471735 -25.987377994540338 0 -25.987377994540338 -7.4987587312425603 0 0 0 0 -86.298474879967216 -30.361793877513946 0 -30.361793877513946 -7.5989435355537012 0 0 0 0 -108.32157557730898 -18.570235991843219 0 -18.570235991843219 3.7473058045889047 0 0 0 0 -127.08600058609795 -29.348449497844513 0 -29.348449497844513 -0.29266913983769882 0 0 0 0 -103.10327797965374 -32.20229534865075 0 -32.20229534865075 -20.003711772756105 0 0 0 0 -108.09390690149849 -16.336662942496673 0 -16.336662942496673 -22.491125240748005 0 0 0 0 -96.081974940317195 -22.115027528906921 0 -22.115027528906921 -5.6018949714122073 0 0 0 0 -96.236788400251726 -35.345446345655148 0 -35.345446345655148 -29.52358047813027 0 0 0 0 -64.717858494095253 -25.078699905616645 0 -25.078699905616645 -56.432742521982163 0 0 0 0 -160.19923946146423 -70.980883450793812 0 -70.980883450793812 -77.702912289290452 0 0 0 0 -115.75891765423239 45.106156416110366 0 45.106156416110366 -126.12336962564837 0 0 0 0 -94.374087429985821 -0.31384582304303876 0 -0.31384582304303876 -34.108545311713442 0 0 0 0 -64.166081518899546 21.393290020423592 0 21.393290020423592 -43.251777746692824 0 0 0 0 -42.634672857199575 18.958887053843171 0 18.958887053843171 2.9671556063690332 0 0 0 0 -50.219660866222512 3.4558283142307573 0 3.4558283142307573 -20.300242875392385 0 0 0 0 -50.305041744159723 -4.3547276634280507 0 -4.3547276634280507 -4.3778239770667824 0 0 0 0 -49.155450818298959 -8.7829360701962287 0 -8.7829360701962287 -40.336038174404621 0 0 0 0 -34.82563019463214 -2.4042267275303857 0 -2.4042267275303857 -0.50799573780591345 0 0 0 0 -4.7056355482117738 12.780979525357225 0 12.780979525357225 -9.4025511215868391 0 0 0 0 -15.936675764621214 21.01505167749076 0 21.01505167749076 7.2857700772558474 0 0 0 0 -22.079944771395731 4.9526952226246976 0 4.9526952226246976 -22.598225952241819 0 0 0 0 -29.62814857364765 39.230435063978348 0 39.230435063978348 -3.4223298348411788 0 0 0 0 1.2121666006751184 17.905404690003252 0 17.905404690003252 -3.2046230541881187 0 0 0 0 -12.128421561544542 48.805721301402713 0 48.805721301402713 25.115802209756339 0 0 0 0 -66.180967375408727 17.913041034857201 0 17.913041034857201 0.83288180277531865 0 0 0 0 -30.752317591840892 28.272254487304622 0 28.272254487304622 -19.136630780723706 0 0 0 0 -70.390756609443997 34.03709335056692 0 34.03709335056692 -39.795447963887852 0 0 0 0 -141.7128604211091 22.950023869583731 0 22.950023869583731 8.8585798748663365 0 0 0 0 -90.887924954158279 11.192094444129452 0 11.192094444129452 21.684986687588889 0 0 0 0 -75.525371091394391 6.2125428370353575 0 6.2125428370353575 12.739817705309633 0 0 0 0 -86.017671285314918 12.638270471404098 0 12.638270471404098 23.137134673297965 0 0 0 0 -63.695054427154673 43.705541297621323 0 43.705541297621323 6.9077991235494949 0 0 0 0 -55.475015713118637 14.525985719101641 0 14.525985719101641 28.456350114461003 0 0 0 0 -78.009491737848066 19.90987318304326 0 19.90987318304326 28.221868065182605 0 0 0 0 -66.453093794737924 0.32809865482511213 0 0.32809865482511213 26.433837392621058 0 0 0 0 -62.94368087931241 10.52233590521989 0 10.52233590521989 26.982491186774382 0 0 0 0 -17.925496336543283 15.320262428853161 0 15.320262428853161 4.2100580152258278 0 0 0 0 -26.82164143709997 19.165838155000671 0 19.165838155000671 12.551652600437478 0 0 0 0 -31.880567051962771 23.580607634448853 0 23.580607634448853 20.546486564321597 0 0 0 0 -35.987835253043613 18.704419725284367 0 18.704419725284367 -8.0630246756609267 0 0 0 0 -17.842296082126545 15.334384536183688 0 15.334384536183688 3.9437892224996474 0 0 0 0 -58.05949444024742 21.087225300875033 0 21.087225300875033 24.300559207970423 0 0 0 0 -48.218504262950717 -41.74490539609792 0 -41.74490539609792 -21.98957145395002 0 0 0 0 -22.012083137371519 -34.813619384973435 0 -34.813619384973435 -0.8401979202756138 0 0 0 0 -48.207537417195226 -35.06217563203495 0 -35.06217563203495 -0.49336489183588128 0 0 0 0 -30.251998283006401 -28.366849623414623 0 -28.366849623414623 -1.511290142626649 0 0 0 0 -15.715532748408918 -18.539285506369026 0 -18.539285506369026 -4.6162484170008611 0 0 0 0 -17.404301101059446 -22.639004749297555 0 -22.639004749297555 -9.0292430764820892 0 0 0 0 -17.392423610460128 -38.880570021089625 0 -38.880570021089625 -14.431800272195801 0 0 0 0 -14.803626700926259 -27.87784836328413 0 -27.87784836328413 -24.598729923059636 0 0 0 0 -18.586511403310396 -43.749899512564696 0 -43.749899512564696 -34.237669482984074 0 0 0 0 -24.345606973215808 -40.471791270455697 0 -40.471791270455697 -14.374307304052991 0 0 0 0 -12.212050289468834 -50.911940341269542 0 -50.911940341269542 -8.6700798625678317 0 0 0 0 -34.319046303499704 -51.837927697608279 0 -51.837927697608279 9.9873197844713104 0 0 0 0 -22.761235812353789 -35.913888348726516 0 -35.913888348726516 5.2178023470169137 0 0 0 0 -20.86609001296415 -38.7214378426346 0 -38.7214378426346 -11.080277880797638 0 0 0 0 -60.21698848474739 -17.589224361158188 0 -17.589224361158188 21.90844676759616 0 0 0 0 -44.305431222674315 -35.939910410116227 0 -35.939910410116227 -10.562420204580917 0 0 0 0 -59.217428922049749 -54.426088487804805 0 -54.426088487804805 -28.70506442873284 0 0 0 0 -106.93272524293116 -23.235791032177474 0 -23.235791032177474 9.2898590281463385 0 0 0 0 -96.962216693007349 -12.759396907431324 0 -12.759396907431324 -6.1028040778065531 0 0 0 0 -63.525416301665246 -24.163100546702594 0 -24.163100546702594 9.123452914001497 0 0 0 0 -57.456014839007366 6.0669659855902296 0 6.0669659855902296 30.074990505848177 0 0 0 0 -41.330327809451319 -2.1875565371818482 0 -2.1875565371818482 27.304739507223076 0 0 0 0 -40.456918078383069 -0.60472818826215757 0 -0.60472818826215757 27.312139642770035 0 0 0 0 -58.592777998520262 0.91910499982893157 0 0.91910499982893157 34.042178108002304 0 0 0 0 -19.258116212037294 -19.959701017783971 0 -19.959701017783971 33.444344521357266 0 0 0 0 -11.27469935185843 -0.92960300558669928 0 -0.92960300558669928 30.156160105828349 0 0 0 0 -38.510821835803483 -23.940656009682158 0 -23.940656009682158 20.137748843932627 0 0 0 0 0.057715342016029236 -0.012111794187361968 0 -0.012111794187361968 -0.19116683925072575 0 0 0 0 24.315947364651493 -77.53197670343846 0 -77.53197670343846 14.978812891259345 0 0 0 0 31.054330082961314 -38.298608301598478 0 -38.298608301598478 -2.3020665972896097 0 0 0 0 -28.260360683193767 3.8033524655155873 0 3.8033524655155873 -19.396786053934811 0 0 0 0 -47.776300931497531 -6.2928492767980373 0 -6.2928492767980373 10.109147368801473 0 0 0 0 -69.398437058268627 -34.008487682667266 0 -34.008487682667266 -22.382142583747736 0 0 0 0 -89.687822583792808 14.078360667774717 0 14.078360667774717 -15.990489560648598 0 0 0 0 -19.786292544894081 12.068501209136059 0 12.068501209136059 16.497378413800419 0 0 0 0 -23.659883517867513 7.3650561402593695 0 7.3650561402593695 27.805559043655279 0 0 0 0 -32.611250699382481 -6.6476765589047204 0 -6.6476765589047204 9.5257792740313221 0 0 0 0 -32.819621280449418 5.2987884345708158 0 5.2987884345708158 41.119717290644218 0 0 0 0 -13.42543141673292 56.71731648413391 0 56.71731648413391 13.319978279686637 0 0 0 0 -22.67906984451713 -10.35209513089201 0 -10.35209513089201 5.6815238522274996 0 0 0 0 0.30158047471960148 0.33854140488274287 0 0.33854140488274287 0.61575914945757348 0 0 0 0 -12.102400217401282 22.095032295174946 0 22.095032295174946 28.57599110346807 0 0 0 0 -20.365739845002629 -27.892753184767539 0 -27.892753184767539 38.54793003273457 0 0 0 0 -4.7295107828161917 -19.693111308091481 0 -19.693111308091481 19.117753862765255 0 0 0 0 -20.783803038174938 -34.160045027070176 0 -34.160045027070176 7.7479748843681193 0 0 0 0 -0.34296255593340641 -0.23057003204249882 0 -0.23057003204249882 0.098458059821669108 0 0 0 0 1.6911689368778298 -25.685948556572058 0 -25.685948556572058 20.160563210251951 0 0 0 0 -4.5453713771111666 -4.0722047383780193 0 -4.0722047383780193 13.407299453847827 0 0 0 0 -36.622181591834305 10.824286051891264 0 10.824286051891264 7.0065311595565163 0 0 0 0 -42.869761397253683 -0.4673898388341442 0 -0.4673898388341442 16.89412127073723 0 0 0 0 -38.594207142585901 8.7468735183141142 0 8.7468735183141142 -5.4874734315230818 0 0 0 0 -38.20426829619737 6.7838712190494874 0 6.7838712190494874 4.2916822274136521 0 0 0 0 -0.5134699655677748 -0.39965153207974669 0 -0.39965153207974669 0.026197456354157739 0 0 0 0 -40.367591530550499 24.332758610869604 0 24.332758610869604 39.873925479133419 0 0 0 0 -0.098197234846599812 -0.15086287789849173 0 -0.15086287789849173 -0.30522098785132812 0 0 0 0 44.335826593965876 -67.434362890466815 0 -67.434362890466815 -10.286597396909656 0 0 0 0 47.558898099653888 -6.0676344393622372 0 -6.0676344393622372 -77.818761471813673 0 0 0 0 -27.410445545775019 -27.189726618408628 0 -27.189726618408628 19.800876636217595 0 0 0 0 -51.137371716734037 -22.484475965569857 0 -22.484475965569857 8.3233779952307714 0 0 0 0 -22.529628788197101 -13.393779242389428 0 -13.393779242389428 0.36103503196136444 0 0 0 0 -18.285499086113759 -19.527557286397268 0 -19.527557286397268 9.0766362611079217 0 0 0 0 -33.735619432449255 -34.662010881489778 0 -34.662010881489778 -12.733705619808347 0 0 0 0 -15.15861117881218 3.8866297455435301 0 3.8866297455435301 -15.87725660849506 0 0 0 0 -2.7033881299279199 -1.3226082913261874 0 -1.3226082913261874 -0.033945809014137573 0 0 0 0 -8.1644110440233817 -2.0220954990445534 0 -2.0220954990445534 -15.254152473428462 0 0 0 0 -22.327516536265762 8.392938709794926 0 8.392938709794926 11.702741756032751 0 0 0 0 -21.561091874321846 17.890721729351156 0 17.890721729351156 -11.812155666711718 0 0 0 0 -29.08969041476621 -16.33927966636648 0 -16.33927966636648 54.810479612377733 0 0 0 0 -28.554492335745138 -3.1299122533693291 0 -3.1299122533693291 7.8652869189184855 0 0 0 0 -17.982093654138453 3.4738867534221924 0 3.4738867534221924 -5.4630262212274943 0 0 0 0 -3.1679446674090226 -0.16625207931443908 0 -0.16625207931443908 1.642144959237779 0 0 0 0 -23.573224547380963 -2.8403081753765633 0 -2.8403081753765633 12.385882922412975 0 0 0 0 -13.944979375143053 -1.7266234471176674 0 -1.7266234471176674 1.7596556584832883 0 0 0 0 -8.0593622475636266 -2.2696807026900956 0 -2.2696807026900956 -4.5854912615335479 0 0 0 0 -20.092603183550636 -5.7440346521505035 0 -5.7440346521505035 12.121235519936704 0 0 0 0 -9.1647610448717227 -3.4817095563338389 0 -3.4817095563338389 -1.9300908561283543 0 0 0 0 -12.125371047155568 -1.5060571094979878 0 -1.5060571094979878 -5.6164924283791038 0 0 0 0 -17.251873869411952 -2.0377109144299652 0 -2.0377109144299652 4.6267340400387411 0 0 0 0 -14.148230299813122 3.2375397589612902 0 3.2375397589612902 13.57987992729818 0 0 0 0 -17.72894939363551 15.0053948562941 0 15.0053948562941 4.6007504963959125 0 0 0 0 -30.315154742733284 14.994032115535305 0 14.994032115535305 -10.479406102857752 0 0 0 0 -61.0861607840734 -3.8655039545943737 0 -3.8655039545943737 7.0638325044852195 0 0 0 0 -51.832688717176552 8.3292512489998387 0 8.3292512489998387 9.4132368116966063 0 0 0 0 -55.634071446388361 5.876513665787968 0 5.876513665787968 23.533447192581065 0 0 0 0 -56.764558478930439 5.4639334323087496 0 5.4639334323087496 27.92879276263395 0 0 0 0 -53.537275865432889 -2.5243946873569127 0 -2.5243946873569127 0.9617950755122564 0 0 0 0 -59.959472770614411 9.1648272658823853 0 9.1648272658823853 11.635223848399153 0 0 0 0 -50.962942522396133 2.8100093285575767 0 2.8100093285575767 10.5191465425616 0 0 0 0 -62.071070855418839 2.4124147390755581 0 2.4124147390755581 -10.028171158580591 0 0 0 0 -71.052201619058451 -5.6973953513264064 0 -5.6973953513264064 0.41912843620409745 0 0 0 0 -68.127787689264096 25.942461115435762 0 25.942461115435762 -15.384267552433073 0 0 0 0 -113.98708244436716 -47.830193332129284 0 -47.830193332129284 19.537975905865324 0 0 0 0 -122.16280332118504 30.787568214463818 0 30.787568214463818 1.9756752731069014 0 0 0 0 -26.45630377109228 15.108708836108462 0 15.108708836108462 5.0432740899384498 0 0 0 0 -25.938906758715689 2.9729464727160355 0 2.9729464727160355 -3.0395832021631577 0 0 0 0 -17.628812773467676 14.637847695063702 0 14.637847695063702 5.3787466692114627 0 0 0 0 -14.285880269057998 7.26455723615652 0 7.26455723615652 7.3082082510004511 0 0 0 0 -59.502118768001765 -9.1378370717819735 0 -9.1378370717819735 4.5682003813637948 0 0 0 0 -65.602386376351205 -0.15283758185876195 0 -0.15283758185876195 15.047228880644298 0 0 0 0 -50.560308031518616 -14.808863251138803 0 -14.808863251138803 -7.8394071210771017 0 0 0 0 -72.936984977362386 -30.358432014021233 0 -30.358432014021233 -36.723311160065805 0 0 0 0 -75.853987809563478 -10.415946802020812 0 -10.415946802020812 8.5572741592199009 0 0 0 0 -109.94853831349974 -41.355763569011742 0 -41.355763569011742 8.4301681387942722 0 0 0 0 -109.84201933730765 -39.162961698944059 0 -39.162961698944059 -4.0873946341150713 0 0 0 0 -134.04818989476735 -39.074157262475637 0 -39.074157262475637 12.766895694343646 0 0 0 0 -78.930248006574402 18.54358875622836 0 18.54358875622836 6.4567875222342082 0 0 0 0 -0.31029591325755845 -0.42739760069749622 0 -0.42739760069749622 -0.7040512137955881 0 0 0 0 -210.68744320816631 14.85538704093139 0 14.85538704093139 8.0778468545029227 0 0 0 0 -169.03580885373049 -74.173179150784534 0 -74.173179150784534 -24.788563830070643 0 0 0 0 -92.35145790943443 -19.819381864431193 0 -19.819381864431193 -94.980838469207015 0 0 0 0 -94.06171316144264 -11.868171774950156 0 -11.868171774950156 -3.6417814127394195 0 0 0 0 -59.565915370862513 -2.1719888754170711 0 -2.1719888754170711 -35.1279566447663 0 0 0 0 -149.16614268568173 -14.326364487247815 0 -14.326364487247815 -12.969665610922448 0 0 0 0 -120.1724984742209 -99.109526075088638 0 -99.109526075088638 -52.79972169998473 0 0 0 0 -89.378788883556581 -51.824579894290579 0 -51.824579894290579 -25.23511488888812 0 0 0 0 -81.492992644644801 -17.588994315432956 0 -17.588994315432956 -12.985343395506632 0 0 0 0 -89.737719610759996 -16.727854655802901 0 -16.727854655802901 -0.63516723679867937 0 0 0 0 -49.834681869925589 -35.055816122003534 0 -35.055816122003534 -27.110256927970653 0 0 0 0 -26.306136989307561 -16.286790672613336 0 -16.286790672613336 -45.167428057026655 0 0 0 0 -51.729390491419963 -33.654629594611492 0 -33.654629594611492 -21.243894907690901 0 0 0 0 -35.578920993874817 -41.212317984553692 0 -41.212317984553692 -32.100351376651361 0 0 0 0 -36.483873306502574 -38.90170859234604 0 -38.90170859234604 -36.838860010818962 0 0 0 0 -16.438154702635074 -21.010170728280627 0 -21.010170728280627 -30.032462016529109 0 0 0 0 -11.055719980810636 2.432801060249659 0 2.432801060249659 -8.4390946796688695 0 0 0 0 -16.522519689693581 -2.7866849435222889 0 -2.7866849435222889 2.7589027097321832 0 0 0 0 2.6173794586975418 -7.572593441015556 0 -7.572593441015556 -33.357286175117935 0 0 0 0 21.004593359033606 -46.67626837480816 0 -46.67626837480816 -68.826941472028864 0 0 0 0 -1.9858178926997425 3.3826840399118794 0 3.3826840399118794 7.2764203467806965 0 0 0 0 -38.628763062743019 -16.121856721671406 0 -16.121856721671406 -1.1000967806609623 0 0 0 0 0.41946441374420829 -26.648231222136644 0 -26.648231222136644 21.45594037205143 0 0 0 0 13.77676795804291 -21.724151654950674 0 -21.724151654950674 20.645413419665147 0 0 0 0 -1.2997770874722647 -1.5262357438720588 0 -1.5262357438720588 -0.66492638138009674 0 0 0 0 -0.11532557433330126 -0.51582100879769044 0 -0.51582100879769044 -0.75234720018437873 0 0 0 0 -9.8647823400906418 0.49126584033473364 0 0.49126584033473364 4.8093027986981269 0 0 0 0 4.6727722294635896 -7.8184670678137991 0 -7.8184670678137991 2.1964112921358634 0 0 0 0 0.1039580034601677 -0.40411292988861547 0 -0.40411292988861547 1.765531313787231 0 0 0 0 -13.11228466319244 -3.5134271882948269 0 -3.5134271882948269 -0.11671608369613296 0 0 0 0 -47.023204053213703 -15.498501957778217 0 -15.498501957778217 5.6505014510662477 0 0 0 0 -61.37498887795482 -48.940829181219954 0 -48.940829181219954 -30.926817399830725 0 0 0 0 -82.976584025820102 -49.598974808622671 0 -49.598974808622671 -15.084811681483188 0 0 0 0 -74.080046247950577 -62.495210620402133 0 -62.495210620402133 -32.205592288814387 0 0 0 0 -133.2163113899087 -85.212910798685471 0 -85.212910798685471 -20.805465644223773 0 0 0 0 -115.50692682446333 -41.232802900864158 0 -41.232802900864158 -31.837840193772394 0 0 0 0 -94.674200124240542 -72.354224207324023 0 -72.354224207324023 -4.8867169922550602 0 0 0 0 -0.14370403768384143 -0.072769579070978807 0 -0.072769579070978807 -0.62033295681831824 0 0 0 0 -205.71092412515873 -98.764856099241968 0 -98.764856099241968 -25.089970467448893 0 0 0 0 -94.783940504041311 -59.467794367425995 0 -59.467794367425995 -65.005087879232406 0 0 0 0 -97.234946099517288 -48.938679325182193 0 -48.938679325182193 -9.7084805064416742 0 0 0 0 -44.135354014164477 2.8065069480149987 0 2.8065069480149987 -21.189806986732435 0 0 0 0 -79.297474746919306 -42.063623721567183 0 -42.063623721567183 -65.672282617180599 0 0 0 0 -146.23612278963975 -71.606575824473708 0 -71.606575824473708 -73.427063900220219 0 0 0 0 -113.87238676057677 -34.426149063085063 0 -34.426149063085063 -41.347569231611146 0 0 0 0 -24.357343068398222 -17.65347289514736 0 -17.65347289514736 -10.814871187884705 0 0 0 0 -13.951273512471744 -11.190062476700973 0 -11.190062476700973 -19.440142594754889 0 0 0 0 -0.027820453032086689 -0.11626328571898448 0 -0.11626328571898448 0.5124025728338335 0 0 0 0 -8.295182883119196 -0.45902979419895473 0 -0.45902979419895473 -4.3845986186672121 0 0 0 0 -37.133439170626843 -54.076398412994479 0 -54.076398412994479 -50.350243797268604 0 0 0 0 1.683335058634384 -23.050742186692901 0 -23.050742186692901 -52.080527763649343 0 0 0 0 -18.495892059022481 -30.792756752044852 0 -30.792756752044852 -18.371867732425592 0 0 0 0 -25.028680156495284 -15.5532221585309 0 -15.5532221585309 -52.802069589310804 0 0 0 0 -35.623633487206462 -10.476585013493604 0 -10.476585013493604 -33.327944130487339 0 0 0 0 -43.104277630686738 -19.205893574164747 0 -19.205893574164747 -31.767378398476467 0 0 0 0 -16.06063394439343 -28.742086059919984 0 -28.742086059919984 -33.698110722517868 0 0 0 0 -84.525716418168486 -28.977733003364278 0 -28.977733003364278 -75.332742324489118 0 0 0 0 -98.594380907519735 -8.7746811394940778 0 -8.7746811394940778 -41.366731162190263 0 0 0 0 -102.75579024125909 -23.281181237907731 0 -23.281181237907731 -64.902407348610154 0 0 0 0 -43.939811151791218 -14.506935465244851 0 -14.506935465244851 -48.995624369253846 0 0 0 0 -75.472140284632587 -7.1560955098621832 0 -7.1560955098621832 -44.61242737965722 0 0 0 0 -72.569482589632571 -4.6099160465666955 0 -4.6099160465666955 -30.439985617567118 0 0 0 0 -76.884062922496014 -16.240884695891509 0 -16.240884695891509 -21.478952086889876 0 0 0 0 -102.08395699052562 -6.4155469976266204 0 -6.4155469976266204 2.8452693317422018 0 0 0 0 -102.31308827075554 -1.1880954199696134 0 -1.1880954199696134 -10.934641370665759 0 0 0 0 -86.309389064276729 -1.8224480564462056 0 -1.8224480564462056 -43.522533998876497 0 0 0 0 -109.67385011530496 -4.2368461481523809 0 -4.2368461481523809 -10.64476838481167 0 0 0 0 -78.195299592081028 -28.880635793654847 0 -28.880635793654847 14.722775181357292 0 0 0 0 -116.01378504814775 -45.322431597447235 0 -45.322431597447235 8.637548076505027 0 0 0 0 -78.85574412887263 -25.168802486592597 0 -25.168802486592597 -5.3022962661061683 0 0 0 0 -45.150315400195723 -23.35300724493095 0 -23.35300724493095 -18.403458934412356 0 0 0 0 -28.392880704294839 -31.102417348140193 0 -31.102417348140193 -37.052673414272135 0 0 0 0 -54.534577998766053 -26.184524959840985 0 -26.184524959840985 -5.6075112144260402 0 0 0 0 -72.054055764412624 -45.960233564909458 0 -45.960233564909458 0.042791899355734131 0 0 0 0 -104.43006554123053 -106.84027743020113 0 -106.84027743020113 -40.347117573237483 0 0 0 0 2.3739309262487041 -8.6410243526820523 0 -8.6410243526820523 -20.967111366211611 0 0 0 0 -0.24966399435350972 0.38271168735209393 0 0.38271168735209393 -0.43415475385396629 0 0 0 0 -35.118660452610357 -15.010100098752559 0 -15.010100098752559 -12.232620304189368 0 0 0 0 -26.377356450974872 -3.6181239385633504 0 -3.6181239385633504 6.9665538140225181 0 0 0 0 -28.100886632050788 5.4498253512490464 0 5.4498253512490464 -2.0898655952564695 0 0 0 0 -48.722918630025106 -6.1514564258652626 0 -6.1514564258652626 3.194758426256044 0 0 0 0 -4.194073735436632 7.0939584522922701 0 7.0939584522922701 -7.0380839262245445 0 0 0 0 -60.405221689790778 1.2602758289162921 0 1.2602758289162921 8.4235045006729763 0 0 0 0 -36.152315729314523 16.851489387071865 0 16.851489387071865 -0.53134182328949464 0 0 0 0 -81.59587222195114 -3.7383445723504565 0 -3.7383445723504565 9.8183757831579896 0 0 0 0 -64.254960031889823 -16.564757690411398 0 -16.564757690411398 12.498555443774535 0 0 0 0 -17.512944279225199 15.059189670342466 0 15.059189670342466 3.8802414609576426 0 0 0 0 -59.956846860043697 -10.917061035465849 0 -10.917061035465849 1.4965817745792265 0 0 0 0 21.098513549510699 52.191359708692119 0 52.191359708692119 14.245292099668688 0 0 0 0 -61.929993828845909 -3.2947518251637575 0 -3.2947518251637575 -3.7177510145731958 0 0 0 0 -56.245556535580818 4.1387993499091067 0 4.1387993499091067 3.6632237673604777 0 0 0 0 -58.597410873934678 -1.0247406893706739 0 -1.0247406893706739 -2.1827511029878224 0 0 0 0 -60.718314564565844 -2.0082484681446431 0 -2.0082484681446431 -2.439434333831187 0 0 0 0 -59.744045660512256 -4.7882801690305996 0 -4.7882801690305996 4.0044650518520939 0 0 0 0 -65.691389352214173 -3.5728466256014428 0 -3.5728466256014428 2.3889307797071524 0 0 0 0 -39.220269649641523 6.7910367142112591 0 6.7910367142112591 -4.5320966345870488 0 0 0 0 -59.244545719268558 -18.289716923628973 0 -18.289716923628973 -30.868978975414393 0 0 0 0 -17.675748476785884 -34.247220134140548 0 -34.247220134140548 -51.785276607367905 0 0 0 0 -0.23944302362613534 0.25356008507667127 0 0.25356008507667127 -0.15041468630219335 0 0 0 0 
</DataArray>
<DataArray type="Float64" Name="cross_section_updated" format="ascii">
1 1 1 1 1 0.01007035159756221 1 1 1 1 1 1 1 1 0.0099936537673461241 1 1 1 1 1 1 0.010003142473458205 1 0.0099819068588480973 1 0.0099372573520701852 1 0.0099188369765264486 1 1 1 0.0099768714654108505 1 1 0.010000127842853814 1 1 1 1 1 1 1 0.0084667700499150081 1 1 1 1 0.0099743689904801328 0.0099971162132253752 1 1 1 1 1 1 0.0086367442988191379 1 1 1 1 1 1 1 1 1 1 1 1 1 1 1 0.010007966449867452 1 1 1 1 1 1 1 1 1 1 0.009847965149372185 1 1 0.009847399311515008 1 1 0.009669500784800257 1 0.0092633336152739346 0.01043706579906914 1 0.010033934797708574 0.0099360621931472975 1 1 1 0.0094137101987852266 1 1 1 1 0.0097652786612951858 1 1 0.010242377335586717 1 1 0.0084191533373647494 1 1 1 0.0093222221891518173 1 1 1 1 0.0094965707349373568 0.0099977095110777743 1 1 0.0095730435554440343 1 1 0.0098399317674639324 1 1 1 1 0.0099000863857272546 1 1 1 1 1 1 1 1 1 0.010041695917145061 0.0095155596303500897 1 0.010005045574495511 1 1 1 1 0.010001328442544585 1 0.0098112514391601804 1 1 0.0097847700149238104 1 1 1 0.0094376202580894603 1 1 1 0.0093536756590602531 0.0099068219452502007 1 0.0095203744441455344 1 1 1 1 1 1 1 1 1 1 1 1 1 1 0.010193126515769781 1 0.010153302960421221 0.010072217224588863 0.0097015331756319968 1 1 1 1 0.0098199198720744976 1 1 1 0.010076515186200459 1 0.0096143597953399634 0.0093568704804177696 1 0.010070955005074831 0.0098939781918171155 1 1 1 0.010000943401873148 1 1 0.0099181073162970101 1 1 1 0.0099997007677260236 1 1 1 1 1 0.0098779351712582567 1 1 1 1 1 0.0099905207249107817 0.0097444447013243785 1 1 1 1 0.0098919839579694503 1 1 1 1 1 0.0089497025300216849 1 1 1 0.010003866090482538 1 1 1 1 1 0.010000934451314378 1 1 1 1 1 0.010013194400473895 1 1 1 1 1 1 1 0.0099485158045439503 1 1 1 0.010033267226345486 1 1 1 1 1 1 1 1 1 1 1 0.010065764242374379 1 1 1 1 1 0.010218610793871336 1 1 1 0.0094561378038947493 1 1 1 1 0.010010766530444304 1 1 1 0.0099720721857865027 1 1 1 1 1 0.0095237825673037471 1 1 1 1 1 1 0.010063037273146058 1 1 1 1 1 1 1 1 1 0.0098189497589318605 1 1 1 1 1 1 0.010153472044868887 1 1 1 1 0.0097929124876213955 1 1 1 1 1 1 0.0097048427681301983 1 1 1 1 1 0.0098302822215774414 1 1 1 0.010030469241244969 1 1 1 1 1 1 1 1 1 1 0.010048625441816303 1 1 1 1 1 1 1 1 1 1 1 1 1 1 1 1 1 1 1 1 1 1 1 1 1 1 1 1 1 1 1 0.0099748355299027827 1 1 0.010018156200571336 1 1 1 1 1 1 0.0099470066246725806 1 1 1 1 1 1 1 1 1 0.010091245744961636 1 1 0.010154283018107692 1 1 1 1 0.0099721710947697963 1 1 0.009944389212379107 1 1 1 0.0096479252785238133 1 1 1 0.009885339479697431 1 1 1 0.0099423066728877487 1 1 1 1 0.010027427926448054 1 1 0.0098393955658410311 1 1 0.010117994136087018 1 1 1 1 1 0.010025394136447255 1 1 1 1 1 1 1 1 0.010267801891559052 1 1 1 0.010093345439291605 1 1 1 1 1 0.0099690781052724844 1 1 1 1 1 1 1 1 1 1 1 1 1 1 1 1 1 0.0099113847781602329 1 1 1 1 1 1 1 1 1 1 1 1 1 1 1 1 1 1 1 1 1 1 1 1 0.0098691855441491692 1 1 1 1 0.009735694232749113 1 1 1 1 1 1 1 0.0096534928706141117 1 1 1 1 1 0.0096760245284887615 1 1 1 1 1 1 1 1 1 1 1 1 1 1 1 1 0.0097084246815293228 1 0.0099440816758101271 1 1 0.0096742457972330727 1 0.0099994654588667718 1 1 1 1 1 1 0.0099493326813633997 1 1 1 1 1 1 1 0.0098544872460178123 1 1 0.0099042801080541139 1 1 0.0097232333024744877 1 1 1 1 1 0.0096956319615476363 1 0.0091650389727122739 1 0.0099685650635370736 1 1 1 1 0.0096044464520652836 1 1 1 0.0092485039063398677 1 0.0099899987468837562 1 1 1 1 1 0.0096502523121038512 1 0.010007827223955133 1 1 1 1 1 1 1 1 1 1 1 1 1 1 1 0.009838215842703538 1 1 1 1 1 1 1 1 1 1 1 1 1 1 1 0.0099339676779132552 1 1 1 1 1 1 1 1 1 1 1 1 1 1 1 1 1 1 0.0091628333620950055 1 1 1 1 1 1 1 1 1 0.0088906185961403622 1 1 0.0087121441745544297 1 1 1 1 1 1 1 1 1 1 0.0092072155781580938 1 0.0086806454564494848 1 1 1 1 1 1 1 1 1 0.008762327378879272 1 1 1 1 1 1 1 0.0082218553451361056 1 1 1 1 1 1 1 0.0094983878301397127 1 1 1 1 1 0.008661203230728852 1 1 1 1 1 1 1 1 1 1 0.0087353805895759168 1 1 1 1 1 1 1 1 1 1 1 1 0.010062343530026862 1 1 1 1 1 1 1 1 1 1 1 1 1 1 1 1 1 1 1 0.0096278426610859023 0.0095347509322160455 1 1 1 1 0.010004783412905964 0.01018053046441691 1 1 1 1 1 1 1 1 1 1 1 1 1 0.009837862391989919 1 1 1 1 1 1 1 1 1 1 1 1 1 1 1 1 1 1 1 1 1 1 1 1 1 1 1 1 1 1 1 1 1 1 1 1 1 1 1 1 1 1 1 1 0.010000625619636501 1 1 0.0098085884647186455 1 1 0.0081064980678638779 1 1 0.009965837510281253 1 1 1 1 0.0091305706742426523 1 0.009994519754697161 1 0.0099997657088130784 1 1 0.0097357297505372593 1 1 0.0099737942687350683 1 1 1 1 0.0083137574712075901 1 1 1 1 1 1 0.0096846371122275114 1 0.009995073872998932 1 1 1 1 1 1 1 0.0096605109173539833 1 1 1 1 0.0098853762640443293 1 1 1 1 1 1 0.010278381845077778 1 1 1 0.01008154140985008 1 1 1 1 1 1 1 1 1 1 1 1 1 1 0.0099045578276441334 1 1 1 0.0097644788462624438 0.0099663264368491239 1 1 1 1 1 1 1 0.0098432520686000634 1 1 1 1 1 1 0.009964774155444488 1 1 0.0097102069526076237 1 1 1 1 1 0.0098132561994355872 0.0096096213759812553 0.0097070362064239982 1 1 1 1 0.0097184083787439472 1 1 0.0099558705310731407 1 0.0099153481632548932 1 1 1 1 0.0099783064989083063 1 1 0.0099961482056950008 1 1 1 1 1 0.009764774252272403 1 1 0.0098995188633989682 1 1 0.00995655036128704 1 1 1 0.0099455735396954022 1 0.0096811569688417809 1 1 1 1 1 1 1 1 0.0098933588655051932 1 1 1 0.0095969279477901813 0.01004570339509615 1 1 0.0099395950245002012 1 1 0.0095932413614863467 1 1 1 1 1 1 1 1 1 1 1 1 1 1 1 0.010000835391399922 1 1 1 1 1 1 1 0.0097645793187967397 1 1 1 1 1 1 1 1 1 1 1 1 1 1 1 1 1 0.0094694414307910368 0.0097048621119942991 1 1 1 1 1 1 1 1 1 1 1 1 1 1 1 1 1 1 1 1 1 0.0099180566863681999 1 1 1 1 0.0098245431646711723 1 1 0.0098079270261461366 1 1 1 1 1 0.0097859963238912055 1 1 1 1 1 1 1 1 0.0098600344833917677 1 1 1 1 1 1 1 1 1 1 1 1 1 1 1 1 1 1 1 1 1 0.0096800706917940082 1 1 1 0.0096945200634274802 1 1 1 1 1 1 1 1 1 1 1 1 1 1 1 1 1 1 0.0094058162661316107 1 1 0.0097808501490962724 1 1 1 1 1 1 1 1 1 1 1 1 1 1 1 1 1 1 1 1 1 1 1 1 1 1 1 1 1 1 1 1 1 1 1 1 1 1 1 1 0.0099470732116847451 1 1 0.0094342768258882364 1 1 0.0097692967209329316 1 1 1 1 1 1 1 0.0099276521112086104 1 1 1 1 0.0093089172938965736 1 1 1 0.0099002870782109887 1 1 1 0.0091622365341004399 1 1 1 1 1 0.0099985875063142715 1 0.010020372846459168 1 1 1 1 1 1 1 1 1 1 1 1 1 1 1 1 1 1 1 1 1 1 1 1 1 0.0096231567262326373 1 0.0097350755427929921 1 1 1 1 1 1 0.010067369208376477 1 1 1 1 1 0.0098938009571682868 1 1 1 1 1 0.0098901183721515282 1 1 1 1 1 1 1 1 0.0096467447189676706 1 1 1 1 1 1 1 1 1 0.0098466433490646665 1 1 0.0099536719250487172 1 1 1 1 1 1 1 1 0.0098034926503676074 1 1 1 1 1 0.0088030290787593224 1 1 1 1 0.0095391622807485168 1 1 0.009758777273210683 1 1 1 0.0094185355972911597 1 1 1 1 1 1 1 1 1 1 1 1 1 1 0.0099499893400319585 1 1 1 1 1 1 1 0.009450809084954305 1 0.0097910507608738317 1 1 1 1 1 1 1 1 1 1 0.010168759237522695 1 1 0.0092297684892116653 1 1 1 1 1 1 0.0096975115945983938 1 1 1 1 1 1 1 0.010177776682562891 1 1 1 1 1 1 1 1 1 1 1 1 1 1 1 1 1 1 1 1 1 1 1 1 1 1 1 1 1 1 1 1 0.010037961496697291 1 1 1 0.010114240260584394 1 1 1 0.010212083167240031 1 1 1 1 0.0083160416030193321 1 1 1 1 1 0.0085261616797526422 1 1 1 0.010016128216962034 1 1 1 1 1 1 1 1 1 1 1 1 1 1 1 1 0.0098939817937058212 1 1 1 1 1 1 1 1 1 1 0.0099774958948685034 1 1 0.009702684789594811 1 1 1 0.0095796225768314293 1 1 1 1 1 0.0095794177197986788 1 1 0.0099041764407503084 1 0.0099978211707697773 1 1 0.0099740891878890257 1 1 0.0095675815815175324 1 1 0.010052945715798057 1 1 1 1 1 1 1 1 1 1 1 1 0.0098869406272075553 1 1 1 1 1 1 1 1 0.0099013839393380758 1 1 1 1 1 1 1 1 1 1 0.0099626916243830636 1 0.009710301490943157 1 1 1 0.0099056346655606257 1 1 1 1 1 1 0.009874483855025238 1 1 1 1 1 1 1 1 1 1 1 1 1 1 1 1 1 1 1 1 1 1 1 1 1 1 1 1 1 1 0.0099147088603599182 1 1 0.0095143520536741608 1 0.0099322673276168692 1 1 1 1 0.010086976382165892 1 1 1 1 1 1 1 0.0095855454840290556 1 1 1 1 1 1 1 1 1 1 1 1 1 1 1 1 1 0.010062059145228137 1 1 0.0085193492319126252 1 1 1 1 1 1 1 1 1 1 1 1 1 1 1 1 1 0.0098882799987157228 1 1 1 1 1 1 1 1 0.0099308769399040139 1 1 1 1 1 0.0094888746068343029 1 0.01001735738680349 1 1 1 1 1 1 1 1 1 1 1 1 1 1 0.0099745550814146922 1 1 0.0078035226959290473 1 1 1 1 1 1 1 1 1 1 1 1 1 1 1 1 1 1 1 0.0099915499594349592 1 1 1 1 1 0.0090631939606296875 1 0.010151571809084114 0.0096783498263763642 1 1 0.0089192355570573978 1 1 0.0094243137355088675 1 1 1 1 1 1 0.009554612913188338 1 1 0.010103138323545355 1 0.0096050970583180881 1 1 1 0.010033145262526806 1 1 1 1 1 1 0.0088964229485249194 1 1 1 1 1 1 0.0083843738160504812 1 1 1 1 1 1 1 1 1 1 0.0095005457141989699 1 1 1 1 1 1 1 1 0.010361452498517483 1 1 1 1 1 1 1 1 1 1 0.010285372579584919 1 1 1 0.010160598843000803 1 1 1 1 1 1 1 1 1 1 0.010768547525337787 1 1 0.0083960955024809068 1 1 1 0.010193005072011428 1 1 1 1 1 1 1 1 1 0.0099543574454531297 1 1 1 0.0098831771143073656 1 1 1 1 1 1 1 0.010252403409742528 1 1 1 1 1 0.0099521401766477224 1 1 1 1 1 1 1 1 1 1 1 1 0.0099563218584893236 1 1 1 1 0.0098335598526112494 1 1 1 0.0097778450642111436 1 1 1 1 1 1 0.0095479537372792182 1 1 0.0091631598592025673 1 1 1 1 1 1 1 1 1 1 1 1 1 0.0097464712077891692 1 1 1 1 1 1 1 1 1 1 1 1 0.010180453828125989 1 0.0099261242101575543 1 1 1 0.010079731220518509 1 1 0.0093064680724638214 1 1 1 1 1 1 1 1 1 1 1 1 1 1 1 1 1 1 1 1 0.010343559169941265 1 1 1 1 1 1 1 1 1 1 1 1 1 1 1 1 1 1 1 1 1 1 1 0.0096725156074314502 1 1 1 0.0090537454785203138 1 1 1 1 1 1 1 1 0.0099858043469934366 1 1 1 1 1 1 1 0.0084830776162947534 1 1 1 1 1 1 1 1 0.0080584789614494973 1 1 1 1 0.010093441110994762 1 1 0.0099859992996644015 1 1 1 1 1 1 1 1 1 1 1 1 1 1 1 1 1 1 1 1 1 1 1 1 1 1 1 1 1 1 1 1 1 1 1 1 1 1 1 1 1 1 1 1 1 1 0.0099694273903892031 1 1 1 1 1 1 1 1 0.0099836442323944959 1 1 0.0099116496874688213 1 1 1 1 1 1 1 1 1 1 0.0098118707582631037 1 1 1 1 1 1 1 1 1 1 1 1 1 1 1 1 1 1 1 1 1 1 1 1 1 1 1 1 1 1 1 1 1 1 1 1 1 1 1 1 1 1 1 1 1 1 1 1 1 1 1 1 1 1 1 1 1 1 1 1 1 1 1 1 1 1 1 1 1 1 1 1 1 1 1 1 1 1 1 1 1 1 0.009985286187967575 1 1 1 1 0.0099852548302227888 1 1 1 1 1 1 1 1 1 1 1 1 1 1 1 1 1 1 1 1 1 1 1 1 1 1 0.01000283287369118 1 1 1 1 1 1 1 0.010005726968181645 1 1 1 1 1 1 1 1 1 1 1 1 1 0.0099953907695020071 1 0.0099630393167566556 1 1 1 1 1 1 1 1 1 1 1 1 1 1 0.0099650873627010559 1 1 1 1 1 1 1 1 1 1 1 1 1 1 1 1 1 1 1 1 1 0.0099678551935469713 1 1 1 1 0.010047554665402714 1 0.010008332855020539 1 1 1 1 1 1 0.010023337905973661 0.0099823840049369627 1 1 1 1 1 1 1 0.0099666305526172894 1 1 1 1 1 1 1 1 1 1 1 1 1 1 1 1 1 0.010028702153625698 1 1 1 1 1 0.009988740674362442 1 1 1 1 1 1 1 0.010007508077643976 1 1 1 1 1 1 1 1 1 1 1 1 1 1 1 1 1 0.0099520394534546811 1 1 1 1 1 1 1 1 1 1 1 1 1 1 1 1 1 1 1 0.010020415677969876 1 1 1 1 1 0.0099138461790677316 1 1 1 1 1 1 1 1 1 1 1 1 1 1 1 1 1 1 1 1 1 0.009984689438389701 1 1 0.0099951149948226924 1 1 1 1 1 1 1 1 1 1 1 1 1 1 1 1 1 1 1 1 1 1 1 1 1 1 1 1 1 1 1 1 0.010065874818810576 1 1 1 1 1 1 1 1 1 1 1 1 1 1 1 1 0.0099512745442399009 1 1 1 1 1 1 0.0099895739909295622 1 1 1 1 1 0.0099469244959421409 1 0.009877217618209767 1 1 1 1 0.0098618718900758857 1 1 1 1 1 1 1 1 1 1 1 1 0.0099805411673546049 0.010120925224599104 1 1 1 1 1 1 0.0099748672719289708 1 1 1 0.0094657246019555184 0.0092584984136042658 1 1 0.00888839570864371 1 0.0098755511485194222 1 0.0086491228838529617 1 1 1 1 0.0096635331546289071 1 1 1 0.0099900860801167175 1 1 1 1 1 1 0.0081195910075127879 0.010281894739181091 1 1 1 1 1 1 1 1 0.0079773486131755993 1 1 1 1 0.0099803020635313572 1 0.0099300047558640442 1 1 1 1 1 1 1 1 1 1 1 1 0.0098984139468093948 1 1 1 1 1 1 1 0.0097333982153522368 1 1 1 1 1 1 1 1 1 1 1 1 1 1 1 1 1 1 1 1 0.0099928177525443369 1 0.0096534410501883973 1 1 1 1 1 1 1 1 1 1 1 1 1 1 1 1 1 1 1 1 1 1 0.0099474186287130898 1 0.0096666561372809757 1 1 1 1 1 1 1 0.0098783777845543284 1 1 1 1 1 1 0.0096812613802178815 1 1 1 1 1 1 1 1 0.0098798015534938815 1 1 1 1 1 1 1 1 1 1 1 1 1 1 1 1 1 1 1 1 1 1 1 1 1 0.01001053389431838 1 1 1 0.010096461098099772 0.0098639512363669635 1 1 1 0.010016774505708263 1 1 1 0.0096183667008501311 1 1 1 1 1 1 1 1 1 0.0082273951761733036 1 1 1 1 1 1 0.0099802350909712449 1 0.010879596651875384 1 1 1 1 0.0079545587733456519 0.0099739166084384587 0.0096217015987736798 1 1 1 1 1 1 1 1 1 1 1 1 1 1 1 0.0096494100951931595 1 1 1 1 1 1 1 1 0.0090422008799180831 1 1 1 1 1 1 1 1 1 1 1 0.0095712163024587113 1 0.0088018008235348066 1 1 1 1 1 1 1 1 1 1 1 1 1 1 1 1 1 1 0.01016322726961434 0.0097080051234421441 1 1 1 1 1 1 0.010018223704986902 1 1 1 1 1 0.0098322343964443708 1 1 1 1 1 1 1 1 1 1 1 1 0.0099629914352062296 1 1 1 1 0.010035352613937211 1 1 0.010041945038652397 1 1 1 1 1 1 1 1 0.0097549094909235787 1 1 1 1 1 1 1 1 1 1 1 1 1 0.010806983565479343 1 1 1 1 0.010346342875687989 1 1 1 0.0094162982305025338 1 0.0098369242395298616 1 0.0089427821978627746 1 1 1 1 1 1 1 1 1 1 1 0.0091341810690784599 1 1 1 1 1 0.0080587592426463982 1 1 0.0093958053484981992 1 0.010036263164743799 1 1 1 1 0.0098788018181910388 1 1 1 1 1 1 0.0099705426417451108 1 1 1 1 1 1 1 1 1 0.0098497751367630157 1 1 1 1 1 1 0.0096820095332073863 1 1 1 1 1 1 1 1 1 1 1 1 1 1 0.0088283405944578099 1 1 1 0.010019074806802081 0.0094209217398769519 1 0.009748964509761095 1 0.010007012635104104 0.0094847113650675698 0.0094868289831076275 1 1 1 1 1 0.0098118467908218654 1 1 1 1 1 1 1 0.0097655347930898362 1 0.0099948693973709243 1 1 1 1 1 1 1 1 1 0.0098114260397239098 1 1 1 1 1 1 0.0094131288812158934 1 1 1 0.0097697856378898863 1 1 1 1 1 1 1 0.010006803017565104 1 1 1 1 1 0.010015245890548715 0.0091405491910842192 1 1 1 1 1 1 0.010016625694458171 0.0097877959055867481 1 1 1 1 0.0090565103673524681 1 1 1 1 0.0095784663099111808 0.01006149572280212 1 0.0098198914017744651 1 0.0099377516791370468 1 1 1 1 1 0.010025877855453806 1 1 1 1 0.010005285609723734 1 1 1 1 1 1 1 0.0099835627716416374 1 0.0099908838566039535 1 1 1 1 1 1 1 1 1 1 1 1 1 1 1 1 0.0093972994562784642 0.010124380504186915 1 1 0.010471566542790509 1 1 1 1 1 1 0.0091702082851984178 1 1 0.0089170930075293236 1 1 0.0095754415478594528 1 0.0086117297622338492 1 1 0.0094665052387922898 1 1 1 1 1 1 1 1 1 1 1 1 1 1 1 1 1 1 1 0.010001733473831575 1 0.0099934037898645866 1 1 1 1 1 1 1 1 1 0.0097451511123159851 1 1 1 1 0.0087370660901456582 1 1 1 0.0095613045558455637 1 1 0.0099547318242007628 1 1 1 1 0.0086917218424855114 1 1 1 0.0085780732018778429 1 0.0083930994957247557 1 1 1 1 1 1 1 1 1 1 1 1 1 1 0.0098302234626449665 1 1 1 1 0.0098107782667343404 0.0096011141443590499 1 1 1 1 1 1 1 1 1 1 1 1 0.0097708906817140853 1 1 1 1 1 1 0.0098950806797335443 1 1 1 1 0.009992058243324449 1 1 1 1 1 1 1 1 1 1 1 1 1 1 1 0.0099926666550055228 1 1 1 1 1 1 1 1 1 1 1 1 1 1 1 1 1 1 1 1 1 1 1 0.009427321512585126 1 1 1 1 0.010078645782221233 1 1 0.010053151066119689 1 0.0097066433884116926 1 1 0.010013316829670629 1 1 1 1 1 0.010010830255262964 0.010003895396350191 1 1 1 1 1 1 1 0.0099943196529318993 1 1 1 1 1 1 1 1 0.0099943279259048622 1 1 1 1 1 1 1 1 1 1 1 1 1 1 1 1 0.0098418397577570219 1 1 1 1 1 1 1 1 1 1 1 0.010056463816678754 0.0099606052084644063 1 1 1 1 0.010015261964602186 1 1 1 0.0099280696397833837 1 1 1 1 1 1 0.0096974511223769308 1 0.010212510474067732 1 1 0.0083533935343389123 1 1 1 0.009395351088312737 0.0086774956012103388 1 0.0091685820170392916 0.0099984668578973011 1 0.009781100821516028 1 1 1 1 0.009410546805348698 1 1 1 1 1 1 1 1 1 1 1 1 1 0.0078956046698782922 0.0097275940647760066 1 0.010127958396817736 1 1 1 1 1 1 1 1 1 1 1 1 1 1 1 1 0.01039266909415134 1 1 1 1 0.009999871141913131 0.0099957138419185347 1 1 1 1 1 1 1 1 1 1 1 1 1 1 1 0.0094823615604656113 1 1 1 1 1 1 1 1 0.0098227276603176684 1 1 1 1 1 1 1 1 1 0.0097124656593111612 1 1 1 1 1 1 1 1 1 1 1 1 1 1 0.0098974303451686181 1 1 1 1 1 1 1 1 1 1 1 0.0097855741509440628 1 1 1 1 1 1 1 1 1 0.010026896494805872 1 1 0.010373869825222252 1 1 0.0098655146833175403 0.010048797130435622 1 1 1 0.011176415959135703 1 1 1 0.009050340108395151 1 1 1 1 1 0.0092115106989265946 1 1 1 1 1 1 1 1 1 1 1 1 1 0.010645840856893048 1 0.0099915800323895267 1 1 0.0094523675990363064 0.0099974814012345654 1 1 1 1 1 0.011278263298087359 1 1 1 1 1 1 1 1 1 1 1 0.009918532415535421 1 1 1 1 1 1 1 1 1 1 1 1 1 0.009947430425232032 0.0099692374368195325 1 1 1 1 1 1 1 1 1 1 1 1 1 1 1 1 1 1 1 1 0.009929666066702517 1 1 0.010179552359055547 1 1 1 1 1 1 1 0.0099742288690220782 1 1 1 1 1 1 1 0.0099358075563323982 1 1 1 0.0099908627606325393 0.010098281867201631 1 1 0.0099739937038162592 1 1 1 1 0.0097453451448781831 0.0093662605003354115 1 0.010086959067137028 1 1 1 1 1 1 1 1 1 1 1 1 1 0.0098045520147293508 1 1 0.0099161388051033795 1 1 1 0.0095031046785336287 1 1 1 1 1 1 1 1 1 1 1 1 1 0.0096665338290731415 1 1 1 1 1 1 1 1 1 1 1 1 0.0091340022633476965 1 1 1 1 1 1 1 1 1 1 1 1 0.0093210239859796654 1 1 0.0097314064520720913 1 1 1 1 1 1 1 1 1 1 1 1 1 1 1 1 1 0.010008692354173163 1 1 0.010010689795550276 1 1 0.0091045261270674936 1 1 0.010466372586751805 1 1 1 1 0.0095620683799080494 0.0097779685198401151 0.0093624396766563214 1 0.0097505093230538745 1 1 1 1 1 1 0.0099970091594872058 1 1 1 1 1 1 1 1 1 1 1 1 1 1 1 1 1 1 1 1 1 1 1 1 0.0097952654478727277 1 1 1 1 0.0096316840311313455 1 1 1 1 1 1 1 1 1 0.0098360485953837597 0.010084413958814009 1 1 1 1 1 1 1 1 1 0.010104111949081666 1 1 1 1 1 1 0.010178479283910982 1 0.0096474146749705014 1 1 0.010030000265554015 1 1 1 0.010339189899178973 0.0099037271852475441 1 1 0.0099516665404906588 0.010384093566992388 1 1 1 1 1 1 0.0098530838854238474 1 1 1 1 0.0095040733431009383 1 1 1 1 1 1 1 1 1 1 1 1 0.010055030767637339 1 1 0.0099924410603815256 1 1 1 1 1 0.009856188122279709 0.010531391755135334 1 1 1 0.0099380655594168213 1 1 1 1 1 1 1 1 1 0.0099902609762736738 1 1 1 1 1 1 1 1 1 1 1 1 1 1 1 1 1 1 1 1 1 0.010000865294498942 1 1 1 1 1 1 1 1 1 0.009824096280653451 1 1 1 1 1 1 1 1 0.0097141096780584552 1 1 1 1 1 1 0.0099099584144480314 1 1 1 1 1 1 1 1 1 1 1 1 0.0098005144836810013 1 1 1 0.0098636544481270211 1 1 1 1 1 1 1 1 1 1 1 1 0.0098905560692329718 1 1 1 1 1 1 1 1 1 1 0.0099158505418831568 1 1 1 1 1 1 1 1 1 1 1 0.0098162250381444074 1 1 1 0.010005710805492901 1 1 1 1 1 1 1 1 1 1 1 0.009339624360380697 1 1 1 0.0099918878176062792 1 1 0.0094351100354540945 1 1 1 1 1 1 1 1 1 1 1 1 1 0.010052826134265835 1 1 0.0099622593235347487 1 1 0.0094583318252833542 1 1 0.0097885682571658052 0.010078408494583323 1 1 1 0.0093337707667322366 1 1 0.010243310601683401 1 1 1 1 0.0099694661905227727 1 1 1 1 1 1 1 1 1 1 1 1 1 0.010070440721611333 1 1 1 1 0.010027866810622283 1 1 1 1 1 0.009949773515477902 1 1 1 0.010115256638417596 1 1 1 1 1 1 1 1 0.009971966208051939 1 1 1 1 1 1 0.009863334079073631 1 1 1 1 1 0.0098056499012859569 1 0.0099245592616695136 1 1 1 0.0098848103401401738 0.0097653879059045288 1 1 1 1 1 1 0.010090903118497507 1 1 1 1 1 1 1 1 1 0.010154755011278547 1 1 1 0.010173430069014944 1 1 0.0099783165992490559 1 0.0099595224088482506 1 1 1 1 1 1 1 0.0099823830702747071 1 1 1 1 0.010094725777533564 1 1 1 1 1 1 0.010023652467739138 1 1 1 1 1 1 1 1 1 1 1 1 0.0099903364177983227 1 1 1 1 0.0094776873013630424 1 0.0092129187552657567 1 1 1 1 1 0.0098161163394731472 1 1 1 0.009967494715795517 1 1 1 1 0.0099568903975702488 1 1 1 1 1 1 1 1 1 1 1 1 1 1 1 1 1 1 1 1 1 1 1 1 1 1 1 1 1 1 0.0099989946865049074 1 1 1 1 1 1 1 1 1 1 1 1 1 1 1 1 1 1 1 1 1 1 1 1 1 1 1 1 1 1 1 1 1 1 1 1 1 1 1 1 1 1 1 1 1 1 1 1 1 1 1 1 1 1 1 1 1 1 1 1 1 1 1 1 1 1 1 0.00964438379528962 1 1 1 1 1 1 1 1 1 1 1 1 1 1 1 1 1 1 1 1 1 1 1 1 0.0098122361350228664 1 1 1 1 1 1 1 1 1 1 0.0098312006614556056 1 1 1 1 1 1 1 0.010065916380629886 0.010264706819486298 1 1 1 1 1 1 1 1 1 1 1 1 1 1 1 1 1 1 1 1 1 1 1 1 1 1 1 1 1 1 1 0.0099719922275165185 1 1 1 1 1 1 1 1 1 1 0.010176010812900852 0.0099770480921050706 1 0.0090972944588180605 1 1 1 1 1 1 0.0092533749104191619 1 1 1 1 1 0.0094672782112684376 1 1 1 1 1 0.01000788358802112 1 1 1 1 0.010015231766820067 1 1 1 1 1 1 1 1 1 1 1 1 1 1 1 1 1 1 1 0.010079164431658764 1 1 1 1 1 1 1 1 1 0.010027920211075226 1 1 1 1 1 1 1 1 1 1 0.0091777164732494542 1 1 1 0.0099487679925835803 1 1 1 0.010025124890956576 1 1 0.0098219740909430055 0.0090645961923039517 1 1 1 1 0.010289948454006586 1 1 1 1 1 1 1 1 0.0094542883204638654 1 1 1 1 1 1 1 1 1 1 1 1 1 1 1 1 1 1 1 1 1 1 1 1 1 1 1 1 1 1 1 1 1 0.010512543447219977 1 1 0.0096599523446125445 1 0.0095736721363436916 1 0.010000335325461473 1 1 1 0.0099119411332949728 0.0097175575947774286 0.009714809903606899 1 1 1 0.010034523276697679 1 1 1 1 1 1 1 1 1 1 1 1 1 1 0.010012688444255159 1 1 1 1 1 1 1 1 1 1 1 1 1 1 1 0.0099116940457817278 1 1 0.0099996083849380121 0.0097354567315100782 1 1 1 0.010265470908356876 1 1 0.0097791887283301508 1 0.009129875225882822 1 0.0096803607139078676 1 1 1 1 1 1 1 1 0.0086308064892915305 1 1 0.0085048613951171845 1 1 1 0.0099686258298604426 1 0.0087120196535283509 1 1 1 1 1 1 1 1 1 1 1 1 1 1 1 1 1 1 1 1 1 1 1 1 1 1 1 1 1 1 1 1 1 1 1 1 1 1 1 1 1 1 1 1 1 0.0099976285151921074 1 1 1 1 1 1 0.010010118386287757 0.010001594739244897 1 1 1 1 1 0.010000546959783965 1 0.010134568381031092 0.0094262253803403424 1 0.010074384166895324 0.010107550925797572 1 0.010133037795153069 1 0.0097055932290122156 1 1 1 1 1 1 1 1 1 0.0089065395971916102 1 1 1 1 1 1 0.0096169422818737776 1 1 1 1 1 1 1 1 1 1 1 0.0095738897419961628 0.0095933455338111095 1 1 1 1 1 1 0.009823667106490637 0.0091188841687852209 1 1 0.0099012262757622784 1 1 1 1 1 1 1 1 0.0099871904319045919 1 1 1 1 1 1 1 1 1 1 1 1 1 1 1 1 1 1 1 1 0.0099628676594464508 1 0.0099959008292013762 1 1 0.0095636757140980157 1 1 1 1 0.0096663911427121336 0.010198331380450841 0.0095627127367235339 1 1 1 0.010134224441216092 0.0096126814115723297 1 1 0.009734357555503793 1 1 1 0.0099934266860330443 1 0.0097899320063579848 1 1 0.0096517600052836751 1 0.0090467746273864193 0.0090216035409461156 1 0.010665448330492695 1 1 1 1 1 0.0099956196978097846 0.010578291015546543 1 1 1 1 1 1 1 0.009905527747403043 1 1 1 1 1 0.010002378677255491 1 1 1 0.009730516579294515 1 1 1 1 0.010004793026687822 1 0.009901144259566402 1 0.010097365913908666 1 1 0.0097713910984350526 0.010054341645526215 1 1 1 0.0098781774667690055 1 0.010053430110970034 1 1 1 1 1 1 1 1 1 1 1 1 1 1 1 1 1 1 1 1 0.010002782593113387 1 1 1 1 1 1 1 1 1 0.0099156870663410068 1 1 1 1 0.0097628881365049471 1 1 1 1 0.009655902124093875 1 1 1 1 1 1 1 1 1 1 0.0093664291396729077 1 1 1 1 0.010073562303261303 1 1 1 1 1 1 1 1 1 1 1 1 1 1 1 1 1 1 1 0.010464754768733127 1 1 0.0097473600338904582 1 1 0.010002200544379652 1 1 1 0.010158215759573052 0.0099508479105456776 1 1 1 1 1 1 1 1 0.0099200614290395391 1 1 1 1 1 1 1 1 1 1 1 1 1 1 1 1 1 1 1 1 0.009941471138532481 1 1 1 1 1 1 1 1 1 1 1 1 1 1 1 1 1 1 1 1 1 1 1 1 1 1 0.0095217131290833597 1 1 1 1 1 1 1 1 1 0.010341506404678291 1 1 0.010023661546801583 1 0.0099518327957030823 0.010151189884972274 1 1 1 1 1 1 0.0099967943067802937 1 1 1 1 1 1 1 1 1 1 1 1 1 1 1 1 1 1 1 1 1 1 1 1 1 1 1 1 1 1 1 1 1 1 1 0.0099995332232342121 1 1 1 1 1 1 1 1 1 1 1 1 1 1 1 1 1 1 1 1 1 1 1 1 1 1 1 1 1 0.0099992597964600211 1 1 1 1 1 1 1 0.010079192484596952 1 1 0.010001759491727904 1 1 1 1 1 0.0099997771307441911 1 0.0099524875937792162 1 1 0.010165441255121147 1 1 1 1 1 1 1 1 1 1 1 1 1 1 1 1 1 1 1 1 1 1 1 1 1 1 1 1 1 1 1 1 1 1 1 1 1 1 1 0.010117566211172062 1 0.010146062778611442 1 1 1 1 1 1 1 0.010103886310504533 0.010115657276037393 1 1 1 0.0096072523066076318 1 1 1 1 1 1 1 1 1 1 0.010017084628614397 1 1 0.01004024030748857 1 1 0.0099093158667180742 1 1 1 1 1 1 1 0.0099949569431131285 1 1 1 1 1 1 1 0.0099443430887539846 1 1 1 1 1 1 1 1 1 1 1 0.0092122128210035664 1 1 1 1 1 0.0090934038101751491 1 1 1 1 1 1 0.009668176993064697 1 1 1 1 0.0091164998013702238 1 0.010002759053842129 1 1 1 0.0096714271694160331 0.0098907849766526335 1 0.0093659526390975738 1 1 1 1 1 1 0.010026563386456331 1 1 1 1 1 1 1 1 0.0099051912365430029 1 1 0.0094396898021457901 1 1 1 0.0096715721104219925 1 1 0.0093595754944649744 1 1 0.0098382764630729203 1 1 1 1 0.0096984247327880635 1 1 1 0.0099942129758631218 1 1 1 1 0.009993242081261915 1 1 1 1 1 1 1 1 1 1 1 1 1 1 1 0.0098347015682872622 1 1 1 1 1 0.0098564387708019036 1 1 1 1 1 1 1 1 1 1 1 1 1 1 1 1 1 0.0099688104141993882 1 1 0.0099794025157250305 1 1 1 1 1 1 0.009986051739106867 1 1 1 1 1 1 1 1 1 1 1 1 1 1 1 1 1 0.010005884776427922 1 1 1 1 1 1 1 1 1 0.010054040157785044 1 0.010017547441873768 1 1 0.0097036497228185081 1 1 1 0.0095972866157867757 0.0094194571577810565 1 1 1 1 1 1 1 1 0.0099284705769138101 1 1 1 0.0099888552751147362 1 0.0096168949290109159 0.0096300506087383629 1 1 0.010095168654911757 1 1 1 1 1 1 1 1 0.0099994264431026835 1 1 1 0.0094152839992725258 0.0097204681891573247 0.010247811648645714 1 0.0091927977558704348 1 1 0.010272903468628072 1 1 0.010023069279324358 1 0.0099999615010002395 1 1 1 1 1 1 1 1 1 1 1 1 1 1 1 1 1 1 1 1 1 1 1 1 1 1 1 1 1 1 1 1 1 1 1 1 1 1 1 1 1 1 1 1 1 1 1 1 1 1 1 1 0.0097900383211827115 1 1 0.0099324927418833718 1 1 1 1 1 1 1 1 0.0099866295970051731 1 1 0.0099556312225772652 1 1 1 0.010002193279804238 1 1 1 1 1 1 1 1 1 1 1 1 1 1 1 1 1 1 1 1 0.0091642372393525417 1 0.010014650315478275 1 0.0096200576533703643 1 1 1 0.0096655374848630456 1 1 0.010015292292536445 1 1 1 1 1 1 1 1 1 1 1 1 1 1 1 1 1 1 1 1 1 0.010062917761307681 1 1 0.0099738849367579686 1 1 0.0099509266128296036 1 1 1 1 1 1 1 0.0099245095643053314 1 1 1 1 1 0.010046395353839476 1 1 1 0.010015986501092538 1 1 0.010017404348533567 1 1 1 1 1 1 1 1 1 1 1 1 1 1 1 1 1 1 1 1 1 1 1 1 1 1 1 1 1 1 1 1 0.0098921292889247656 1 1 0.0099906402582016982 1 1 1 0.010029036037480172 0.0099465455469770429 1 0.009999377357249704 1 0.0102222617246893 1 1 1 0.010000761516086211 1 1 1 1 1 0.0097756030353124534 1 1 1 1 1 1 1 1 1 1 0.0098591421532105167 1 1 1 1 1 0.009952860282424288 1 1 1 1 0.010174961945461504 1 1 1 1 1 1 1 1 1 1 1 1 0.0098869232136989879 1 1 1 1 1 1 1 0.0096904156257643353 1 1 1 1 1 1 1 1 1 1 1 1 1 1 1 1 1 1 1 0.0095537975500132617 1 1 1 1 1 1 0.0099013140511394707 1 1 1 1 1 1 1 1 1 1 1 1 0.010111523088842876 1 1 1 1 1 1 1 1 1 0.0099392949218791004 1 0.0095100394311554582 1 1 1 1 1 1 1 1 1 0.009803707831362413 1 0.010038062027614911 1 1 1 1 1 1 1 1 1 0.0099378602165715174 1 1 1 1 1 1 1 0.010002760092767403 1 1 1 0.010114600825104805 1 1 1 1 1 1 0.010003884766987589 1 1 1 1 1 1 0.0096104476665239968 1 1 1 1 0.0097966533691781418 1 1 1 0.0099955680807978353 1 1 1 0.0099910098211123 1 1 1 0.009999753671799028 1 1 1 1 1 0.009716238024816394 0.0095458676459181206 1 1 1 1 1 1 1 1 1 1 1 1 1 0.0093816654053080865 1 1 1 1 0.0099476062033754895 1 1 1 1 1 1 1 1 1 1 1 1 1 1 1 1 1 1 1 0.0097871992092061575 1 0.0098599386675377633 1 1 1 1 1 1 1 1 1 1 1 1 0.0097518495892902797 1 1 1 1 1 0.010077928234575191 1 1 1 1 1 1 1 0.0094538640495241445 1 1 1 0.0099982504648320984 0.0098662432551846393 1 1 1 1 1 1 1 1 1 1 0.0099484903748013123 1 1 1 1 1 1 0.009496569600131316 1 1 1 1 1 1 1 1 1 1 1 1 0.0091959521118957378 1 1 0.0093731347623619756 1 1 1 1 0.0094649543208071979 1 1 1 1 1 0.0093136698194403247 0.0099995655951736536 1 1 0.0095454099488360613 1 1 1 1 1 0.0094646442349258456 1 0.0095523302985747217 1 0.0097416475003736912 0.0097124857486336758 1 0.009195361523431379 1 1 0.010245084923619585 1 1 1 1 1 1 1 0.0092663996467681892 0.0087375157497636153 1 0.0084176489762301365 1 0.0095403047091797127 1 1 1 1 1 1 1 1 1 1 1 0.0083266439607652173 1 1 1 1 1 1 1 1 1 1 1 1 1 1 1 0.0098570772832240056 1 1 1 1 1 1 1 1 0.0085160722647595419 1 1 1 1 1 1 1 1 1 1 1 1 1 1 1 1 0.0093614284470499229 1 1 1 1 1 1 1 1 1 1 1 1 1 0.009782771225517314 1 0.010006532087624066 1 1 1 1 1 1 1 1 1 1 1 1 1 1 1 1 1 1 1 0.010010595959404889 1 1 1 0.010004063871780822 1 1 1 1 1 1 1 1 1 1 1 1 1 1 1 1 1 1 1 1 1 1 1 1 1 1 1 0.0099086088937071128 1 1 1 1 1 1 1 1 0.009990758379799106 1 1 1 1 1 1 1 1 0.0098078283793827468 0.0099604486193417812 1 1 1 1 1 1 1 1 1 1 1 1 1 1 1 1 1 1 1 1 1 1 1 1 1 1 1 1 1 1 0.010035402339395757 1 1 1 1 1 1 1 1 1 1 1 0.0099974525046338004 0.0093413784734052083 1 1 1 0.0099395850600992493 0.0096271018400309709 1 1 1 0.0096633388231531763 1 1 1 0.0099468301145818443 1 1 1 1 1 0.0098094024433475931 1 1 0.0098706703760534694 1 1 1 1 1 1 1 1 1 1 1 1 1 1 1 1 1 1 1 1 1 1 1 1 1 1 1 1 1 1 0.0097123203919366966 1 1 1 1 1 1 1 1 1 1 1 1 1 1 0.010006589927212678 1 1 1 1 1 1 1 1 1 1 1 1 1 1 1 1 1 1 1 1 1 0.0096384222580500091 1 1 1 1 1 1 1 1 0.01037788766936042 1 0.0093013122743398954 1 1 0.00946408912448456 0.009934445326504596 1 1 0.0097336572731803635 1 1 1 0.0090069649276927483 0.0099832888514412577 1 0.00987001470577205 1 0.0092003205818617095 1 1 0.01001578480527757 1 1 1 1 0.0098497844542753989 1 1 1 1 1 1 1 1 0.0096534048617899822 1 1 1 1 1 1 1 1 1 1 1 1 1 1 1 1 1 1 1 1 1 1 1 0.009656946919823382 1 1 1 1 1 1 1 1 1 1 1 1 1 1 1 1 0.010270692508154117 1 1 1 1 1 1 1 1 1 0.0082884750884035761 0.0094961706713292959 1 1 1 0.0095447337924347599 1 1 1 1 1 1 1 1 0.0099628913903333158 1 1 1 1 1 1 1 1 1 1 1 0.0098130398078873811 1 0.0094111864484137837 1 1 1 1 1 1 1 1 1 1 1 0.010004169087559769 1 1 1 1 1 1 0.010008995363306251 1 1 1 1 1 1 1 1 1 1 1 1 1 1 1 1 1 1 1 1 1 1 1 1 1 1 1 1 1 1 1 1 1 1 1 1 1 0.0099038810951634446 0.0091947228564176423 1 1 1 0.010719429012513116 1 1 1 1 1 1 1 1 1 1 1 1 1 1 1 1 1 1 1 1 1 1 1 1 1 1 1 1 1 1 1 1 1 1 1 1 1 1 0.0085012273205660824 1 1 1 1 1 0.0098804599938126878 1 1 1 1 1 0.010021280887718679 1 0.0087350850938006947 1 1 0.0091172851830983205 1 1 1 1 1 1 1 0.010008166517428941 1 1 1 1 1 1 1 1 1 1 1 1 1 1 1 1 1 1 1 1 1 1 1 1 1 1 1 0.0092177732854415734 1 1 0.0093600588291969933 1 1 0.0095391617035415245 1 1 1 1 0.0097362341104829837 1 1 1 1 1 1 1 1 1 1 1 1 1 1 1 1 1 1 1 1 1 1 1 0.0099376554119313312 1 1 0.010041631593476149 1 1 1 1 1 1 1 1 1 1 1 1 1 1 1 0.0099811627822596685 1 1 1 1 1 1 0.010229320790012233 1 0.0099053905534635649 1 1 1 1 1 1 1 1 1 1 1 1 1 1 1 1 1 1 1 1 1 0.0099872198879891409 1 1 1 0.0097982524293532061 0.0095428157719991916 1 1 1 1 0.0097204969003475746 1 1 1 0.008762266395543462 1 1 1 1 1 1 0.009981284346526214 1 0.0098285679221279225 1 1 1 1 0.0089062239257477645 1 1 1 1 0.010069762684099719 1 1 1 1 0.010082561400242671 1 1 0.0098080374979034463 1 1 1 1 1 1 1 1 1 1 1 1 1 1 1 1 1 1 1 1 1 0.010020199695161301 1 1 0.0099636027107244014 1 1 1 1 1 1 1 1 1 1 1 1 1 1 1 1 1 1 1 1 1 1 1 1 1 1 1 1 1 1 1 1 1 1 1 1 1 1 1 1 1 1 1 1 1 1 1 1 1 1 1 1 1 1 1 1 1 1 1 0.0092137597131723582 1 1 1 1 1 1 1 1 1 1 1 1 1 1 0.010509234920966977 1 1 1 1 1 1 1 1 1 1 0.0099918724992877125 1 1 1 1 1 1 1 1 1 1 1 1 1 1 1 1 1 0.010371935379940113 1 1 1 0.010107385696639628 1 1 1 1 1 1 1 1 0.0097747245268980758 1 1 1 1 1 0.009924501006669733 1 1 1 1 1 1 1 1 0.0094471700603229267 1 1 1 1 1 1 0.0092669805012884545 1 1 1 1 1 1 1 1 1 1 1 1 0.0098578579647900805 1 1 0.010106487977766926 0.0097157744465081585 1 0.009507503922649551 1 1 1 1 1 0.0097391174476527485 1 1 1 1 1 1 1 1 0.0090107403446862862 0.010626807491435238 1 0.010023340664327099 1 1 1 1 1 1 1 1 1 0.010077815529831806 1 1 1 1 1 1 1 1 1 1 1 1 1 1 1 1 1 0.010306352800996867 1 1 1 1 0.0098444703083654852 1 1 1 0.0098744074886658231 1 1 1 0.0092746899564102921 1 1 1 1 1 1 1 1 0.0099422847563236192 1 1 1 1 0.0093546580551796977 1 1 1 1 1 1 1 1 1 0.010397275977892568 1 1 1 1 1 1 1 1 1 1 1 1 1 1 1 1 1 1 1 1 1 1 1 1 1 1 0.010145927716423437 0.0098436037088378472 1 1 1 1 1 1 1 1 1 1 1 1 1 0.0095739040778086964 1 1 1 1 1 1 0.0097898853769284311 1 1 1 1 1 1 1 1 1 1 1 1 1 1 1 1 0.0097837191104905314 1 1 1 1 1 1 1 1 1 1 1 1 1 1 1 1 1 1 1 1 1 1 1 1 1 1 1 1 1 1 1 1 0.010022982212927493 1 1 1 1 1 1 1 1 1 1 1 1 1 1 1 1 1 1 1 1 1 1 1 1 1 1 1 1 1 1 1 1 1 1 1 1 1 1 1 1 1 1 1 1 1 1 1 1 1 1 1 1 1 1 1 1 1 1 1 1 1 1 1 0.0099952942759789845 1 1 1 1 1 1 1 1 1 1 0.0079185173246899901 1 1 1 1 1 1 1 1 0.0086302634314674304 1 0.0092312988273043732 1 0.010130862322089113 0.0078968206494867011 1 1 1 1 0.010001318076019929 1 1 1 1 0.0099917336411874131 1 1 1 1 1 1 0.0099117638297214015 1 1 1 1 1 1 1 1 1 1 1 1 1 1 0.0098732999527896548 1 1 0.0098342336824038708 1 1 1 1 1 1 1 1 1 1 1 1 1 1 1 1 1 1 1 1 1 1 1 1 1 1 1 1 1 1 1 1 1 1 1 0.010008510553472924 1 0.010062374880381296 1 1 1 1 1 1 0.0085354689676635405 1 1 1 1 1 1 1 1 1 1 1 1 1 1 1 1 1 1 1 1 0.0099265999747698251 1 1 1 1 1 1 1 1 1 1 1 1 1 1 1 1 1 1 0.010009969325359275 0.0099812198344321704 1 1 1 1 1 1 0.010049843282368695 1 1 1 1 1 1 1 1 1 1 1 1 1 1 1 1 1 0.008412351591276063 1 1 1 1 1 1 1 1 1 1 1 1 1 1 1 1 1 1 1 1 1 1 0.010162093691067684 1 0.0097342077399664474 0.0099533284357648487 1 1 1 0.0099993871316499602 0.010150537371246823 1 0.0089070449522269755 0.010001892671446319 1 1 1 0.0086205303757416786 1 1 0.0098292119717434019 1 1 1 1 1 1 1 1 1 1 1 1 1 0.0089270496617267752 1 1 1 0.0099751504666330502 1 1 0.0099420796781840917 1 1 1 0.0096231308932658109 1 1 1 0.010020120437405961 1 0.0087934890823673749 1 1 0.0099902159408138801 1 1 0.0086474290110594033 1 1 0.0099973763693840499 1 1 1 1 1 1 1 1 1 1 1 1 1 0.0099945889821123554 0.010037890191201892 1 1 1 1 0.0099742584746588189 0.008980234342548115 1 1 0.0087961475298447989 1 1 1 1 1 1 1 1 1 1 1 1 1 1 1 1 1 1 1 1 1 1 1 1 0.0099801252891038757 1 1 0.0097464729455646361 1 1 0.01000225654128414 1 1 0.009645195836262891 1 1 1 0.0099932142961582249 1 1 1 1 1 1 1 1 1 1 1 1 1 1 0.0099061492857254688 1 1 1 1 1 1 1 1 1 1 1 1 1 1 1 1 1 1 1 1 1 1 1 1 1 1 1 1 1 1 1 1 1 1 1 1 1 1 1 1 1 1 1 1 1 1 1 1 1 1 1 1 1 1 1 0.009959994500764062 1 1 1 1 0.0079359392967963804 0.0080252533657919674 1 1 1 1 0.0082581835671760029 1 1 1 1 0.0099859173505944653 0.0098527827400682194 1 1 1 1 1 0.010098414857565153 1 1 1 0.0099284982343854408 1 1 1 1 1 0.0099503819808978503 1 1 1 1 1 0.0099818782472764749 1 1 1 1 1 1 1 1 0.010007924712348966 1 0.010031040049611251 1 1 1 1 1 1 1 0.0098677765854865811 0.010019376372372192 1 1 1 1 0.0099725282187045003 1 0.0099834739231313037 1 1 1 1 1 1 1 1 0.0099875892029332829 1 1 1 0.0099750165424478746 1 1 1 0.010005959465275431 0.008728082848399139 1 1 1 1 1 0.0097537932618467285 1 1 0.0097715203131837312 1 0.0099677550874855587 1 1 1 1 0.0099012112245752803 1 0.0096225983158940553 0.0093779277344651704 1 0.010018579967310053 0.0098154956896785925 1 1 1 1 1 1 1 1 1 1 1 1 1 1 1 1 0.010025109692305773 1 1 1 0.0098016507868942098 1 1 1 1 1 1 1 1 1 1 1 1 0.0099412494676358633 1 1 1 1 1 1 1 1 1 1 1 1 1 0.0099883021977697842 1 1 1 0.0099979764372075258 1 1 1 1 1 1 1 1 1 1 1 1 1 1 1 0.0085897319172736387 1 1 1 0.0087064755777985642 1 1 1 1 1 1 1 1 1 1 1 1 1 1 1 1 1 1 1 1 1 1 1 1 1 1 1 1 1 1 1 1 1 1 1 1 1 1 1 1 1 0.010038527614731691 1 0.0099389097974583139 1 1 1 1 0.010014843514732565 1 0.009186601110896548 1 0.0099376920553035583 1 1 1 1 1 1 1 1 1 1 1 1 1 0.0096730142019590404 1 1 1 1 1 1 1 0.0087500078338093087 1 1 0.0089118909872492446 1 0.009965309419403422 1 1 1 1 0.009985852183370959 1 1 0.0099916627645941242 0.0073226848406442776 0.0089065270755686425 1 1 1 1 1 1 1 1 1 1 1 1 1 1 1 1 1 1 1 1 1 1 1 1 0.0099972836341118594 1 1 1 1 1 1 1 0.010064844669455685 1 1 0.0095301208033883034 0.01003953816135706 1 1 1 1 1 1 1 1 1 1 1 1 1 1 1 1 1 1 1 1 1 1 1 1 1 1 1 1 0.0098136306852985161 1 1 1 1 1 0.010131105835492394 1 1 1 0.0085107774672518646 1 1 1 1 1 1 1 1 1 0.0088421029422359586 0.0093518396827438517 1 1 1 1 1 1 1 1 1 1 0.0087595123089695033 1 1 1 1 1 1 1 1 1 0.010469361278842959 1 1 1 1 1 1 1 1 1 1 1 1 1 1 1 1 1 0.010083513555263986 1 0.0097752470378192173 1 1 1 1 1 1 1 1 1 1 1 1 1 1 1 1 1 1 1 1 1 1 1 1 1 1 1 1 1 1 1 1 1 1 1 1 1 0.0080763531002248142 1 0.0082941938779875195 1 1 1 1 1 1 1 1 1 0.0098923980968800528 1 1 1 0.0082661902111329164 1 1 0.0087555679982688206 1 0.010221016945211273 1 1 0.0083767788520828189 1 1 1 1 1 0.0085602591922757515 1 1 1 1 1 1 1 1 0.010195222723612124 1 0.010235145985172811 1 0.0099632130868877473 1 1 1 1 1 1 1 1 1 1 1 1 0.0099956477124440272 1 1 1 0.0099925655881559824 1 1 1 0.010193961167708186 1 0.010109193125503048 1 1 1 1 1 0.0091214236991689415 1 0.010063417368610808 1 1 1 0.009894042236664416 1 1 0.0094401884137198452 1 1 1 1 1 1 1 1 1 0.010097615358851876 1 1 0.0099562060918541445 1 1 1 1 1 1 1 1 1 1 1 1 0.0099680296325829268 1 1 0.0099922257786932527 1 0.0098448187842565225 1 1 1 1 1 0.0095630600392740371 1 1 1 0.010014472384122303 0.0097545114575774486 1 1 1 1 1 1 0.010325588835297616 1 1 1 1 0.0094289988461755576 1 1 1 1 0.010016434708317284 0.0099997096310704379 1 1 0.0099485052530450674 1 1 1 0.0099977692508072622 1 1 1 1 1 1 0.0098731711213133778 1 1 0.0095886451308489409 1 0.0096798664675127322 1 0.0099685568870742473 1 1 1 1 1 1 1 1 1 1 1 1 1 1 1 1 1 1 0.0099212495372986709 1 1 1 1 1 1 1 1 1 1 1 1 1 1 1 1 1 1 1 1 1 1 0.0098660121284026275 1 1 0.0095979369250053116 1 1 1 1 1 1 1 1 1 1 0.0095692748319208213 1 1 0.0099974745245497536 1 1 1 0.00942375296448731 1 1 1 1 0.01002920126563887 0.010000525110692689 1 1 1 0.0090998805570467502 1 0.0096687378367546276 0.009698050661805957 1 1 0.0096582133510461424 1 1 1 1 0.0099471879179808837 1 0.0095881668752350446 1 1 1 1 1 0.010011142921929809 1 1 0.0098279216319574585 1 1 1 1 1 1 1 1 1 1 1 1 1 1 1 0.0098276801488836191 1 1 1 1 1 1 1 1 1 1 1 1 1 1 1 1 1 1 1 0.0099946742327741856 1 1 1 0.0099916174337384162 1 1 1 1 1 1 1 1 1 1 1 0.0088134924316096031 1 0.0086152781729195681 1 1 1 1 0.0090381804431363157 1 1 1 1 0.0095912900437409975 1 1 1 1 1 1 1 1 0.0097447066396453216 1 1 0.0099087397080778027 1 1 1 1 1 1 1 1 1 1 1 1 1 1 1 1 1 1 1 1 1 1 1 1 0.010191656002746229 1 1 0.010035078170936466 1 1 0.010074416318535843 1 1 1 0.010146488923985356 1 1 1 1 1 1 1 1 1 1 0.010307101614432941 1 1 1 1 1 0.010001714921154318 1 1 1 1 1 1 1 0.0099437598953084176 1 1 1 1 1 1 1 1 1 1 1 0.0099961995621539838 0.0085283704910789956 0.0099940136239188068 1 0.0099585514321256247 1 1 1 0.010009773621543441 1 1 1 0.0084557909874305743 1 1 1 1 0.010016660448746245 1 1 1 1 1 1 0.010005331081116208 1 1 1 1 1 0.0099818068422931026 1 1 1 1 1 1 1 1 1 1 1 1 0.0099721038444871846 1 1 1 1 1 1 1 1 1 1 1 1 1 1 0.010002541279187782 1 1 1 1 1 1 1 1 1 0.010014843836717382 1 1 1 1 0.010012301455525764 1 1 1 1 1 1 1 1 0.0097315456434557152 0.0098157685851598467 1 1 1 1 0.0098524548779629212 1 1 1 1 1 1 1 1 1 1 1 1 1 1 1 1 1 1 1 1 1 1 1 1 1 1 1 1 1 1 1 0.0092840291572272408 1 1 1 1 1 1 1 1 1 1 1 1 1 0.0099029999361232041 1 1 1 1 1 1 1 0.0099308960916360163 1 1 1 1 1 1 0.0098478782173647018 1 1 0.0098708304048301561 1 1 1 1 0.0099223555904751591 1 1 1 1 1 1 0.0089407703562514353 1 1 1 1 1 1 1 1 1 1 1 1 1 1 1 1 1 1 1 1 1 1 1 1 1 1 1 1 1 1 1 1 1 1 1 1 1 1 0.010065042181882016 1 1 0.0093037089710948477 1 0.0096540511025655328 1 0.01004110831175356 1 1 1 1 1 0.0098578664999666964 1 1 1 1 1 1 1 1 0.0099208077078429616 1 1 1 1 1 0.0097120530014336796 1 1 1 1 1 0.0092875263685471797 1 1 1 0.0096633193055795236 1 1 1 0.0093753723070132029 1 1 1 1 1 1 1 1 1 1 1 1 1 1 1 1 1 1 1 0.0096334752659816471 1 1 1 1 1 1 1 1 1 0.009998167327813957 1 1 0.0095518432091836955 1 1 1 1 1 1 0.010035335682468149 1 1 1 1 1 1 1 1 1 1 1 1 1 1 1 1 1 1 1 1 1 1 1 1 1 1 1 1 1 1 1 1 1 1 1 1 1 1 1 1 1 1 1 1 1 1 1 1 1 1 1 1 1 1 1 1 1 1 1 1 1 1 1 1 1 1 1 1 1 1 1 1 1 1 1 1 1 1 1 1 1 1 1 1 1 1 1 1 1 1 1 1 1 1 1 1 1 1 1 1 1 1 1 1 1 1 1 1 1 1 1 1 1 1 1 1 1 1 1 1 1 1 1 1 1 1 1 1 1 1 1 1 1 1 1 1 1 1 1 1 1 1 1 1 0.008940691288615684 1 1 1 1 1 1 1 1 1 1 0.0067935990334378618 1 1 1 1 1 1 1 1 1 1 1 1 0.0072707450680447273 1 1 0.010074250983918325 0.0089920829808580981 1 1 0.0093172140007390641 1 1 1 1 0.010000839342207636 1 0.0088674973987142719 1 1 1 1 0.0089016998004936166 1 0.010008208197825797 0.0096138522351028426 1 1 1 0.010160650405696232 1 1 1 1 0.0099990406686282195 1 1 1 1 1 1 1 1 1 1 1 1 0.0099483785920487927 1 1 1 1 1 1 1 1 1 1 1 0.0098803278600461154 0.0098743563476105124 1 1 1 1 1 1 1 1 1 1 0.0098801543838809448 1 1 1 1 1 0.0098109822372476462 1 1 1 1 0.0098557136473049357 1 1 1 1 0.0097424384850293682 1 1 1 1 1 0.0092481792175599913 1 0.0103527984534806 1 1 0.010357323434321115 1 1 1 1 0.010035711091056733 1 1 1 1 1 1 1 0.010206477025880879 1 1 1 1 1 1 1 1 1 0.0100665123244289 1 1 1 1 1 1 1 1 1 1 1 1 1 1 1 1 1 1 1 1 1 1 1 1 1 1 1 1 1 1 1 1 1 1 1 1 1 1 1 1 1 1 1 1 1 1 1 1 1 1 1 1 1 1 1 1 1 1 1 0.0099970561196106832 1 1 1 0.0098047779208499403 1 1 1 1 1 1 1 1 1 0.0093755411049468405 1 0.010017373020440031 1 1 1 1 1 1 1 1 1 1 0.0090603404068972278 1 1 1 1 1 1 1 1 1 0.0078728045164317938 1 1 1 1 1 0.0089578491381039523 1 0.0099916254099092494 1 1 1 1 1 0.010105992439161136 1 1 1 1 1 1 1 1 1 1 0.0098102822229181666 1 0.0094562825527211083 1 1 0.0097065660543412778 1 0.0099241085841185357 1 0.0076669153825802928 0.010462192189029924 1 1 1 1 1 1 1 1 1 0.010028250614764126 1 1 1 1 1 1 1 0.0099261184359516978 1 1 1 1 1 1 0.0097622755382489931 1 1 1 1 1 0.0098790907654927942 1 0.0098292225741154985 0.0086944853776972156 1 1 0.01000045265338351 1 1 1 1 1 1 1 1 0.0079013153954903357 1 1 1 1 1 1 1 1 1 1 0.010221620363977734 1 1 1 0.010074999042506326 1 1 1 1 1 1 1 1 1 1 1 1 1 1 1 1 1 1 1 1 1 1 1 1 1 1 1 1 1 1 1 1 1 1 1 1 1 1 1 1 1 1 1 1 1 1 1 1 1 1 1 0.0099018678092391982 1 1 1 0.00974711366754181 1 1 1 1 1 0.010002223034298345 1 0.009976036887840543 1 1 0.0096724328085859273 1 0.010022797045510764 1 1 1 1 1 1 1 0.0099985390404819692 0.010005920090992595 1 1 1 1 1 1 1 1 1 1 1 1 1 1 1 1 1 0.0095484582522572404 1 1 1 0.01006149292603742 1 0.0097483714178597941 0.0098520068150368643 0.01000505346654899 1 1 0.0099999742161409177 1 0.0099960806726530349 1 1 1 1 1 0.009836543394804189 0.0096838531329424063 1 1 1 1 1 1 1 1 1 1 1 1 1 1 1 1 0.0098321096629452581 1 0.0094126405327437535 1 1 1 1 0.0099597230903638919 1 0.010083799024087778 1 1 1 1 1 1 0.010000681802245542 1 0.0098659527893037204 1 0.010061248226680643 0.010047001281681699 1 0.0097814571378338419 1 1 0.010109123591474624 1 0.0097578040533294833 1 1 1 0.0092993499653894491 1 1 1 1 1 0.0099567929284671945 1 1 1 1 1 1 1 1 1 0.0088219146969255417 1 1 1 1 1 1 0.0099928227870490337 0.0096272646488019392 1 0.0095993331968565673 1 1 0.0088143671322641511 1 1 1 0.0099216969102453641 1 1 1 1 0.0095539167541288227 1 1 1 1 1 1 1 1 1 0.0095752124509139881 1 1 1 0.0096289518097683151 0.010116386556547464 1 0.010083556529995666 1 1 1 1 1 1 1 1 1 1 1 1 0.010091039437093699 1 0.010032589223888954 1 1 1 1 1 1 1 1 1 0.010004632502921492 0.0099032807344418741 1 1 1 1 1 1 1 1 1 1 0.009920311461432945 0.0097113616853982641 1 1 1 1 1 1 0.0099707794969784887 1 1 1 1 1 1 1 1 1 0.0098050344990358237 1 0.009844856326402255 1 1 1 1 1 1 0.0095460888284753641 1 1 0.0096038851144763827 0.0096774419512059805 1 1 1 1 1 1 0.010109809293760427 1 0.0094476482646808566 1 1 1 1 0.0096468066823883307 1 0.0097117223526660273 1 1 1 1 0.009988857476702126 1 1 0.010000844182035045 1 1 1 1 1 0.010122943078196835 0.0095261420656391101 1 1 1 1 1 0.0093955947838452094 1 1 1 1 0.0089117614348500976 1 1 1 0.0095309605881896686 0.0090524741116028359 1 1 1 1 1 1 0.0098930611790399373 1 1 1 1 1 1 0.0097586930497497431 1 1 1 0.0094500550942509844 1 0.0092562096506549688 1 1 1 1 1 1 1 1 1 1 1 1 1 1 1 1 0.009914040728596904 1 0.0095023974362375037 1 1 1 0.0097906706546129867 1 1 1 1 1 0.0097683591969660779 1 1 1 1 1 0.0094551553461584645 1 1 0.0089622227390813731 1 1 0.0092256442060680375 1 1 1 1 1 1 0.009993847109584765 1 1 1 0.0092575807419997842 1 1 1 1 1 1 1 1 1 1 1 1 0.01000475137313437 1 0.009348408102053004 1 1 1 1 1 1 1 1 1 1 1 1 1 1 1 1 1 1 1 1 1 1 1 1 1 1 1 1 1 1 1 1 1 1 1 1 1 1 1 1 1 1 1 1 1 1 1 0.0098115835979730448 1 1 1 1 0.009286633887314124 1 1 1 1 1 1 1 0.0092238066766607806 1 1 1 1 0.0096679818729266155 1 1 1 1 1 1 1 1 1 1 1 1 1 1 0.0098043594574644642 1 1 1 1 1 1 1 0.0097862392922889192 1 1 1 1 1 1 1 1 1 1 1 1 1 1 1 1 1 1 1 1 1 1 1 1 0.010015016418307795 1 1 0.0094053628567190729 1 1 1 1 1 1 1 1 1 1 1 1 1 1 1 1 1 1 1 1 1 1 1 1 0.0098207187077287584 1 1 1 1 1 1 1 1 1 1 1 1 1 1 0.0096794853957896526 1 1 1 1 1 1 1 0.0091019938169839519 1 1 1 1 1 1 1 1 1 1 1 1 1 1 1 1 1 1 1 1 1 1 1 1 1 1 1 1 1 1 1 1 1 1 1 1 1 1 1 1 1 1 1 1 1 1 1 1 1 1 1 1 1 1 0.0099975915636831818 0.010028410040257542 1 1 1 0.0086253670583557249 1 1 0.0099836625587325228 1 1 1 0.0099824273616881346 1 1 1 1 1 1 1 1 1 1 1 1 1 1 1 1 1 1 1 1 1 1 1 1 1 1 1 0.0097955889113830914 1 1 1 1 1 1 0.0096292202433744725 1 1 1 0.0099774004274074748 1 1 0.0099213707716543555 1 0.010000707805482904 0.0099986519544754699 1 1 1 0.0096509733675391694 1 0.0098719027060084411 1 1 1 0.0096781809847964716 0.0098865517755608104 1 0.0099953933029596816 1 1 1 0.0098533721285297207 1 0.0098040942964906057 0.010011910136817266 1 1 0.0099554767653604794 1 1 1 1 1 1 1 1 1 1 1 0.010057750615716765 1 0.010030101083675504 1 0.0097743756390614271 1 1 0.0098768162773517562 1 0.0099906545696623987 0.0099990209511854247 1 1 1 1 1 0.0098418700166195625 0.010024506952065818 1 1 1 1 1 1 1 1 0.0080077028581484744 1 1 1 1 1 1 1 0.010015118318396691 1 0.009523949791915896 0.010074191170861514 1 1 1 0.0093971207685014848 0.008656377206450766 1 1 0.0090968444347332249 1 1 0.0096983234792930063 0.009794971093762813 1 0.0097387186164692042 1 1 1 1 1 1 1 0.0097678223422650642 1 1 1 1 1 1 1 1 0.0094785110630519354 1 1 1 1 0.0095317278947028173 1 1 0.0099431932374663412 1 0.0099927275664220706 1 1 1 1 1 1 1 1 1 1 1 1 1 1 1 1 1 1 1 0.010094179439704528 1 1 0.0095505786073764067 1 1 1 1 1 1 0.0097713086245485251 1 0.0096293717156616526 1 1 0.0099293395751856323 1 1 1 0.0099247415097317195 1 1 0.0099095922877496072 0.0097026937291054844 1 0.0099448998829172377 1 1 1 1 1 1 1 1 0.010021952525278514 1 0.0099870753931400637 1 1 1 1 1 0.0097744037730424019 1 1 0.010000623205933618 0.0096027973098255955 1 1 1 1 1 0.009991212708100522 1 1 0.0098534883793061009 1 1 0.0094526127968946744 1 1 0.0096791831416901519 1 0.009957401386765239 1 0.01004660554512472 1 0.010158114368926713 1 0.010098931422101857 1 1 1 1 1 1 1 1 1 0.0093831874838252675 1 1 1 1 1 0.0095662032291832285 1 0.0099875561379406397 1 1 1 1 1 0.0099124937744478822 1 1 1 1 1 1 1 1 0.0099759567359009437 1 1 0.0097242059680565547 1 1 1 1 1 1 1 1 1 1 1 0.0097190789190250235 1 1 1 1 1 1 0.0098241494348173947 1 1 1 1 1 0.0099396197498617788 1 1 1 1 1 1 1 1 1 1 1 1 1 1 1 1 1 1 1 0.0098569386416310235 0.009884061918760843 1 1 1 1 1 1 1 1 0.0096672310488870386 1 1 1 1 1 1 1 1 1 1 1 1 1 1 1 0.0099999300472353031 0.0099317518188600136 1 1 0.0099794167327741674 1 1 1 0.0097274327203970175 1 0.0098494320723690899 1 1 1 1 1 1 0.0097706788313529809 0.0099602674370157778 1 1 1 1 1 1 1 1 1 1 1 1 1 1 1 0.010033690234832181 0.0098852205161544839 1 1 1 1 1 1 1 0.010010717088861051 1 1 1 1 1 1 1 1 0.009695512923410499 1 1 1 1 1 1 1 1 1 1 1 1 1 1 1 1 1 1 1 1 1 1 1 1 1 0.0095702860223942417 1 1 0.0097929296351530089 1 1 1 1 1 1 1 1 1 1 1 1 1 1 1 1 1 1 1 1 1 1 1 1 1 1 1 1 1 1 0.0097773563872412331 1 1 1 1 1 1 0.0096680089527375231 1 1 1 1 0.0098675115355291478 1 1 0.0099893048528504561 1 1 0.0099221082624440828 1 0.0099912627211540296 1 1 1 0.0093333596504241063 1 0.010018636863222472 1 1 1 0.0097524464713196323 1 0.0096999605162834679 1 1 1 0.0099881448363369919 0.0095007022352424884 1 1 1 0.0094944271975327 1 1 1 1 1 1 1 1 1 1 1 1 0.0099607311058848638 1 1 0.010144119739713993 1 1 0.010034199272675794 1 0.0098306921121526329 1 0.0097205031251550687 1 1 0.01001392353968222 1 1 1 1 1 1 1 1 1 1 0.0099847408372910704 1 1 1 0.010013385055578576 1 0.0097089392746543303 1 0.0092476126992201337 1 1 1 1 1 0.0099212560549490503 1 0.010056725728709148 1 1 1 1 0.010001254679357714 1 0.009994135451205333 1 1 1 1 1 1 1 1 1 1 1 1 1 1 1 1 1 1 1 1 1 1 1 1 1 1 1 0.0099971994582092119 1 1 1 1 1 1 1 1 1 1 1 1 1 1 1 1 1 1 0.010014332794071405 1 1 1 1 1 1 1 1 1 1 1 1 1 1 0.0098804530970336753 1 0.0099991310239767681 1 1 0.0099061756823213883 0.0099615091333053931 0.0098376665614960581 1 1 1 1 1 0.010093826687355093 1 0.009722462347302006 1 0.0098016958156271622 1 1 1 0.0097680684811951753 1 1 0.0099308488603666138 1 0.0099268016377016318 0.0098520244589978719 0.010046337882761068 1 1 1 1 1 1 1 0.0098206654338988952 1 1 1 1 1 0.0096986161522725784 1 1 1 1 1 1 1 1 1 1 1 1 1 1 1 1 1 1 0.0098775266248903905 1 1 1 1 1 1 1 0.0099151840109124798 1 1 1 1 1 1 1 1 1 1 1 1 0.0097221515721787038 1 1 0.0097870728145495623 1 1 1 1 1 1 1 1 1 1 0.0094761515953855277 1 0.0094683703019761162 1 1 1 1 1 1 1 0.010009184007493911 1 1 1 1 0.0095971801812094262 1 1 1 1 1 1 1 1 1 1 0.010027740567741385 1 1 1 1 1 0.0085541585569422155 1 1 1 1 1 1 0.010009523792063924 1 1 1 1 1 1 1 1 1 1 1 1 0.0089373944634603721 1 1 1 1 1 1 1 1 0.0099553274659779697 1 1 1 1 0.0090712027857169763 1 1 1 0.0095262842730956237 1 1 1 1 1 1 0.0097621485624941728 1 1 1 0.0094809910625028877 1 1 1 1 1 1 1 0.0095126826083970824 1 1 0.009569667433473308 1 1 0.0097834534636864669 1 1 1 1 1 1 1 1 0.0097631781344030277 1 0.0098653605708519977 1 1 1 1 1 0.0098225131158232466 1 1 1 1 1 1 1 1 1 0.0098893178449080202 1 1 0.0099192091789386053 1 1 1 1 0.009823819084010357 1 1 0.0098025443124946168 1 1 1 1 0.0099688085518344054 1 1 1 1 1 1 0.0086373689431213322 1 1 1 1 1 1 1 0.0090589763979511215 1 0.0096557171949036812 1 1 1 1 1 1 1 1 1 1 1 1 1 1 0.0099860548688765049 1 1 1 1 1 1 1 1 0.009664060058396727 0.0095680595131131391 1 1 1 1 1 1 0.0098621721139705958 1 1 1 1 1 1 1 1 1 1 1 1 1 1 1 1 1 1 1 1 1 1 1 0.0098959914381853507 1 1 1 1 1 1 1 1 1 1 1 1 1 1 1 0.0097010109923655607 1 1 1 1 1 1 1 1 1 1 1 1 1 1 1 1 1 1 1 1 1 1 1 1 1 1 1 1 1 0.0098988871266014536 1 1 1 1 1 1 1 1 1 1 1 0.0097516290189379913 1 1 1 0.0099300785747670466 1 1 1 1 1 1 1 1 1 0.0092974060516129737 1 1 1 1 1 1 0.0096552409021268045 1 1 1 0.0089308938477046171 0.0094354314857097773 1 0.0096204784249439429 0.0092398606440057627 1 0.0084172195690561738 1 1 1 1 1 1 1 1 1 1 1 0.0084308089965390055 1 1 1 1 0.008448734386724506 1 1 0.0099155049322326508 1 1 1 1 1 1 1 1 1 1 0.0098030291920220176 1 1 1 1 1 1 0.0098063921536912513 1 1 1 0.0099664917021652141 1 1 1 1 1 1 1 1 1 1 1 1 0.0087269032108095793 1 1 1 1 1 1 0.0099188678939018827 0.0088994566464018123 1 1 1 1 1 1 1 1 1 1 1 1 1 1 1 1 1 1 1 1 1 1 1 1 1 0.0090841141538063538 1 1 1 1 1 1 1 0.010425373645257509 1 1 1 1 1 0.010212087167476392 1 0.0095525750278368932 1 1 1 1 1 1 1 0.0094901050619143976 1 1 1 1 1 1 1 1 1 1 1 1 1 1 1 1 1 1 1 1 1 1 1 1 1 1 1 1 1 1 1 1 1 1 1 1 1 1 1 1 1 1 1 1 1 1 1 0.010154445906531145 1 1 1 0.0099889042302216974 1 1 1 0.010150079171125016 1 1 1 1 1 0.0098917198060454407 1 1 1 1 1 1 1 1 1 1 1 1 1 1 1 1 1 1 1 1 1 1 0.0097193371514810063 1 1 1 1 0.0097601846155707245 0.010279417715272115 1 1 1 1 0.01000444752078793 1 1 0.0095318847871496172 1 0.0095020658934487807 1 0.0094828644400322872 0.0099494110749211353 1 1 0.0099895715777229502 0.0093345553790503775 1 1 1 1 1 1 0.0095438347601749258 1 1 1 1 1 1 1 1 0.009829595560460402 1 1 1 1 1 1 1 1 1 1 1 1 1 1 1 1 1 1 1 1 1 1 1 1 1 1 1 1 1 1 1 1 1 1 1 1 1 1 1 1 1 1 1 1 1 1 1 1 1 1 1 1 1 1 1 1 1 1 1 1 1 1 0.0086301351279223729 1 1 1 0.008610296536265355 1 1 1 1 1 1 1 1 1 1 1 1 1 1 1 1 1 1 1 1 1 1 1 1 1 1 1 1 0.0099864306642957826 1 1 1 1 1 1 1 1 1 1 1 1 0.010060499125616445 1 1 1 1 0.0099777353359147523 1 1 1 1 1 1 0.0099529567101144696 1 0.0099616520384954999 1 1 1 1 1 1 1 1 0.00992860936090585 1 1 1 1 1 1 0.010164619521003742 1 0.0092243339397039218 1 1 0.0089656702506390237 1 1 1 0.0086912013922304677 1 1 1 1 1 1 1 1 1 1 1 1 1 1 1 0.0087843828905345388 1 1 1 1 1 1 1 1 1 1 0.0099034408051583856 1 1 1 1 1 1 1 1 1 1 1 1 1 1 1 1 1 1 1 1 1 1 1 1 0.0097587356658562583 0.010002010895339279 1 1 0.010182444642368874 1 1 1 1 1 1 1 1 0.009946269024825977 1 1 1 1 1 1 1 1 1 0.010052152202336691 1 1 1 1 1 1 1 1 1 1 1 1 1 1 1 1 1 1 1 1 1 1 1 1 1 1 1 1 0.0099329266239868846 1 1 1 1 1 1 1 1 1 0.0086360031932684427 1 1 1 1 1 1 1 1 1 1 1 0.0099664349218216708 
</DataArray>
</CellData>
</Piece>
</UnstructuredGrid>
</VTKFile>
