<?xml version="1.0"?>
<VTKFile type="UnstructuredGrid" version="0.1" byte_order="LittleEndian">
<UnstructuredGrid>
<Piece NumberOfPoints="30373" NumberOfCells="10636">
<Points>
<DataArray type="Float64" NumberOfComponents="3" format="ascii">
-0.5 -0.5 0 -0.46278456118020223 -0.44637144598679751 0 -0.5 -0.42607079982994822 0 -0.5 -0.5 0 -0.4479631167738985 -0.47297268902557738 0 -0.43502217802224769 -0.5 0 -0.5 -0.5 0 -0.4479631167738985 -0.47297268902557738 0 -0.46278456118020223 -0.44637144598679751 0 -0.4479631167738985 -0.47297268902557738 0 -0.46278456118020223 -0.44637144598679751 0 -0.42782777685741952 -0.45078008844047351 0 -0.46278456118020223 -0.44637144598679751 0 -0.43347295005853198 -0.43476351387268802 0 -0.42782777685741952 -0.45078008844047351 0 -0.46278456118020223 -0.44637144598679751 0 -0.5 -0.42607079982994822 0 -0.47365860001851318 -0.40630807802558128 0 -0.47365860001851318 -0.40630807802558128 0 -0.47217513539997258 -0.37829579255265661 0 -0.5 -0.37112861530310493 0 -0.5 -0.42607079982994822 0 -0.47365860001851318 -0.40630807802558128 0 -0.5 -0.37112861530310493 0 -0.47217513539997258 -0.37829579255265661 0 -0.45349399227384118 -0.37688179994530813 0 -0.45573694165166168 -0.39574521214284852 0 -0.47365860001851318 -0.40630807802558128 0 -0.47217513539997258 -0.37829579255265661 0 -0.45573694165166168 -0.39574521214284852 0 -0.45349399227384118 -0.37688179994530813 0 -0.45573694165166168 -0.39574521214284852 0 -0.43799198969845488 -0.40252575945292279 0 -0.45349399227384118 -0.37688179994530813 0 -0.43799198969845488 -0.40252575945292279 0 -0.42886743220162538 -0.38805454875715423 0 -0.45349399227384118 -0.37688179994530813 0 -0.43799198969845488 -0.40252575945292279 0 -0.47365860001851318 -0.40630807802558128 0 -0.45573694165166168 -0.39574521214284852 0 -0.44138028287558101 -0.42067945548406971 0 -0.46278456118020223 -0.44637144598679751 0 -0.47365860001851318 -0.40630807802558128 0 -0.44138028287558101 -0.42067945548406971 0 -0.45573694165166168 -0.39574521214284852 0 -0.43799198969845488 -0.40252575945292279 0 -0.44138028287558101 -0.42067945548406971 0 -0.46278456118020223 -0.44637144598679751 0 -0.44138028287558101 -0.42067945548406971 0 -0.43347295005853198 -0.43476351387268802 0 -0.43347295005853198 -0.43476351387268802 0 -0.42423649397438318 -0.42027744992904709 0 -0.40934105195935427 -0.42840806868173442 0 -0.44138028287558101 -0.42067945548406971 0 -0.43347295005853198 -0.43476351387268802 0 -0.42423649397438318 -0.42027744992904709 0 -0.43799198969845488 -0.40252575945292279 0 -0.44138028287558101 -0.42067945548406971 0 -0.42447023570108172 -0.40465014875698918 0 -0.44138028287558101 -0.42067945548406971 0 -0.42423649397438318 -0.42027744992904709 0 -0.42447023570108172 -0.40465014875698918 0 -0.44138028287558101 -0.42067945548406971 0 -0.42447023570108172 -0.40465014875698918 0 -0.42423649397438318 -0.42027744992904709 0 -0.41006287890344301 -0.40737198014234638 0 -0.40934105195935427 -0.42840806868173442 0 -0.42423649397438318 -0.42027744992904709 0 -0.41006287890344301 -0.40737198014234638 0 -0.42447023570108172 -0.40465014875698918 0 -0.45349399227384118 -0.37688179994530813 0 -0.42886743220162538 -0.38805454875715423 0 -0.42208380192111561 -0.3713732453350983 0 -0.43799198969845488 -0.40252575945292279 0 -0.42886743220162538 -0.38805454875715423 0 -0.42447023570108172 -0.40465014875698918 0 -0.42886743220162538 -0.38805454875715423 0 -0.42447023570108172 -0.40465014875698918 0 -0.40756018852658238 -0.38862084202990871 0 -0.42447023570108172 -0.40465014875698918 0 -0.40756018852658238 -0.38862084202990871 0 -0.41006287890344301 -0.40737198014234638 0 -0.42447023570108172 -0.40465014875698918 0 -0.40756018852658238 -0.38862084202990871 0 -0.40756018852658238 -0.38862084202990871 0 -0.42208380192111561 -0.3713732453350983 0 -0.40769940833800511 -0.36936762560483061 0 -0.40756018852658238 -0.38862084202990871 0 -0.42208380192111561 -0.3713732453350983 0 -0.42886743220162538 -0.38805454875715423 0 -0.40756018852658238 -0.38862084202990871 0 -0.42208380192111561 -0.3713732453350983 0 -0.40756018852658238 -0.38862084202990871 0 -0.39540392860697449 -0.37709772699097732 0 -0.40769940833800511 -0.36936762560483061 0 -0.40756018852658238 -0.38862084202990871 0 -0.39540392860697449 -0.37709772699097732 0 -0.38758169734643189 -0.3909844534486191 0 -0.40756018852658238 -0.38862084202990871 0 -0.39540392860697449 -0.37709772699097732 0 -0.40756018852658238 -0.38862084202990871 0 -0.38758169734643189 -0.3909844534486191 0 -0.39237573569118211 -0.4066532222249698 0 -0.41006287890344301 -0.40737198014234638 0 -0.40756018852658238 -0.38862084202990871 0 -0.39237573569118211 -0.4066532222249698 0 -0.40756018852658238 -0.38862084202990871 0 -0.39237573569118211 -0.4066532222249698 0 -0.37686886400322728 -0.40435096115169189 0 -0.38758169734643189 -0.3909844534486191 0 -0.37184907483835877 -0.38939705677335812 0 -0.37686886400322728 -0.40435096115169189 0 -0.38758169734643189 -0.3909844534486191 0 -0.39237573569118211 -0.4066532222249698 0 -0.38758169734643189 -0.3909844534486191 0 -0.38164725830613899 -0.37914075032936601 0 -0.37184907483835877 -0.38939705677335812 0 -0.39540392860697449 -0.37709772699097732 0 -0.38758169734643189 -0.3909844534486191 0 -0.38164725830613899 -0.37914075032936601 0 -0.40934105195935427 -0.42840806868173442 0 -0.37719128285578268 -0.42468560242003139 0 -0.39070796240371652 -0.44565500202714498 0 -0.40934105195935427 -0.42840806868173442 0 -0.39237573569118211 -0.4066532222249698 0 -0.37719128285578268 -0.42468560242003139 0 -0.41006287890344301 -0.40737198014234638 0 -0.40934105195935427 -0.42840806868173442 0 -0.39237573569118211 -0.4066532222249698 0 -0.39237573569118211 -0.4066532222249698 0 -0.37719128285578268 -0.42468560242003139 0 -0.37686886400322728 -0.40435096115169189 0 -0.39237573569118211 -0.4066532222249698 0 -0.37719128285578268 -0.42468560242003139 0 -0.37719128285578268 -0.42468560242003139 0 -0.39070796240371652 -0.44565500202714498 0 -0.36551663301697418 -0.4373224669429574 0 -0.39070796240371652 -0.44565500202714498 0 -0.40330959819850781 -0.46718672562698232 0 -0.38393187030959491 -0.46475190734764837 0 -0.39070796240371652 -0.44565500202714498 0 -0.38393187030959491 -0.46475190734764837 0 -0.36735324222862981 -0.45442845011941468 0 -0.40330959819850781 -0.46718672562698232 0 -0.38393187030959491 -0.46475190734764837 0 -0.37879141953959611 -0.48359336281349108 0 -0.37879141953959611 -0.48359336281349108 0 -0.38812413330218692 -0.5 0 -0.39690905294185502 -0.48414508820793589 0 -0.40330959819850781 -0.46718672562698232 0 -0.37879141953959611 -0.48359336281349108 0 -0.40330959819850781 -0.46718672562698232 0 -0.37879141953959611 -0.48359336281349108 0 -0.39690905294185502 -0.48414508820793589 0 -0.38812413330218692 -0.5 0 -0.39690905294185502 -0.48414508820793589 0 -0.43502217802224769 -0.5 0 -0.4479631167738985 -0.47297268902557738 0 -0.40330959819850781 -0.46718672562698232 0 -0.43502217802224769 -0.5 0 -0.40330959819850781 -0.46718672562698232 0 -0.39690905294185502 -0.48414508820793589 0 -0.43502217802224769 -0.5 0 -0.4479631167738985 -0.47297268902557738 0 -0.40330959819850781 -0.46718672562698232 0 -0.42782777685741952 -0.45078008844047351 0 -0.40934105195935427 -0.42840806868173442 0 -0.39070796240371652 -0.44565500202714498 0 -0.42782777685741952 -0.45078008844047351 0 -0.39070796240371652 -0.44565500202714498 0 -0.40330959819850781 -0.46718672562698232 0 -0.42782777685741952 -0.45078008844047351 0 -0.43347295005853198 -0.43476351387268802 0 -0.40934105195935427 -0.42840806868173442 0 -0.42782777685741952 -0.45078008844047351 0 -0.40330959819850781 -0.46718672562698232 0 -0.42782777685741952 -0.45078008844047351 0 -0.44750537529870138 -0.25369843784153162 0 -0.46931789820554792 -0.26722866842968263 0 -0.46266564730582838 -0.2355681196285522 0 -0.44750537529870138 -0.25369843784153162 0 -0.44942813349220723 -0.27880629466569101 0 -0.4311345914808708 -0.27270177138623442 0 -0.44942813349220723 -0.27880629466569101 0 -0.46931789820554792 -0.26722866842968263 0 -0.46124020023695528 -0.29578579194820781 0 -0.44750537529870138 -0.25369843784153162 0 -0.44942813349220723 -0.27880629466569101 0 -0.46931789820554792 -0.26722866842968263 0 -0.46931789820554792 -0.26722866842968263 0 -0.47739559617414051 -0.2386715449111575 0 -0.4858679574491267 -0.25648904075215551 0 -0.46931789820554792 -0.26722866842968263 0 -0.47739559617414051 -0.2386715449111575 0 -0.4858679574491267 -0.25648904075215551 0 -0.5 -0.27133599655986701 0 -0.5 -0.24272207169726981 0 -0.4858679574491267 -0.25648904075215551 0 -0.5 -0.27133599655986701 0 -0.48206566217123981 -0.28411157568929041 0 -0.4858679574491267 -0.25648904075215551 0 -0.46931789820554792 -0.26722866842968263 0 -0.48206566217123981 -0.28411157568929041 0 -0.48206566217123981 -0.28411157568929041 0 -0.47500039289546658 -0.31020471509886438 0 -0.46124020023695528 -0.29578579194820781 0 -0.46931789820554792 -0.26722866842968263 0 -0.48206566217123981 -0.28411157568929041 0 -0.46124020023695528 -0.29578579194820781 0 -0.5 -0.27133599655986701 0 -0.48206566217123981 -0.28411157568929041 0 -0.5 -0.29994992142246413 0 -0.5 -0.29994992142246413 0 -0.47500039289546658 -0.31020471509886438 0 -0.48449799742461369 -0.32559388093007879 0 -0.48206566217123981 -0.28411157568929041 0 -0.5 -0.29994992142246413 0 -0.47500039289546658 -0.31020471509886438 0 -0.47500039289546658 -0.31020471509886438 0 -0.46124020023695528 -0.29578579194820781 0 -0.45316250226836269 -0.32434291546673277 0 -0.44942813349220723 -0.27880629466569101 0 -0.43794260223896009 -0.30461680372279909 0 -0.4311345914808708 -0.27270177138623442 0 -0.46124020023695528 -0.29578579194820781 0 -0.45316250226836269 -0.32434291546673277 0 -0.46931789820554792 -0.26722866842968263 0 -0.46124020023695528 -0.29578579194820781 0 -0.44942813349220723 -0.27880629466569101 0 -0.46124020023695528 -0.29578579194820781 0 -0.43794260223896009 -0.30461680372279909 0 -0.46124020023695528 -0.29578579194820781 0 -0.43794260223896009 -0.30461680372279909 0 -0.45316250226836269 -0.32434291546673277 0 -0.5 -0.29994992142246413 0 -0.48449799742461369 -0.32559388093007879 0 -0.5 -0.37112861530310493 0 -0.43794260223896009 -0.30461680372279909 0 -0.43768848016413431 -0.33138346067332969 0 -0.45316250226836269 -0.32434291546673277 0 -0.43768848016413431 -0.33138346067332969 0 -0.45113102871018362 -0.33687805194547898 0 -0.43660741531564962 -0.35412564864028861 0 -0.43768848016413431 -0.33138346067332969 0 -0.45113102871018362 -0.33687805194547898 0 -0.45316250226836269 -0.32434291546673277 0 -0.45113102871018362 -0.33687805194547898 0 -0.46715051949868941 -0.32972614964970332 0 -0.45316250226836269 -0.32434291546673277 0 -0.45113102871018362 -0.33687805194547898 0 -0.46715051949868941 -0.32972614964970332 0 -0.46899599484922749 -0.35123784043769352 0 -0.47500039289546658 -0.31020471509886438 0 -0.46715051949868941 -0.32972614964970332 0 -0.45316250226836269 -0.32434291546673277 0 -0.47500039289546658 -0.31020471509886438 0 -0.46715051949868941 -0.32972614964970332 0 -0.48449799742461369 -0.32559388093007879 0 -0.5 -0.29994992142246413 0 -0.48449799742461369 -0.32559388093007879 0 -0.48449799742461369 -0.32559388093007879 0 -0.46899599484922749 -0.35123784043769352 0 -0.46715051949868941 -0.32972614964970332 0 -0.48449799742461369 -0.32559388093007879 0 -0.46899599484922749 -0.35123784043769352 0 -0.48449799742461369 -0.32559388093007879 0 -0.46899599484922749 -0.35123784043769352 0 -0.5 -0.37112861530310493 0 -0.47217513539997258 -0.37829579255265661 0 -0.46899599484922749 -0.35123784043769352 0 -0.5 -0.37112861530310493 0 -0.45349399227384118 -0.37688179994530813 0 -0.46899599484922749 -0.35123784043769352 0 -0.47217513539997258 -0.37829579255265661 0 -0.45349399227384118 -0.37688179994530813 0 -0.46899599484922749 -0.35123784043769352 0 -0.45349399227384118 -0.37688179994530813 0 -0.46899599484922749 -0.35123784043769352 0 -0.45255710778722552 -0.35478083524219228 0 -0.45113102871018362 -0.33687805194547898 0 -0.46899599484922749 -0.35123784043769352 0 -0.45255710778722552 -0.35478083524219228 0 -0.45113102871018362 -0.33687805194547898 0 -0.43660741531564962 -0.35412564864028861 0 -0.45113102871018362 -0.33687805194547898 0 -0.45255710778722552 -0.35478083524219228 0 -0.43660741531564962 -0.35412564864028861 0 -0.45349399227384118 -0.37688179994530813 0 -0.45255710778722552 -0.35478083524219228 0 -0.43660741531564962 -0.35412564864028861 0 -0.45349399227384118 -0.37688179994530813 0 -0.42208380192111561 -0.3713732453350983 0 -0.43660741531564962 -0.35412564864028861 0 -0.42208380192111561 -0.3713732453350983 0 -0.43660741531564962 -0.35412564864028861 0 -0.43768848016413431 -0.33138346067332969 0 -0.43660741531564962 -0.35412564864028861 0 -0.42048763121034288 -0.35027933911183401 0 -0.42208380192111561 -0.3713732453350983 0 -0.43660741531564962 -0.35412564864028861 0 -0.42048763121034288 -0.35027933911183401 0 -0.42048763121034288 -0.35027933911183401 0 -0.39849269170143742 -0.35417885123529252 0 -0.40835405943762848 -0.3366705707763632 0 -0.42048763121034288 -0.35027933911183401 0 -0.40769940833800511 -0.36936762560483061 0 -0.39849269170143742 -0.35417885123529252 0 -0.42208380192111561 -0.3713732453350983 0 -0.42048763121034288 -0.35027933911183401 0 -0.40769940833800511 -0.36936762560483061 0 -0.39540392860697449 -0.37709772699097732 0 -0.40769940833800511 -0.36936762560483061 0 -0.39849269170143742 -0.35417885123529252 0 -0.39540392860697449 -0.37709772699097732 0 -0.38324766868736659 -0.3655746119520461 0 -0.39849269170143742 -0.35417885123529252 0 -0.39540392860697449 -0.37709772699097732 0 -0.38164725830613899 -0.37914075032936601 0 -0.38324766868736659 -0.3655746119520461 0 -0.39540392860697449 -0.37709772699097732 0 -0.38324766868736659 -0.3655746119520461 0 -0.38164725830613899 -0.37914075032936601 0 -0.38324766868736659 -0.3655746119520461 0 -0.36873860885424259 -0.37355125743602657 0 -0.37827909387122299 -0.34718445954821281 0 -0.39849269170143742 -0.35417885123529252 0 -0.39203738487668133 -0.33261549002546159 0 -0.38324766868736659 -0.3655746119520461 0 -0.37827909387122299 -0.34718445954821281 0 -0.36470134307698843 -0.35749385492310182 0 -0.38324766868736659 -0.3655746119520461 0 -0.37827909387122299 -0.34718445954821281 0 -0.39849269170143742 -0.35417885123529252 0 -0.39849269170143742 -0.35417885123529252 0 -0.39203738487668133 -0.33261549002546159 0 -0.40835405943762848 -0.3366705707763632 0 -0.39203738487668133 -0.33261549002546159 0 -0.40376206682673932 -0.3201791221694878 0 -0.40835405943762848 -0.3366705707763632 0 -0.37827909387122299 -0.34718445954821281 0 -0.39203738487668133 -0.33261549002546159 0 -0.37313046999497818 -0.33231727648928178 0 -0.39203738487668133 -0.33261549002546159 0 -0.38509669109456002 -0.31793504962537561 0 -0.37313046999497818 -0.33231727648928178 0 -0.38509669109456002 -0.31793504962537561 0 -0.37300625776235408 -0.30293367461233828 0 -0.37066782609468257 -0.31736554091019459 0 -0.38509669109456002 -0.31793504962537561 0 -0.37066782609468257 -0.31736554091019459 0 -0.37313046999497818 -0.33231727648928178 0 -0.38509669109456002 -0.31793504962537561 0 -0.40376206682673932 -0.3201791221694878 0 -0.39146711117500421 -0.30246824157251889 0 -0.39203738487668133 -0.33261549002546159 0 -0.38509669109456002 -0.31793504962537561 0 -0.40376206682673932 -0.3201791221694878 0 -0.40376206682673932 -0.3201791221694878 0 -0.42202889347728723 -0.32476352614909748 0 -0.4100975323868144 -0.3036777309420014 0 -0.40376206682673932 -0.3201791221694878 0 -0.40835405943762848 -0.3366705707763632 0 -0.42202889347728723 -0.32476352614909748 0 -0.42048763121034288 -0.35027933911183401 0 -0.40835405943762848 -0.3366705707763632 0 -0.42202889347728723 -0.32476352614909748 0 -0.43768848016413431 -0.33138346067332969 0 -0.42048763121034288 -0.35027933911183401 0 -0.42202889347728723 -0.32476352614909748 0 -0.43794260223896009 -0.30461680372279909 0 -0.43768848016413431 -0.33138346067332969 0 -0.42202889347728723 -0.32476352614909748 0 -0.43794260223896009 -0.30461680372279909 0 -0.41596884042994209 -0.28503363026252898 0 -0.4311345914808708 -0.27270177138623442 0 -0.43794260223896009 -0.30461680372279909 0 -0.42202889347728723 -0.32476352614909748 0 -0.4100975323868144 -0.3036777309420014 0 -0.41596884042994209 -0.28503363026252898 0 -0.4100975323868144 -0.3036777309420014 0 -0.39686691751455649 -0.28088739230285092 0 -0.43794260223896009 -0.30461680372279909 0 -0.41596884042994209 -0.28503363026252898 0 -0.4100975323868144 -0.3036777309420014 0 -0.40376206682673932 -0.3201791221694878 0 -0.4100975323868144 -0.3036777309420014 0 -0.39146711117500421 -0.30246824157251889 0 -0.38509669109456002 -0.31793504962537561 0 -0.39146711117500421 -0.30246824157251889 0 -0.37300625776235408 -0.30293367461233828 0 -0.39146711117500421 -0.30246824157251889 0 -0.37711178829661007 -0.28827944751136098 0 -0.37300625776235408 -0.30293367461233828 0 -0.39146711117500421 -0.30246824157251889 0 -0.37711178829661007 -0.28827944751136098 0 -0.39686691751455649 -0.28088739230285092 0 -0.4100975323868144 -0.3036777309420014 0 -0.39686691751455649 -0.28088739230285092 0 -0.4100975323868144 -0.3036777309420014 0 -0.39146711117500421 -0.30246824157251889 0 -0.39686691751455649 -0.28088739230285092 0 -0.39686691751455649 -0.28088739230285092 0 -0.38363630264229848 -0.25809705366370023 0 -0.41077066225567122 -0.26586977876379603 0 -0.37711178829661007 -0.28827944751136098 0 -0.39686691751455649 -0.28088739230285092 0 -0.37236234425476072 -0.2719875357116015 0 -0.39686691751455649 -0.28088739230285092 0 -0.38363630264229848 -0.25809705366370023 0 -0.37236234425476072 -0.2719875357116015 0 -0.39686691751455649 -0.28088739230285092 0 -0.38363630264229848 -0.25809705366370023 0 -0.38363630264229848 -0.25809705366370023 0 -0.41077066225567122 -0.26586977876379603 0 -0.41036478893875628 -0.24424314929707239 0 -0.41077066225567122 -0.26586977876379603 0 -0.42667168072618078 -0.25551905905227312 0 -0.41036478893875628 -0.24424314929707239 0 -0.41596884042994209 -0.28503363026252898 0 -0.39686691751455649 -0.28088739230285092 0 -0.41077066225567122 -0.26586977876379603 0 -0.41596884042994209 -0.28503363026252898 0 -0.41077066225567122 -0.26586977876379603 0 -0.4311345914808708 -0.27270177138623442 0 -0.41077066225567122 -0.26586977876379603 0 -0.4311345914808708 -0.27270177138623442 0 -0.42667168072618078 -0.25551905905227312 0 -0.44750537529870138 -0.25369843784153162 0 -0.42667168072618078 -0.25551905905227312 0 -0.43358298565690417 -0.241082157972731 0 -0.44750537529870138 -0.25369843784153162 0 -0.4311345914808708 -0.27270177138623442 0 -0.42667168072618078 -0.25551905905227312 0 -0.31890938124500418 -0.27398383201700488 0 -0.33037981238156272 -0.26865024189318848 0 -0.33224286800269481 -0.25282265620023531 0 -0.31629866879799751 -0.25491618832279089 0 -0.31890938124500418 -0.27398383201700488 0 -0.33224286800269481 -0.25282265620023531 0 -0.31890938124500418 -0.27398383201700488 0 -0.33224286800269481 -0.25282265620023531 0 -0.31890938124500418 -0.27398383201700488 0 -0.33038476167311509 -0.28228647837541893 0 -0.31890938124500418 -0.27398383201700488 0 -0.33038476167311509 -0.28228647837541893 0 -0.31854794566180838 -0.28741865869063959 0 -0.31890938124500418 -0.27398383201700488 0 -0.33037981238156272 -0.26865024189318848 0 -0.33038476167311509 -0.28228647837541893 0 -0.33998223860543753 -0.26550800098009519 0 -0.33038476167311509 -0.28228647837541893 0 -0.33037981238156272 -0.26865024189318848 0 -0.33998223860543753 -0.26550800098009519 0 -0.33038476167311509 -0.28228647837541893 0 -0.33998223860543753 -0.26550800098009519 0 -0.34558536999676298 -0.2792485798712665 0 -0.33038476167311509 -0.28228647837541893 0 -0.33224286800269481 -0.25282265620023531 0 -0.33998223860543753 -0.26550800098009519 0 -0.34957971553776052 -0.24872952358477179 0 -0.33037981238156272 -0.26865024189318848 0 -0.33224286800269481 -0.25282265620023531 0 -0.33998223860543753 -0.26550800098009519 0 -0.35470440608805548 -0.27057827631277748 0 -0.34957971553776052 -0.24872952358477179 0 -0.3658643060594724 -0.25625595869071832 0 -0.35470440608805548 -0.27057827631277748 0 -0.34957971553776052 -0.24872952358477179 0 -0.33998223860543753 -0.26550800098009519 0 -0.34957971553776052 -0.24872952358477179 0 -0.33998223860543753 -0.26550800098009519 0 -0.35470440608805548 -0.27057827631277748 0 -0.34957971553776052 -0.24872952358477179 0 -0.38363630264229848 -0.25809705366370023 0 -0.3658643060594724 -0.25625595869071832 0 -0.37236234425476072 -0.2719875357116015 0 -0.37236234425476072 -0.2719875357116015 0 -0.35470440608805548 -0.27057827631277748 0 -0.3592709673169005 -0.28603343181334312 0 -0.3658643060594724 -0.25625595869071832 0 -0.37236234425476072 -0.2719875357116015 0 -0.35470440608805548 -0.27057827631277748 0 -0.35470440608805548 -0.27057827631277748 0 -0.34558536999676298 -0.2792485798712665 0 -0.3592709673169005 -0.28603343181334312 0 -0.33998223860543753 -0.26550800098009519 0 -0.35470440608805548 -0.27057827631277748 0 -0.34558536999676298 -0.2792485798712665 0 -0.3592709673169005 -0.28603343181334312 0 -0.3567841909274988 -0.30138694537397792 0 -0.34358447630030697 -0.2918367118746984 0 -0.34558536999676298 -0.2792485798712665 0 -0.3592709673169005 -0.28603343181334312 0 -0.34358447630030697 -0.2918367118746984 0 -0.3567841909274988 -0.30138694537397792 0 -0.34358447630030697 -0.2918367118746984 0 -0.37711178829661007 -0.28827944751136098 0 -0.37236234425476072 -0.2719875357116015 0 -0.3592709673169005 -0.28603343181334312 0 -0.37711178829661007 -0.28827944751136098 0 -0.3592709673169005 -0.28603343181334312 0 -0.37300625776235408 -0.30293367461233828 0 -0.3592709673169005 -0.28603343181334312 0 -0.37300625776235408 -0.30293367461233828 0 -0.3567841909274988 -0.30138694537397792 0 -0.37300625776235408 -0.30293367461233828 0 -0.3567841909274988 -0.30138694537397792 0 -0.37066782609468257 -0.31736554091019459 0 -0.3567841909274988 -0.30138694537397792 0 -0.34545640589871268 -0.30662215149379551 0 -0.3551436762288373 -0.32068772658230832 0 -0.3567841909274988 -0.30138694537397792 0 -0.34545640589871268 -0.30662215149379551 0 -0.34358447630030697 -0.2918367118746984 0 -0.34545640589871268 -0.30662215149379551 0 -0.33353349215008382 -0.30261583978896778 0 -0.33823619388683618 -0.31658353384902521 0 -0.33353349215008382 -0.30261583978896778 0 -0.32239088106664782 -0.31804834512335223 0 -0.33823619388683618 -0.31658353384902521 0 -0.34545640589871268 -0.30662215149379551 0 -0.33353349215008382 -0.30261583978896778 0 -0.34358447630030697 -0.2918367118746984 0 -0.33353349215008382 -0.30261583978896778 0 -0.34358447630030697 -0.2918367118746984 0 -0.33038476167311509 -0.28228647837541893 0 -0.34358447630030697 -0.2918367118746984 0 -0.33038476167311509 -0.28228647837541893 0 -0.34558536999676298 -0.2792485798712665 0 -0.34358447630030697 -0.2918367118746984 0 -0.33038476167311509 -0.28228647837541893 0 -0.33038476167311509 -0.28228647837541893 0 -0.31854794566180838 -0.28741865869063959 0 -0.31879554332420912 -0.30254695302596879 0 -0.33038476167311509 -0.28228647837541893 0 -0.31879554332420912 -0.30254695302596879 0 -0.33353349215008382 -0.30261583978896778 0 -0.33038476167311509 -0.28228647837541893 0 -0.31879554332420912 -0.30254695302596879 0 -0.31890938124500418 -0.27398383201700488 0 -0.31854794566180838 -0.28741865869063959 0 -0.3069529082713735 -0.29295959067199628 0 -0.31890938124500418 -0.27398383201700488 0 -0.3069529082713735 -0.29295959067199628 0 -0.31854794566180838 -0.28741865869063959 0 -0.31879554332420912 -0.30254695302596879 0 -0.3069529082713735 -0.29295959067199628 0 -0.33353349215008382 -0.30261583978896778 0 -0.31879554332420912 -0.30254695302596879 0 -0.32239088106664782 -0.31804834512335223 0 -0.31879554332420912 -0.30254695302596879 0 -0.32239088106664782 -0.31804834512335223 0 -0.30720632497530381 -0.32280742767651921 0 -0.32239088106664782 -0.31804834512335223 0 -0.32173007864142378 -0.33397642478197631 0 -0.30720632497530381 -0.32280742767651921 0 -0.31879554332420912 -0.30254695302596879 0 -0.30720632497530381 -0.32280742767651921 0 -0.32239088106664782 -0.31804834512335223 0 -0.32173007864142378 -0.33397642478197631 0 -0.33823619388683618 -0.31658353384902521 0 -0.32173007864142378 -0.33397642478197631 0 -0.30374790278499952 -0.34817197982197068 0 -0.32173007864142378 -0.33397642478197631 0 -0.34136442645312842 -0.34333806795329758 0 -0.32919685040910018 -0.34825232347399071 0 -0.32173007864142378 -0.33397642478197631 0 -0.34373077360220888 -0.32983509503832747 0 -0.34136442645312842 -0.34333806795329758 0 -0.32173007864142378 -0.33397642478197631 0 -0.34373077360220888 -0.32983509503832747 0 -0.33823619388683618 -0.31658353384902521 0 -0.34545640589871268 -0.30662215149379551 0 -0.33823619388683618 -0.31658353384902521 0 -0.3551436762288373 -0.32068772658230832 0 -0.34373077360220888 -0.32983509503832747 0 -0.33823619388683618 -0.31658353384902521 0 -0.3551436762288373 -0.32068772658230832 0 -0.3551436762288373 -0.32068772658230832 0 -0.37066782609468257 -0.31736554091019459 0 -0.37313046999497818 -0.33231727648928178 0 -0.3567841909274988 -0.30138694537397792 0 -0.3551436762288373 -0.32068772658230832 0 -0.37066782609468257 -0.31736554091019459 0 -0.3551436762288373 -0.32068772658230832 0 -0.37313046999497818 -0.33231727648928178 0 -0.35840513093081888 -0.33909860599834413 0 -0.37827909387122299 -0.34718445954821281 0 -0.37313046999497818 -0.33231727648928178 0 -0.35840513093081888 -0.33909860599834413 0 -0.34373077360220888 -0.32983509503832747 0 -0.3551436762288373 -0.32068772658230832 0 -0.35840513093081888 -0.33909860599834413 0 -0.34373077360220888 -0.32983509503832747 0 -0.34136442645312842 -0.34333806795329758 0 -0.35840513093081888 -0.33909860599834413 0 -0.35840513093081888 -0.33909860599834413 0 -0.35223646296460881 -0.35209587933102571 0 -0.36470134307698843 -0.35749385492310182 0 -0.34136442645312842 -0.34333806795329758 0 -0.35223646296460881 -0.35209587933102571 0 -0.34039219356233852 -0.35769496576085641 0 -0.34136442645312842 -0.34333806795329758 0 -0.35840513093081888 -0.33909860599834413 0 -0.35223646296460881 -0.35209587933102571 0 -0.37827909387122299 -0.34718445954821281 0 -0.35840513093081888 -0.33909860599834413 0 -0.36470134307698843 -0.35749385492310182 0 -0.36470134307698843 -0.35749385492310182 0 -0.36873860885424259 -0.37355125743602657 0 -0.3520725259715099 -0.36981438072479289 0 -0.38324766868736659 -0.3655746119520461 0 -0.36470134307698843 -0.35749385492310182 0 -0.36873860885424259 -0.37355125743602657 0 -0.35223646296460881 -0.35209587933102571 0 -0.36470134307698843 -0.35749385492310182 0 -0.3520725259715099 -0.36981438072479289 0 -0.35223646296460881 -0.35209587933102571 0 -0.3520725259715099 -0.36981438072479289 0 -0.34039219356233852 -0.35769496576085641 0 -0.33573697335346131 -0.37372402889696937 0 -0.34039219356233852 -0.35769496576085641 0 -0.3269963768872805 -0.35913470255805691 0 -0.3520725259715099 -0.36981438072479289 0 -0.33573697335346131 -0.37372402889696937 0 -0.34039219356233852 -0.35769496576085641 0 -0.34136442645312842 -0.34333806795329758 0 -0.34039219356233852 -0.35769496576085641 0 -0.32919685040910018 -0.34825232347399071 0 -0.34039219356233852 -0.35769496576085641 0 -0.32919685040910018 -0.34825232347399071 0 -0.3269963768872805 -0.35913470255805691 0 -0.32919685040910018 -0.34825232347399071 0 -0.3269963768872805 -0.35913470255805691 0 -0.31844348275181839 -0.34967186299331848 0 -0.32173007864142378 -0.33397642478197631 0 -0.31844348275181839 -0.34967186299331848 0 -0.30374790278499952 -0.34817197982197068 0 -0.32173007864142378 -0.33397642478197631 0 -0.32919685040910018 -0.34825232347399071 0 -0.31844348275181839 -0.34967186299331848 0 -0.3269963768872805 -0.35913470255805691 0 -0.31844348275181839 -0.34967186299331848 0 -0.31246307591010902 -0.361072247645703 0 -0.3269963768872805 -0.35913470255805691 0 -0.32144903772325051 -0.37367451513015382 0 -0.31246307591010902 -0.361072247645703 0 -0.32144903772325051 -0.37367451513015382 0 -0.31246307591010902 -0.361072247645703 0 -0.30593816313132471 -0.37893637713733658 0 -0.33573697335346131 -0.37372402889696937 0 -0.3269963768872805 -0.35913470255805691 0 -0.32144903772325051 -0.37367451513015382 0 -0.30098617105509268 -0.36188860012954083 0 -0.28576572692857588 -0.36236753486196599 0 -0.30593816313132471 -0.37893637713733658 0 -0.30098617105509268 -0.36188860012954083 0 -0.31246307591010902 -0.361072247645703 0 -0.30593816313132471 -0.37893637713733658 0 -0.31844348275181839 -0.34967186299331848 0 -0.31246307591010902 -0.361072247645703 0 -0.30374790278499952 -0.34817197982197068 0 -0.30098617105509268 -0.36188860012954083 0 -0.31246307591010902 -0.361072247645703 0 -0.30374790278499952 -0.34817197982197068 0 -0.30374790278499952 -0.34817197982197068 0 -0.28669019851711719 -0.35002454106049757 0 -0.2956171066263984 -0.34306790232706952 0 -0.30098617105509268 -0.36188860012954083 0 -0.30374790278499952 -0.34817197982197068 0 -0.28576572692857588 -0.36236753486196599 0 -0.30374790278499952 -0.34817197982197068 0 -0.28669019851711719 -0.35002454106049757 0 -0.28576572692857588 -0.36236753486196599 0 -0.30374790278499952 -0.34817197982197068 0 -0.28576572692857588 -0.36236753486196599 0 -0.28669019851711719 -0.35002454106049757 0 -0.27550204132699091 -0.34365365220993183 0 -0.28364491515757839 -0.33812608062968291 0 -0.28669019851711719 -0.35002454106049757 0 -0.28576572692857588 -0.36236753486196599 0 -0.27403124182690453 -0.3527292923176395 0 -0.28576572692857588 -0.36236753486196599 0 -0.30593816313132471 -0.37893637713733658 0 -0.25800822730005701 -0.36027474419253258 0 -0.27403124182690453 -0.3527292923176395 0 -0.26647993727866232 -0.37759219347118911 0 -0.28576572692857588 -0.36236753486196599 0 -0.26647993727866232 -0.37759219347118911 0 -0.28576572692857588 -0.36236753486196599 0 -0.27403124182690453 -0.3527292923176395 0 -0.26647993727866232 -0.37759219347118911 0 -0.25800822730005701 -0.36027474419253258 0 -0.26647993727866232 -0.37759219347118911 0 -0.24016629735153239 -0.37772335159208148 0 -0.25800822730005701 -0.36027474419253258 0 -0.26229675672523772 -0.34309104977330751 0 -0.24031554156692081 -0.36107456296724638 0 -0.25800822730005701 -0.36027474419253258 0 -0.27403124182690453 -0.3527292923176395 0 -0.26229675672523772 -0.34309104977330751 0 -0.26229675672523772 -0.34309104977330751 0 -0.24031554156692081 -0.36107456296724638 0 -0.27403124182690453 -0.3527292923176395 0 -0.27550204132699091 -0.34365365220993183 0 -0.26229675672523772 -0.34309104977330751 0 -0.27403124182690453 -0.3527292923176395 0 -0.26229675672523772 -0.34309104977330751 0 -0.28576572692857588 -0.36236753486196599 0 -0.27403124182690453 -0.3527292923176395 0 -0.28669019851711719 -0.35002454106049757 0 -0.27403124182690453 -0.3527292923176395 0 -0.27550204132699091 -0.34365365220993183 0 -0.27550204132699091 -0.34365365220993183 0 -0.27199957291663351 -0.3351528752120016 0 -0.28364491515757839 -0.33812608062968291 0 -0.27199957291663351 -0.3351528752120016 0 -0.27647586196730939 -0.32441746939787691 0 -0.28364491515757839 -0.33812608062968291 0 -0.27550204132699091 -0.34365365220993183 0 -0.27199957291663351 -0.3351528752120016 0 -0.26229675672523772 -0.34309104977330751 0 -0.27199957291663351 -0.3351528752120016 0 -0.26229675672523772 -0.34309104977330751 0 -0.27199957291663351 -0.3351528752120016 0 -0.26229675672523772 -0.34309104977330751 0 -0.25641376959848522 -0.32632460665722052 0 -0.26229675672523772 -0.34309104977330751 0 -0.23924578887242809 -0.32415789530406269 0 -0.26229675672523772 -0.34309104977330751 0 -0.25641376959848522 -0.32632460665722052 0 -0.23924578887242809 -0.32415789530406269 0 -0.25641376959848522 -0.32632460665722052 0 -0.26695287931221118 -0.31773922838621532 0 -0.24157385016591629 -0.31148198461051441 0 -0.26695287931221118 -0.31773922838621532 0 -0.24157385016591629 -0.31148198461051441 0 -0.27199957291663351 -0.3351528752120016 0 -0.25641376959848522 -0.32632460665722052 0 -0.26695287931221118 -0.31773922838621532 0 -0.27199957291663351 -0.3351528752120016 0 -0.26695287931221118 -0.31773922838621532 0 -0.27647586196730939 -0.32441746939787691 0 -0.26695287931221118 -0.31773922838621532 0 -0.27647586196730939 -0.32441746939787691 0 -0.27790559498555872 -0.30990817295255252 0 -0.27647586196730939 -0.32441746939787691 0 -0.2874318325799865 -0.32535735619354678 0 -0.27790559498555872 -0.30990817295255252 0 -0.2874318325799865 -0.32535735619354678 0 -0.29499643529774272 -0.31193534932698758 0 -0.27790559498555872 -0.30990817295255252 0 -0.29607399578065968 -0.32752379485658972 0 -0.2874318325799865 -0.32535735619354678 0 -0.29499643529774272 -0.31193534932698758 0 -0.27647586196730939 -0.32441746939787691 0 -0.2874318325799865 -0.32535735619354678 0 -0.28364491515757839 -0.33812608062968291 0 -0.2874318325799865 -0.32535735619354678 0 -0.28364491515757839 -0.33812608062968291 0 -0.29128271183056398 -0.33447857576535578 0 -0.28669019851711719 -0.35002454106049757 0 -0.28364491515757839 -0.33812608062968291 0 -0.2956171066263984 -0.34306790232706952 0 -0.28364491515757839 -0.33812608062968291 0 -0.2956171066263984 -0.34306790232706952 0 -0.29128271183056398 -0.33447857576535578 0 -0.29607399578065968 -0.32752379485658972 0 -0.2956171066263984 -0.34306790232706952 0 -0.29128271183056398 -0.33447857576535578 0 -0.29607399578065968 -0.32752379485658972 0 -0.2874318325799865 -0.32535735619354678 0 -0.29128271183056398 -0.33447857576535578 0 -0.2956171066263984 -0.34306790232706952 0 -0.30676731175073951 -0.33659298628652751 0 -0.30720632497530381 -0.32280742767651921 0 -0.29607399578065968 -0.32752379485658972 0 -0.2956171066263984 -0.34306790232706952 0 -0.30720632497530381 -0.32280742767651921 0 -0.2956171066263984 -0.34306790232706952 0 -0.30720632497530381 -0.32280742767651921 0 -0.32173007864142378 -0.33397642478197631 0 -0.30374790278499952 -0.34817197982197068 0 -0.30676731175073951 -0.33659298628652751 0 -0.30374790278499952 -0.34817197982197068 0 -0.2956171066263984 -0.34306790232706952 0 -0.30676731175073951 -0.33659298628652751 0 -0.32173007864142378 -0.33397642478197631 0 -0.30676731175073951 -0.33659298628652751 0 -0.30720632497530381 -0.32280742767651921 0 -0.30720632497530381 -0.32280742767651921 0 -0.30680217248375458 -0.30706649888298609 0 -0.29499643529774272 -0.31193534932698758 0 -0.29607399578065968 -0.32752379485658972 0 -0.30720632497530381 -0.32280742767651921 0 -0.29499643529774272 -0.31193534932698758 0 -0.31879554332420912 -0.30254695302596879 0 -0.30720632497530381 -0.32280742767651921 0 -0.30680217248375458 -0.30706649888298609 0 -0.30680217248375458 -0.30706649888298609 0 -0.3069529082713735 -0.29295959067199628 0 -0.29499643529774272 -0.31193534932698758 0 -0.3069529082713735 -0.29295959067199628 0 -0.29499643529774272 -0.31193534932698758 0 -0.31879554332420912 -0.30254695302596879 0 -0.30680217248375458 -0.30706649888298609 0 -0.3069529082713735 -0.29295959067199628 0 -0.31890938124500418 -0.27398383201700488 0 -0.3069529082713735 -0.29295959067199628 0 -0.29931117242879479 -0.27942816725509678 0 -0.3069529082713735 -0.29295959067199628 0 -0.28661347476319837 -0.29222636315975248 0 -0.29931117242879479 -0.27942816725509678 0 -0.28661347476319837 -0.29222636315975248 0 -0.27133120761871732 -0.28189340739643942 0 -0.28660153871046029 -0.2757847482270343 0 -0.28661347476319837 -0.29222636315975248 0 -0.28660153871046029 -0.2757847482270343 0 -0.29931117242879479 -0.27942816725509678 0 -0.3069529082713735 -0.29295959067199628 0 -0.28661347476319837 -0.29222636315975248 0 -0.29499643529774272 -0.31193534932698758 0 -0.28661347476319837 -0.29222636315975248 0 -0.29499643529774272 -0.31193534932698758 0 -0.27790559498555872 -0.30990817295255252 0 -0.26695287931221118 -0.31773922838621532 0 -0.27790559498555872 -0.30990817295255252 0 -0.25932328347812877 -0.30223131190574293 0 -0.28661347476319837 -0.29222636315975248 0 -0.27790559498555872 -0.30990817295255252 0 -0.27259822041430948 -0.29523482626593189 0 -0.27790559498555872 -0.30990817295255252 0 -0.25932328347812877 -0.30223131190574293 0 -0.27259822041430948 -0.29523482626593189 0 -0.26695287931221118 -0.31773922838621532 0 -0.25932328347812877 -0.30223131190574293 0 -0.24157385016591629 -0.31148198461051441 0 -0.25898248853935268 -0.28862984213938842 0 -0.25549012390218001 -0.27156072195817282 0 -0.2459317459832219 -0.28610690006171291 0 -0.25898248853935268 -0.28862984213938842 0 -0.2459317459832219 -0.28610690006171291 0 -0.2459044992999613 -0.29816430982094938 0 -0.25932328347812877 -0.30223131190574293 0 -0.25898248853935268 -0.28862984213938842 0 -0.2459044992999613 -0.29816430982094938 0 -0.25932328347812877 -0.30223131190574293 0 -0.25898248853935268 -0.28862984213938842 0 -0.27259822041430948 -0.29523482626593189 0 -0.25898248853935268 -0.28862984213938842 0 -0.27133120761871732 -0.28189340739643942 0 -0.27259822041430948 -0.29523482626593189 0 -0.28661347476319837 -0.29222636315975248 0 -0.27133120761871732 -0.28189340739643942 0 -0.27259822041430948 -0.29523482626593189 0 -0.27133120761871732 -0.28189340739643942 0 -0.25549012390218001 -0.27156072195817282 0 -0.27515819589766383 -0.26464374101420363 0 -0.27133120761871732 -0.28189340739643942 0 -0.27515819589766383 -0.26464374101420363 0 -0.28660153871046029 -0.2757847482270343 0 -0.25898248853935268 -0.28862984213938842 0 -0.27133120761871732 -0.28189340739643942 0 -0.25549012390218001 -0.27156072195817282 0 -0.25549012390218001 -0.27156072195817282 0 -0.26119777948991751 -0.25972238653198942 0 -0.27515819589766383 -0.26464374101420363 0 -0.25549012390218001 -0.27156072195817282 0 -0.26119777948991751 -0.25972238653198942 0 -0.24686496979937381 -0.25551888127341332 0 -0.26119777948991751 -0.25972238653198942 0 -0.24686496979937381 -0.25551888127341332 0 -0.25723339985396632 -0.24528001249266571 0 -0.26119777948991751 -0.25972238653198942 0 -0.26968452270859528 -0.25105584918283508 0 -0.25723339985396632 -0.24528001249266571 0 -0.26968452270859528 -0.25105584918283508 0 -0.27515819589766383 -0.26464374101420363 0 -0.28227790444285261 -0.24748029260235141 0 -0.26119777948991751 -0.25972238653198942 0 -0.26968452270859528 -0.25105584918283508 0 -0.27515819589766383 -0.26464374101420363 0 -0.30059364284392781 -0.26073206230967899 0 -0.28227790444285261 -0.24748029260235141 0 -0.30059364284392781 -0.26073206230967899 0 -0.29429240070356588 -0.24288348042963359 0 -0.28227790444285261 -0.24748029260235141 0 -0.27515819589766383 -0.26464374101420363 0 -0.30059364284392781 -0.26073206230967899 0 -0.28227790444285261 -0.24748029260235141 0 -0.28660153871046029 -0.2757847482270343 0 -0.29931117242879479 -0.27942816725509678 0 -0.30059364284392781 -0.26073206230967899 0 -0.27515819589766383 -0.26464374101420363 0 -0.28660153871046029 -0.2757847482270343 0 -0.30059364284392781 -0.26073206230967899 0 -0.31890938124500418 -0.27398383201700488 0 -0.30059364284392781 -0.26073206230967899 0 -0.31890938124500418 -0.27398383201700488 0 -0.29931117242879479 -0.27942816725509678 0 -0.30059364284392781 -0.26073206230967899 0 -0.31629866879799751 -0.25491618832279089 0 -0.30059364284392781 -0.26073206230967899 0 -0.3059790900976298 -0.24100614775169921 0 -0.31629866879799751 -0.25491618832279089 0 -0.31890938124500418 -0.27398383201700488 0 -0.30059364284392781 -0.26073206230967899 0 -0.33834377864894671 -0.46625532863698088 0 -0.33472284862059432 -0.45238771363295638 0 -0.35276948376948658 -0.46014804944980697 0 -0.33834377864894671 -0.46625532863698088 0 -0.33472284862059432 -0.45238771363295638 0 -0.32376589242371018 -0.46162713953880269 0 -0.33834377864894671 -0.46625532863698088 0 -0.32376589242371018 -0.46162713953880269 0 -0.33472284862059432 -0.45238771363295638 0 -0.35010082805862541 -0.44329224462255101 0 -0.32503386408226531 -0.43191887561224362 0 -0.32503386408226531 -0.43191887561224362 0 -0.30918800619847359 -0.45699895044062511 0 -0.33472284862059432 -0.45238771363295638 0 -0.32503386408226531 -0.43191887561224362 0 -0.30918800619847359 -0.45699895044062511 0 -0.32376589242371018 -0.46162713953880269 0 -0.31346348317331718 -0.47291278894192312 0 -0.30918800619847359 -0.45699895044062511 0 -0.33472284862059432 -0.45238771363295638 0 -0.32376589242371018 -0.46162713953880269 0 -0.30918800619847359 -0.45699895044062511 0 -0.32376589242371018 -0.46162713953880269 0 -0.30918800619847359 -0.45699895044062511 0 -0.32376589242371018 -0.46162713953880269 0 -0.31346348317331718 -0.47291278894192312 0 -0.32544835812253209 -0.48160053627475591 0 -0.31346348317331718 -0.47291278894192312 0 -0.32544835812253209 -0.48160053627475591 0 -0.31186733739172617 -0.48308416012834521 0 -0.32544835812253209 -0.48160053627475591 0 -0.31252655715665201 -0.50000000000000022 0 -0.33339989901866812 -0.5 0 -0.32544835812253209 -0.48160053627475591 0 -0.31252655715665201 -0.50000000000000022 0 -0.31186733739172617 -0.48308416012834521 0 -0.34208810594961447 -0.4844276066299843 0 -0.33339989901866812 -0.5 0 -0.35427324088068429 -0.49999999999999989 0 -0.32544835812253209 -0.48160053627475591 0 -0.34208810594961447 -0.4844276066299843 0 -0.33339989901866812 -0.5 0 -0.33834377864894671 -0.46625532863698088 0 -0.32544835812253209 -0.48160053627475591 0 -0.34208810594961447 -0.4844276066299843 0 -0.33834377864894671 -0.46625532863698088 0 -0.32376589242371018 -0.46162713953880269 0 -0.32544835812253209 -0.48160053627475591 0 -0.37879141953959611 -0.48359336281349108 0 -0.38812413330218692 -0.5 0 -0.35427324088068429 -0.49999999999999989 0 -0.33834377864894671 -0.46625532863698088 0 -0.34208810594961447 -0.4844276066299843 0 -0.3589752530772416 -0.47428216823818481 0 -0.34208810594961447 -0.4844276066299843 0 -0.3589752530772416 -0.47428216823818481 0 -0.35427324088068429 -0.49999999999999989 0 -0.37879141953959611 -0.48359336281349108 0 -0.35427324088068429 -0.49999999999999989 0 -0.37879141953959611 -0.48359336281349108 0 -0.3589752530772416 -0.47428216823818481 0 -0.35427324088068429 -0.49999999999999989 0 -0.38393187030959491 -0.46475190734764837 0 -0.37879141953959611 -0.48359336281349108 0 -0.3589752530772416 -0.47428216823818481 0 -0.3589752530772416 -0.47428216823818481 0 -0.36735324222862981 -0.45442845011941468 0 -0.35276948376948658 -0.46014804944980697 0 -0.38393187030959491 -0.46475190734764837 0 -0.3589752530772416 -0.47428216823818481 0 -0.36735324222862981 -0.45442845011941468 0 -0.33834377864894671 -0.46625532863698088 0 -0.3589752530772416 -0.47428216823818481 0 -0.35276948376948658 -0.46014804944980697 0 -0.36735324222862981 -0.45442845011941468 0 -0.35276948376948658 -0.46014804944980697 0 -0.35010082805862541 -0.44329224462255101 0 -0.33472284862059432 -0.45238771363295638 0 -0.35276948376948658 -0.46014804944980697 0 -0.35010082805862541 -0.44329224462255101 0 -0.36735324222862981 -0.45442845011941468 0 -0.35010082805862541 -0.44329224462255101 0 -0.36551663301697418 -0.4373224669429574 0 -0.39070796240371652 -0.44565500202714498 0 -0.36735324222862981 -0.45442845011941468 0 -0.36551663301697418 -0.4373224669429574 0 -0.37719128285578268 -0.42468560242003139 0 -0.36551663301697418 -0.4373224669429574 0 -0.35520889663380212 -0.42354791197792752 0 -0.37719128285578268 -0.42468560242003139 0 -0.35520889663380212 -0.42354791197792752 0 -0.3597746372485367 -0.40476964528248027 0 -0.37686886400322728 -0.40435096115169189 0 -0.37719128285578268 -0.42468560242003139 0 -0.3597746372485367 -0.40476964528248027 0 -0.35520889663380212 -0.42354791197792752 0 -0.3597746372485367 -0.40476964528248027 0 -0.34087972196605693 -0.40683880078386209 0 -0.35010082805862541 -0.44329224462255101 0 -0.36551663301697418 -0.4373224669429574 0 -0.35520889663380212 -0.42354791197792752 0 -0.36873860885424259 -0.37355125743602657 0 -0.3520725259715099 -0.36981438072479289 0 -0.35910846118020812 -0.38439753558803352 0 -0.38164725830613899 -0.37914075032936601 0 -0.36873860885424259 -0.37355125743602657 0 -0.37184907483835877 -0.38939705677335812 0 -0.36873860885424259 -0.37355125743602657 0 -0.37184907483835877 -0.38939705677335812 0 -0.35910846118020812 -0.38439753558803352 0 -0.37184907483835877 -0.38939705677335812 0 -0.3597746372485367 -0.40476964528248027 0 -0.35910846118020812 -0.38439753558803352 0 -0.37686886400322728 -0.40435096115169189 0 -0.37184907483835877 -0.38939705677335812 0 -0.3597746372485367 -0.40476964528248027 0 -0.3597746372485367 -0.40476964528248027 0 -0.34537459840499279 -0.3889077280384502 0 -0.34087972196605693 -0.40683880078386209 0 -0.3597746372485367 -0.40476964528248027 0 -0.35910846118020812 -0.38439753558803352 0 -0.34537459840499279 -0.3889077280384502 0 -0.3520725259715099 -0.36981438072479289 0 -0.33573697335346131 -0.37372402889696937 0 -0.34537459840499279 -0.3889077280384502 0 -0.3520725259715099 -0.36981438072479289 0 -0.35910846118020812 -0.38439753558803352 0 -0.34537459840499279 -0.3889077280384502 0 -0.33573697335346131 -0.37372402889696937 0 -0.34537459840499279 -0.3889077280384502 0 -0.32611059933407721 -0.39550521941270278 0 -0.34537459840499279 -0.3889077280384502 0 -0.32611059933407721 -0.39550521941270278 0 -0.34087972196605693 -0.40683880078386209 0 -0.32611059933407721 -0.39550521941270278 0 -0.34087972196605693 -0.40683880078386209 0 -0.32078409058263357 -0.40990653920623332 0 -0.32611059933407721 -0.39550521941270278 0 -0.32078409058263357 -0.40990653920623332 0 -0.30651815218769352 -0.39846161845944111 0 -0.32611059933407721 -0.39550521941270278 0 -0.30593816313132471 -0.37893637713733658 0 -0.30651815218769352 -0.39846161845944111 0 -0.33573697335346131 -0.37372402889696937 0 -0.32144903772325051 -0.37367451513015382 0 -0.32611059933407721 -0.39550521941270278 0 -0.32611059933407721 -0.39550521941270278 0 -0.30593816313132471 -0.37893637713733658 0 -0.32144903772325051 -0.37367451513015382 0 -0.32611059933407721 -0.39550521941270278 0 -0.30593816313132471 -0.37893637713733658 0 -0.35010082805862541 -0.44329224462255101 0 -0.35520889663380212 -0.42354791197792752 0 -0.32503386408226531 -0.43191887561224362 0 -0.34087972196605693 -0.40683880078386209 0 -0.32078409058263357 -0.40990653920623332 0 -0.32503386408226531 -0.43191887561224362 0 -0.35520889663380212 -0.42354791197792752 0 -0.34087972196605693 -0.40683880078386209 0 -0.32503386408226531 -0.43191887561224362 0 -0.34087972196605693 -0.40683880078386209 0 -0.32503386408226531 -0.43191887561224362 0 -0.32078409058263357 -0.40990653920623332 0 -0.32503386408226531 -0.43191887561224362 0 -0.30480962973460402 -0.41716736904422669 0 -0.29996151270961041 -0.43733595118856722 0 -0.30480962973460402 -0.41716736904422669 0 -0.28718405522327722 -0.42529310679457338 0 -0.32503386408226531 -0.43191887561224362 0 -0.29996151270961041 -0.43733595118856722 0 -0.30480962973460402 -0.41716736904422669 0 -0.30480962973460402 -0.41716736904422669 0 -0.28560446903265241 -0.40905053005628922 0 -0.30651815218769352 -0.39846161845944111 0 -0.32078409058263357 -0.40990653920623332 0 -0.30480962973460402 -0.41716736904422669 0 -0.30651815218769352 -0.39846161845944111 0 -0.30480962973460402 -0.41716736904422669 0 -0.28560446903265241 -0.40905053005628922 0 -0.28718405522327722 -0.42529310679457338 0 -0.28560446903265241 -0.40905053005628922 0 -0.28718405522327722 -0.42529310679457338 0 -0.2718589079866926 -0.41704375382455222 0 -0.30480962973460402 -0.41716736904422669 0 -0.28560446903265241 -0.40905053005628922 0 -0.28718405522327722 -0.42529310679457338 0 -0.27449239233201839 -0.4308914694751062 0 -0.28475185204868891 -0.4379317350748797 0 -0.29996151270961041 -0.43733595118856722 0 -0.28718405522327722 -0.42529310679457338 0 -0.28475185204868891 -0.4379317350748797 0 -0.30593816313132471 -0.37893637713733658 0 -0.30651815218769352 -0.39846161845944111 0 -0.28616950908068067 -0.38632767537126772 0 -0.28560446903265241 -0.40905053005628922 0 -0.30651815218769352 -0.39846161845944111 0 -0.28616950908068067 -0.38632767537126772 0 -0.28576572692857588 -0.36236753486196599 0 -0.30593816313132471 -0.37893637713733658 0 -0.28616950908068067 -0.38632767537126772 0 -0.28616950908068067 -0.38632767537126772 0 -0.26647993727866232 -0.37759219347118911 0 -0.26639930833070091 -0.40093369106835169 0 -0.28576572692857588 -0.36236753486196599 0 -0.28616950908068067 -0.38632767537126772 0 -0.26647993727866232 -0.37759219347118911 0 -0.28560446903265241 -0.40905053005628922 0 -0.28616950908068067 -0.38632767537126772 0 -0.26639930833070091 -0.40093369106835169 0 -0.28560446903265241 -0.40905053005628922 0 -0.26639930833070091 -0.40093369106835169 0 -0.26639930833070091 -0.40093369106835169 0 -0.25804030914834558 -0.41248339377456977 0 -0.24719414762874969 -0.39281685208041339 0 -0.26639930833070091 -0.40093369106835169 0 -0.24719414762874969 -0.39281685208041339 0 -0.26647993727866232 -0.37759219347118911 0 -0.26639930833070091 -0.40093369106835169 0 -0.24719414762874969 -0.39281685208041339 0 -0.26647993727866232 -0.37759219347118911 0 -0.24719414762874969 -0.39281685208041339 0 -0.24016629735153239 -0.37772335159208148 0 -0.26647993727866232 -0.37759219347118911 0 -0.24719414762874969 -0.39281685208041339 0 -0.27449239233201839 -0.4308914694751062 0 -0.25803428708296988 -0.42674061873833252 0 -0.27168486458620161 -0.44509244846389079 0 -0.27449239233201839 -0.4308914694751062 0 -0.2718589079866926 -0.41704375382455222 0 -0.25803428708296988 -0.42674061873833252 0 -0.28718405522327722 -0.42529310679457338 0 -0.27449239233201839 -0.4308914694751062 0 -0.2718589079866926 -0.41704375382455222 0 -0.28560446903265241 -0.40905053005628922 0 -0.26639930833070091 -0.40093369106835169 0 -0.2718589079866926 -0.41704375382455222 0 -0.26639930833070091 -0.40093369106835169 0 -0.2718589079866926 -0.41704375382455222 0 -0.25804030914834558 -0.41248339377456977 0 -0.25804030914834558 -0.41248339377456977 0 -0.25803428708296988 -0.42674061873833252 0 -0.24438370957973701 -0.40838878901277531 0 -0.25803428708296988 -0.42674061873833252 0 -0.24438370957973701 -0.40838878901277531 0 -0.2718589079866926 -0.41704375382455222 0 -0.25804030914834558 -0.41248339377456977 0 -0.25803428708296988 -0.42674061873833252 0 -0.25803428708296988 -0.42674061873833252 0 -0.27168486458620161 -0.44509244846389079 0 -0.25803428708296988 -0.42674061873833252 0 -0.25622023076634082 -0.43981542342792679 0 -0.26370079802950658 -0.44255766603893087 0 -0.25803428708296988 -0.42674061873833252 0 -0.25622023076634082 -0.43981542342792679 0 -0.2479662229572703 -0.43737564425290482 0 -0.25622023076634082 -0.43981542342792679 0 -0.25180377249224001 -0.44672214052479509 0 -0.2479662229572703 -0.43737564425290482 0 -0.25622023076634082 -0.43981542342792679 0 -0.25180377249224001 -0.44672214052479509 0 -0.25972817340954057 -0.44520480822843161 0 -0.25803428708296988 -0.42674061873833252 0 -0.26370079802950658 -0.44255766603893087 0 -0.27168486458620161 -0.44509244846389079 0 -0.25180377249224001 -0.44672214052479509 0 -0.25972817340954057 -0.44520480822843161 0 -0.25322613599723981 -0.45529029647641128 0 -0.26370079802950658 -0.44255766603893087 0 -0.25972817340954057 -0.44520480822843161 0 -0.27168486458620161 -0.44509244846389079 0 -0.25622023076634082 -0.43981542342792679 0 -0.26370079802950658 -0.44255766603893087 0 -0.25972817340954057 -0.44520480822843161 0 -0.25972817340954057 -0.44520480822843161 0 -0.25981646110861539 -0.46243820130272112 0 -0.27364392455589642 -0.46821802890611658 0 -0.25972817340954057 -0.44520480822843161 0 -0.25322613599723981 -0.45529029647641128 0 -0.25981646110861539 -0.46243820130272112 0 -0.25193292848121102 -0.46724962897527389 0 -0.25322613599723981 -0.45529029647641128 0 -0.25981646110861539 -0.46243820130272112 0 -0.27222871760048573 -0.45499329186968401 0 -0.27168486458620161 -0.44509244846389079 0 -0.2838579078503049 -0.46145788188029518 0 -0.27168486458620161 -0.44509244846389079 0 -0.2838579078503049 -0.46145788188029518 0 -0.25972817340954057 -0.44520480822843161 0 -0.27364392455589642 -0.46821802890611658 0 -0.25972817340954057 -0.44520480822843161 0 -0.27222871760048573 -0.45499329186968401 0 -0.27364392455589642 -0.46821802890611658 0 -0.27222871760048573 -0.45499329186968401 0 -0.27364392455589642 -0.46821802890611658 0 -0.2838579078503049 -0.46145788188029518 0 -0.27364392455589642 -0.46821802890611658 0 -0.2838579078503049 -0.46145788188029518 0 -0.28527311480571421 -0.4746826189167288 0 -0.27168486458620161 -0.44509244846389079 0 -0.29043643539233738 -0.4510456994522587 0 -0.26370079802950658 -0.44255766603893087 0 -0.27168486458620161 -0.44509244846389079 0 -0.25972817340954057 -0.44520480822843161 0 -0.27222871760048573 -0.45499329186968401 0 -0.27168486458620161 -0.44509244846389079 0 -0.27449239233201839 -0.4308914694751062 0 -0.27168486458620161 -0.44509244846389079 0 -0.28475185204868891 -0.4379317350748797 0 -0.27168486458620161 -0.44509244846389079 0 -0.28475185204868891 -0.4379317350748797 0 -0.29043643539233738 -0.4510456994522587 0 -0.27168486458620161 -0.44509244846389079 0 -0.29043643539233738 -0.4510456994522587 0 -0.2838579078503049 -0.46145788188029518 0 -0.29996151270961041 -0.43733595118856722 0 -0.28475185204868891 -0.4379317350748797 0 -0.29043643539233738 -0.4510456994522587 0 -0.2838579078503049 -0.46145788188029518 0 -0.30918800619847359 -0.45699895044062511 0 -0.29603095111440458 -0.4778233152967023 0 -0.29043643539233738 -0.4510456994522587 0 -0.2838579078503049 -0.46145788188029518 0 -0.30918800619847359 -0.45699895044062511 0 -0.29043643539233738 -0.4510456994522587 0 -0.30918800619847359 -0.45699895044062511 0 -0.30918800619847359 -0.45699895044062511 0 -0.29603095111440458 -0.4778233152967023 0 -0.29996151270961041 -0.43733595118856722 0 -0.29043643539233738 -0.4510456994522587 0 -0.30918800619847359 -0.45699895044062511 0 -0.32503386408226531 -0.43191887561224362 0 -0.29996151270961041 -0.43733595118856722 0 -0.30918800619847359 -0.45699895044062511 0 -0.31252655715665201 -0.50000000000000022 0 -0.29603095111440458 -0.4778233152967023 0 -0.29286200823385888 -0.50000000000000067 0 -0.31252655715665201 -0.50000000000000022 0 -0.29603095111440458 -0.4778233152967023 0 -0.31252655715665201 -0.50000000000000022 0 -0.31186733739172617 -0.48308416012834521 0 -0.29603095111440458 -0.4778233152967023 0 -0.31346348317331718 -0.47291278894192312 0 -0.30918800619847359 -0.45699895044062511 0 -0.29603095111440458 -0.4778233152967023 0 -0.31346348317331718 -0.47291278894192312 0 -0.31186733739172617 -0.48308416012834521 0 -0.29603095111440458 -0.4778233152967023 0 -0.2838579078503049 -0.46145788188029518 0 -0.29603095111440458 -0.4778233152967023 0 -0.2838579078503049 -0.46145788188029518 0 -0.29603095111440458 -0.4778233152967023 0 -0.28527311480571421 -0.4746826189167288 0 -0.27364392455589642 -0.46821802890611658 0 -0.28527311480571421 -0.4746826189167288 0 -0.28755967570225199 -0.49123124958380182 0 -0.29603095111440458 -0.4778233152967023 0 -0.28527311480571421 -0.4746826189167288 0 -0.28755967570225199 -0.49123124958380182 0 -0.29603095111440458 -0.4778233152967023 0 -0.28755967570225199 -0.49123124958380182 0 -0.29286200823385888 -0.50000000000000067 0 -0.29603095111440458 -0.4778233152967023 0 -0.28755967570225199 -0.49123124958380182 0 -0.28755967570225199 -0.49123124958380182 0 -0.29286200823385888 -0.50000000000000067 0 -0.28755967570225199 -0.49123124958380182 0 -0.29286200823385888 -0.50000000000000067 0 -0.28201948597537502 -0.49999999999999939 0 -0.28755967570225199 -0.49123124958380182 0 -0.28201948597537502 -0.49999999999999939 0 -0.28201948597537502 -0.49999999999999939 0 -0.27147210097495028 -0.48713550448345821 0 -0.25358627554203861 -0.5 0 -0.28755967570225199 -0.49123124958380182 0 -0.28201948597537502 -0.49999999999999939 0 -0.27147210097495028 -0.48713550448345821 0 -0.27364392455589642 -0.46821802890611658 0 -0.28755967570225199 -0.49123124958380182 0 -0.27147210097495028 -0.48713550448345821 0 -0.27364392455589642 -0.46821802890611658 0 -0.27147210097495028 -0.48713550448345821 0 -0.25951297142272528 -0.47696437161678518 0 -0.27364392455589642 -0.46821802890611658 0 -0.28755967570225199 -0.49123124958380182 0 -0.25193292848121102 -0.46724962897527389 0 -0.25951297142272528 -0.47696437161678518 0 -0.24064626901720709 -0.48098496152415737 0 -0.25981646110861539 -0.46243820130272112 0 -0.27364392455589642 -0.46821802890611658 0 -0.25951297142272528 -0.47696437161678518 0 -0.25193292848121102 -0.46724962897527389 0 -0.25981646110861539 -0.46243820130272112 0 -0.25951297142272528 -0.47696437161678518 0 -0.27147210097495028 -0.48713550448345821 0 -0.25951297142272528 -0.47696437161678518 0 -0.25358627554203861 -0.5 0 -0.25951297142272528 -0.47696437161678518 0 -0.25358627554203861 -0.5 0 -0.24064626901720709 -0.48098496152415737 0 -0.25358627554203861 -0.5 0 -0.24064626901720709 -0.48098496152415737 0 -0.22515306510870231 -0.5 0 -0.25193292848121102 -0.46724962897527389 0 -0.24064626901720709 -0.48098496152415737 0 -0.2410935058891035 -0.46197658476934039 0 -0.24064626901720709 -0.48098496152415737 0 -0.2410935058891035 -0.46197658476934039 0 -0.22926949431751381 -0.4657194313555012 0 -0.24064626901720709 -0.48098496152415737 0 -0.22575733347110341 -0.47922278130515478 0 -0.22926949431751381 -0.4657194313555012 0 -0.21906832995508221 -0.47079809881675633 0 -0.22575733347110341 -0.47922278130515478 0 -0.22926949431751381 -0.4657194313555012 0 -0.24064626901720709 -0.48098496152415737 0 -0.22575733347110341 -0.47922278130515478 0 -0.22515306510870231 -0.5 0 -0.22575733347110341 -0.47922278130515478 0 -0.22515306510870231 -0.5 0 -0.20995029040217439 -0.47922293004071348 0 -0.25180377249224001 -0.44672214052479509 0 -0.24375497811741961 -0.44915812146485451 0 -0.2479662229572703 -0.43737564425290482 0 -0.23495887894972561 -0.43755610327874878 0 -0.24375497811741961 -0.44915812146485451 0 -0.2479662229572703 -0.43737564425290482 0 -0.25180377249224001 -0.44672214052479509 0 -0.25322613599723981 -0.45529029647641128 0 -0.24375497811741961 -0.44915812146485451 0 -0.23495887894972561 -0.43755610327874878 0 -0.24375497811741961 -0.44915812146485451 0 -0.23055544367404801 -0.45200882068247339 0 -0.24375497811741961 -0.44915812146485451 0 -0.2410935058891035 -0.46197658476934039 0 -0.23055544367404801 -0.45200882068247339 0 -0.25322613599723981 -0.45529029647641128 0 -0.24375497811741961 -0.44915812146485451 0 -0.2410935058891035 -0.46197658476934039 0 -0.25193292848121102 -0.46724962897527389 0 -0.25322613599723981 -0.45529029647641128 0 -0.2410935058891035 -0.46197658476934039 0 -0.21906832995508221 -0.47079809881675633 0 -0.22926949431751381 -0.4657194313555012 0 -0.21129620162953741 -0.45902725256565552 0 -0.22926949431751381 -0.4657194313555012 0 -0.23055544367404801 -0.45200882068247339 0 -0.21129620162953741 -0.45902725256565552 0 -0.2410935058891035 -0.46197658476934039 0 -0.22926949431751381 -0.4657194313555012 0 -0.23055544367404801 -0.45200882068247339 0 -0.23495887894972561 -0.43755610327874878 0 -0.21917944197989431 -0.44494986685205729 0 -0.22105824904101359 -0.43264269058830362 0 -0.21917944197989431 -0.44494986685205729 0 -0.23055544367404801 -0.45200882068247339 0 -0.21129620162953741 -0.45902725256565552 0 -0.23495887894972561 -0.43755610327874878 0 -0.21917944197989431 -0.44494986685205729 0 -0.23055544367404801 -0.45200882068247339 0 -0.21917944197989431 -0.44494986685205729 0 -0.20352444906826789 -0.44104609125811628 0 -0.22105824904101359 -0.43264269058830362 0 -0.21917944197989431 -0.44494986685205729 0 -0.20352444906826789 -0.44104609125811628 0 -0.21129620162953741 -0.45902725256565552 0 -0.21129620162953741 -0.45902725256565552 0 -0.192269507931567 -0.46368635406325581 0 -0.20995029040217439 -0.47922293004071348 0 -0.20352444906826789 -0.44104609125811628 0 -0.21129620162953741 -0.45902725256565552 0 -0.192269507931567 -0.46368635406325581 0 -0.192269507931567 -0.46368635406325581 0 -0.18978967878864481 -0.45127587055463309 0 -0.18207765255776789 -0.46135975608669788 0 -0.20352444906826789 -0.44104609125811628 0 -0.192269507931567 -0.46368635406325581 0 -0.20352444906826789 -0.44104609125811628 0 -0.192269507931567 -0.46368635406325581 0 -0.18978967878864481 -0.45127587055463309 0 -0.20352444906826789 -0.44104609125811628 0 -0.18978967878864481 -0.45127587055463309 0 -0.19175626266214929 -0.4365808300120988 0 -0.22515306510870231 -0.5 0 -0.20995029040217439 -0.47922293004071348 0 -0.19671985467536579 -0.5 0 -0.21906832995508221 -0.47079809881675633 0 -0.22575733347110341 -0.47922278130515478 0 -0.20995029040217439 -0.47922293004071348 0 -0.21906832995508221 -0.47079809881675633 0 -0.21129620162953741 -0.45902725256565552 0 -0.20995029040217439 -0.47922293004071348 0 -0.192269507931567 -0.46368635406325581 0 -0.20995029040217439 -0.47922293004071348 0 -0.19500038360649311 -0.47916159160473848 0 -0.192269507931567 -0.46368635406325581 0 -0.19500038360649311 -0.47916159160473848 0 -0.18101456679486611 -0.48632661686839529 0 -0.19500038360649311 -0.47916159160473848 0 -0.19671985467536579 -0.5 0 -0.18101456679486611 -0.48632661686839529 0 -0.20995029040217439 -0.47922293004071348 0 -0.19500038360649311 -0.47916159160473848 0 -0.19671985467536579 -0.5 0 -0.19671985467536579 -0.5 0 -0.18101456679486611 -0.48632661686839529 0 -0.16828664424202941 -0.5 0 -0.18101456679486611 -0.48632661686839529 0 -0.16828664424202941 -0.5 0 -0.16662154710244459 -0.48455991172827212 0 -0.16828664424202941 -0.5 0 -0.16662154710244459 -0.48455991172827212 0 -0.1540405815893027 -0.48837249712221709 0 -0.15659121409381871 -0.47770290453257469 0 -0.16529203058772901 -0.47389898013390419 0 -0.15919769226278821 -0.4665288062361182 0 -0.16529203058772901 -0.47389898013390419 0 -0.16534027048966221 -0.46717068600780709 0 -0.15919769226278821 -0.4665288062361182 0 -0.16662154710244459 -0.48455991172827212 0 -0.15659121409381871 -0.47770290453257469 0 -0.1540405815893027 -0.48837249712221709 0 -0.16662154710244459 -0.48455991172827212 0 -0.15659121409381871 -0.47770290453257469 0 -0.16529203058772901 -0.47389898013390419 0 -0.16662154710244459 -0.48455991172827212 0 -0.16529203058772901 -0.47389898013390419 0 -0.17271611076248569 -0.47695766147040991 0 -0.16529203058772901 -0.47389898013390419 0 -0.17112107789524189 -0.46934606036897197 0 -0.17271611076248569 -0.47695766147040991 0 -0.16529203058772901 -0.47389898013390419 0 -0.17112107789524189 -0.46934606036897197 0 -0.16534027048966221 -0.46717068600780709 0 -0.192269507931567 -0.46368635406325581 0 -0.18101456679486611 -0.48632661686839529 0 -0.1795313314321472 -0.47065673825250581 0 -0.18101456679486611 -0.48632661686839529 0 -0.1795313314321472 -0.47065673825250581 0 -0.17271611076248569 -0.47695766147040991 0 -0.192269507931567 -0.46368635406325581 0 -0.18101456679486611 -0.48632661686839529 0 -0.17112107789524189 -0.46934606036897197 0 -0.1795313314321472 -0.47065673825250581 0 -0.17271611076248569 -0.47695766147040991 0 -0.18101456679486611 -0.48632661686839529 0 -0.16662154710244459 -0.48455991172827212 0 -0.17271611076248569 -0.47695766147040991 0 -0.192269507931567 -0.46368635406325581 0 -0.1795313314321472 -0.47065673825250581 0 -0.18207765255776789 -0.46135975608669788 0 -0.18978967878864481 -0.45127587055463309 0 -0.18207765255776789 -0.46135975608669788 0 -0.17905596642033841 -0.45320843266902489 0 -0.17905596642033841 -0.45320843266902489 0 -0.171758326327973 -0.45705580254739592 0 -0.16873313511932711 -0.45475583157121741 0 -0.18207765255776789 -0.46135975608669788 0 -0.17905596642033841 -0.45320843266902489 0 -0.17370624177575911 -0.45853674992723398 0 -0.17905596642033841 -0.45320843266902489 0 -0.17370624177575911 -0.45853674992723398 0 -0.171758326327973 -0.45705580254739592 0 -0.17370624177575911 -0.45853674992723398 0 -0.17428340621424171 -0.4637285191180836 0 -0.17136409109520759 -0.46041706662587872 0 -0.17370624177575911 -0.45853674992723398 0 -0.17136409109520759 -0.46041706662587872 0 -0.171758326327973 -0.45705580254739592 0 -0.17370624177575911 -0.45853674992723398 0 -0.171758326327973 -0.45705580254739592 0 -0.1795313314321472 -0.47065673825250581 0 -0.18207765255776789 -0.46135975608669788 0 -0.17428340621424171 -0.4637285191180836 0 -0.17112107789524189 -0.46934606036897197 0 -0.1795313314321472 -0.47065673825250581 0 -0.17428340621424171 -0.4637285191180836 0 -0.18207765255776789 -0.46135975608669788 0 -0.17370624177575911 -0.45853674992723398 0 -0.17428340621424171 -0.4637285191180836 0 -0.18978967878864481 -0.45127587055463309 0 -0.17905596642033841 -0.45320843266902489 0 -0.19175626266214929 -0.4365808300120988 0 -0.16873313511932711 -0.45475583157121741 0 -0.19175626266214929 -0.4365808300120988 0 -0.17905596642033841 -0.45320843266902489 0 -0.16873313511932711 -0.45475583157121741 0 -0.19175626266214929 -0.4365808300120988 0 -0.16873313511932711 -0.45475583157121741 0 -0.17140276084947059 -0.43142498197081458 0 -0.19175626266214929 -0.4365808300120988 0 -0.16873313511932711 -0.45475583157121741 0 -0.16652760982731379 -0.45649692541463899 0 -0.15186768571397699 -0.44193348697969032 0 -0.16873313511932711 -0.45475583157121741 0 -0.15186768571397699 -0.44193348697969032 0 -0.16873313511932711 -0.45475583157121741 0 -0.15186768571397699 -0.44193348697969032 0 -0.17140276084947059 -0.43142498197081458 0 -0.16652760982731379 -0.45649692541463899 0 -0.15919769226278821 -0.4665288062361182 0 -0.14815848100999451 -0.47099795027642499 0 -0.16652760982731379 -0.45649692541463899 0 -0.14815848100999451 -0.47099795027642499 0 -0.1653648786115311 -0.46142740043650737 0 -0.16842926959799001 -0.46345610483140792 0 -0.16864321156007361 -0.45930815670527247 0 -0.16452120352593699 -0.46427922266875338 0 -0.1653648786115311 -0.46142740043650737 0 -0.16842926959799001 -0.46345610483140792 0 -0.16452120352593699 -0.46427922266875338 0 -0.16534027048966221 -0.46717068600780709 0 -0.16842926959799001 -0.46345610483140792 0 -0.17112107789524189 -0.46934606036897197 0 -0.17428340621424171 -0.4637285191180836 0 -0.16842926959799001 -0.46345610483140792 0 -0.17112107789524189 -0.46934606036897197 0 -0.16534027048966221 -0.46717068600780709 0 -0.16842926959799001 -0.46345610483140792 0 -0.16842926959799001 -0.46345610483140792 0 -0.17136409109520759 -0.46041706662587872 0 -0.16864321156007361 -0.45930815670527247 0 -0.17428340621424171 -0.4637285191180836 0 -0.16842926959799001 -0.46345610483140792 0 -0.17136409109520759 -0.46041706662587872 0 -0.171758326327973 -0.45705580254739592 0 -0.16864321156007361 -0.45930815670527247 0 -0.16652760982731379 -0.45649692541463899 0 -0.17136409109520759 -0.46041706662587872 0 -0.171758326327973 -0.45705580254739592 0 -0.16864321156007361 -0.45930815670527247 0 -0.171758326327973 -0.45705580254739592 0 -0.16873313511932711 -0.45475583157121741 0 -0.16652760982731379 -0.45649692541463899 0 -0.171758326327973 -0.45705580254739592 0 -0.16652760982731379 -0.45649692541463899 0 -0.171758326327973 -0.45705580254739592 0 -0.16873313511932711 -0.45475583157121741 0 -0.16873313511932711 -0.45475583157121741 0 -0.16652760982731379 -0.45649692541463899 0 -0.1653648786115311 -0.46142740043650737 0 -0.16864321156007361 -0.45930815670527247 0 -0.16652760982731379 -0.45649692541463899 0 -0.1653648786115311 -0.46142740043650737 0 -0.16652760982731379 -0.45649692541463899 0 -0.15919769226278821 -0.4665288062361182 0 -0.16452120352593699 -0.46427922266875338 0 -0.1653648786115311 -0.46142740043650737 0 -0.15919769226278821 -0.4665288062361182 0 -0.16452120352593699 -0.46427922266875338 0 -0.16534027048966221 -0.46717068600780709 0 -0.15919769226278821 -0.4665288062361182 0 -0.16652760982731379 -0.45649692541463899 0 -0.15080733863324911 -0.46107198963936102 0 -0.14215199802992609 -0.45389250744840809 0 -0.16652760982731379 -0.45649692541463899 0 -0.15080733863324911 -0.46107198963936102 0 -0.14815848100999451 -0.47099795027642499 0 -0.16652760982731379 -0.45649692541463899 0 -0.14215199802992609 -0.45389250744840809 0 -0.15080733863324911 -0.46107198963936102 0 -0.14215199802992609 -0.45389250744840809 0 -0.14548233158636881 -0.46319413696830158 0 -0.14215199802992609 -0.45389250744840809 0 -0.14548233158636881 -0.46319413696830158 0 -0.13935721414527691 -0.46728379898954092 0 -0.15080733863324911 -0.46107198963936102 0 -0.14548233158636881 -0.46319413696830158 0 -0.14815848100999451 -0.47099795027642499 0 -0.14548233158636881 -0.46319413696830158 0 -0.13935721414527691 -0.46728379898954092 0 -0.14815848100999451 -0.47099795027642499 0 -0.14215199802992609 -0.45389250744840809 0 -0.15186768571397699 -0.44193348697969032 0 -0.13305433470143349 -0.44205523321931012 0 -0.16652760982731379 -0.45649692541463899 0 -0.14215199802992609 -0.45389250744840809 0 -0.15186768571397699 -0.44193348697969032 0 -0.14215199802992609 -0.45389250744840809 0 -0.13305433470143349 -0.44205523321931012 0 -0.1177763862325383 -0.45128808948217841 0 -0.15186768571397699 -0.44193348697969032 0 -0.13305433470143349 -0.44205523321931012 0 -0.13500223630862621 -0.42911114238816411 0 -0.14215199802992609 -0.45389250744840809 0 -0.1177763862325383 -0.45128808948217841 0 -0.13935721414527691 -0.46728379898954092 0 -0.12746237983447389 -0.45829161939780888 0 -0.11056392093015451 -0.46070208167110838 0 -0.14215199802992609 -0.45389250744840809 0 -0.12746237983447389 -0.45829161939780888 0 -0.1177763862325383 -0.45128808948217841 0 -0.14215199802992609 -0.45389250744840809 0 -0.13935721414527691 -0.46728379898954092 0 -0.12746237983447389 -0.45829161939780888 0 -0.1351914457104908 -0.47358375949063403 0 -0.12978935219267479 -0.4854989751382105 0 -0.14815848100999451 -0.47099795027642499 0 -0.1351914457104908 -0.47358375949063403 0 -0.12978935219267479 -0.4854989751382105 0 -0.1234607354940172 -0.47055431355835919 0 -0.13935721414527691 -0.46728379898954092 0 -0.1351914457104908 -0.47358375949063403 0 -0.1234607354940172 -0.47055431355835919 0 -0.12978935219267479 -0.4854989751382105 0 -0.14815848100999451 -0.47099795027642499 0 -0.12978935219267479 -0.4854989751382105 0 -0.14297209773022451 -0.48863415573183311 0 -0.1462369520106532 -0.48185928169851189 0 -0.12978935219267479 -0.4854989751382105 0 -0.139853433808693 -0.5 0 -0.11142022337535649 -0.49999999999999739 0 -0.12978935219267479 -0.4854989751382105 0 -0.139853433808693 -0.5 0 -0.14297209773022451 -0.48863415573183311 0 -0.16828664424202941 -0.5 0 -0.139853433808693 -0.5 0 -0.1540405815893027 -0.48837249712221709 0 -0.14297209773022451 -0.48863415573183311 0 -0.1540405815893027 -0.48837249712221709 0 -0.1462369520106532 -0.48185928169851189 0 -0.139853433808693 -0.5 0 -0.14297209773022451 -0.48863415573183311 0 -0.1540405815893027 -0.48837249712221709 0 -0.15659121409381871 -0.47770290453257469 0 -0.14815848100999451 -0.47099795027642499 0 -0.1462369520106532 -0.48185928169851189 0 -0.12978935219267479 -0.4854989751382105 0 -0.14815848100999451 -0.47099795027642499 0 -0.1462369520106532 -0.48185928169851189 0 -0.15659121409381871 -0.47770290453257469 0 -0.1540405815893027 -0.48837249712221709 0 -0.1462369520106532 -0.48185928169851189 0 -0.15659121409381871 -0.47770290453257469 0 -0.15919769226278821 -0.4665288062361182 0 -0.14815848100999451 -0.47099795027642499 0 -0.13935721414527691 -0.46728379898954092 0 -0.1351914457104908 -0.47358375949063403 0 -0.14815848100999451 -0.47099795027642499 0 -0.1381102710773959 -0.39448425427776462 0 -0.14477604572190911 -0.41183397654271597 0 -0.15807891256747481 -0.39385858898986259 0 -0.1381102710773959 -0.39448425427776462 0 -0.15807891256747481 -0.39385858898986259 0 -0.15808375525151711 -0.37267971075889 0 -0.1381102710773959 -0.39448425427776462 0 -0.15808375525151711 -0.37267971075889 0 -0.1381102710773959 -0.39448425427776462 0 -0.15808375525151711 -0.37267971075889 0 -0.13363954654254681 -0.37329861950086068 0 -0.1381102710773959 -0.39448425427776462 0 -0.13363954654254681 -0.37329861950086068 0 -0.1201769342067032 -0.39271001729944099 0 -0.1381102710773959 -0.39448425427776462 0 -0.1181367869032745 -0.41628879779663908 0 -0.1381102710773959 -0.39448425427776462 0 -0.1181367869032745 -0.41628879779663908 0 -0.1201769342067032 -0.39271001729944099 0 -0.13500223630862621 -0.42911114238816411 0 -0.14477604572190911 -0.41183397654271597 0 -0.1181367869032745 -0.41628879779663908 0 -0.1381102710773959 -0.39448425427776462 0 -0.14477604572190911 -0.41183397654271597 0 -0.1181367869032745 -0.41628879779663908 0 -0.13305433470143349 -0.44205523321931012 0 -0.13500223630862621 -0.42911114238816411 0 -0.1184733672221002 -0.43405093979810938 0 -0.13500223630862621 -0.42911114238816411 0 -0.1181367869032745 -0.41628879779663908 0 -0.13500223630862621 -0.42911114238816411 0 -0.15280782798519921 -0.42529497180482723 0 -0.14477604572190911 -0.41183397654271597 0 -0.15186768571397699 -0.44193348697969032 0 -0.13500223630862621 -0.42911114238816411 0 -0.15280782798519921 -0.42529497180482723 0 -0.15186768571397699 -0.44193348697969032 0 -0.13500223630862621 -0.42911114238816411 0 -0.15280782798519921 -0.42529497180482723 0 -0.14477604572190911 -0.41183397654271597 0 -0.1665202394894833 -0.41196610399903988 0 -0.15186768571397699 -0.44193348697969032 0 -0.15280782798519921 -0.42529497180482723 0 -0.17140276084947059 -0.43142498197081458 0 -0.15280782798519921 -0.42529497180482723 0 -0.1665202394894833 -0.41196610399903988 0 -0.17140276084947059 -0.43142498197081458 0 -0.17140276084947059 -0.43142498197081458 0 -0.19175626266214929 -0.4365808300120988 0 -0.19418478303368 -0.4181993697275625 0 -0.1665202394894833 -0.41196610399903988 0 -0.17140276084947059 -0.43142498197081458 0 -0.19418478303368 -0.4181993697275625 0 -0.1665202394894833 -0.41196610399903988 0 -0.19635311125028779 -0.39704158935512429 0 -0.19418478303368 -0.4181993697275625 0 -0.1665202394894833 -0.41196610399903988 0 -0.17671128251580809 -0.38549867200884957 0 -0.19635311125028779 -0.39704158935512429 0 -0.1665202394894833 -0.41196610399903988 0 -0.15807891256747481 -0.39385858898986259 0 -0.17671128251580809 -0.38549867200884957 0 -0.14477604572190911 -0.41183397654271597 0 -0.1665202394894833 -0.41196610399903988 0 -0.15807891256747481 -0.39385858898986259 0 -0.15807891256747481 -0.39385858898986259 0 -0.17671128251580809 -0.38549867200884957 0 -0.15808375525151711 -0.37267971075889 0 -0.17671128251580809 -0.38549867200884957 0 -0.19532555828242271 -0.37558446749128682 0 -0.1826975000379778 -0.36640647878045091 0 -0.19532555828242271 -0.37558446749128682 0 -0.19635311125028779 -0.39704158935512429 0 -0.20476559050141019 -0.37962398736088138 0 -0.17671128251580809 -0.38549867200884957 0 -0.19532555828242271 -0.37558446749128682 0 -0.19635311125028779 -0.39704158935512429 0 -0.19635311125028779 -0.39704158935512429 0 -0.20760665995444871 -0.40537540885533319 0 -0.21354614669716329 -0.39269402868075781 0 -0.21489020334131589 -0.40049261778401868 0 -0.21923585439697529 -0.39507685788437757 0 -0.2215936706661368 -0.40469832891166918 0 -0.20760665995444871 -0.40537540885533319 0 -0.21489020334131589 -0.40049261778401868 0 -0.2215936706661368 -0.40469832891166918 0 -0.20760665995444871 -0.40537540885533319 0 -0.21489020334131589 -0.40049261778401868 0 -0.21354614669716329 -0.39269402868075781 0 -0.21489020334131589 -0.40049261778401868 0 -0.21354614669716329 -0.39269402868075781 0 -0.21923585439697529 -0.39507685788437757 0 -0.21354614669716329 -0.39269402868075781 0 -0.220793649871766 -0.38820430902100689 0 -0.21923585439697529 -0.39507685788437757 0 -0.19635311125028779 -0.39704158935512429 0 -0.21354614669716329 -0.39269402868075781 0 -0.21833432640860431 -0.37905807616118531 0 -0.19635311125028779 -0.39704158935512429 0 -0.21833432640860431 -0.37905807616118531 0 -0.19635311125028779 -0.39704158935512429 0 -0.21833432640860431 -0.37905807616118531 0 -0.20476559050141019 -0.37962398736088138 0 -0.21354614669716329 -0.39269402868075781 0 -0.21833432640860431 -0.37905807616118531 0 -0.220793649871766 -0.38820430902100689 0 -0.21833432640860431 -0.37905807616118531 0 -0.20476559050141019 -0.37962398736088138 0 -0.20904936606432631 -0.36681181643592908 0 -0.19175626266214929 -0.4365808300120988 0 -0.19418478303368 -0.4181993697275625 0 -0.214779390204969 -0.41840582845297708 0 -0.19635311125028779 -0.39704158935512429 0 -0.20760665995444871 -0.40537540885533319 0 -0.19418478303368 -0.4181993697275625 0 -0.20760665995444871 -0.40537540885533319 0 -0.19418478303368 -0.4181993697275625 0 -0.214779390204969 -0.41840582845297708 0 -0.214779390204969 -0.41840582845297708 0 -0.2215936706661368 -0.40469832891166918 0 -0.20760665995444871 -0.40537540885533319 0 -0.214779390204969 -0.41840582845297708 0 -0.2215936706661368 -0.40469832891166918 0 -0.20352444906826789 -0.44104609125811628 0 -0.19175626266214929 -0.4365808300120988 0 -0.214779390204969 -0.41840582845297708 0 -0.20352444906826789 -0.44104609125811628 0 -0.214779390204969 -0.41840582845297708 0 -0.22105824904101359 -0.43264269058830362 0 -0.20352444906826789 -0.44104609125811628 0 -0.214779390204969 -0.41840582845297708 0 -0.19175626266214929 -0.4365808300120988 0 -0.214779390204969 -0.41840582845297708 0 -0.214779390204969 -0.41840582845297708 0 -0.22105824904101359 -0.43264269058830362 0 -0.23284908500221091 -0.42125556309961848 0 -0.23495887894972561 -0.43755610327874878 0 -0.22105824904101359 -0.43264269058830362 0 -0.23284908500221091 -0.42125556309961848 0 -0.214779390204969 -0.41840582845297708 0 -0.23284908500221091 -0.42125556309961848 0 -0.23098676891685929 -0.40561134026669521 0 -0.214779390204969 -0.41840582845297708 0 -0.23098676891685929 -0.40561134026669521 0 -0.214779390204969 -0.41840582845297708 0 -0.2215936706661368 -0.40469832891166918 0 -0.23098676891685929 -0.40561134026669521 0 -0.23284908500221091 -0.42125556309961848 0 -0.24438370957973701 -0.40838878901277531 0 -0.23098676891685929 -0.40561134026669521 0 -0.23284908500221091 -0.42125556309961848 0 -0.24438370957973701 -0.40838878901277531 0 -0.24363843671438271 -0.426263343676476 0 -0.25803428708296988 -0.42674061873833252 0 -0.24438370957973701 -0.40838878901277531 0 -0.24363843671438271 -0.426263343676476 0 -0.23495887894972561 -0.43755610327874878 0 -0.23284908500221091 -0.42125556309961848 0 -0.24363843671438271 -0.426263343676476 0 -0.23495887894972561 -0.43755610327874878 0 -0.24363843671438271 -0.426263343676476 0 -0.2479662229572703 -0.43737564425290482 0 -0.25803428708296988 -0.42674061873833252 0 -0.24363843671438271 -0.426263343676476 0 -0.2479662229572703 -0.43737564425290482 0 -0.21833432640860431 -0.37905807616118531 0 -0.22444397072878211 -0.38320175300835257 0 -0.24016629735153239 -0.37772335159208148 0 -0.22444397072878211 -0.38320175300835257 0 -0.228407951127305 -0.39099082937036139 0 -0.24719414762874969 -0.39281685208041339 0 -0.21833432640860431 -0.37905807616118531 0 -0.22444397072878211 -0.38320175300835257 0 -0.220793649871766 -0.38820430902100689 0 -0.22444397072878211 -0.38320175300835257 0 -0.220793649871766 -0.38820430902100689 0 -0.228407951127305 -0.39099082937036139 0 -0.21923585439697529 -0.39507685788437757 0 -0.2215936706661368 -0.40469832891166918 0 -0.228407951127305 -0.39099082937036139 0 -0.2215936706661368 -0.40469832891166918 0 -0.228407951127305 -0.39099082937036139 0 -0.220793649871766 -0.38820430902100689 0 -0.21923585439697529 -0.39507685788437757 0 -0.228407951127305 -0.39099082937036139 0 -0.2215936706661368 -0.40469832891166918 0 -0.23098676891685929 -0.40561134026669521 0 -0.228407951127305 -0.39099082937036139 0 -0.23098676891685929 -0.40561134026669521 0 -0.24719414762874969 -0.39281685208041339 0 -0.25804030914834558 -0.41248339377456977 0 -0.24438370957973701 -0.40838878901277531 0 -0.24719414762874969 -0.39281685208041339 0 -0.24438370957973701 -0.40838878901277531 0 -0.23098676891685929 -0.40561134026669521 0 -0.24719414762874969 -0.39281685208041339 0 -0.23098676891685929 -0.40561134026669521 0 -0.228407951127305 -0.39099082937036139 0 -0.24719414762874969 -0.39281685208041339 0 -0.22444397072878211 -0.38320175300835257 0 -0.24719414762874969 -0.39281685208041339 0 -0.24016629735153239 -0.37772335159208148 0 -0.22444397072878211 -0.38320175300835257 0 -0.24719414762874969 -0.39281685208041339 0 -0.25800822730005701 -0.36027474419253258 0 -0.24016629735153239 -0.37772335159208148 0 -0.24031554156692081 -0.36107456296724638 0 -0.21833432640860431 -0.37905807616118531 0 -0.24031554156692081 -0.36107456296724638 0 -0.21833432640860431 -0.37905807616118531 0 -0.24016629735153239 -0.37772335159208148 0 -0.24031554156692081 -0.36107456296724638 0 -0.24031554156692081 -0.36107456296724638 0 -0.2216197989855585 -0.36488179242887292 0 -0.21877996190238261 -0.35258271415113079 0 -0.21833432640860431 -0.37905807616118531 0 -0.24031554156692081 -0.36107456296724638 0 -0.2216197989855585 -0.36488179242887292 0 -0.24031554156692081 -0.36107456296724638 0 -0.21877996190238261 -0.35258271415113079 0 -0.23626411321476129 -0.34318559711417262 0 -0.26229675672523772 -0.34309104977330751 0 -0.24031554156692081 -0.36107456296724638 0 -0.23626411321476129 -0.34318559711417262 0 -0.26229675672523772 -0.34309104977330751 0 -0.23626411321476129 -0.34318559711417262 0 -0.23924578887242809 -0.32415789530406269 0 -0.25641376959848522 -0.32632460665722052 0 -0.23924578887242809 -0.32415789530406269 0 -0.24157385016591629 -0.31148198461051441 0 -0.23924578887242809 -0.32415789530406269 0 -0.21864104972665499 -0.32111105356015468 0 -0.21619482101962101 -0.30522474083481521 0 -0.23924578887242809 -0.32415789530406269 0 -0.24157385016591629 -0.31148198461051441 0 -0.21619482101962101 -0.30522474083481521 0 -0.23924578887242809 -0.32415789530406269 0 -0.22068251700683841 -0.33502176337511452 0 -0.21864104972665499 -0.32111105356015468 0 -0.23924578887242809 -0.32415789530406269 0 -0.21619482101962101 -0.30522474083481521 0 -0.21877996190238261 -0.35258271415113079 0 -0.23626411321476129 -0.34318559711417262 0 -0.22068251700683841 -0.33502176337511452 0 -0.23626411321476129 -0.34318559711417262 0 -0.23924578887242809 -0.32415789530406269 0 -0.22068251700683841 -0.33502176337511452 0 -0.21877996190238261 -0.35258271415113079 0 -0.22068251700683841 -0.33502176337511452 0 -0.2056233501328549 -0.34106709278900921 0 -0.22068251700683841 -0.33502176337511452 0 -0.2056233501328549 -0.34106709278900921 0 -0.20853510220188559 -0.32671895266676559 0 -0.2056233501328549 -0.34106709278900921 0 -0.20853510220188559 -0.32671895266676559 0 -0.19762268866510699 -0.32975815921978141 0 -0.21864104972665499 -0.32111105356015468 0 -0.20854701953250121 -0.31443191562001738 0 -0.21619482101962101 -0.30522474083481521 0 -0.21864104972665499 -0.32111105356015468 0 -0.20853510220188559 -0.32671895266676559 0 -0.20854701953250121 -0.31443191562001738 0 -0.22068251700683841 -0.33502176337511452 0 -0.21864104972665499 -0.32111105356015468 0 -0.20853510220188559 -0.32671895266676559 0 -0.20853510220188559 -0.32671895266676559 0 -0.20854701953250121 -0.31443191562001738 0 -0.19806499088289861 -0.32167886297289883 0 -0.20854701953250121 -0.31443191562001738 0 -0.19806499088289861 -0.32167886297289883 0 -0.18870282160261201 -0.31208654307805223 0 -0.20854701953250121 -0.31443191562001738 0 -0.18870282160261201 -0.31208654307805223 0 -0.20853510220188559 -0.32671895266676559 0 -0.19806499088289861 -0.32167886297289883 0 -0.19762268866510699 -0.32975815921978141 0 -0.19806499088289861 -0.32167886297289883 0 -0.19762268866510699 -0.32975815921978141 0 -0.1869173224123874 -0.32539874427987792 0 -0.19806499088289861 -0.32167886297289883 0 -0.18870282160261201 -0.31208654307805223 0 -0.1869173224123874 -0.32539874427987792 0 -0.2056233501328549 -0.34106709278900921 0 -0.19762268866510699 -0.32975815921978141 0 -0.18748492798964431 -0.33892332475164338 0 -0.2056233501328549 -0.34106709278900921 0 -0.19304503591333391 -0.35121026957331219 0 -0.18748492798964431 -0.33892332475164338 0 -0.19762268866510699 -0.32975815921978141 0 -0.18748492798964431 -0.33892332475164338 0 -0.1869173224123874 -0.32539874427987792 0 -0.2056233501328549 -0.34106709278900921 0 -0.19304503591333391 -0.35121026957331219 0 -0.20489658048258669 -0.35414554212881311 0 -0.19304503591333391 -0.35121026957331219 0 -0.19709211545103009 -0.36248845150129722 0 -0.20489658048258669 -0.35414554212881311 0 -0.19304503591333391 -0.35121026957331219 0 -0.19709211545103009 -0.36248845150129722 0 -0.1826975000379778 -0.36640647878045091 0 -0.19532555828242271 -0.37558446749128682 0 -0.19709211545103009 -0.36248845150129722 0 -0.1826975000379778 -0.36640647878045091 0 -0.19532555828242271 -0.37558446749128682 0 -0.19709211545103009 -0.36248845150129722 0 -0.20904936606432631 -0.36681181643592908 0 -0.19532555828242271 -0.37558446749128682 0 -0.20476559050141019 -0.37962398736088138 0 -0.20904936606432631 -0.36681181643592908 0 -0.19709211545103009 -0.36248845150129722 0 -0.20904936606432631 -0.36681181643592908 0 -0.20489658048258669 -0.35414554212881311 0 -0.21833432640860431 -0.37905807616118531 0 -0.2216197989855585 -0.36488179242887292 0 -0.20904936606432631 -0.36681181643592908 0 -0.2216197989855585 -0.36488179242887292 0 -0.21877996190238261 -0.35258271415113079 0 -0.20904936606432631 -0.36681181643592908 0 -0.21877996190238261 -0.35258271415113079 0 -0.2056233501328549 -0.34106709278900921 0 -0.20489658048258669 -0.35414554212881311 0 -0.21877996190238261 -0.35258271415113079 0 -0.20904936606432631 -0.36681181643592908 0 -0.20489658048258669 -0.35414554212881311 0 -0.22977156871879331 -0.26606357592135232 0 -0.23726921172755491 -0.24006168934922731 0 -0.25549012390218001 -0.27156072195817282 0 -0.24686496979937381 -0.25551888127341332 0 -0.22977156871879331 -0.26606357592135232 0 -0.24686496979937381 -0.25551888127341332 0 -0.22977156871879331 -0.26606357592135232 0 -0.23726921172755491 -0.24006168934922731 0 -0.22977156871879331 -0.26606357592135232 0 -0.23144151464577251 -0.28350505525307013 0 -0.2459317459832219 -0.28610690006171291 0 -0.25549012390218001 -0.27156072195817282 0 -0.22977156871879331 -0.26606357592135232 0 -0.2459317459832219 -0.28610690006171291 0 -0.22977156871879331 -0.26606357592135232 0 -0.23144151464577251 -0.28350505525307013 0 -0.21767260928078669 -0.28601347879250411 0 -0.23239013460028801 -0.29583626623671122 0 -0.21619482101962101 -0.30522474083481521 0 -0.21767260928078669 -0.28601347879250411 0 -0.23239013460028801 -0.29583626623671122 0 -0.23144151464577251 -0.28350505525307013 0 -0.21767260928078669 -0.28601347879250411 0 -0.23239013460028801 -0.29583626623671122 0 -0.23144151464577251 -0.28350505525307013 0 -0.2459317459832219 -0.28610690006171291 0 -0.23239013460028801 -0.29583626623671122 0 -0.2459317459832219 -0.28610690006171291 0 -0.2459044992999613 -0.29816430982094938 0 -0.23239013460028801 -0.29583626623671122 0 -0.24157385016591629 -0.31148198461051441 0 -0.2459044992999613 -0.29816430982094938 0 -0.25932328347812877 -0.30223131190574293 0 -0.24157385016591629 -0.31148198461051441 0 -0.2459044992999613 -0.29816430982094938 0 -0.23239013460028801 -0.29583626623671122 0 -0.24157385016591629 -0.31148198461051441 0 -0.21619482101962101 -0.30522474083481521 0 -0.24157385016591629 -0.31148198461051441 0 -0.21619482101962101 -0.30522474083481521 0 -0.21619482101962101 -0.30522474083481521 0 -0.19291841767051199 -0.29948590310633461 0 -0.21619482101962101 -0.30522474083481521 0 -0.19702715433237891 -0.29710263582714891 0 -0.20147539905160211 -0.29313478905500312 0 -0.20854701953250121 -0.31443191562001738 0 -0.21619482101962101 -0.30522474083481521 0 -0.19291841767051199 -0.29948590310633461 0 -0.21619482101962101 -0.30522474083481521 0 -0.20147539905160211 -0.29313478905500312 0 -0.21619482101962101 -0.30522474083481521 0 -0.19291841767051199 -0.29948590310633461 0 -0.19702715433237891 -0.29710263582714891 0 -0.20854701953250121 -0.31443191562001738 0 -0.18870282160261201 -0.31208654307805223 0 -0.19291841767051199 -0.29948590310633461 0 -0.19702715433237891 -0.29710263582714891 0 -0.1867559770835841 -0.28104483727518997 0 -0.18678835683569109 -0.29095499315793871 0 -0.19702715433237891 -0.29710263582714891 0 -0.20147539905160211 -0.29313478905500312 0 -0.1867559770835841 -0.28104483727518997 0 -0.19702715433237891 -0.29710263582714891 0 -0.1867559770835841 -0.28104483727518997 0 -0.20147539905160211 -0.29313478905500312 0 -0.20486605165754981 -0.2739538644324957 0 -0.1867559770835841 -0.28104483727518997 0 -0.19291841767051199 -0.29948590310633461 0 -0.19702715433237891 -0.29710263582714891 0 -0.18678835683569109 -0.29095499315793871 0 -0.20147539905160211 -0.29313478905500312 0 -0.1867559770835841 -0.28104483727518997 0 -0.21619482101962101 -0.30522474083481521 0 -0.20147539905160211 -0.29313478905500312 0 -0.21767260928078669 -0.28601347879250411 0 -0.20147539905160211 -0.29313478905500312 0 -0.21767260928078669 -0.28601347879250411 0 -0.20486605165754981 -0.2739538644324957 0 -0.22977156871879331 -0.26606357592135232 0 -0.20486605165754981 -0.2739538644324957 0 -0.2068462228634691 -0.25904214751857058 0 -0.22977156871879331 -0.26606357592135232 0 -0.21767260928078669 -0.28601347879250411 0 -0.20486605165754981 -0.2739538644324957 0 -0.20486605165754981 -0.2739538644324957 0 -0.18873449468763381 -0.2613232209441117 0 -0.1867559770835841 -0.28104483727518997 0 -0.20486605165754981 -0.2739538644324957 0 -0.18873449468763381 -0.2613232209441117 0 -0.2068462228634691 -0.25904214751857058 0 -0.18873449468763381 -0.2613232209441117 0 -0.20730871517481039 -0.23946610943513549 0 -0.18873449468763381 -0.2613232209441117 0 -0.2068462228634691 -0.25904214751857058 0 -0.20730871517481039 -0.23946610943513549 0 -0.22977156871879331 -0.26606357592135232 0 -0.2068462228634691 -0.25904214751857058 0 -0.20730871517481039 -0.23946610943513549 0 -0.17443605785634689 -0.26178406742034488 0 -0.16211613862911001 -0.2425232975654997 0 -0.17443605785634689 -0.26178406742034488 0 -0.15326062808292121 -0.25865132635456722 0 -0.16211613862911001 -0.2425232975654997 0 -0.15326062808292121 -0.25865132635456722 0 -0.16211613862911001 -0.2425232975654997 0 -0.18873449468763381 -0.2613232209441117 0 -0.17443605785634689 -0.26178406742034488 0 -0.18212515061485379 -0.24320666055055981 0 -0.17443605785634689 -0.26178406742034488 0 -0.1741695575882751 -0.27201448509619691 0 -0.18268052997134679 -0.27769742599944841 0 -0.18873449468763381 -0.2613232209441117 0 -0.17443605785634689 -0.26178406742034488 0 -0.1867559770835841 -0.28104483727518997 0 -0.17443605785634689 -0.26178406742034488 0 -0.1867559770835841 -0.28104483727518997 0 -0.18268052997134679 -0.27769742599944841 0 -0.17443605785634689 -0.26178406742034488 0 -0.1867559770835841 -0.28104483727518997 0 -0.1867559770835841 -0.28104483727518997 0 -0.18268052997134679 -0.27769742599944841 0 -0.17763672042279369 -0.28204598920190682 0 -0.1867559770835841 -0.28104483727518997 0 -0.18268052997134679 -0.27769742599944841 0 -0.1741695575882751 -0.27201448509619691 0 -0.165082767624147 -0.27672221452375401 0 -0.17763672042279369 -0.28204598920190682 0 -0.1741695575882751 -0.27201448509619691 0 -0.18268052997134679 -0.27769742599944841 0 -0.17763672042279369 -0.28204598920190682 0 -0.165082767624147 -0.27672221452375401 0 -0.154706168075645 -0.27962826364895399 0 -0.15326062808292121 -0.25865132635456722 0 -0.17443605785634689 -0.26178406742034488 0 -0.165082767624147 -0.27672221452375401 0 -0.15326062808292121 -0.25865132635456722 0 -0.17443605785634689 -0.26178406742034488 0 -0.1741695575882751 -0.27201448509619691 0 -0.165082767624147 -0.27672221452375401 0 -0.165082767624147 -0.27672221452375401 0 -0.1696420143214025 -0.29374706537785578 0 -0.17763672042279369 -0.28204598920190682 0 -0.1696420143214025 -0.29374706537785578 0 -0.1463656109722932 -0.2880082276493765 0 -0.1696420143214025 -0.29374706537785578 0 -0.1463656109722932 -0.2880082276493765 0 -0.154706168075645 -0.27962826364895399 0 -0.165082767624147 -0.27672221452375401 0 -0.1696420143214025 -0.29374706537785578 0 -0.154706168075645 -0.27962826364895399 0 -0.1696420143214025 -0.29374706537785578 0 -0.1599129334783683 -0.30128677317737479 0 -0.1463656109722932 -0.2880082276493765 0 -0.1696420143214025 -0.29374706537785578 0 -0.17763672042279369 -0.28204598920190682 0 -0.18678835683569109 -0.29095499315793871 0 -0.19291841767051199 -0.29948590310633461 0 -0.1696420143214025 -0.29374706537785578 0 -0.19291841767051199 -0.29948590310633461 0 -0.1696420143214025 -0.29374706537785578 0 -0.18678835683569109 -0.29095499315793871 0 -0.1867559770835841 -0.28104483727518997 0 -0.17763672042279369 -0.28204598920190682 0 -0.18678835683569109 -0.29095499315793871 0 -0.18870282160261201 -0.31208654307805223 0 -0.19291841767051199 -0.29948590310633461 0 -0.17693229627296869 -0.30107888652210318 0 -0.18870282160261201 -0.31208654307805223 0 -0.16885862367272239 -0.30974117053608929 0 -0.19291841767051199 -0.29948590310633461 0 -0.1696420143214025 -0.29374706537785578 0 -0.17693229627296869 -0.30107888652210318 0 -0.18870282160261201 -0.31208654307805223 0 -0.17693229627296869 -0.30107888652210318 0 -0.16885862367272239 -0.30974117053608929 0 -0.17693229627296869 -0.30107888652210318 0 -0.16885862367272239 -0.30974117053608929 0 -0.1696420143214025 -0.29374706537785578 0 -0.16885862367272239 -0.30974117053608929 0 -0.1599129334783683 -0.30128677317737479 0 -0.16885862367272239 -0.30974117053608929 0 -0.14924281185144789 -0.30742279079625029 0 -0.1696420143214025 -0.29374706537785578 0 -0.17693229627296869 -0.30107888652210318 0 -0.16885862367272239 -0.30974117053608929 0 -0.16885862367272239 -0.30974117053608929 0 -0.1599129334783683 -0.30128677317737479 0 -0.14924281185144789 -0.30742279079625029 0 -0.1599129334783683 -0.30128677317737479 0 -0.14924281185144789 -0.30742279079625029 0 -0.1463656109722932 -0.2880082276493765 0 -0.14924281185144789 -0.30742279079625029 0 -0.1463656109722932 -0.2880082276493765 0 -0.14924281185144789 -0.30742279079625029 0 -0.13587514144797699 -0.29604558077783227 0 -0.1463656109722932 -0.2880082276493765 0 -0.14924281185144789 -0.30742279079625029 0 -0.12794034328626799 -0.30490506621875008 0 -0.13760179648024701 -0.32075036129823398 0 -0.14924281185144789 -0.30742279079625029 0 -0.12794034328626799 -0.30490506621875008 0 -0.13587514144797699 -0.29604558077783227 0 -0.14924281185144789 -0.30742279079625029 0 -0.12794034328626799 -0.30490506621875008 0 -0.13587514144797699 -0.29604558077783227 0 -0.13800056787643381 -0.28985095111092962 0 -0.1463656109722932 -0.2880082276493765 0 -0.12794034328626799 -0.30490506621875008 0 -0.13587514144797699 -0.29604558077783227 0 -0.12559001194630109 -0.28534481691232289 0 -0.13587514144797699 -0.29604558077783227 0 -0.13800056787643381 -0.28985095111092962 0 -0.12559001194630109 -0.28534481691232289 0 -0.12559001194630109 -0.28534481691232289 0 -0.13494350468547231 -0.28347306925467558 0 -0.1350148275241321 -0.27689650628718371 0 -0.13800056787643381 -0.28985095111092962 0 -0.12559001194630109 -0.28534481691232289 0 -0.13494350468547231 -0.28347306925467558 0 -0.13800056787643381 -0.28985095111092962 0 -0.13494350468547231 -0.28347306925467558 0 -0.1395028938934767 -0.28383410238571888 0 -0.13800056787643381 -0.28985095111092962 0 -0.1395028938934767 -0.28383410238571888 0 -0.1440928677678894 -0.28744787885953382 0 -0.13494350468547231 -0.28347306925467558 0 -0.1395028938934767 -0.28383410238571888 0 -0.1379612284680248 -0.2804276687060332 0 -0.1463656109722932 -0.2880082276493765 0 -0.1440928677678894 -0.28744787885953382 0 -0.14256299535285341 -0.27813430565265779 0 -0.13800056787643381 -0.28985095111092962 0 -0.1463656109722932 -0.2880082276493765 0 -0.1440928677678894 -0.28744787885953382 0 -0.1463656109722932 -0.2880082276493765 0 -0.14440511753673341 -0.27477935514363522 0 -0.1395028938934767 -0.28383410238571888 0 -0.1440928677678894 -0.28744787885953382 0 -0.14256299535285341 -0.27813430565265779 0 -0.1463656109722932 -0.2880082276493765 0 -0.1440928677678894 -0.28744787885953382 0 -0.154706168075645 -0.27962826364895399 0 -0.14440511753673341 -0.27477935514363522 0 -0.15326062808292121 -0.25865132635456722 0 -0.14440511753673341 -0.27477935514363522 0 -0.15326062808292121 -0.25865132635456722 0 -0.1463656109722932 -0.2880082276493765 0 -0.154706168075645 -0.27962826364895399 0 -0.14440511753673341 -0.27477935514363522 0 -0.1463656109722932 -0.2880082276493765 0 -0.14440511753673341 -0.27477935514363522 0 -0.14256299535285341 -0.27813430565265779 0 -0.14440511753673341 -0.27477935514363522 0 -0.14256299535285341 -0.27813430565265779 0 -0.1350148275241321 -0.27689650628718371 0 -0.14440511753673341 -0.27477935514363522 0 -0.14256299535285341 -0.27813430565265779 0 -0.14256299535285341 -0.27813430565265779 0 -0.1379612284680248 -0.2804276687060332 0 -0.1350148275241321 -0.27689650628718371 0 -0.12559001194630109 -0.28534481691232289 0 -0.1350148275241321 -0.27689650628718371 0 -0.12978422947042589 -0.26831649308812888 0 -0.1395028938934767 -0.28383410238571888 0 -0.14256299535285341 -0.27813430565265779 0 -0.1379612284680248 -0.2804276687060332 0 -0.14440511753673341 -0.27477935514363522 0 -0.12978422947042589 -0.26831649308812888 0 -0.14153719722658659 -0.25542741473343161 0 -0.13494350468547231 -0.28347306925467558 0 -0.1379612284680248 -0.2804276687060332 0 -0.1350148275241321 -0.27689650628718371 0 -0.14440511753673341 -0.27477935514363522 0 -0.1350148275241321 -0.27689650628718371 0 -0.12978422947042589 -0.26831649308812888 0 -0.12978422947042589 -0.26831649308812888 0 -0.14153719722658659 -0.25542741473343161 0 -0.12401638012337329 -0.25082205957363191 0 -0.14440511753673341 -0.27477935514363522 0 -0.14153719722658659 -0.25542741473343161 0 -0.14440511753673341 -0.27477935514363522 0 -0.14153719722658659 -0.25542741473343161 0 -0.15326062808292121 -0.25865132635456722 0 -0.14153719722658659 -0.25542741473343161 0 -0.15326062808292121 -0.25865132635456722 0 -0.1489882367964219 -0.24305096927696951 0 -0.15808375525151711 -0.37267971075889 0 -0.174723365870148 -0.35211942268654228 0 -0.15248300730946771 -0.35292709868129868 0 -0.174723365870148 -0.35211942268654228 0 -0.17251356445592439 -0.33572456059588279 0 -0.15248300730946771 -0.35292709868129868 0 -0.15808375525151711 -0.37267971075889 0 -0.1826975000379778 -0.36640647878045091 0 -0.174723365870148 -0.35211942268654228 0 -0.17671128251580809 -0.38549867200884957 0 -0.15808375525151711 -0.37267971075889 0 -0.1826975000379778 -0.36640647878045091 0 -0.19304503591333391 -0.35121026957331219 0 -0.174723365870148 -0.35211942268654228 0 -0.18748492798964431 -0.33892332475164338 0 -0.19304503591333391 -0.35121026957331219 0 -0.1826975000379778 -0.36640647878045091 0 -0.174723365870148 -0.35211942268654228 0 -0.174723365870148 -0.35211942268654228 0 -0.18748492798964431 -0.33892332475164338 0 -0.17251356445592439 -0.33572456059588279 0 -0.18748492798964431 -0.33892332475164338 0 -0.17251356445592439 -0.33572456059588279 0 -0.1869173224123874 -0.32539874427987792 0 -0.18870282160261201 -0.31208654307805223 0 -0.16885862367272239 -0.30974117053608929 0 -0.1734725477720549 -0.32231544370420412 0 -0.18870282160261201 -0.31208654307805223 0 -0.1869173224123874 -0.32539874427987792 0 -0.1734725477720549 -0.32231544370420412 0 -0.17251356445592439 -0.33572456059588279 0 -0.1869173224123874 -0.32539874427987792 0 -0.1734725477720549 -0.32231544370420412 0 -0.16885862367272239 -0.30974117053608929 0 -0.14906921025189859 -0.33097333190911649 0 -0.15205708352054889 -0.32641272487700929 0 -0.16885862367272239 -0.30974117053608929 0 -0.14924281185144789 -0.30742279079625029 0 -0.15205708352054889 -0.32641272487700929 0 -0.16885862367272239 -0.30974117053608929 0 -0.14906921025189859 -0.33097333190911649 0 -0.16885862367272239 -0.30974117053608929 0 -0.1734725477720549 -0.32231544370420412 0 -0.14906921025189859 -0.33097333190911649 0 -0.17251356445592439 -0.33572456059588279 0 -0.14906921025189859 -0.33097333190911649 0 -0.15248300730946771 -0.35292709868129868 0 -0.17251356445592439 -0.33572456059588279 0 -0.1734725477720549 -0.32231544370420412 0 -0.14906921025189859 -0.33097333190911649 0 -0.14924281185144789 -0.30742279079625029 0 -0.15205708352054889 -0.32641272487700929 0 -0.13760179648024701 -0.32075036129823398 0 -0.14924281185144789 -0.30742279079625029 0 -0.15205708352054889 -0.32641272487700929 0 -0.14906921025189859 -0.33097333190911649 0 -0.15205708352054889 -0.32641272487700929 0 -0.13760179648024701 -0.32075036129823398 0 -0.12794034328626799 -0.30490506621875008 0 -0.13760179648024701 -0.32075036129823398 0 -0.1179442253946635 -0.31710871756529058 0 -0.13760179648024701 -0.32075036129823398 0 -0.1256400056428085 -0.33415989499219773 0 -0.1179442253946635 -0.31710871756529058 0 -0.14906921025189859 -0.33097333190911649 0 -0.13760179648024701 -0.32075036129823398 0 -0.1256400056428085 -0.33415989499219773 0 -0.14906921025189859 -0.33097333190911649 0 -0.12927979683107391 -0.35220549328214268 0 -0.14906921025189859 -0.33097333190911649 0 -0.1256400056428085 -0.33415989499219773 0 -0.12927979683107391 -0.35220549328214268 0 -0.14906921025189859 -0.33097333190911649 0 -0.12927979683107391 -0.35220549328214268 0 -0.15248300730946771 -0.35292709868129868 0 -0.15808375525151711 -0.37267971075889 0 -0.15248300730946771 -0.35292709868129868 0 -0.13363954654254681 -0.37329861950086068 0 -0.12927979683107391 -0.35220549328214268 0 -0.15248300730946771 -0.35292709868129868 0 -0.13363954654254681 -0.37329861950086068 0 -0.12927979683107391 -0.35220549328214268 0 -0.13363954654254681 -0.37329861950086068 0 -0.10949038341024921 -0.37343765465516898 0 -0.12927979683107391 -0.35220549328214268 0 -0.10949038341024921 -0.37343765465516898 0 -0.10949038341024921 -0.37343765465516898 0 -0.10289832384793331 -0.35087260627300731 0 -0.088535584910975879 -0.37065320031021792 0 -0.12927979683107391 -0.35220549328214268 0 -0.10949038341024921 -0.37343765465516898 0 -0.10289832384793331 -0.35087260627300731 0 -0.1256400056428085 -0.33415989499219773 0 -0.12927979683107391 -0.35220549328214268 0 -0.10289832384793331 -0.35087260627300731 0 -0.1256400056428085 -0.33415989499219773 0 -0.10289832384793331 -0.35087260627300731 0 -0.10221164408342109 -0.32927958983293198 0 -0.1256400056428085 -0.33415989499219773 0 -0.1179442253946635 -0.31710871756529058 0 -0.10221164408342109 -0.32927958983293198 0 -0.1003351808441465 -0.31264747363135081 0 -0.10221164408342109 -0.32927958983293198 0 -0.082541500885567304 -0.32007337082663201 0 -0.1179442253946635 -0.31710871756529058 0 -0.1003351808441465 -0.31264747363135081 0 -0.10221164408342109 -0.32927958983293198 0 -0.10221164408342109 -0.32927958983293198 0 -0.082541500885567304 -0.32007337082663201 0 -0.075995473989913617 -0.33710967800052671 0 -0.10289832384793331 -0.35087260627300731 0 -0.10221164408342109 -0.32927958983293198 0 -0.075995473989913617 -0.33710967800052671 0 -0.082541500885567304 -0.32007337082663201 0 -0.070351449129610943 -0.30757711798459381 0 -0.06034131946993488 -0.32908706218537409 0 -0.082541500885567304 -0.32007337082663201 0 -0.075995473989913617 -0.33710967800052671 0 -0.06034131946993488 -0.32908706218537409 0 -0.075995473989913617 -0.33710967800052671 0 -0.051857495717657479 -0.34812240420531237 0 -0.06034131946993488 -0.32908706218537409 0 -0.070755211462005183 -0.36564959925018897 0 -0.081196952145830351 -0.35391323545859021 0 -0.051857495717657479 -0.34812240420531237 0 -0.075995473989913617 -0.33710967800052671 0 -0.081196952145830351 -0.35391323545859021 0 -0.051857495717657479 -0.34812240420531237 0 -0.070755211462005183 -0.36564959925018897 0 -0.088535584910975879 -0.37065320031021792 0 -0.074398399125636547 -0.38303568568064789 0 -0.070755211462005183 -0.36564959925018897 0 -0.057787625409925637 -0.37252347059617641 0 -0.074398399125636547 -0.38303568568064789 0 -0.070755211462005183 -0.36564959925018897 0 -0.088535584910975879 -0.37065320031021792 0 -0.081196952145830351 -0.35391323545859021 0 -0.10289832384793331 -0.35087260627300731 0 -0.088535584910975879 -0.37065320031021792 0 -0.081196952145830351 -0.35391323545859021 0 -0.10289832384793331 -0.35087260627300731 0 -0.075995473989913617 -0.33710967800052671 0 -0.081196952145830351 -0.35391323545859021 0 -0.1116818158534346 -0.26815276642539981 0 -0.092579677343991376 -0.25939675604566331 0 -0.1061516596888413 -0.24979484311864231 0 -0.092579677343991376 -0.25939675604566331 0 -0.091897538062651885 -0.24508293332865611 0 -0.1061516596888413 -0.24979484311864231 0 -0.12978422947042589 -0.26831649308812888 0 -0.12401638012337329 -0.25082205957363191 0 -0.1116818158534346 -0.26815276642539981 0 -0.12401638012337329 -0.25082205957363191 0 -0.1116818158534346 -0.26815276642539981 0 -0.1061516596888413 -0.24979484311864231 0 -0.12559001194630109 -0.28534481691232289 0 -0.12978422947042589 -0.26831649308812888 0 -0.1116818158534346 -0.26815276642539981 0 -0.12559001194630109 -0.28534481691232289 0 -0.1116818158534346 -0.26815276642539981 0 -0.1063179859138156 -0.28571593875774082 0 -0.1116818158534346 -0.26815276642539981 0 -0.091691005666821507 -0.27684861416074952 0 -0.092579677343991376 -0.25939675604566331 0 -0.1116818158534346 -0.26815276642539981 0 -0.1063179859138156 -0.28571593875774082 0 -0.091691005666821507 -0.27684861416074952 0 -0.1063179859138156 -0.28571593875774082 0 -0.1121209719142351 -0.30055924195951822 0 -0.090506124188285575 -0.29767425433071348 0 -0.1063179859138156 -0.28571593875774082 0 -0.090506124188285575 -0.29767425433071348 0 -0.091691005666821507 -0.27684861416074952 0 -0.12559001194630109 -0.28534481691232289 0 -0.1063179859138156 -0.28571593875774082 0 -0.1121209719142351 -0.30055924195951822 0 -0.1179442253946635 -0.31710871756529058 0 -0.1003351808441465 -0.31264747363135081 0 -0.1121209719142351 -0.30055924195951822 0 -0.12794034328626799 -0.30490506621875008 0 -0.12559001194630109 -0.28534481691232289 0 -0.1121209719142351 -0.30055924195951822 0 -0.12794034328626799 -0.30490506621875008 0 -0.1179442253946635 -0.31710871756529058 0 -0.1121209719142351 -0.30055924195951822 0 -0.1003351808441465 -0.31264747363135081 0 -0.1121209719142351 -0.30055924195951822 0 -0.090506124188285575 -0.29767425433071348 0 -0.1003351808441465 -0.31264747363135081 0 -0.082541500885567304 -0.32007337082663201 0 -0.090506124188285575 -0.29767425433071348 0 -0.082541500885567304 -0.32007337082663201 0 -0.090506124188285575 -0.29767425433071348 0 -0.070351449129610943 -0.30757711798459381 0 -0.090506124188285575 -0.29767425433071348 0 -0.070351449129610943 -0.30757711798459381 0 -0.068117110455587951 -0.28752853251063049 0 -0.070351449129610943 -0.30757711798459381 0 -0.068117110455587951 -0.28752853251063049 0 -0.050251190648679049 -0.30352237006961902 0 -0.090506124188285575 -0.29767425433071348 0 -0.068117110455587951 -0.28752853251063049 0 -0.091691005666821507 -0.27684861416074952 0 -0.091691005666821507 -0.27684861416074952 0 -0.073702015698489581 -0.26463556045173903 0 -0.092579677343991376 -0.25939675604566331 0 -0.068117110455587951 -0.28752853251063049 0 -0.091691005666821507 -0.27684861416074952 0 -0.073702015698489581 -0.26463556045173903 0 -0.068117110455587951 -0.28752853251063049 0 -0.073702015698489581 -0.26463556045173903 0 -0.058638598832622152 -0.27146280400905748 0 -0.073702015698489581 -0.26463556045173903 0 -0.052574207348987892 -0.2557294451199969 0 -0.068987956184213758 -0.24580350920846361 0 -0.073702015698489581 -0.26463556045173903 0 -0.08165710104129964 -0.25115670310468269 0 -0.068987956184213758 -0.24580350920846361 0 -0.073702015698489581 -0.26463556045173903 0 -0.08165710104129964 -0.25115670310468269 0 -0.092579677343991376 -0.25939675604566331 0 -0.08165710104129964 -0.25115670310468269 0 -0.092579677343991376 -0.25939675604566331 0 -0.091897538062651885 -0.24508293332865611 0 -0.040161061827423218 -0.27795767795386389 0 -0.0300709330061673 -0.25239298583810871 0 -0.052574207348987892 -0.2557294451199969 0 -0.0300709330061673 -0.25239298583810871 0 -0.042706023303749632 -0.24286150533196069 0 -0.052574207348987892 -0.2557294451199969 0 -0.040161061827423218 -0.27795767795386389 0 -0.0300709330061673 -0.25239298583810871 0 -0.073702015698489581 -0.26463556045173903 0 -0.052574207348987892 -0.2557294451199969 0 -0.058638598832622152 -0.27146280400905748 0 -0.068117110455587951 -0.28752853251063049 0 -0.058638598832622152 -0.27146280400905748 0 -0.040161061827423218 -0.27795767795386389 0 -0.052574207348987892 -0.2557294451199969 0 -0.058638598832622152 -0.27146280400905748 0 -0.040161061827423218 -0.27795767795386389 0 -0.040161061827423218 -0.27795767795386389 0 -0.050251190648679049 -0.30352237006961902 0 -0.028254373750392889 -0.30476686600165959 0 -0.040161061827423218 -0.27795767795386389 0 -0.050251190648679049 -0.30352237006961902 0 -0.068117110455587951 -0.28752853251063049 0 -0.040161061827423218 -0.27795767795386389 0 -0.050251190648679049 -0.30352237006961902 0 -0.050251190648679049 -0.30352237006961902 0 -0.028254373750392889 -0.30476686600165959 0 -0.037784092508259572 -0.32315311181558881 0 -0.028254373750392889 -0.30476686600165959 0 -0.01107060322914191 -0.31116966035993948 0 -0.017079420322786431 -0.28708660431910932 0 -0.01107060322914191 -0.31116966035993948 0 -0.017079420322786431 -0.28708660431910932 0 0.0026659282157936669 -0.28817997861608108 0 -0.040161061827423218 -0.27795767795386389 0 -0.028254373750392889 -0.30476686600165959 0 -0.017079420322786431 -0.28708660431910932 0 -0.040161061827423218 -0.27795767795386389 0 -0.017079420322786431 -0.28708660431910932 0 -0.0207308006364227 -0.26867467852799581 0 -0.040161061827423218 -0.27795767795386389 0 -0.0207308006364227 -0.26867467852799581 0 -0.0300709330061673 -0.25239298583810871 0 -0.017079420322786431 -0.28708660431910932 0 -0.0207308006364227 -0.26867467852799581 0 -0.00095796240604086101 -0.26761911539816108 0 -0.017079420322786431 -0.28708660431910932 0 -0.00095796240604086101 -0.26761911539816108 0 0.0026659282157936669 -0.28817997861608108 0 -0.0207308006364227 -0.26867467852799581 0 -0.00095796240604086101 -0.26761911539816108 0 -0.01241213471794524 -0.25308273483886817 0 -0.0207308006364227 -0.26867467852799581 0 -0.01241213471794524 -0.25308273483886817 0 -0.0300709330061673 -0.25239298583810871 0 -0.043927366339478441 -0.36291317662497141 0 -0.051857495717657479 -0.34812240420531237 0 -0.030984543785425651 -0.35502389287100311 0 -0.051857495717657479 -0.34812240420531237 0 -0.037468009334648 -0.34054273306994032 0 -0.030984543785425651 -0.35502389287100311 0 -0.043927366339478441 -0.36291317662497141 0 -0.057787625409925637 -0.37252347059617641 0 -0.035079800444904989 -0.37598293882739348 0 -0.043927366339478441 -0.36291317662497141 0 -0.030984543785425651 -0.35502389287100311 0 -0.035079800444904989 -0.37598293882739348 0 -0.057787625409925637 -0.37252347059617641 0 -0.051857495717657479 -0.34812240420531237 0 -0.070755211462005183 -0.36564959925018897 0 -0.057787625409925637 -0.37252347059617641 0 -0.051857495717657479 -0.34812240420531237 0 -0.043927366339478441 -0.36291317662497141 0 -0.057787625409925637 -0.37252347059617641 0 -0.051857495717657479 -0.34812240420531237 0 -0.051857495717657479 -0.34812240420531237 0 -0.06034131946993488 -0.32908706218537409 0 -0.037468009334648 -0.34054273306994032 0 -0.050251190648679049 -0.30352237006961902 0 -0.06034131946993488 -0.32908706218537409 0 -0.037784092508259572 -0.32315311181558881 0 -0.070351449129610943 -0.30757711798459381 0 -0.050251190648679049 -0.30352237006961902 0 -0.06034131946993488 -0.32908706218537409 0 -0.050251190648679049 -0.30352237006961902 0 -0.06034131946993488 -0.32908706218537409 0 -0.06034131946993488 -0.32908706218537409 0 -0.037784092508259572 -0.32315311181558881 0 -0.037468009334648 -0.34054273306994032 0 -0.037784092508259572 -0.32315311181558881 0 -0.037468009334648 -0.34054273306994032 0 -0.02311379876035519 -0.33919600329984517 0 -0.037784092508259572 -0.32315311181558881 0 -0.02311379876035519 -0.33919600329984517 0 -0.01583525169102137 -0.32501277762788611 0 -0.028254373750392889 -0.30476686600165959 0 -0.01107060322914191 -0.31116966035993948 0 -0.01583525169102137 -0.32501277762788611 0 -0.028254373750392889 -0.30476686600165959 0 -0.037784092508259572 -0.32315311181558881 0 -0.01583525169102137 -0.32501277762788611 0 -0.01107060322914191 -0.31116966035993948 0 -0.0050082009084007157 -0.32890289478594992 0 0.0061848665858570042 -0.33025236046317002 0 -0.01107060322914191 -0.31116966035993948 0 -0.01583525169102137 -0.32501277762788611 0 -0.0050082009084007157 -0.32890289478594992 0 -0.01107060322914191 -0.31116966035993948 0 0.0061848665858570042 -0.33025236046317002 0 -0.02311379876035519 -0.33919600329984517 0 -0.0063357093066939594 -0.33871482610717601 0 -0.014423796070031291 -0.34996085912160951 0 -0.02311379876035519 -0.33919600329984517 0 -0.01583525169102137 -0.32501277762788611 0 -0.0063357093066939594 -0.33871482610717601 0 -0.01583525169102137 -0.32501277762788611 0 -0.0050082009084007157 -0.32890289478594992 0 -0.0063357093066939594 -0.33871482610717601 0 -0.0050082009084007157 -0.32890289478594992 0 -0.0063357093066939594 -0.33871482610717601 0 0.002015693098996661 -0.33936484937157779 0 -0.0063357093066939594 -0.33871482610717601 0 0.001354150165678658 -0.35122785741203172 0 0.002015693098996661 -0.33936484937157779 0 -0.0063357093066939594 -0.33871482610717601 0 -0.014423796070031291 -0.34996085912160951 0 0.001354150165678658 -0.35122785741203172 0 -0.014423796070031291 -0.34996085912160951 0 -0.01303907866336031 -0.36564171591799122 0 0.001354150165678658 -0.35122785741203172 0 -0.02311379876035519 -0.33919600329984517 0 -0.014423796070031291 -0.34996085912160951 0 -0.030984543785425651 -0.35502389287100311 0 -0.037468009334648 -0.34054273306994032 0 -0.02311379876035519 -0.33919600329984517 0 -0.030984543785425651 -0.35502389287100311 0 -0.014423796070031291 -0.34996085912160951 0 -0.030984543785425651 -0.35502389287100311 0 -0.01303907866336031 -0.36564171591799122 0 -0.030984543785425651 -0.35502389287100311 0 -0.01303907866336031 -0.36564171591799122 0 -0.035079800444904989 -0.37598293882739348 0 -0.01303907866336031 -0.36564171591799122 0 0.001354150165678658 -0.35122785741203172 0 0.0071201472627590362 -0.36181985524754839 0 -0.01303907866336031 -0.36564171591799122 0 0.0013770767683104789 -0.38011590404628531 0 0.0071201472627590362 -0.36181985524754839 0 -0.01303907866336031 -0.36564171591799122 0 -0.01837316428448426 -0.39027735116279422 0 0.0013770767683104789 -0.38011590404628531 0 -0.01837316428448426 -0.39027735116279422 0 -0.0062873074276530438 -0.41028004106899568 0 0.0013770767683104789 -0.38011590404628531 0 -0.01837316428448426 -0.39027735116279422 0 -0.034713613958958431 -0.39884321050724503 0 -0.02631127752585647 -0.4088845352250603 0 -0.01837316428448426 -0.39027735116279422 0 -0.02631127752585647 -0.4088845352250603 0 -0.0062873074276530438 -0.41028004106899568 0 -0.01303907866336031 -0.36564171591799122 0 -0.01837316428448426 -0.39027735116279422 0 -0.035079800444904989 -0.37598293882739348 0 -0.01837316428448426 -0.39027735116279422 0 -0.035079800444904989 -0.37598293882739348 0 -0.034713613958958431 -0.39884321050724503 0 -0.035079800444904989 -0.37598293882739348 0 -0.034713613958958431 -0.39884321050724503 0 -0.048147545859366057 -0.38778740027866287 0 -0.034713613958958431 -0.39884321050724503 0 -0.051755356141877103 -0.40419869609709991 0 -0.048147545859366057 -0.38778740027866287 0 -0.051755356141877103 -0.40419869609709991 0 -0.048147545859366057 -0.38778740027866287 0 -0.063717755102193796 -0.39692453698704022 0 -0.057787625409925637 -0.37252347059617641 0 -0.035079800444904989 -0.37598293882739348 0 -0.048147545859366057 -0.38778740027866287 0 -0.057787625409925637 -0.37252347059617641 0 -0.063717755102193796 -0.39692453698704022 0 -0.057787625409925637 -0.37252347059617641 0 -0.048147545859366057 -0.38778740027866287 0 -0.063717755102193796 -0.39692453698704022 0 -0.051544228852689791 -0.42998243393196239 0 -0.042549980994405268 -0.41611272933464721 0 -0.069647884794461962 -0.42132560337790409 0 -0.051544228852689791 -0.42998243393196239 0 -0.069647884794461962 -0.42132560337790409 0 -0.06291362301089061 -0.43602584586139698 0 -0.051755356141877103 -0.40419869609709991 0 -0.042549980994405268 -0.41611272933464721 0 -0.069647884794461962 -0.42132560337790409 0 -0.051755356141877103 -0.40419869609709991 0 -0.063717755102193796 -0.39692453698704022 0 -0.069647884794461962 -0.42132560337790409 0 -0.034713613958958431 -0.39884321050724503 0 -0.051755356141877103 -0.40419869609709991 0 -0.042549980994405268 -0.41611272933464721 0 -0.034713613958958431 -0.39884321050724503 0 -0.042549980994405268 -0.41611272933464721 0 -0.02631127752585647 -0.4088845352250603 0 -0.042549980994405268 -0.41611272933464721 0 -0.02963232096378134 -0.4289093440516199 0 -0.02631127752585647 -0.4088845352250603 0 -0.051544228852689791 -0.42998243393196239 0 -0.042549980994405268 -0.41611272933464721 0 -0.02963232096378134 -0.4289093440516199 0 -0.051544228852689791 -0.42998243393196239 0 -0.02963232096378134 -0.4289093440516199 0 -0.05297733449990974 -0.44753864703424379 0 -0.02963232096378134 -0.4289093440516199 0 -0.003725153265320566 -0.43628033310049702 0 -0.02835124388261516 -0.44190949006737018 0 -0.02963232096378134 -0.4289093440516199 0 -0.02631127752585647 -0.4088845352250603 0 -0.0062873074276530438 -0.41028004106899568 0 -0.02963232096378134 -0.4289093440516199 0 -0.0062873074276530438 -0.41028004106899568 0 -0.0062873074276530438 -0.41028004106899568 0 -0.003725153265320566 -0.43628033310049702 0 0.0064316810639237169 -0.42250890551817522 0 -0.02963232096378134 -0.4289093440516199 0 -0.0062873074276530438 -0.41028004106899568 0 -0.003725153265320566 -0.43628033310049702 0 -0.01431938028413344 -0.44769027456095062 0 -0.016737139260682151 -0.45889270705763258 0 0.00065851142660783291 -0.45036111998345613 0 -0.003725153265320566 -0.43628033310049702 0 -0.01431938028413344 -0.44769027456095062 0 0.00065851142660783291 -0.45036111998345613 0 -0.003725153265320566 -0.43628033310049702 0 -0.01431938028413344 -0.44769027456095062 0 -0.02835124388261516 -0.44190949006737018 0 -0.016737139260682151 -0.45889270705763258 0 -0.0074335007915662908 -0.47939027681154361 0 0.00065851142660783291 -0.45036111998345613 0 -0.016737139260682151 -0.45889270705763258 0 -0.023887096263328599 -0.47079207595976957 0 -0.032690508668914021 -0.45714767493996727 0 -0.016737139260682151 -0.45889270705763258 0 -0.02344187643865717 -0.45100772259579719 0 -0.032690508668914021 -0.45714767493996727 0 -0.02344187643865717 -0.45100772259579719 0 -0.02835124388261516 -0.44190949006737018 0 -0.032690508668914021 -0.45714767493996727 0 -0.003725153265320566 -0.43628033310049702 0 -0.02835124388261516 -0.44190949006737018 0 -0.01431938028413344 -0.44769027456095062 0 -0.016737139260682151 -0.45889270705763258 0 -0.02344187643865717 -0.45100772259579719 0 -0.01431938028413344 -0.44769027456095062 0 -0.02344187643865717 -0.45100772259579719 0 -0.02835124388261516 -0.44190949006737018 0 -0.0074335007915662908 -0.47939027681154361 0 -0.02517680648442944 -0.5 0 0.0035709991458796608 -0.5 0 -0.016737139260682151 -0.45889270705763258 0 -0.0074335007915662908 -0.47939027681154361 0 -0.023887096263328599 -0.47079207595976957 0 -0.0074335007915662908 -0.47939027681154361 0 -0.023887096263328599 -0.47079207595976957 0 -0.02365891358004139 -0.48251906492691998 0 -0.023887096263328599 -0.47079207595976957 0 -0.02365891358004139 -0.48251906492691998 0 -0.032264552754736581 -0.48014176960907151 0 -0.02365891358004139 -0.48251906492691998 0 -0.030972473626313921 -0.48734501281093923 0 -0.032264552754736581 -0.48014176960907151 0 -0.0074335007915662908 -0.47939027681154361 0 -0.02517680648442944 -0.5 0 -0.0266336467069552 -0.49877342735830998 0 -0.02365891358004139 -0.48251906492691998 0 -0.030972473626313921 -0.48734501281093923 0 -0.0266336467069552 -0.49877342735830998 0 -0.0074335007915662908 -0.47939027681154361 0 -0.02365891358004139 -0.48251906492691998 0 -0.0266336467069552 -0.49877342735830998 0 -0.0074335007915662908 -0.47939027681154361 0 -0.0266336467069552 -0.49877342735830998 0 -0.0266336467069552 -0.49877342735830998 0 -0.040546916155328759 -0.48782775465681782 0 -0.053924612114738417 -0.5 0 -0.02517680648442944 -0.5 0 -0.0266336467069552 -0.49877342735830998 0 -0.053924612114738417 -0.5 0 -0.030972473626313921 -0.48734501281093923 0 -0.0266336467069552 -0.49877342735830998 0 -0.040546916155328759 -0.48782775465681782 0 -0.030972473626313921 -0.48734501281093923 0 -0.040546916155328759 -0.48782775465681782 0 -0.032264552754736581 -0.48014176960907151 0 -0.040546916155328759 -0.48782775465681782 0 -0.038485210669340283 -0.47165837316625042 0 -0.054725782139620843 -0.47465441600461988 0 -0.038485210669340283 -0.47165837316625042 0 -0.054725782139620843 -0.47465441600461988 0 -0.047212396427151797 -0.46218177313261821 0 -0.040546916155328759 -0.48782775465681782 0 -0.032264552754736581 -0.48014176960907151 0 -0.038485210669340283 -0.47165837316625042 0 -0.023887096263328599 -0.47079207595976957 0 -0.032264552754736581 -0.48014176960907151 0 -0.038485210669340283 -0.47165837316625042 0 -0.054725782139620843 -0.47465441600461988 0 -0.058197204412568461 -0.46339364654458809 0 -0.064516739023396122 -0.47024865518675912 0 -0.040546916155328759 -0.48782775465681782 0 -0.054725782139620843 -0.47465441600461988 0 -0.053924612114738417 -0.5 0 -0.054725782139620843 -0.47465441600461988 0 -0.053924612114738417 -0.5 0 -0.071740069221396391 -0.47917621330120153 0 -0.02963232096378134 -0.4289093440516199 0 -0.05297733449990974 -0.44753864703424379 0 -0.02835124388261516 -0.44190949006737018 0 -0.05297733449990974 -0.44753864703424379 0 -0.02835124388261516 -0.44190949006737018 0 -0.032690508668914021 -0.45714767493996727 0 -0.05297733449990974 -0.44753864703424379 0 -0.02963232096378134 -0.4289093440516199 0 -0.02835124388261516 -0.44190949006737018 0 -0.05297733449990974 -0.44753864703424379 0 -0.032690508668914021 -0.45714767493996727 0 -0.047212396427151797 -0.46218177313261821 0 -0.05297733449990974 -0.44753864703424379 0 -0.023887096263328599 -0.47079207595976957 0 -0.038485210669340283 -0.47165837316625042 0 -0.032690508668914021 -0.45714767493996727 0 -0.038485210669340283 -0.47165837316625042 0 -0.032690508668914021 -0.45714767493996727 0 -0.047212396427151797 -0.46218177313261821 0 -0.047212396427151797 -0.46218177313261821 0 -0.058197204412568461 -0.46339364654458809 0 -0.05297733449990974 -0.44753864703424379 0 -0.058197204412568461 -0.46339364654458809 0 -0.05297733449990974 -0.44753864703424379 0 -0.070902315625145845 -0.46184276829007709 0 -0.05297733449990974 -0.44753864703424379 0 -0.070902315625145845 -0.46184276829007709 0 -0.054725782139620843 -0.47465441600461988 0 -0.047212396427151797 -0.46218177313261821 0 -0.058197204412568461 -0.46339364654458809 0 -0.051544228852689791 -0.42998243393196239 0 -0.05297733449990974 -0.44753864703424379 0 -0.06291362301089061 -0.43602584586139698 0 -0.05297733449990974 -0.44753864703424379 0 -0.075578014486730113 -0.44572666976876801 0 -0.081770627715032143 -0.45412036435267611 0 -0.05297733449990974 -0.44753864703424379 0 -0.075578014486730113 -0.44572666976876801 0 -0.06291362301089061 -0.43602584586139698 0 -0.05297733449990974 -0.44753864703424379 0 -0.081770627715032143 -0.45412036435267611 0 -0.05297733449990974 -0.44753864703424379 0 -0.070902315625145845 -0.46184276829007709 0 -0.081770627715032143 -0.45412036435267611 0 -0.058197204412568461 -0.46339364654458809 0 -0.070902315625145845 -0.46184276829007709 0 -0.064516739023396122 -0.47024865518675912 0 -0.081770627715032143 -0.45412036435267611 0 -0.08433493977692659 -0.45318941264478591 0 -0.11056392093015451 -0.46070208167110838 0 -0.081770627715032143 -0.45412036435267611 0 -0.088827296750382145 -0.47614688954591028 0 -0.096132201142348078 -0.46465403021460239 0 -0.070902315625145845 -0.46184276829007709 0 -0.081770627715032143 -0.45412036435267611 0 -0.088827296750382145 -0.47614688954591028 0 -0.08433493977692659 -0.45318941264478591 0 -0.093400774435150546 -0.4486836715159484 0 -0.1012358633401006 -0.43473910522071257 0 -0.08433493977692659 -0.45318941264478591 0 -0.1012358633401006 -0.43473910522071257 0 -0.08433493977692659 -0.45318941264478591 0 -0.088210056492205854 -0.43977313325318929 0 -0.1012358633401006 -0.43473910522071257 0 -0.075578014486730113 -0.44572666976876801 0 -0.088210056492205854 -0.43977313325318929 0 -0.081059336198343934 -0.44816392527493643 0 -0.08433493977692659 -0.45318941264478591 0 -0.088210056492205854 -0.43977313325318929 0 -0.081059336198343934 -0.44816392527493643 0 -0.075578014486730113 -0.44572666976876801 0 -0.081770627715032143 -0.45412036435267611 0 -0.081059336198343934 -0.44816392527493643 0 -0.081770627715032143 -0.45412036435267611 0 -0.08433493977692659 -0.45318941264478591 0 -0.081059336198343934 -0.44816392527493643 0 -0.053924612114738417 -0.5 0 -0.071740069221396391 -0.47917621330120153 0 -0.082672417745047466 -0.5 0 -0.070902315625145845 -0.46184276829007709 0 -0.071740069221396391 -0.47917621330120153 0 -0.064516739023396122 -0.47024865518675912 0 -0.070902315625145845 -0.46184276829007709 0 -0.071740069221396391 -0.47917621330120153 0 -0.088827296750382145 -0.47614688954591028 0 -0.054725782139620843 -0.47465441600461988 0 -0.071740069221396391 -0.47917621330120153 0 -0.064516739023396122 -0.47024865518675912 0 -0.071740069221396391 -0.47917621330120153 0 -0.088827296750382145 -0.47614688954591028 0 -0.092574486378058388 -0.48983442125584992 0 -0.070902315625145845 -0.46184276829007709 0 -0.088827296750382145 -0.47614688954591028 0 -0.071740069221396391 -0.47917621330120153 0 -0.082672417745047466 -0.5 0 -0.092574486378058388 -0.48983442125584992 0 -0.088827296750382145 -0.47614688954591028 0 -0.092574486378058388 -0.48983442125584992 0 -0.10675227787561831 -0.49045101080174341 0 -0.082672417745047466 -0.5 0 -0.092574486378058388 -0.48983442125584992 0 -0.11142022337535649 -0.49999999999999739 0 -0.092574486378058388 -0.48983442125584992 0 -0.10675227787561831 -0.49045101080174341 0 -0.11142022337535649 -0.49999999999999739 0 -0.088827296750382145 -0.47614688954591028 0 -0.1091235691764062 -0.47635029865628142 0 -0.1035545323111647 -0.46824403076276311 0 -0.088827296750382145 -0.47614688954591028 0 -0.10675227787561831 -0.49045101080174341 0 -0.1091235691764062 -0.47635029865628142 0 -0.088827296750382145 -0.47614688954591028 0 -0.10675227787561831 -0.49045101080174341 0 -0.088827296750382145 -0.47614688954591028 0 -0.096132201142348078 -0.46465403021460239 0 -0.1035545323111647 -0.46824403076276311 0 -0.1091235691764062 -0.47635029865628142 0 -0.1116756894779356 -0.46896268116212803 0 -0.1035545323111647 -0.46824403076276311 0 -0.1091235691764062 -0.47635029865628142 0 -0.1116756894779356 -0.46896268116212803 0 -0.1234607354940172 -0.47055431355835919 0 -0.12978935219267479 -0.4854989751382105 0 -0.1234607354940172 -0.47055431355835919 0 -0.1161092316228146 -0.48457091963091892 0 -0.10675227787561831 -0.49045101080174341 0 -0.1091235691764062 -0.47635029865628142 0 -0.1161092316228146 -0.48457091963091892 0 -0.1091235691764062 -0.47635029865628142 0 -0.1234607354940172 -0.47055431355835919 0 -0.1161092316228146 -0.48457091963091892 0 -0.12978935219267479 -0.4854989751382105 0 -0.1161092316228146 -0.48457091963091892 0 -0.11142022337535649 -0.49999999999999739 0 -0.12978935219267479 -0.4854989751382105 0 -0.11142022337535649 -0.49999999999999739 0 -0.10675227787561831 -0.49045101080174341 0 -0.1161092316228146 -0.48457091963091892 0 -0.11142022337535649 -0.49999999999999739 0 -0.093400774435150546 -0.4486836715159484 0 -0.1077215978074724 -0.44219045150423708 0 -0.1177763862325383 -0.45128808948217841 0 -0.093400774435150546 -0.4486836715159484 0 -0.1177763862325383 -0.45128808948217841 0 -0.093400774435150546 -0.4486836715159484 0 -0.1077215978074724 -0.44219045150423708 0 -0.1012358633401006 -0.43473910522071257 0 -0.081770627715032143 -0.45412036435267611 0 -0.11056392093015451 -0.46070208167110838 0 -0.093400774435150546 -0.4486836715159484 0 -0.11056392093015451 -0.46070208167110838 0 -0.1177763862325383 -0.45128808948217841 0 -0.08433493977692659 -0.45318941264478591 0 -0.093400774435150546 -0.4486836715159484 0 -0.11056392093015451 -0.46070208167110838 0 -0.081770627715032143 -0.45412036435267611 0 -0.096132201142348078 -0.46465403021460239 0 -0.11056392093015451 -0.46070208167110838 0 -0.096132201142348078 -0.46465403021460239 0 -0.1035545323111647 -0.46824403076276311 0 -0.11056392093015451 -0.46070208167110838 0 -0.1116756894779356 -0.46896268116212803 0 -0.1035545323111647 -0.46824403076276311 0 -0.11056392093015451 -0.46070208167110838 0 -0.12746237983447389 -0.45829161939780888 0 -0.11056392093015451 -0.46070208167110838 0 -0.1177763862325383 -0.45128808948217841 0 -0.13935721414527691 -0.46728379898954092 0 -0.1234607354940172 -0.47055431355835919 0 -0.11056392093015451 -0.46070208167110838 0 -0.13935721414527691 -0.46728379898954092 0 -0.11056392093015451 -0.46070208167110838 0 -0.1116756894779356 -0.46896268116212803 0 -0.1234607354940172 -0.47055431355835919 0 -0.11056392093015451 -0.46070208167110838 0 -0.13305433470143349 -0.44205523321931012 0 -0.1177763862325383 -0.45128808948217841 0 -0.1184733672221002 -0.43405093979810938 0 -0.1077215978074724 -0.44219045150423708 0 -0.1177763862325383 -0.45128808948217841 0 -0.1184733672221002 -0.43405093979810938 0 -0.13500223630862621 -0.42911114238816411 0 -0.1184733672221002 -0.43405093979810938 0 -0.1181367869032745 -0.41628879779663908 0 -0.1012358633401006 -0.43473910522071257 0 -0.1181367869032745 -0.41628879779663908 0 -0.1184733672221002 -0.43405093979810938 0 -0.1012358633401006 -0.43473910522071257 0 -0.1181367869032745 -0.41628879779663908 0 -0.1077215978074724 -0.44219045150423708 0 -0.1184733672221002 -0.43405093979810938 0 -0.1012358633401006 -0.43473910522071257 0 -0.1012358633401006 -0.43473910522071257 0 -0.1018189717088715 -0.41791871759964722 0 -0.088721822311749771 -0.42091241392223061 0 -0.1012358633401006 -0.43473910522071257 0 -0.1018189717088715 -0.41791871759964722 0 -0.1181367869032745 -0.41628879779663908 0 -0.1018189717088715 -0.41791871759964722 0 -0.1181367869032745 -0.41628879779663908 0 -0.10391887844635091 -0.40547930691241502 0 -0.1018189717088715 -0.41791871759964722 0 -0.10391887844635091 -0.40547930691241502 0 -0.092474810499768481 -0.40755759368105338 0 -0.1018189717088715 -0.41791871759964722 0 -0.088721822311749771 -0.42091241392223061 0 -0.092474810499768481 -0.40755759368105338 0 -0.1181367869032745 -0.41628879779663908 0 -0.10391887844635091 -0.40547930691241502 0 -0.10949038341024921 -0.37343765465516898 0 -0.1201769342067032 -0.39271001729944099 0 -0.10391887844635091 -0.40547930691241502 0 -0.1181367869032745 -0.41628879779663908 0 -0.1201769342067032 -0.39271001729944099 0 -0.10391887844635091 -0.40547930691241502 0 -0.10949038341024921 -0.37343765465516898 0 -0.10391887844635091 -0.40547930691241502 0 -0.089700969989424173 -0.39466981602819501 0 -0.13363954654254681 -0.37329861950086068 0 -0.10949038341024921 -0.37343765465516898 0 -0.1201769342067032 -0.39271001729944099 0 -0.10949038341024921 -0.37343765465516898 0 -0.089700969989424173 -0.39466981602819501 0 -0.10949038341024921 -0.37343765465516898 0 -0.088535584910975879 -0.37065320031021792 0 -0.089700969989424173 -0.39466981602819501 0 -0.10391887844635091 -0.40547930691241502 0 -0.089700969989424173 -0.39466981602819501 0 -0.092474810499768481 -0.40755759368105338 0 -0.10391887844635091 -0.40547930691241502 0 -0.089700969989424173 -0.39466981602819501 0 -0.089700969989424173 -0.39466981602819501 0 -0.085910561597869459 -0.39873656429039878 0 -0.092474810499768481 -0.40755759368105338 0 -0.089700969989424173 -0.39466981602819501 0 -0.085910561597869459 -0.39873656429039878 0 -0.089700969989424173 -0.39466981602819501 0 -0.085910561597869459 -0.39873656429039878 0 -0.077928614359584453 -0.39641116842552548 0 -0.089700969989424173 -0.39466981602819501 0 -0.074398399125636547 -0.38303568568064789 0 -0.077928614359584453 -0.39641116842552548 0 -0.085910561597869459 -0.39873656429039878 0 -0.077897754663343838 -0.40781521776910401 0 -0.092474810499768481 -0.40755759368105338 0 -0.085910561597869459 -0.39873656429039878 0 -0.077928614359584453 -0.39641116842552548 0 -0.077897754663343838 -0.40781521776910401 0 -0.088535584910975879 -0.37065320031021792 0 -0.089700969989424173 -0.39466981602819501 0 -0.074398399125636547 -0.38303568568064789 0 -0.089700969989424173 -0.39466981602819501 0 -0.074398399125636547 -0.38303568568064789 0 -0.057787625409925637 -0.37252347059617641 0 -0.074398399125636547 -0.38303568568064789 0 -0.063717755102193796 -0.39692453698704022 0 -0.077928614359584453 -0.39641116842552548 0 -0.063717755102193796 -0.39692453698704022 0 -0.077897754663343838 -0.40781521776910401 0 -0.074398399125636547 -0.38303568568064789 0 -0.077928614359584453 -0.39641116842552548 0 -0.063717755102193796 -0.39692453698704022 0 -0.063717755102193796 -0.39692453698704022 0 -0.069647884794461962 -0.42132560337790409 0 -0.077897754663343838 -0.40781521776910401 0 -0.063717755102193796 -0.39692453698704022 0 -0.069647884794461962 -0.42132560337790409 0 -0.075578014486730113 -0.44572666976876801 0 -0.069647884794461962 -0.42132560337790409 0 -0.075578014486730113 -0.44572666976876801 0 -0.088210056492205854 -0.43977313325318929 0 -0.069647884794461962 -0.42132560337790409 0 -0.075578014486730113 -0.44572666976876801 0 -0.069647884794461962 -0.42132560337790409 0 -0.06291362301089061 -0.43602584586139698 0 -0.088210056492205854 -0.43977313325318929 0 -0.069647884794461962 -0.42132560337790409 0 -0.088721822311749771 -0.42091241392223061 0 -0.088210056492205854 -0.43977313325318929 0 -0.1012358633401006 -0.43473910522071257 0 -0.088721822311749771 -0.42091241392223061 0 -0.069647884794461962 -0.42132560337790409 0 -0.077897754663343838 -0.40781521776910401 0 -0.088721822311749771 -0.42091241392223061 0 -0.077897754663343838 -0.40781521776910401 0 -0.088721822311749771 -0.42091241392223061 0 -0.092474810499768481 -0.40755759368105338 0 -0.092655175782176927 -0.08732755346905563 0 -0.07826407895501486 -0.09106189459007008 0 -0.076597322057705738 -0.075568222321581238 0 -0.090240124141503619 -0.066598901073743874 0 -0.076597322057705738 -0.075568222321581238 0 -0.071164599774181686 -0.059769372973379732 0 -0.092655175782176927 -0.08732755346905563 0 -0.090240124141503619 -0.066598901073743874 0 -0.076597322057705738 -0.075568222321581238 0 -0.076597322057705738 -0.075568222321581238 0 -0.071164599774181686 -0.059769372973379732 0 -0.060137266250704681 -0.066365220902111874 0 -0.076597322057705738 -0.075568222321581238 0 -0.060324671715374707 -0.075288996906516317 0 -0.060137266250704681 -0.066365220902111874 0 -0.076597322057705738 -0.075568222321581238 0 -0.060137266250704681 -0.066365220902111874 0 -0.076597322057705738 -0.075568222321581238 0 -0.065985872419931826 -0.085541341542039698 0 -0.060324671715374707 -0.075288996906516317 0 -0.07826407895501486 -0.09106189459007008 0 -0.076597322057705738 -0.075568222321581238 0 -0.065985872419931826 -0.085541341542039698 0 -0.07826407895501486 -0.09106189459007008 0 -0.065985872419931826 -0.085541341542039698 0 -0.06609579143039751 -0.099821382562985297 0 -0.065985872419931826 -0.085541341542039698 0 -0.06609579143039751 -0.099821382562985297 0 -0.056596744946637488 -0.088059774439632699 0 -0.07826407895501486 -0.09106189459007008 0 -0.06609579143039751 -0.099821382562985297 0 -0.089986233084862366 -0.1070509730546885 0 -0.06609579143039751 -0.099821382562985297 0 -0.073884290062487062 -0.1129727679911611 0 -0.089986233084862366 -0.1070509730546885 0 -0.06609579143039751 -0.099821382562985297 0 -0.089986233084862366 -0.1070509730546885 0 -0.06609579143039751 -0.099821382562985297 0 -0.063757542672744749 -0.10923391483938839 0 -0.073884290062487062 -0.1129727679911611 0 -0.065492762033570073 -0.1224778386206422 0 -0.073884290062487062 -0.1129727679911611 0 -0.083660905721910955 -0.1244068478256465 0 -0.063757542672744749 -0.10923391483938839 0 -0.065492762033570073 -0.1224778386206422 0 -0.073884290062487062 -0.1129727679911611 0 -0.073884290062487062 -0.1129727679911611 0 -0.083660905721910955 -0.1244068478256465 0 -0.089986233084862366 -0.1070509730546885 0 -0.083660905721910955 -0.1244068478256465 0 -0.089986233084862366 -0.1070509730546885 0 -0.1002786375683075 -0.1325069584026233 0 -0.092655175782176927 -0.08732755346905563 0 -0.07826407895501486 -0.09106189459007008 0 -0.089986233084862366 -0.1070509730546885 0 -0.089986233084862366 -0.1070509730546885 0 -0.1075165413432862 -0.096226210104282658 0 -0.1138766747393273 -0.11428056354639179 0 -0.092655175782176927 -0.08732755346905563 0 -0.089986233084862366 -0.1070509730546885 0 -0.1075165413432862 -0.096226210104282658 0 -0.089986233084862366 -0.1070509730546885 0 -0.1138766747393273 -0.11428056354639179 0 -0.089986233084862366 -0.1070509730546885 0 -0.1138766747393273 -0.11428056354639179 0 -0.1002786375683075 -0.1325069584026233 0 -0.1075165413432862 -0.096226210104282658 0 -0.1138766747393273 -0.11428056354639179 0 -0.1312908544755215 -0.092470264183890094 0 -0.10938310320872741 -0.077847050360222408 0 -0.12669216417476731 -0.070885596599344153 0 -0.1312908544755215 -0.092470264183890094 0 -0.1075165413432862 -0.096226210104282658 0 -0.10938310320872741 -0.077847050360222408 0 -0.1312908544755215 -0.092470264183890094 0 -0.092655175782176927 -0.08732755346905563 0 -0.1075165413432862 -0.096226210104282658 0 -0.10938310320872741 -0.077847050360222408 0 -0.090240124141503619 -0.066598901073743874 0 -0.10938310320872741 -0.077847050360222408 0 -0.1080246755676703 -0.054625099827685923 0 -0.092655175782176927 -0.08732755346905563 0 -0.090240124141503619 -0.066598901073743874 0 -0.10938310320872741 -0.077847050360222408 0 -0.10938310320872741 -0.077847050360222408 0 -0.1080246755676703 -0.054625099827685923 0 -0.12669216417476731 -0.070885596599344153 0 -0.1080246755676703 -0.054625099827685923 0 -0.12669216417476731 -0.070885596599344153 0 -0.13493405143952761 -0.054577001896876483 0 -0.1200399666966657 -0.034245437065707263 0 -0.1080246755676703 -0.054625099827685923 0 -0.13493405143952761 -0.054577001896876483 0 -0.094628370038424087 -0.03155440931783024 0 -0.1080246755676703 -0.054625099827685923 0 -0.081419969465412884 -0.048135163314422837 0 -0.1200399666966657 -0.034245437065707263 0 -0.094628370038424087 -0.03155440931783024 0 -0.1080246755676703 -0.054625099827685923 0 -0.1051458819538037 -0.013913872234538089 0 -0.13050725110392569 -0.01787843097546897 0 -0.1289042152683513 0.0036931705937147661 0 -0.1051458819538037 -0.013913872234538089 0 -0.1289042152683513 0.0036931705937147661 0 -0.10949852996144149 0.008215710650763694 0 -0.1200399666966657 -0.034245437065707263 0 -0.1051458819538037 -0.013913872234538089 0 -0.1200399666966657 -0.034245437065707263 0 -0.1051458819538037 -0.013913872234538089 0 -0.13050725110392569 -0.01787843097546897 0 -0.094628370038424087 -0.03155440931783024 0 -0.1051458819538037 -0.013913872234538089 0 -0.084689412958856458 -0.01302347359941588 0 -0.1200399666966657 -0.034245437065707263 0 -0.094628370038424087 -0.03155440931783024 0 -0.1051458819538037 -0.013913872234538089 0 -0.1051458819538037 -0.013913872234538089 0 -0.0902517972109418 0.0064176925966310744 0 -0.084689412958856458 -0.01302347359941588 0 -0.066411623782526366 -0.0027931021134092919 0 -0.0902517972109418 0.0064176925966310744 0 -0.1051458819538037 -0.013913872234538089 0 -0.084689412958856458 -0.01302347359941588 0 -0.0902517972109418 0.0064176925966310744 0 -0.094628370038424087 -0.03155440931783024 0 -0.084689412958856458 -0.01302347359941588 0 -0.06989123536768474 -0.027493142802490041 0 -0.06989123536768474 -0.027493142802490041 0 -0.066411623782526366 -0.0027931021134092919 0 -0.053811971049329763 -0.018591524237316519 0 -0.084689412958856458 -0.01302347359941588 0 -0.06989123536768474 -0.027493142802490041 0 -0.066411623782526366 -0.0027931021134092919 0 -0.090240124141503619 -0.066598901073743874 0 -0.081419969465412884 -0.048135163314422837 0 -0.071164599774181686 -0.059769372973379732 0 -0.090240124141503619 -0.066598901073743874 0 -0.1080246755676703 -0.054625099827685923 0 -0.081419969465412884 -0.048135163314422837 0 -0.094628370038424087 -0.03155440931783024 0 -0.06989123536768474 -0.027493142802490041 0 -0.081419969465412884 -0.048135163314422837 0 -0.06989123536768474 -0.027493142802490041 0 -0.081419969465412884 -0.048135163314422837 0 -0.063584240544400608 -0.0457320959888965 0 -0.081419969465412884 -0.048135163314422837 0 -0.063584240544400608 -0.0457320959888965 0 -0.071164599774181686 -0.059769372973379732 0 -0.063584240544400608 -0.0457320959888965 0 -0.071164599774181686 -0.059769372973379732 0 -0.057424874172502111 -0.055269705322059853 0 -0.071164599774181686 -0.059769372973379732 0 -0.057424874172502111 -0.055269705322059853 0 -0.060137266250704681 -0.066365220902111874 0 -0.043677210443703429 -0.05716221948264294 0 -0.060137266250704681 -0.066365220902111874 0 -0.057424874172502111 -0.055269705322059853 0 -0.043677210443703429 -0.05716221948264294 0 -0.060137266250704681 -0.066365220902111874 0 -0.057424874172502111 -0.055269705322059853 0 -0.051411497984503798 -0.046462419957327972 0 -0.043677210443703429 -0.05716221948264294 0 -0.063584240544400608 -0.0457320959888965 0 -0.057424874172502111 -0.055269705322059853 0 -0.051411497984503798 -0.046462419957327972 0 -0.063584240544400608 -0.0457320959888965 0 -0.052350932325130432 -0.033740994873064922 0 -0.051411497984503798 -0.046462419957327972 0 -0.06989123536768474 -0.027493142802490041 0 -0.063584240544400608 -0.0457320959888965 0 -0.052350932325130432 -0.033740994873064922 0 -0.052350932325130432 -0.033740994873064922 0 -0.051411497984503798 -0.046462419957327972 0 -0.040020232436783071 -0.040407084119975477 0 -0.052350932325130432 -0.033740994873064922 0 -0.040020232436783071 -0.040407084119975477 0 -0.036363254429862817 -0.023651948757307969 0 -0.036363254429862817 -0.023651948757307969 0 -0.02733541563936118 -0.048025339113313907 0 -0.040020232436783071 -0.040407084119975477 0 -0.036363254429862817 -0.023651948757307969 0 -0.02733541563936118 -0.048025339113313907 0 -0.040020232436783071 -0.040407084119975477 0 -0.036363254429862817 -0.023651948757307969 0 -0.043677210443703429 -0.05716221948264294 0 -0.028853785578572311 -0.057607045030171042 0 -0.02733541563936118 -0.048025339113313907 0 -0.043677210443703429 -0.05716221948264294 0 -0.02733541563936118 -0.048025339113313907 0 -0.040020232436783071 -0.040407084119975477 0 -0.043677210443703429 -0.05716221948264294 0 -0.02733541563936118 -0.048025339113313907 0 -0.040020232436783071 -0.040407084119975477 0 -0.043677210443703429 -0.05716221948264294 0 -0.051411497984503798 -0.046462419957327972 0 -0.040020232436783071 -0.040407084119975477 0 -0.043677210443703429 -0.05716221948264294 0 -0.066411623782526366 -0.0027931021134092919 0 -0.054432639673103557 -0.0054449776461233052 0 -0.053811971049329763 -0.018591524237316519 0 -0.054432639673103557 -0.0054449776461233052 0 -0.043869853131501289 -0.0033856076487974169 0 -0.053637110729056837 0.002990323415030006 0 -0.066411623782526366 -0.0027931021134092919 0 -0.054432639673103557 -0.0054449776461233052 0 -0.053637110729056837 0.002990323415030006 0 -0.054432639673103557 -0.0054449776461233052 0 -0.053811971049329763 -0.018591524237316519 0 -0.043869853131501289 -0.0033856076487974169 0 -0.06989123536768474 -0.027493142802490041 0 -0.052350932325130432 -0.033740994873064922 0 -0.053811971049329763 -0.018591524237316519 0 -0.052350932325130432 -0.033740994873064922 0 -0.053811971049329763 -0.018591524237316519 0 -0.036363254429862817 -0.023651948757307969 0 -0.036363254429862817 -0.023651948757307969 0 -0.032603002991312642 -0.0064236466643313554 0 -0.025546622716413531 -0.017418084054329978 0 -0.036363254429862817 -0.023651948757307969 0 -0.032603002991312642 -0.0064236466643313554 0 -0.053811971049329763 -0.018591524237316519 0 -0.036363254429862817 -0.023651948757307969 0 -0.043869853131501289 -0.0033856076487974169 0 -0.036363254429862817 -0.023651948757307969 0 -0.032603002991312642 -0.0064236466643313554 0 -0.043869853131501289 -0.0033856076487974169 0 -0.036363254429862817 -0.023651948757307969 0 -0.043869853131501289 -0.0033856076487974169 0 -0.021405201553429981 -0.0056405961426311546 0 -0.025546622716413531 -0.017418084054329978 0 -0.01396765155409738 -0.022085847713907342 0 -0.032603002991312642 -0.0064236466643313554 0 -0.021405201553429981 -0.0056405961426311546 0 -0.028842751552762211 0.01080465542864523 0 -0.021405201553429981 -0.0056405961426311546 0 -0.01396765155409738 -0.022085847713907342 0 -0.032603002991312642 -0.0064236466643313554 0 -0.021405201553429981 -0.0056405961426311546 0 -0.025546622716413531 -0.017418084054329978 0 -0.025546622716413531 -0.017418084054329978 0 -0.023764465284037879 -0.030530080430775739 0 -0.01396765155409738 -0.022085847713907342 0 -0.036363254429862817 -0.023651948757307969 0 -0.025546622716413531 -0.017418084054329978 0 -0.023764465284037879 -0.030530080430775739 0 -0.01396765155409738 -0.022085847713907342 0 -0.01560938208045486 -0.041469182515019708 0 0.0015075461902561359 -0.0206127781360903 0 -0.01560938208045486 -0.041469182515019708 0 0.0015075461902561359 -0.0206127781360903 0 -0.01396765155409738 -0.022085847713907342 0 -0.00071596282873132163 -0.008595039857743892 0 0.0015075461902561359 -0.0206127781360903 0 -0.021405201553429981 -0.0056405961426311546 0 -0.01396765155409738 -0.022085847713907342 0 -0.010898625486627719 -0.0086693871907334904 0 -0.01396765155409738 -0.022085847713907342 0 -0.010898625486627719 -0.0086693871907334904 0 -0.00071596282873132163 -0.008595039857743892 0 -0.010898625486627719 -0.0086693871907334904 0 -0.00071596282873132163 -0.008595039857743892 0 -0.0040144348922586757 -0.0020453828929084031 0 -0.00071596282873132163 -0.008595039857743892 0 -0.0040144348922586757 -0.0020453828929084031 0 0.0044529143093724691 0.001599530544337085 0 -0.010898625486627719 -0.0086693871907334904 0 -0.0040144348922586757 -0.0020453828929084031 0 -0.01357803753568306 0.0023392803976896841 0 -0.021405201553429981 -0.0056405961426311546 0 -0.010898625486627719 -0.0086693871907334904 0 -0.01357803753568306 0.0023392803976896841 0 -0.025362192007991322 -0.053352655090384019 0 -0.02733541563936118 -0.048025339113313907 0 -0.01560938208045486 -0.041469182515019708 0 -0.025362192007991322 -0.053352655090384019 0 -0.01560938208045486 -0.041469182515019708 0 -0.025362192007991322 -0.053352655090384019 0 -0.01560938208045486 -0.041469182515019708 0 -0.014701959107139151 -0.052157727798657988 0 -0.025362192007991322 -0.053352655090384019 0 -0.021445276605362051 -0.063927556826580439 0 -0.025362192007991322 -0.053352655090384019 0 -0.014701959107139151 -0.052157727798657988 0 -0.021445276605362051 -0.063927556826580439 0 -0.028853785578572311 -0.057607045030171042 0 -0.025362192007991322 -0.053352655090384019 0 -0.028853785578572311 -0.057607045030171042 0 -0.025362192007991322 -0.053352655090384019 0 -0.021445276605362051 -0.063927556826580439 0 -0.028853785578572311 -0.057607045030171042 0 -0.025362192007991322 -0.053352655090384019 0 -0.02733541563936118 -0.048025339113313907 0 -0.025362192007991322 -0.053352655090384019 0 -0.02733541563936118 -0.048025339113313907 0 -0.023764465284037879 -0.030530080430775739 0 -0.01396765155409738 -0.022085847713907342 0 -0.01560938208045486 -0.041469182515019708 0 -0.036363254429862817 -0.023651948757307969 0 -0.023764465284037879 -0.030530080430775739 0 -0.02733541563936118 -0.048025339113313907 0 -0.023764465284037879 -0.030530080430775739 0 -0.02733541563936118 -0.048025339113313907 0 -0.01560938208045486 -0.041469182515019708 0 -0.02733541563936118 -0.048025339113313907 0 -0.01560938208045486 -0.041469182515019708 0 -0.01560938208045486 -0.041469182515019708 0 0.0015075461902561359 -0.0206127781360903 0 9.3668589405805289e-05 -0.032689431139981337 0 -0.01560938208045486 -0.041469182515019708 0 -0.001359163330916917 -0.044638420598685717 0 -0.014701959107139151 -0.052157727798657988 0 -0.01560938208045486 -0.041469182515019708 0 -0.001359163330916917 -0.044638420598685717 0 9.3668589405805289e-05 -0.032689431139981337 0 -0.01560938208045486 -0.041469182515019708 0 9.3668589405805289e-05 -0.032689431139981337 0 -0.001359163330916917 -0.044638420598685717 0 -0.014701959107139151 -0.052157727798657988 0 -0.0047714937038859373 -0.056214114566174041 0 -0.0047714937038859373 -0.056214114566174041 0 -0.021445276605362051 -0.063927556826580439 0 -0.014701959107139151 -0.052157727798657988 0 -0.0047714937038859373 -0.056214114566174041 0 -0.021445276605362051 -0.063927556826580439 0 -0.0076763567387179588 -0.069332516870295069 0 -0.0028374965336953402 -0.080678514719808053 0 0.0045214092930832986 -0.064584551569048368 0 -0.0047714937038859373 -0.056214114566174041 0 -0.0076763567387179588 -0.069332516870295069 0 -0.021445276605362051 -0.063927556826580439 0 -0.0047714937038859373 -0.056214114566174041 0 -0.0076763567387179588 -0.069332516870295069 0 0.0045214092930832986 -0.064584551569048368 0 -0.0076763567387179588 -0.069332516870295069 0 -0.013990638167726371 -0.084053615434823106 0 -0.021445276605362051 -0.063927556826580439 0 -0.0076763567387179588 -0.069332516870295069 0 -0.0028374965336953402 -0.080678514719808053 0 -0.013990638167726371 -0.084053615434823106 0 -0.0052299334647438146 -0.085833971909291165 0 -0.0059317575587944328 -0.1058110091446678 0 0.0052922863549169771 -0.088257816050998153 0 -0.0052299334647438146 -0.085833971909291165 0 -0.013990638167726371 -0.084053615434823106 0 -0.0059317575587944328 -0.1058110091446678 0 -0.0052299334647438146 -0.085833971909291165 0 -0.0028374965336953402 -0.080678514719808053 0 -0.013990638167726371 -0.084053615434823106 0 -0.0052299334647438146 -0.085833971909291165 0 -0.0028374965336953402 -0.080678514719808053 0 0.0052922863549169771 -0.088257816050998153 0 -0.0052299334647438146 -0.085833971909291165 0 -0.0028374965336953402 -0.080678514719808053 0 -0.0028374965336953402 -0.080678514719808053 0 -0.013990638167726371 -0.084053615434823106 0 -0.013990638167726371 -0.084053615434823106 0 -0.042205349775933113 -0.092591792071280529 0 -0.018668455477795519 -0.098157457290224195 0 -0.013990638167726371 -0.084053615434823106 0 -0.042205349775933113 -0.092591792071280529 0 -0.013990638167726371 -0.084053615434823106 0 -0.031130097593418438 -0.079066612264424088 0 -0.042205349775933113 -0.092591792071280529 0 -0.013990638167726371 -0.084053615434823106 0 -0.031130097593418438 -0.079066612264424088 0 -0.021445276605362051 -0.063927556826580439 0 -0.013990638167726371 -0.084053615434823106 0 -0.021445276605362051 -0.063927556826580439 0 -0.043677210443703429 -0.05716221948264294 0 -0.049027332956765687 -0.067926517719426358 0 -0.047350148036657498 -0.073990476702720978 0 -0.043677210443703429 -0.05716221948264294 0 -0.028853785578572311 -0.057607045030171042 0 -0.047350148036657498 -0.073990476702720978 0 -0.021445276605362051 -0.063927556826580439 0 -0.046879125824652201 -0.075693484725012306 0 -0.028853785578572311 -0.057607045030171042 0 -0.021445276605362051 -0.063927556826580439 0 -0.047350148036657498 -0.073990476702720978 0 -0.043677210443703429 -0.05716221948264294 0 -0.047350148036657498 -0.073990476702720978 0 -0.021445276605362051 -0.063927556826580439 0 -0.047350148036657498 -0.073990476702720978 0 -0.046879125824652201 -0.075693484725012306 0 -0.031130097593418438 -0.079066612264424088 0 -0.021445276605362051 -0.063927556826580439 0 -0.046879125824652201 -0.075693484725012306 0 -0.031130097593418438 -0.079066612264424088 0 -0.042205349775933113 -0.092591792071280529 0 -0.046879125824652201 -0.075693484725012306 0 -0.042205349775933113 -0.092591792071280529 0 -0.046879125824652201 -0.075693484725012306 0 -0.042205349775933113 -0.092591792071280529 0 -0.050336677896006578 -0.081680171984751138 0 -0.046879125824652201 -0.075693484725012306 0 -0.06609579143039751 -0.099821382562985297 0 -0.042205349775933113 -0.092591792071280529 0 -0.056596744946637488 -0.088059774439632699 0 -0.050336677896006578 -0.081680171984751138 0 -0.057339260936804852 -0.081815371688228875 0 -0.051416628166991801 -0.075901525278196977 0 -0.042205349775933113 -0.092591792071280529 0 -0.050336677896006578 -0.081680171984751138 0 -0.056596744946637488 -0.088059774439632699 0 -0.065985872419931826 -0.085541341542039698 0 -0.056596744946637488 -0.088059774439632699 0 -0.057339260936804852 -0.081815371688228875 0 -0.065985872419931826 -0.085541341542039698 0 -0.057339260936804852 -0.081815371688228875 0 -0.060324671715374707 -0.075288996906516317 0 -0.050336677896006578 -0.081680171984751138 0 -0.056596744946637488 -0.088059774439632699 0 -0.057339260936804852 -0.081815371688228875 0 -0.057339260936804852 -0.081815371688228875 0 -0.060324671715374707 -0.075288996906516317 0 -0.051416628166991801 -0.075901525278196977 0 -0.043677210443703429 -0.05716221948264294 0 -0.060137266250704681 -0.066365220902111874 0 -0.049027332956765687 -0.067926517719426358 0 -0.060324671715374707 -0.075288996906516317 0 -0.060137266250704681 -0.066365220902111874 0 -0.049027332956765687 -0.067926517719426358 0 -0.060324671715374707 -0.075288996906516317 0 -0.049027332956765687 -0.067926517719426358 0 -0.051416628166991801 -0.075901525278196977 0 -0.049027332956765687 -0.067926517719426358 0 -0.047350148036657498 -0.073990476702720978 0 -0.049027332956765687 -0.067926517719426358 0 -0.047350148036657498 -0.073990476702720978 0 -0.051416628166991801 -0.075901525278196977 0 -0.047350148036657498 -0.073990476702720978 0 -0.046879125824652201 -0.075693484725012306 0 -0.047350148036657498 -0.073990476702720978 0 -0.046879125824652201 -0.075693484725012306 0 -0.051416628166991801 -0.075901525278196977 0 -0.050336677896006578 -0.081680171984751138 0 -0.046879125824652201 -0.075693484725012306 0 -0.051416628166991801 -0.075901525278196977 0 -0.063757542672744749 -0.10923391483938839 0 -0.065492762033570073 -0.1224778386206422 0 -0.049557327164524323 -0.101663670182765 0 -0.065492762033570073 -0.1224778386206422 0 -0.049557327164524323 -0.101663670182765 0 -0.065492762033570073 -0.1224778386206422 0 -0.050342428112584492 -0.1175698026846546 0 -0.049557327164524323 -0.101663670182765 0 -0.050342428112584492 -0.1175698026846546 0 -0.034611117482187911 -0.12004917770999469 0 -0.058019657192402471 -0.1316705923842561 0 -0.065492762033570073 -0.1224778386206422 0 -0.050342428112584492 -0.1175698026846546 0 -0.058019657192402471 -0.1316705923842561 0 -0.06609579143039751 -0.099821382562985297 0 -0.063757542672744749 -0.10923391483938839 0 -0.049557327164524323 -0.101663670182765 0 -0.06609579143039751 -0.099821382562985297 0 -0.042205349775933113 -0.092591792071280529 0 -0.06609579143039751 -0.099821382562985297 0 -0.042205349775933113 -0.092591792071280529 0 -0.049557327164524323 -0.101663670182765 0 -0.042205349775933113 -0.092591792071280529 0 -0.049557327164524323 -0.101663670182765 0 -0.034611117482187911 -0.12004917770999469 0 -0.042205349775933113 -0.092591792071280529 0 -0.034611117482187911 -0.12004917770999469 0 -0.042205349775933113 -0.092591792071280529 0 -0.034611117482187911 -0.12004917770999469 0 -0.020271437520491559 -0.1129300934273305 0 -0.050342428112584492 -0.1175698026846546 0 -0.049557327164524323 -0.101663670182765 0 -0.034611117482187911 -0.12004917770999469 0 -0.034611117482187911 -0.12004917770999469 0 -0.020271437520491559 -0.1129300934273305 0 -0.021176215693484279 -0.12677675417529971 0 -0.034611117482187911 -0.12004917770999469 0 -0.020271437520491559 -0.1129300934273305 0 -0.020271437520491559 -0.1129300934273305 0 -0.011649811192148449 -0.1209503378096933 0 -0.021176215693484279 -0.12677675417529971 0 -0.042205349775933113 -0.092591792071280529 0 -0.020271437520491559 -0.1129300934273305 0 -0.018668455477795519 -0.098157457290224195 0 -0.013990638167726371 -0.084053615434823106 0 -0.018668455477795519 -0.098157457290224195 0 -0.0059317575587944328 -0.1058110091446678 0 -0.013990638167726371 -0.084053615434823106 0 -0.0059317575587944328 -0.1058110091446678 0 -0.020271437520491559 -0.1129300934273305 0 -0.018668455477795519 -0.098157457290224195 0 -0.0059317575587944328 -0.1058110091446678 0 -0.020271437520491559 -0.1129300934273305 0 -0.0059317575587944328 -0.1058110091446678 0 -0.0059317575587944328 -0.1058110091446678 0 0.00050623466739229545 -0.1231923227989264 0 -0.0059317575587944328 -0.1058110091446678 0 -0.011649811192148449 -0.1209503378096933 0 0.00050623466739229545 -0.1231923227989264 0 -0.020271437520491559 -0.1129300934273305 0 -0.0059317575587944328 -0.1058110091446678 0 -0.011649811192148449 -0.1209503378096933 0 -0.011375879855364351 -0.13604150950224209 0 0.0069442268935788268 -0.14057363645318521 0 0.00050623466739229545 -0.1231923227989264 0 -0.011649811192148449 -0.1209503378096933 0 -0.011375879855364351 -0.13604150950224209 0 0.00050623466739229545 -0.1231923227989264 0 -0.011649811192148449 -0.1209503378096933 0 -0.011375879855364351 -0.13604150950224209 0 -0.021176215693484279 -0.12677675417529971 0 -0.034611117482187911 -0.12004917770999469 0 -0.021176215693484279 -0.12677675417529971 0 -0.02811937301852847 -0.14352045489932741 0 -0.011375879855364351 -0.13604150950224209 0 -0.021176215693484279 -0.12677675417529971 0 -0.02811937301852847 -0.14352045489932741 0 -0.02811937301852847 -0.14352045489932741 0 -0.014127484564515 -0.160080921606751 0 -0.035669422888468201 -0.16017944991396441 0 -0.011375879855364351 -0.13604150950224209 0 -0.02811937301852847 -0.14352045489932741 0 -0.014127484564515 -0.160080921606751 0 -0.014127484564515 -0.160080921606751 0 0.0069442268935788268 -0.14057363645318521 0 -0.011375879855364351 -0.13604150950224209 0 -0.014127484564515 -0.160080921606751 0 0.0069442268935788268 -0.14057363645318521 0 -0.014127484564515 -0.160080921606751 0 0.001367190774887289 -0.15601023548811599 0 0.0069442268935788268 -0.14057363645318521 0 -0.0011051753364124341 -0.16441906961975289 0 -0.014127484564515 -0.160080921606751 0 0.001367190774887289 -0.15601023548811599 0 -0.014127484564515 -0.160080921606751 0 -0.0069173441012338873 -0.17363317982223259 0 -0.016781382259483779 -0.1806026567430398 0 -0.0011051753364124341 -0.16441906961975289 0 -0.014127484564515 -0.160080921606751 0 -0.0069173441012338873 -0.17363317982223259 0 -0.0059430438752078214 -0.18543064001305129 0 0.0033703655294495928 -0.1776326111285679 0 0.0016888367019596579 -0.18480537576534531 0 -0.0059430438752078214 -0.18543064001305129 0 0.0016748753455320599 -0.189865468091719 0 0.0016888367019596579 -0.18480537576534531 0 -0.0059430438752078214 -0.18543064001305129 0 -0.0069173441012338873 -0.17363317982223259 0 0.0033703655294495928 -0.1776326111285679 0 -0.0011051753364124341 -0.16441906961975289 0 -0.0069173441012338873 -0.17363317982223259 0 0.0033703655294495928 -0.1776326111285679 0 -0.0059430438752078214 -0.18543064001305129 0 -0.016781382259483779 -0.1806026567430398 0 -0.014947202302913531 -0.19069555450792089 0 -0.0059430438752078214 -0.18543064001305129 0 -0.0069173441012338873 -0.17363317982223259 0 -0.016781382259483779 -0.1806026567430398 0 -0.014127484564515 -0.160080921606751 0 -0.016781382259483779 -0.1806026567430398 0 -0.035199196022608549 -0.17958820676031709 0 -0.016781382259483779 -0.1806026567430398 0 -0.035199196022608549 -0.17958820676031709 0 -0.024180292440678049 -0.18827718721555481 0 -0.016781382259483779 -0.1806026567430398 0 -0.014947202302913531 -0.19069555450792089 0 -0.024180292440678049 -0.18827718721555481 0 -0.014127484564515 -0.160080921606751 0 -0.035669422888468201 -0.16017944991396441 0 -0.035199196022608549 -0.17958820676031709 0 -0.014127484564515 -0.160080921606751 0 -0.035199196022608549 -0.17958820676031709 0 -0.035669422888468201 -0.16017944991396441 0 -0.046079128754800067 -0.17078810841229319 0 -0.054419395141026533 -0.15953155070667521 0 -0.035669422888468201 -0.16017944991396441 0 -0.046079128754800067 -0.17078810841229319 0 -0.035199196022608549 -0.17958820676031709 0 -0.046079128754800067 -0.17078810841229319 0 -0.035199196022608549 -0.17958820676031709 0 -0.052452753816055998 -0.18684064722560961 0 -0.046079128754800067 -0.17078810841229319 0 -0.052452753816055998 -0.18684064722560961 0 -0.05856648734625669 -0.1731397226299172 0 -0.052452753816055998 -0.18684064722560961 0 -0.05856648734625669 -0.1731397226299172 0 -0.066160925849264238 -0.18553731315601019 0 -0.046079128754800067 -0.17078810841229319 0 -0.05856648734625669 -0.1731397226299172 0 -0.054419395141026533 -0.15953155070667521 0 -0.05856648734625669 -0.1731397226299172 0 -0.054419395141026533 -0.15953155070667521 0 -0.06723840093829328 -0.16751220363180769 0 -0.054419395141026533 -0.15953155070667521 0 -0.061702051974756547 -0.1466646217077453 0 -0.045195157690746203 -0.14374541722912609 0 -0.061702051974756547 -0.1466646217077453 0 -0.058019657192402471 -0.1316705923842561 0 -0.045195157690746203 -0.14374541722912609 0 -0.054419395141026533 -0.15953155070667521 0 -0.061702051974756547 -0.1466646217077453 0 -0.069838661508507621 -0.15685599743636949 0 -0.034611117482187911 -0.12004917770999469 0 -0.058019657192402471 -0.1316705923842561 0 -0.045195157690746203 -0.14374541722912609 0 -0.034611117482187911 -0.12004917770999469 0 -0.058019657192402471 -0.1316705923842561 0 -0.034611117482187911 -0.12004917770999469 0 -0.02811937301852847 -0.14352045489932741 0 -0.045195157690746203 -0.14374541722912609 0 -0.034611117482187911 -0.12004917770999469 0 -0.02811937301852847 -0.14352045489932741 0 -0.035669422888468201 -0.16017944991396441 0 -0.054419395141026533 -0.15953155070667521 0 -0.045195157690746203 -0.14374541722912609 0 -0.02811937301852847 -0.14352045489932741 0 -0.035669422888468201 -0.16017944991396441 0 -0.045195157690746203 -0.14374541722912609 0 -0.0300709330061673 -0.25239298583810871 0 -0.0069288431661283859 -0.23594006882876251 0 -0.034682600956165627 -0.22958712280152979 0 -0.01241213471794524 -0.25308273483886817 0 -0.0300709330061673 -0.25239298583810871 0 -0.0069288431661283859 -0.23594006882876251 0 -0.0069288431661283859 -0.23594006882876251 0 -0.018862446544927761 -0.2163220495783082 0 -0.0024249296216109759 -0.21380289379123299 0 -0.018862446544927761 -0.2163220495783082 0 -0.030851612420924511 -0.21453676391850379 0 -0.034682600956165627 -0.22958712280152979 0 -0.0069288431661283859 -0.23594006882876251 0 -0.034682600956165627 -0.22958712280152979 0 -0.0069288431661283859 -0.23594006882876251 0 -0.018862446544927761 -0.2163220495783082 0 -0.034682600956165627 -0.22958712280152979 0 -0.018862446544927761 -0.2163220495783082 0 -0.013148096270509909 -0.20686204464667199 0 -0.029191972132067919 -0.19880624237700931 0 -0.018862446544927761 -0.2163220495783082 0 -0.030851612420924511 -0.21453676391850379 0 -0.029191972132067919 -0.19880624237700931 0 -0.018862446544927761 -0.2163220495783082 0 -0.0024249296216109759 -0.21380289379123299 0 -0.013148096270509909 -0.20686204464667199 0 -0.0024249296216109759 -0.21380289379123299 0 -0.013148096270509909 -0.20686204464667199 0 -0.0021130367834329982 -0.1985169928401376 0 -0.013148096270509909 -0.20686204464667199 0 -0.0057221473242836281 -0.19855554433926489 0 -0.0021130367834329982 -0.1985169928401376 0 -0.0057221473242836281 -0.19855554433926489 0 -0.0021130367834329982 -0.1985169928401376 0 -0.0059430438752078214 -0.18543064001305129 0 -0.0066656061957871071 -0.1917506472726821 0 0.0016748753455320599 -0.189865468091719 0 -0.0057221473242836281 -0.19855554433926489 0 -0.0066656061957871071 -0.1917506472726821 0 0.0016748753455320599 -0.189865468091719 0 -0.0059430438752078214 -0.18543064001305129 0 -0.0066656061957871071 -0.1917506472726821 0 -0.014947202302913531 -0.19069555450792089 0 -0.0057221473242836281 -0.19855554433926489 0 -0.0066656061957871071 -0.1917506472726821 0 -0.014947202302913531 -0.19069555450792089 0 -0.0057221473242836281 -0.19855554433926489 0 -0.029191972132067919 -0.19880624237700931 0 -0.035199196022608549 -0.17958820676031709 0 -0.029191972132067919 -0.19880624237700931 0 -0.024180292440678049 -0.18827718721555481 0 -0.014947202302913531 -0.19069555450792089 0 -0.029191972132067919 -0.19880624237700931 0 -0.024180292440678049 -0.18827718721555481 0 -0.013148096270509909 -0.20686204464667199 0 -0.0057221473242836281 -0.19855554433926489 0 -0.029191972132067919 -0.19880624237700931 0 -0.0057221473242836281 -0.19855554433926489 0 -0.014947202302913531 -0.19069555450792089 0 -0.029191972132067919 -0.19880624237700931 0 -0.029191972132067919 -0.19880624237700931 0 -0.056270907480702799 -0.1990954919138824 0 -0.029191972132067919 -0.19880624237700931 0 -0.056270907480702799 -0.1990954919138824 0 -0.050317607044667569 -0.2068598467745856 0 -0.035199196022608549 -0.17958820676031709 0 -0.029191972132067919 -0.19880624237700931 0 -0.056270907480702799 -0.1990954919138824 0 -0.035199196022608549 -0.17958820676031709 0 -0.056270907480702799 -0.1990954919138824 0 -0.035199196022608549 -0.17958820676031709 0 -0.052452753816055998 -0.18684064722560961 0 -0.056270907480702799 -0.1990954919138824 0 -0.052452753816055998 -0.18684064722560961 0 -0.068004898086566568 -0.19922083108636701 0 -0.052452753816055998 -0.18684064722560961 0 -0.056270907480702799 -0.1990954919138824 0 -0.068004898086566568 -0.19922083108636701 0 -0.052452753816055998 -0.18684064722560961 0 -0.068004898086566568 -0.19922083108636701 0 -0.066160925849264238 -0.18553731315601019 0 -0.056270907480702799 -0.1990954919138824 0 -0.061041302753851868 -0.20351171890491929 0 -0.068004898086566568 -0.19922083108636701 0 -0.056270907480702799 -0.1990954919138824 0 -0.068004898086566568 -0.19922083108636701 0 -0.056270907480702799 -0.1990954919138824 0 -0.061041302753851868 -0.20351171890491929 0 -0.050317607044667569 -0.2068598467745856 0 -0.058456762703683211 -0.20958270788219879 0 -0.051839173066132643 -0.21607854235044041 0 -0.056270907480702799 -0.1990954919138824 0 -0.050317607044667569 -0.2068598467745856 0 -0.061041302753851868 -0.20351171890491929 0 -0.050317607044667569 -0.2068598467745856 0 -0.058456762703683211 -0.20958270788219879 0 -0.061041302753851868 -0.20351171890491929 0 -0.058456762703683211 -0.20958270788219879 0 -0.061041302753851868 -0.20351171890491929 0 -0.065135265894499916 -0.20782291161326619 0 -0.051839173066132643 -0.21607854235044041 0 -0.062436358746202722 -0.22323417677429711 0 -0.063950464759264025 -0.21364051976778239 0 -0.058456762703683211 -0.20958270788219879 0 -0.051839173066132643 -0.21607854235044041 0 -0.063950464759264025 -0.21364051976778239 0 -0.050317607044667569 -0.2068598467745856 0 -0.051839173066132643 -0.21607854235044041 0 -0.04066943005053672 -0.21343164091716799 0 -0.029191972132067919 -0.19880624237700931 0 -0.050317607044667569 -0.2068598467745856 0 -0.04066943005053672 -0.21343164091716799 0 -0.030851612420924511 -0.21453676391850379 0 -0.029191972132067919 -0.19880624237700931 0 -0.04066943005053672 -0.21343164091716799 0 -0.030851612420924511 -0.21453676391850379 0 -0.04066943005053672 -0.21343164091716799 0 -0.034682600956165627 -0.22958712280152979 0 -0.051839173066132643 -0.21607854235044041 0 -0.04066943005053672 -0.21343164091716799 0 -0.034682600956165627 -0.22958712280152979 0 -0.034682600956165627 -0.22958712280152979 0 -0.054315141885729619 -0.2335544054264021 0 -0.062436358746202722 -0.22323417677429711 0 -0.034682600956165627 -0.22958712280152979 0 -0.062436358746202722 -0.22323417677429711 0 -0.051839173066132643 -0.21607854235044041 0 -0.034682600956165627 -0.22958712280152979 0 -0.062436358746202722 -0.22323417677429711 0 -0.052574207348987892 -0.2557294451199969 0 -0.054315141885729619 -0.2335544054264021 0 -0.068987956184213758 -0.24580350920846361 0 -0.052574207348987892 -0.2557294451199969 0 -0.054315141885729619 -0.2335544054264021 0 -0.042706023303749632 -0.24286150533196069 0 -0.0300709330061673 -0.25239298583810871 0 -0.034682600956165627 -0.22958712280152979 0 -0.042706023303749632 -0.24286150533196069 0 -0.034682600956165627 -0.22958712280152979 0 -0.054315141885729619 -0.2335544054264021 0 -0.042706023303749632 -0.24286150533196069 0 -0.091897538062651885 -0.24508293332865611 0 -0.081118317917151628 -0.24086475648889119 0 -0.088781325171095202 -0.23371234154356441 0 -0.091897538062651885 -0.24508293332865611 0 -0.088781325171095202 -0.23371234154356441 0 -0.099793410054498988 -0.2375407338321972 0 -0.08165710104129964 -0.25115670310468269 0 -0.091897538062651885 -0.24508293332865611 0 -0.081118317917151628 -0.24086475648889119 0 -0.081118317917151628 -0.24086475648889119 0 -0.068987956184213758 -0.24580350920846361 0 -0.075570741074087816 -0.22785917957497889 0 -0.08165710104129964 -0.25115670310468269 0 -0.081118317917151628 -0.24086475648889119 0 -0.068987956184213758 -0.24580350920846361 0 -0.054315141885729619 -0.2335544054264021 0 -0.068987956184213758 -0.24580350920846361 0 -0.075570741074087816 -0.22785917957497889 0 -0.062436358746202722 -0.22323417677429711 0 -0.090190116536239567 -0.21688123074706361 0 -0.054315141885729619 -0.2335544054264021 0 -0.075570741074087816 -0.22785917957497889 0 -0.054315141885729619 -0.2335544054264021 0 -0.062436358746202722 -0.22323417677429711 0 -0.075570741074087816 -0.22785917957497889 0 -0.062436358746202722 -0.22323417677429711 0 -0.075570741074087816 -0.22785917957497889 0 -0.090190116536239567 -0.21688123074706361 0 -0.075570741074087816 -0.22785917957497889 0 -0.096826340262445881 -0.2221639537235556 0 -0.075570741074087816 -0.22785917957497889 0 -0.088781325171095202 -0.23371234154356441 0 -0.096826340262445881 -0.2221639537235556 0 -0.075570741074087816 -0.22785917957497889 0 -0.090190116536239567 -0.21688123074706361 0 -0.096826340262445881 -0.2221639537235556 0 -0.081118317917151628 -0.24086475648889119 0 -0.075570741074087816 -0.22785917957497889 0 -0.088781325171095202 -0.23371234154356441 0 -0.090190116536239567 -0.21688123074706361 0 -0.096826340262445881 -0.2221639537235556 0 -0.090190116536239567 -0.21688123074706361 0 -0.068004898086566568 -0.19922083108636701 0 -0.090190116536239567 -0.21688123074706361 0 -0.087293528184044511 -0.2060100627129747 0 -0.068004898086566568 -0.19922083108636701 0 -0.087293528184044511 -0.2060100627129747 0 -0.09092411477996018 -0.1994656476837951 0 -0.1000549833334118 -0.20847254133467311 0 -0.090190116536239567 -0.21688123074706361 0 -0.087293528184044511 -0.2060100627129747 0 -0.1000549833334118 -0.20847254133467311 0 -0.062436358746202722 -0.22323417677429711 0 -0.090190116536239567 -0.21688123074706361 0 -0.073701087032857882 -0.21302354123998299 0 -0.090190116536239567 -0.21688123074706361 0 -0.073701087032857882 -0.21302354123998299 0 -0.068004898086566568 -0.19922083108636701 0 -0.062436358746202722 -0.22323417677429711 0 -0.073701087032857882 -0.21302354123998299 0 -0.063950464759264025 -0.21364051976778239 0 -0.073701087032857882 -0.21302354123998299 0 -0.063950464759264025 -0.21364051976778239 0 -0.065135265894499916 -0.20782291161326619 0 -0.061041302753851868 -0.20351171890491929 0 -0.065135265894499916 -0.20782291161326619 0 -0.068004898086566568 -0.19922083108636701 0 -0.073701087032857882 -0.21302354123998299 0 -0.065135265894499916 -0.20782291161326619 0 -0.068004898086566568 -0.19922083108636701 0 -0.058456762703683211 -0.20958270788219879 0 -0.063950464759264025 -0.21364051976778239 0 -0.065135265894499916 -0.20782291161326619 0 -0.068004898086566568 -0.19922083108636701 0 -0.077631600445423415 -0.1879465567712614 0 -0.066160925849264238 -0.18553731315601019 0 -0.077631600445423415 -0.1879465567712614 0 -0.09092411477996018 -0.1994656476837951 0 -0.088643579789712823 -0.17926346524829009 0 -0.087293528184044511 -0.2060100627129747 0 -0.068004898086566568 -0.19922083108636701 0 -0.09092411477996018 -0.1994656476837951 0 -0.068004898086566568 -0.19922083108636701 0 -0.09092411477996018 -0.1994656476837951 0 -0.068004898086566568 -0.19922083108636701 0 -0.077631600445423415 -0.1879465567712614 0 -0.09092411477996018 -0.1994656476837951 0 -0.09092411477996018 -0.1994656476837951 0 -0.11384333147335381 -0.1997104642812231 0 -0.104766926752105 -0.20475589040648029 0 -0.09092411477996018 -0.1994656476837951 0 -0.11384333147335381 -0.1997104642812231 0 -0.09092411477996018 -0.1994656476837951 0 -0.1025126688863308 -0.18751642424386461 0 -0.088643579789712823 -0.17926346524829009 0 -0.09092411477996018 -0.1994656476837951 0 -0.1025126688863308 -0.18751642424386461 0 -0.11384333147335381 -0.1997104642812231 0 -0.11384333147335381 -0.1997104642812231 0 -0.122717614015785 -0.2052438120816705 0 -0.13676254816674741 -0.19995528087865119 0 -0.1025126688863308 -0.18751642424386461 0 -0.1139379094659559 -0.18781899965913529 0 -0.11384333147335381 -0.1997104642812231 0 -0.1139379094659559 -0.18781899965913529 0 -0.11384333147335381 -0.1997104642812231 0 -0.1256059747293754 -0.1874014143750182 0 -0.11384333147335381 -0.1997104642812231 0 -0.11424527742169439 -0.21137490832622999 0 -0.104766926752105 -0.20475589040648029 0 -0.11384333147335381 -0.1997104642812231 0 -0.122717614015785 -0.2052438120816705 0 -0.11424527742169439 -0.21137490832622999 0 -0.112975005268332 -0.21783707996231791 0 -0.12912367027421809 -0.21351020620107999 0 -0.112975005268332 -0.21783707996231791 0 -0.11424527742169439 -0.21137490832622999 0 -0.12912367027421809 -0.21351020620107999 0 -0.122717614015785 -0.2052438120816705 0 -0.11424527742169439 -0.21137490832622999 0 -0.12912367027421809 -0.21351020620107999 0 -0.090190116536239567 -0.21688123074706361 0 -0.11424527742169439 -0.21137490832622999 0 -0.096826340262445881 -0.2221639537235556 0 -0.090190116536239567 -0.21688123074706361 0 -0.11424527742169439 -0.21137490832622999 0 -0.112975005268332 -0.21783707996231791 0 -0.11424527742169439 -0.21137490832622999 0 -0.096826340262445881 -0.2221639537235556 0 -0.090190116536239567 -0.21688123074706361 0 -0.11424527742169439 -0.21137490832622999 0 -0.1000549833334118 -0.20847254133467311 0 -0.11424527742169439 -0.21137490832622999 0 -0.104766926752105 -0.20475589040648029 0 -0.1000549833334118 -0.20847254133467311 0 -0.09092411477996018 -0.1994656476837951 0 -0.104766926752105 -0.20475589040648029 0 -0.1000549833334118 -0.20847254133467311 0 -0.112975005268332 -0.21783707996231791 0 -0.096826340262445881 -0.2221639537235556 0 -0.1139262386138251 -0.2357762172100609 0 -0.112975005268332 -0.21783707996231791 0 -0.096826340262445881 -0.2221639537235556 0 -0.096826340262445881 -0.2221639537235556 0 -0.1139262386138251 -0.2357762172100609 0 -0.099793410054498988 -0.2375407338321972 0 -0.096826340262445881 -0.2221639537235556 0 -0.1139262386138251 -0.2357762172100609 0 -0.088781325171095202 -0.23371234154356441 0 -0.096826340262445881 -0.2221639537235556 0 -0.099793410054498988 -0.2375407338321972 0 -0.112975005268332 -0.21783707996231791 0 -0.12633438828145929 -0.2274892403869134 0 -0.12912367027421809 -0.21351020620107999 0 -0.112975005268332 -0.21783707996231791 0 -0.1139262386138251 -0.2357762172100609 0 -0.12633438828145929 -0.2274892403869134 0 -0.1139262386138251 -0.2357762172100609 0 -0.12573657098377419 -0.2375407478734585 0 -0.12633438828145929 -0.2274892403869134 0 -0.12401638012337329 -0.25082205957363191 0 -0.1139262386138251 -0.2357762172100609 0 -0.1061516596888413 -0.24979484311864231 0 -0.12401638012337329 -0.25082205957363191 0 -0.1139262386138251 -0.2357762172100609 0 -0.12573657098377419 -0.2375407478734585 0 -0.1139262386138251 -0.2357762172100609 0 -0.1061516596888413 -0.24979484311864231 0 -0.099793410054498988 -0.2375407338321972 0 -0.091897538062651885 -0.24508293332865611 0 -0.1061516596888413 -0.24979484311864231 0 -0.099793410054498988 -0.2375407338321972 0 -0.081428196902616351 -0.14329200705851899 0 -0.091985420615060265 -0.15708139118220019 0 -0.1069612954555965 -0.15596818121873329 0 -0.081428196902616351 -0.14329200705851899 0 -0.080881548161040984 -0.16416299454332811 0 -0.091985420615060265 -0.15708139118220019 0 -0.081428196902616351 -0.14329200705851899 0 -0.091985420615060265 -0.15708139118220019 0 -0.083660905721910955 -0.1244068478256465 0 -0.081428196902616351 -0.14329200705851899 0 -0.1002786375683075 -0.1325069584026233 0 -0.061702051974756547 -0.1466646217077453 0 -0.058019657192402471 -0.1316705923842561 0 -0.081428196902616351 -0.14329200705851899 0 -0.065492762033570073 -0.1224778386206422 0 -0.083660905721910955 -0.1244068478256465 0 -0.081428196902616351 -0.14329200705851899 0 -0.065492762033570073 -0.1224778386206422 0 -0.058019657192402471 -0.1316705923842561 0 -0.081428196902616351 -0.14329200705851899 0 -0.065492762033570073 -0.1224778386206422 0 -0.081428196902616351 -0.14329200705851899 0 -0.058019657192402471 -0.1316705923842561 0 -0.081428196902616351 -0.14329200705851899 0 -0.061702051974756547 -0.1466646217077453 0 -0.081428196902616351 -0.14329200705851899 0 -0.069838661508507621 -0.15685599743636949 0 -0.081428196902616351 -0.14329200705851899 0 -0.069838661508507621 -0.15685599743636949 0 -0.080881548161040984 -0.16416299454332811 0 -0.054419395141026533 -0.15953155070667521 0 -0.069838661508507621 -0.15685599743636949 0 -0.06723840093829328 -0.16751220363180769 0 -0.06723840093829328 -0.16751220363180769 0 -0.073642375733079093 -0.17663370484288521 0 -0.080881548161040984 -0.16416299454332811 0 -0.069838661508507621 -0.15685599743636949 0 -0.06723840093829328 -0.16751220363180769 0 -0.080881548161040984 -0.16416299454332811 0 -0.05856648734625669 -0.1731397226299172 0 -0.06723840093829328 -0.16751220363180769 0 -0.073642375733079093 -0.17663370484288521 0 -0.05856648734625669 -0.1731397226299172 0 -0.066160925849264238 -0.18553731315601019 0 -0.073642375733079093 -0.17663370484288521 0 -0.077631600445423415 -0.1879465567712614 0 -0.066160925849264238 -0.18553731315601019 0 -0.073642375733079093 -0.17663370484288521 0 -0.077631600445423415 -0.1879465567712614 0 -0.073642375733079093 -0.17663370484288521 0 -0.088643579789712823 -0.17926346524829009 0 -0.073642375733079093 -0.17663370484288521 0 -0.088643579789712823 -0.17926346524829009 0 -0.080881548161040984 -0.16416299454332811 0 -0.088643579789712823 -0.17926346524829009 0 -0.080881548161040984 -0.16416299454332811 0 -0.09180116428055797 -0.16810702053800999 0 -0.080881548161040984 -0.16416299454332811 0 -0.09180116428055797 -0.16810702053800999 0 -0.091985420615060265 -0.15708139118220019 0 -0.10254264432750471 -0.17087077530588099 0 -0.1137896627747635 -0.1766476957364351 0 -0.1069612954555965 -0.15596818121873329 0 -0.091985420615060265 -0.15708139118220019 0 -0.10254264432750471 -0.17087077530588099 0 -0.1069612954555965 -0.15596818121873329 0 -0.091985420615060265 -0.15708139118220019 0 -0.10254264432750471 -0.17087077530588099 0 -0.09180116428055797 -0.16810702053800999 0 -0.091985420615060265 -0.15708139118220019 0 -0.10254264432750471 -0.17087077530588099 0 -0.1025126688863308 -0.18751642424386461 0 -0.088643579789712823 -0.17926346524829009 0 -0.10254264432750471 -0.17087077530588099 0 -0.1025126688863308 -0.18751642424386461 0 -0.10254264432750471 -0.17087077530588099 0 -0.1137896627747635 -0.1766476957364351 0 -0.088643579789712823 -0.17926346524829009 0 -0.09180116428055797 -0.16810702053800999 0 -0.10254264432750471 -0.17087077530588099 0 -0.1137896627747635 -0.1766476957364351 0 -0.1324943940085764 -0.16864435537894831 0 -0.1256059747293754 -0.1874014143750182 0 -0.1025126688863308 -0.18751642424386461 0 -0.1139379094659559 -0.18781899965913529 0 -0.1137896627747635 -0.1766476957364351 0 -0.1139379094659559 -0.18781899965913529 0 -0.1137896627747635 -0.1766476957364351 0 -0.1256059747293754 -0.1874014143750182 0 -0.1069612954555965 -0.15596818121873329 0 -0.1324943940085764 -0.16864435537894831 0 -0.1137896627747635 -0.1766476957364351 0 -0.1069612954555965 -0.15596818121873329 0 -0.1324943940085764 -0.16864435537894831 0 -0.116686768617799 -0.14207523556712889 0 -0.1069612954555965 -0.15596818121873329 0 -0.1324943940085764 -0.16864435537894831 0 -0.116686768617799 -0.14207523556712889 0 -0.1069612954555965 -0.15596818121873329 0 -0.1002786375683075 -0.1325069584026233 0 -0.081428196902616351 -0.14329200705851899 0 -0.1069612954555965 -0.15596818121873329 0 -0.081428196902616351 -0.14329200705851899 0 -0.1069612954555965 -0.15596818121873329 0 -0.1002786375683075 -0.1325069584026233 0 -0.1138766747393273 -0.11428056354639179 0 -0.116686768617799 -0.14207523556712889 0 -0.1002786375683075 -0.1325069584026233 0 -0.1138766747393273 -0.11428056354639179 0 -0.116686768617799 -0.14207523556712889 0 -0.133236203963843 -0.1380077330530273 0 -0.133236203963843 -0.1380077330530273 0 -0.15799897819137321 -0.1366118501663226 0 -0.14499946091529561 -0.11531469857071509 0 -0.133236203963843 -0.1380077330530273 0 -0.1487968282537584 -0.15537492798691571 0 -0.15799897819137321 -0.1366118501663226 0 -0.133236203963843 -0.1380077330530273 0 -0.1487968282537584 -0.15537492798691571 0 -0.1324943940085764 -0.16864435537894831 0 -0.116686768617799 -0.14207523556712889 0 -0.133236203963843 -0.1380077330530273 0 -0.1324943940085764 -0.16864435537894831 0 -0.1324943940085764 -0.16864435537894831 0 -0.1256059747293754 -0.1874014143750182 0 -0.14278530096317921 -0.18943965836811241 0 -0.1324943940085764 -0.16864435537894831 0 -0.15802749256155629 -0.18132052953916339 0 -0.1324943940085764 -0.16864435537894831 0 -0.15802749256155629 -0.18132052953916339 0 -0.14278530096317921 -0.18943965836811241 0 -0.1487968282537584 -0.15537492798691571 0 -0.1324943940085764 -0.16864435537894831 0 -0.15802749256155629 -0.18132052953916339 0 -0.16886419317598439 -0.15832872013232621 0 -0.15802749256155629 -0.18132052953916339 0 -0.18367356924672371 -0.1758208541924465 0 -0.1487968282537584 -0.15537492798691571 0 -0.16886419317598439 -0.15832872013232621 0 -0.15802749256155629 -0.18132052953916339 0 -0.15802749256155629 -0.18132052953916339 0 -0.18367356924672371 -0.1758208541924465 0 -0.18356059111453629 -0.19399670369937841 0 -0.16886419317598439 -0.15832872013232621 0 -0.18367356924672371 -0.1758208541924465 0 -0.1913190124713314 -0.16058093951252919 0 -0.16886419317598439 -0.15832872013232621 0 -0.17891043578420759 -0.13733831330012591 0 -0.1913190124713314 -0.16058093951252919 0 -0.17891043578420759 -0.13733831330012591 0 -0.15799897819137321 -0.1366118501663226 0 -0.16648518530681911 -0.12039016258129399 0 -0.1487968282537584 -0.15537492798691571 0 -0.16886419317598439 -0.15832872013232621 0 -0.15799897819137321 -0.1366118501663226 0 -0.16886419317598439 -0.15832872013232621 0 -0.17891043578420759 -0.13733831330012591 0 -0.15799897819137321 -0.1366118501663226 0 -0.14153719722658659 -0.25542741473343161 0 -0.1489882367964219 -0.24305096927696951 0 -0.13866927691643921 -0.23607547432322801 0 -0.15326062808292121 -0.25865132635456722 0 -0.1489882367964219 -0.24305096927696951 0 -0.16211613862911001 -0.2425232975654997 0 -0.1489882367964219 -0.24305096927696951 0 -0.14935794312705239 -0.22257733340812119 0 -0.16211613862911001 -0.2425232975654997 0 -0.14153719722658659 -0.25542741473343161 0 -0.13866927691643921 -0.23607547432322801 0 -0.14153719722658659 -0.25542741473343161 0 -0.12401638012337329 -0.25082205957363191 0 -0.13866927691643921 -0.23607547432322801 0 -0.12401638012337329 -0.25082205957363191 0 -0.12573657098377419 -0.2375407478734585 0 -0.13866927691643921 -0.23607547432322801 0 -0.13866927691643921 -0.23607547432322801 0 -0.12633438828145929 -0.2274892403869134 0 -0.1366878705214595 -0.22306762807223801 0 -0.12573657098377419 -0.2375407478734585 0 -0.13866927691643921 -0.23607547432322801 0 -0.12633438828145929 -0.2274892403869134 0 -0.12633438828145929 -0.2274892403869134 0 -0.1366878705214595 -0.22306762807223801 0 -0.12912367027421809 -0.21351020620107999 0 -0.1366878705214595 -0.22306762807223801 0 -0.14935794312705239 -0.22257733340812119 0 -0.1365856457215206 -0.2136367315803791 0 -0.14935794312705239 -0.22257733340812119 0 -0.16211613862911001 -0.2425232975654997 0 -0.1489882367964219 -0.24305096927696951 0 -0.13866927691643921 -0.23607547432322801 0 -0.14935794312705239 -0.22257733340812119 0 -0.13866927691643921 -0.23607547432322801 0 -0.1366878705214595 -0.22306762807223801 0 -0.14935794312705239 -0.22257733340812119 0 -0.14935794312705239 -0.22257733340812119 0 -0.13659974762499449 -0.2026313692507429 0 -0.14935794312705239 -0.22257733340812119 0 -0.1365856457215206 -0.2136367315803791 0 -0.13659974762499449 -0.2026313692507429 0 -0.14935794312705239 -0.22257733340812119 0 -0.1472291365140799 -0.20193501473360201 0 -0.16239797299804709 -0.2100746211210488 0 -0.14935794312705239 -0.22257733340812119 0 -0.13659974762499449 -0.2026313692507429 0 -0.1472291365140799 -0.20193501473360201 0 -0.1472291365140799 -0.20193501473360201 0 -0.15659225979873989 -0.1973813553032914 0 -0.16239797299804709 -0.2100746211210488 0 -0.1366878705214595 -0.22306762807223801 0 -0.1365856457215206 -0.2136367315803791 0 -0.12912367027421809 -0.21351020620107999 0 -0.1365856457215206 -0.2136367315803791 0 -0.12912367027421809 -0.21351020620107999 0 -0.13092191736628259 -0.20625289557124291 0 -0.122717614015785 -0.2052438120816705 0 -0.12912367027421809 -0.21351020620107999 0 -0.13092191736628259 -0.20625289557124291 0 -0.122717614015785 -0.2052438120816705 0 -0.13092191736628259 -0.20625289557124291 0 -0.13676254816674741 -0.19995528087865119 0 -0.1365856457215206 -0.2136367315803791 0 -0.13092191736628259 -0.20625289557124291 0 -0.13659974762499449 -0.2026313692507429 0 -0.11384333147335381 -0.1997104642812231 0 -0.1256059747293754 -0.1874014143750182 0 -0.13676254816674741 -0.19995528087865119 0 -0.13676254816674741 -0.19995528087865119 0 -0.13659974762499449 -0.2026313692507429 0 -0.1472291365140799 -0.20193501473360201 0 -0.1256059747293754 -0.1874014143750182 0 -0.13676254816674741 -0.19995528087865119 0 -0.14278530096317921 -0.18943965836811241 0 -0.11384333147335381 -0.1997104642812231 0 -0.13676254816674741 -0.19995528087865119 0 -0.13092191736628259 -0.20625289557124291 0 -0.13676254816674741 -0.19995528087865119 0 -0.13659974762499449 -0.2026313692507429 0 -0.15802749256155629 -0.18132052953916339 0 -0.14278530096317921 -0.18943965836811241 0 -0.15659225979873989 -0.1973813553032914 0 -0.13676254816674741 -0.19995528087865119 0 -0.14278530096317921 -0.18943965836811241 0 -0.1472291365140799 -0.20193501473360201 0 -0.14278530096317921 -0.18943965836811241 0 -0.1472291365140799 -0.20193501473360201 0 -0.15659225979873989 -0.1973813553032914 0 -0.15802749256155629 -0.18132052953916339 0 -0.15659225979873989 -0.1973813553032914 0 -0.1679563497714309 -0.19883528162946831 0 -0.15802749256155629 -0.18132052953916339 0 -0.1679563497714309 -0.19883528162946831 0 -0.18356059111453629 -0.19399670369937841 0 -0.15802749256155629 -0.18132052953916339 0 -0.18356059111453629 -0.19399670369937841 0 -0.15659225979873989 -0.1973813553032914 0 -0.1679563497714309 -0.19883528162946831 0 -0.16239797299804709 -0.2100746211210488 0 -0.1679563497714309 -0.19883528162946831 0 -0.18356059111453629 -0.19399670369937841 0 -0.17920343238427491 -0.21140319848445949 0 -0.18356059111453629 -0.19399670369937841 0 -0.17920343238427491 -0.21140319848445949 0 -0.19389039806632591 -0.21223940358998991 0 -0.1679563497714309 -0.19883528162946831 0 -0.17920343238427491 -0.21140319848445949 0 -0.16239797299804709 -0.2100746211210488 0 -0.17920343238427491 -0.21140319848445949 0 -0.16239797299804709 -0.2100746211210488 0 -0.17065978550669211 -0.22696324802497941 0 -0.14935794312705239 -0.22257733340812119 0 -0.17065978550669211 -0.22696324802497941 0 -0.16211613862911001 -0.2425232975654997 0 -0.14935794312705239 -0.22257733340812119 0 -0.16239797299804709 -0.2100746211210488 0 -0.17065978550669211 -0.22696324802497941 0 -0.17065978550669211 -0.22696324802497941 0 -0.18212515061485379 -0.24320666055055981 0 -0.19022768202441731 -0.22610017292339771 0 -0.17920343238427491 -0.21140319848445949 0 -0.17065978550669211 -0.22696324802497941 0 -0.17920343238427491 -0.21140319848445949 0 -0.17065978550669211 -0.22696324802497941 0 -0.19022768202441731 -0.22610017292339771 0 -0.17443605785634689 -0.26178406742034488 0 -0.18212515061485379 -0.24320666055055981 0 -0.16211613862911001 -0.2425232975654997 0 -0.17065978550669211 -0.22696324802497941 0 -0.18212515061485379 -0.24320666055055981 0 -0.16211613862911001 -0.2425232975654997 0 -0.17065978550669211 -0.22696324802497941 0 -0.16211613862911001 -0.2425232975654997 0 -0.18212515061485379 -0.24320666055055981 0 -0.20730871517481039 -0.23946610943513549 0 -0.19022768202441731 -0.22610017292339771 0 -0.18873449468763381 -0.2613232209441117 0 -0.18212515061485379 -0.24320666055055981 0 -0.20730871517481039 -0.23946610943513549 0 -0.20730871517481039 -0.23946610943513549 0 -0.19022768202441731 -0.22610017292339771 0 -0.20528068411901129 -0.22041751234685519 0 -0.19022768202441731 -0.22610017292339771 0 -0.20528068411901129 -0.22041751234685519 0 -0.19389039806632591 -0.21223940358998991 0 -0.20730871517481039 -0.23946610943513549 0 -0.22588293566198689 -0.21760899792615951 0 -0.20730871517481039 -0.23946610943513549 0 -0.20528068411901129 -0.22041751234685519 0 -0.22588293566198689 -0.21760899792615951 0 -0.20528068411901129 -0.22041751234685519 0 -0.20909368966751621 -0.20667287785959351 0 -0.22588293566198689 -0.21760899792615951 0 -0.18356059111453629 -0.19399670369937841 0 -0.20909368966751621 -0.20667287785959351 0 -0.19389039806632591 -0.21223940358998991 0 -0.20528068411901129 -0.22041751234685519 0 -0.20909368966751621 -0.20667287785959351 0 -0.19389039806632591 -0.21223940358998991 0 -0.17920343238427491 -0.21140319848445949 0 -0.19022768202441731 -0.22610017292339771 0 -0.19389039806632591 -0.21223940358998991 0 -0.18356059111453629 -0.19399670369937841 0 -0.20909368966751621 -0.20667287785959351 0 -0.19706552347646819 -0.18655285549912229 0 -0.18356059111453629 -0.19399670369937841 0 -0.20909368966751621 -0.20667287785959351 0 -0.20909368966751621 -0.20667287785959351 0 -0.21182878273281261 -0.1910070950816746 0 -0.19706552347646819 -0.18655285549912229 0 -0.20909368966751621 -0.20667287785959351 0 -0.21182878273281261 -0.1910070950816746 0 -0.2264676018914924 -0.1987135886687727 0 -0.21182878273281261 -0.1910070950816746 0 -0.2264676018914924 -0.1987135886687727 0 -0.22764602783316451 -0.1835552859548705 0 -0.2264676018914924 -0.1987135886687727 0 -0.23480345023091939 -0.1895428977342706 0 -0.22764602783316451 -0.1835552859548705 0 -0.24445715614916341 -0.19575188641718341 0 -0.24476685473631651 -0.21405980277710229 0 -0.25226449774507809 -0.1880579162049773 0 -0.23480345023091939 -0.1895428977342706 0 -0.24445715614916341 -0.19575188641718341 0 -0.2425852920552439 -0.1817601080430922 0 -0.24476685473631651 -0.21405980277710229 0 -0.25226449774507809 -0.1880579162049773 0 -0.2264676018914924 -0.1987135886687727 0 -0.23480345023091939 -0.1895428977342706 0 -0.24445715614916341 -0.19575188641718341 0 -0.24445715614916341 -0.19575188641718341 0 -0.2425852920552439 -0.1817601080430922 0 -0.25226449774507809 -0.1880579162049773 0 -0.24445715614916341 -0.19575188641718341 0 -0.22588293566198689 -0.21760899792615951 0 -0.24445715614916341 -0.19575188641718341 0 -0.24476685473631651 -0.21405980277710229 0 -0.22588293566198689 -0.21760899792615951 0 -0.20909368966751621 -0.20667287785959351 0 -0.2264676018914924 -0.1987135886687727 0 -0.22588293566198689 -0.21760899792615951 0 -0.2264676018914924 -0.1987135886687727 0 -0.24445715614916341 -0.19575188641718341 0 -0.22588293566198689 -0.21760899792615951 0 -0.20730871517481039 -0.23946610943513549 0 -0.22588293566198689 -0.21760899792615951 0 -0.23726921172755491 -0.24006168934922731 0 -0.24476685473631651 -0.21405980277710229 0 -0.23726921172755491 -0.24006168934922731 0 -0.24476685473631651 -0.21405980277710229 0 -0.23726921172755491 -0.24006168934922731 0 -0.25681069471921369 -0.22882700100864781 0 -0.24476685473631651 -0.21405980277710229 0 -0.22588293566198689 -0.21760899792615951 0 -0.23726921172755491 -0.24006168934922731 0 -0.24686496979937381 -0.25551888127341332 0 -0.23726921172755491 -0.24006168934922731 0 -0.25723339985396632 -0.24528001249266571 0 -0.22977156871879331 -0.26606357592135232 0 -0.20730871517481039 -0.23946610943513549 0 -0.23726921172755491 -0.24006168934922731 0 -0.20157373147680191 -0.13565225155161689 0 -0.20928579291195509 -0.15787443899094231 0 -0.2203349118568971 -0.14546826414417771 0 -0.2203349118568971 -0.14546826414417771 0 -0.21696483175745601 -0.1203183701713678 0 -0.20157373147680191 -0.13565225155161689 0 -0.2203349118568971 -0.14546826414417771 0 -0.21696483175745601 -0.1203183701713678 0 -0.17891043578420759 -0.13733831330012591 0 -0.20157373147680191 -0.13565225155161689 0 -0.18722151408293591 -0.1124659558566667 0 -0.17891043578420759 -0.13733831330012591 0 -0.20157373147680191 -0.13565225155161689 0 -0.1913190124713314 -0.16058093951252919 0 -0.20157373147680191 -0.13565225155161689 0 -0.1913190124713314 -0.16058093951252919 0 -0.20928579291195509 -0.15787443899094231 0 -0.18367356924672371 -0.1758208541924465 0 -0.1913190124713314 -0.16058093951252919 0 -0.20320460268046589 -0.17414537677215949 0 -0.1913190124713314 -0.16058093951252919 0 -0.20320460268046589 -0.17414537677215949 0 -0.20928579291195509 -0.15787443899094231 0 -0.18367356924672371 -0.1758208541924465 0 -0.19706552347646819 -0.18655285549912229 0 -0.20320460268046589 -0.17414537677215949 0 -0.18367356924672371 -0.1758208541924465 0 -0.18356059111453629 -0.19399670369937841 0 -0.19706552347646819 -0.18655285549912229 0 -0.21182878273281261 -0.1910070950816746 0 -0.20320460268046589 -0.17414537677215949 0 -0.22403225455350151 -0.17081595476541311 0 -0.21182878273281261 -0.1910070950816746 0 -0.22403225455350151 -0.17081595476541311 0 -0.21182878273281261 -0.1910070950816746 0 -0.19706552347646819 -0.18655285549912229 0 -0.20320460268046589 -0.17414537677215949 0 -0.20320460268046589 -0.17414537677215949 0 -0.20928579291195509 -0.15787443899094231 0 -0.22403225455350151 -0.17081595476541311 0 -0.20928579291195509 -0.15787443899094231 0 -0.22403225455350151 -0.17081595476541311 0 -0.2203349118568971 -0.14546826414417771 0 -0.22403225455350151 -0.17081595476541311 0 -0.2203349118568971 -0.14546826414417771 0 -0.22403225455350151 -0.17081595476541311 0 -0.22696908310910971 -0.16595685250972891 0 -0.2203349118568971 -0.14546826414417771 0 -0.22403225455350151 -0.17081595476541311 0 -0.22696908310910971 -0.16595685250972891 0 -0.22696908310910971 -0.16595685250972891 0 -0.23463798993904261 -0.1746127836876141 0 -0.23948677963458909 -0.16033454009397011 0 -0.21182878273281261 -0.1910070950816746 0 -0.22403225455350151 -0.17081595476541311 0 -0.22764602783316451 -0.1835552859548705 0 -0.22696908310910971 -0.16595685250972891 0 -0.22764602783316451 -0.1835552859548705 0 -0.23463798993904261 -0.1746127836876141 0 -0.22403225455350151 -0.17081595476541311 0 -0.22696908310910971 -0.16595685250972891 0 -0.22764602783316451 -0.1835552859548705 0 -0.22764602783316451 -0.1835552859548705 0 -0.23492316891185369 -0.18226737641882451 0 -0.23463798993904261 -0.1746127836876141 0 -0.23480345023091939 -0.1895428977342706 0 -0.22764602783316451 -0.1835552859548705 0 -0.23492316891185369 -0.18226737641882451 0 -0.23480345023091939 -0.1895428977342706 0 -0.23492316891185369 -0.18226737641882451 0 -0.2425852920552439 -0.1817601080430922 0 -0.23492316891185369 -0.18226737641882451 0 -0.23463798993904261 -0.1746127836876141 0 -0.2425852920552439 -0.1817601080430922 0 -0.23463798993904261 -0.1746127836876141 0 -0.2425852920552439 -0.1817601080430922 0 -0.24422020208295089 -0.167514444885139 0 -0.2425852920552439 -0.1817601080430922 0 -0.24422020208295089 -0.167514444885139 0 -0.25976214075384019 -0.16205602963285251 0 -0.23463798993904261 -0.1746127836876141 0 -0.23948677963458909 -0.16033454009397011 0 -0.24422020208295089 -0.167514444885139 0 -0.23948677963458909 -0.16033454009397011 0 -0.24422020208295089 -0.167514444885139 0 -0.24998907486214761 -0.1541215804146413 0 -0.23948677963458909 -0.16033454009397011 0 -0.24210938348540681 -0.14090660993778309 0 -0.24998907486214761 -0.1541215804146413 0 -0.22696908310910971 -0.16595685250972891 0 -0.23948677963458909 -0.16033454009397011 0 -0.24210938348540681 -0.14090660993778309 0 -0.22696908310910971 -0.16595685250972891 0 -0.24210938348540681 -0.14090660993778309 0 -0.22696908310910971 -0.16595685250972891 0 -0.24210938348540681 -0.14090660993778309 0 -0.2203349118568971 -0.14546826414417771 0 -0.2203349118568971 -0.14546826414417771 0 -0.23779563392209979 -0.1211988910636997 0 -0.21696483175745601 -0.1203183701713678 0 -0.24210938348540681 -0.14090660993778309 0 -0.2203349118568971 -0.14546826414417771 0 -0.23779563392209979 -0.1211988910636997 0 -0.24210938348540681 -0.14090660993778309 0 -0.25724968386170383 -0.1158563673658374 0 -0.24210938348540681 -0.14090660993778309 0 -0.23779563392209979 -0.1211988910636997 0 -0.25724968386170383 -0.1158563673658374 0 -0.23779563392209979 -0.1211988910636997 0 -0.24831251401145021 -0.1068594192199797 0 -0.25724968386170383 -0.1158563673658374 0 -0.23779563392209979 -0.1211988910636997 0 -0.24831251401145021 -0.1068594192199797 0 -0.23704596178553969 -0.1010385187902894 0 -0.24831251401145021 -0.1068594192199797 0 -0.24864405758726629 -0.09478409224515072 0 -0.23704596178553969 -0.1010385187902894 0 -0.23704596178553969 -0.1010385187902894 0 -0.21696483175745601 -0.1203183701713678 0 -0.21359475165801489 -0.095168476198558033 0 -0.23779563392209979 -0.1211988910636997 0 -0.23704596178553969 -0.1010385187902894 0 -0.21696483175745601 -0.1203183701713678 0 -0.24012555059909241 -0.065174416141362018 0 -0.23191623607876499 -0.072306636468660285 0 -0.2324619981995274 -0.061858816087879027 0 -0.24012555059909241 -0.065174416141362018 0 -0.24996424734416089 -0.063901621117924232 0 -0.24432075154354529 -0.073863429162164665 0 -0.24432075154354529 -0.073863429162164665 0 -0.2389128513443711 -0.084793401256800044 0 -0.23191623607876499 -0.072306636468660285 0 -0.24012555059909241 -0.065174416141362018 0 -0.24432075154354529 -0.073863429162164665 0 -0.23191623607876499 -0.072306636468660285 0 -0.24864405758726629 -0.09478409224515072 0 -0.23704596178553969 -0.1010385187902894 0 -0.2389128513443711 -0.084793401256800044 0 -0.24432075154354529 -0.073863429162164665 0 -0.2389128513443711 -0.084793401256800044 0 -0.25203833747956028 -0.084054520604373878 0 -0.24864405758726629 -0.09478409224515072 0 -0.2389128513443711 -0.084793401256800044 0 -0.25203833747956028 -0.084054520604373878 0 -0.23704596178553969 -0.1010385187902894 0 -0.22003719568652261 -0.082098806954281664 0 -0.21359475165801489 -0.095168476198558033 0 -0.23704596178553969 -0.1010385187902894 0 -0.2389128513443711 -0.084793401256800044 0 -0.22003719568652261 -0.082098806954281664 0 -0.2389128513443711 -0.084793401256800044 0 -0.22003719568652261 -0.082098806954281664 0 -0.23191623607876499 -0.072306636468660285 0 -0.23704596178553969 -0.1010385187902894 0 -0.22003719568652261 -0.082098806954281664 0 -0.22003719568652261 -0.082098806954281664 0 -0.23191623607876499 -0.072306636468660285 0 -0.22112550982785681 -0.064153184602810026 0 -0.23191623607876499 -0.072306636468660285 0 -0.22112550982785681 -0.064153184602810026 0 -0.2324619981995274 -0.061858816087879027 0 -0.22003719568652261 -0.082098806954281664 0 -0.22112550982785681 -0.064153184602810026 0 -0.20302842958750561 -0.063159095118273917 0 -0.22003719568652261 -0.082098806954281664 0 -0.20588340962973289 -0.082618720104636389 0 -0.20302842958750561 -0.063159095118273917 0 -0.22003719568652261 -0.082098806954281664 0 -0.20302842958750561 -0.063159095118273917 0 -0.20588340962973289 -0.082618720104636389 0 -0.1912838750517572 -0.087856193354240622 0 -0.21359475165801489 -0.095168476198558033 0 -0.22003719568652261 -0.082098806954281664 0 -0.20588340962973289 -0.082618720104636389 0 -0.21359475165801489 -0.095168476198558033 0 -0.20302842958750561 -0.063159095118273917 0 -0.17761694359701641 -0.068551766922754623 0 -0.18641009937808439 -0.057677134495881029 0 -0.1912838750517572 -0.087856193354240622 0 -0.20302842958750561 -0.063159095118273917 0 -0.17761694359701641 -0.068551766922754623 0 -0.20588340962973289 -0.082618720104636389 0 -0.1912838750517572 -0.087856193354240622 0 -0.20302842958750561 -0.063159095118273917 0 -0.20157373147680191 -0.13565225155161689 0 -0.2044449784500498 -0.10940000624144421 0 -0.21696483175745601 -0.1203183701713678 0 -0.21696483175745601 -0.1203183701713678 0 -0.21359475165801489 -0.095168476198558033 0 -0.2044449784500498 -0.10940000624144421 0 -0.21696483175745601 -0.1203183701713678 0 -0.21359475165801489 -0.095168476198558033 0 -0.1912838750517572 -0.087856193354240622 0 -0.2044449784500498 -0.10940000624144421 0 -0.21359475165801489 -0.095168476198558033 0 -0.1912838750517572 -0.087856193354240622 0 -0.2044449784500498 -0.10940000624144421 0 -0.18722151408293591 -0.1124659558566667 0 -0.20157373147680191 -0.13565225155161689 0 -0.2044449784500498 -0.10940000624144421 0 -0.18722151408293591 -0.1124659558566667 0 -0.17891043578420759 -0.13733831330012591 0 -0.18722151408293591 -0.1124659558566667 0 -0.16648518530681911 -0.12039016258129399 0 -0.16648518530681911 -0.12039016258129399 0 -0.16472222092525171 -0.095240131559215097 0 -0.14499946091529561 -0.11531469857071509 0 -0.15799897819137321 -0.1366118501663226 0 -0.16648518530681911 -0.12039016258129399 0 -0.14499946091529561 -0.11531469857071509 0 -0.18722151408293591 -0.1124659558566667 0 -0.16648518530681911 -0.12039016258129399 0 -0.16472222092525171 -0.095240131559215097 0 -0.1912838750517572 -0.087856193354240622 0 -0.18722151408293591 -0.1124659558566667 0 -0.16472222092525171 -0.095240131559215097 0 -0.1912838750517572 -0.087856193354240622 0 -0.16472222092525171 -0.095240131559215097 0 -0.17761694359701641 -0.068551766922754623 0 -0.17761694359701641 -0.068551766922754623 0 -0.14982813618238969 -0.074908566728045786 0 -0.16270402140471449 -0.048195562070063161 0 -0.16472222092525171 -0.095240131559215097 0 -0.14982813618238969 -0.074908566728045786 0 -0.16472222092525171 -0.095240131559215097 0 -0.17761694359701641 -0.068551766922754623 0 -0.14982813618238969 -0.074908566728045786 0 -0.16472222092525171 -0.095240131559215097 0 -0.14982813618238969 -0.074908566728045786 0 -0.1312908544755215 -0.092470264183890094 0 -0.14982813618238969 -0.074908566728045786 0 -0.13493405143952761 -0.054577001896876483 0 -0.14982813618238969 -0.074908566728045786 0 -0.12669216417476731 -0.070885596599344153 0 -0.13493405143952761 -0.054577001896876483 0 -0.14982813618238969 -0.074908566728045786 0 -0.12669216417476731 -0.070885596599344153 0 -0.1312908544755215 -0.092470264183890094 0 -0.16472222092525171 -0.095240131559215097 0 -0.1312908544755215 -0.092470264183890094 0 -0.14499946091529561 -0.11531469857071509 0 -0.1138766747393273 -0.11428056354639179 0 -0.1312908544755215 -0.092470264183890094 0 -0.14499946091529561 -0.11531469857071509 0 -0.1138766747393273 -0.11428056354639179 0 -0.133236203963843 -0.1380077330530273 0 -0.14499946091529561 -0.11531469857071509 0 -0.15437001484480981 -0.012401361562457349 0 -0.13050725110392569 -0.01787843097546897 0 -0.1440761767559979 -0.03252465460835692 0 -0.15437001484480981 -0.012401361562457349 0 -0.1440761767559979 -0.03252465460835692 0 -0.16148480107720059 -0.029148020196998369 0 -0.15437001484480981 -0.012401361562457349 0 -0.1289042152683513 0.0036931705937147661 0 -0.1480717631732047 0.0053903871034023214 0 -0.15437001484480981 -0.012401361562457349 0 -0.13050725110392569 -0.01787843097546897 0 -0.1289042152683513 0.0036931705937147661 0 -0.1200399666966657 -0.034245437065707263 0 -0.13050725110392569 -0.01787843097546897 0 -0.1440761767559979 -0.03252465460835692 0 -0.1200399666966657 -0.034245437065707263 0 -0.13493405143952761 -0.054577001896876483 0 -0.1200399666966657 -0.034245437065707263 0 -0.13493405143952761 -0.054577001896876483 0 -0.1440761767559979 -0.03252465460835692 0 -0.14982813618238969 -0.074908566728045786 0 -0.13493405143952761 -0.054577001896876483 0 -0.16270402140471449 -0.048195562070063161 0 -0.1440761767559979 -0.03252465460835692 0 -0.16270402140471449 -0.048195562070063161 0 -0.16148480107720059 -0.029148020196998369 0 -0.13493405143952761 -0.054577001896876483 0 -0.1440761767559979 -0.03252465460835692 0 -0.16270402140471449 -0.048195562070063161 0 -0.16270402140471449 -0.048195562070063161 0 -0.1729772418830858 -0.03609751506066905 0 -0.16148480107720059 -0.029148020196998369 0 -0.17761694359701641 -0.068551766922754623 0 -0.16270402140471449 -0.048195562070063161 0 -0.17897536083932711 -0.054778292660229433 0 -0.16270402140471449 -0.048195562070063161 0 -0.17897536083932711 -0.054778292660229433 0 -0.1860196634884885 -0.044219383282266142 0 -0.17897536083932711 -0.054778292660229433 0 -0.18641009937808439 -0.057677134495881029 0 -0.1860196634884885 -0.044219383282266142 0 -0.17761694359701641 -0.068551766922754623 0 -0.17897536083932711 -0.054778292660229433 0 -0.18641009937808439 -0.057677134495881029 0 -0.16270402140471449 -0.048195562070063161 0 -0.1729772418830858 -0.03609751506066905 0 -0.18746062882530889 -0.04258853217053582 0 -0.16270402140471449 -0.048195562070063161 0 -0.18746062882530889 -0.04258853217053582 0 -0.16270402140471449 -0.048195562070063161 0 -0.1860196634884885 -0.044219383282266142 0 -0.18746062882530889 -0.04258853217053582 0 -0.1729772418830858 -0.03609751506066905 0 -0.18746062882530889 -0.04258853217053582 0 -0.1816154509850568 -0.0362269824913454 0 -0.18746062882530889 -0.04258853217053582 0 -0.18637367400948951 -0.037577691507542067 0 -0.1816154509850568 -0.0362269824913454 0 -0.18637367400948951 -0.037577691507542067 0 -0.1816154509850568 -0.0362269824913454 0 -0.18751407751088531 -0.029727098247847542 0 -0.1816154509850568 -0.0362269824913454 0 -0.17489014526756461 -0.02135776263609878 0 -0.18751407751088531 -0.029727098247847542 0 -0.17489014526756461 -0.02135776263609878 0 -0.18859042127181869 -0.01466628775364316 0 -0.18751407751088531 -0.029727098247847542 0 -0.1729772418830858 -0.03609751506066905 0 -0.1816154509850568 -0.0362269824913454 0 -0.17489014526756461 -0.02135776263609878 0 -0.15437001484480981 -0.012401361562457349 0 -0.17489014526756461 -0.02135776263609878 0 -0.16148480107720059 -0.029148020196998369 0 -0.1729772418830858 -0.03609751506066905 0 -0.17489014526756461 -0.02135776263609878 0 -0.16148480107720059 -0.029148020196998369 0 -0.15437001484480981 -0.012401361562457349 0 -0.17489014526756461 -0.02135776263609878 0 -0.17339482477880311 0.0046843474987315293 0 -0.15437001484480981 -0.012401361562457349 0 -0.1480717631732047 0.0053903871034023214 0 -0.17339482477880311 0.0046843474987315293 0 -0.17489014526756461 -0.02135776263609878 0 -0.18859042127181869 -0.01466628775364316 0 -0.17339482477880311 0.0046843474987315293 0 -0.19724989752095329 -0.0022969708879181862 0 -0.18859042127181869 -0.01466628775364316 0 -0.17339482477880311 0.0046843474987315293 0 -0.19724989752095329 -0.0022969708879181862 0 -0.19676041356730581 -0.027364230678610109 0 -0.20380804585817919 -0.01655314086405681 0 -0.19724989752095329 -0.0022969708879181862 0 -0.19676041356730581 -0.027364230678610109 0 -0.19724989752095329 -0.0022969708879181862 0 -0.18859042127181869 -0.01466628775364316 0 -0.19676041356730581 -0.027364230678610109 0 -0.18859042127181869 -0.01466628775364316 0 -0.18751407751088531 -0.029727098247847542 0 -0.19676041356730581 -0.027364230678610109 0 -0.18751407751088531 -0.029727098247847542 0 -0.19676041356730581 -0.027364230678610109 0 -0.19664432976116841 -0.033309068919509827 0 -0.18751407751088531 -0.029727098247847542 0 -0.19676041356730581 -0.027364230678610109 0 -0.19676041356730581 -0.027364230678610109 0 -0.20545027613743611 -0.030507468584336801 0 -0.19664432976116841 -0.033309068919509827 0 -0.19676041356730581 -0.027364230678610109 0 -0.19664432976116841 -0.033309068919509827 0 -0.20380804585817919 -0.01655314086405681 0 -0.21156674107252491 -0.023580527504929869 0 -0.20965513127193311 -0.01297083438476905 0 -0.19676041356730581 -0.027364230678610109 0 -0.20380804585817919 -0.01655314086405681 0 -0.21156674107252491 -0.023580527504929869 0 -0.19676041356730581 -0.027364230678610109 0 -0.21156674107252491 -0.023580527504929869 0 -0.20545027613743611 -0.030507468584336801 0 -0.21156674107252491 -0.023580527504929869 0 -0.2122172362459033 -0.036981502271008493 0 -0.19676041356730581 -0.027364230678610109 0 -0.20545027613743611 -0.030507468584336801 0 -0.21156674107252491 -0.023580527504929869 0 -0.21156674107252491 -0.023580527504929869 0 -0.2122172362459033 -0.036981502271008493 0 -0.221052020687212 -0.029836378827815691 0 -0.21156674107252491 -0.023580527504929869 0 -0.21750188167384341 -0.018298792924541799 0 -0.20965513127193311 -0.01297083438476905 0 -0.21156674107252491 -0.023580527504929869 0 -0.21750188167384341 -0.018298792924541799 0 -0.226373068577744 -0.01979682433124973 0 -0.21606567424505549 -0.011002136600326879 0 -0.21392853364036579 -0.0033176694410896532 0 -0.22317715039408001 -0.0094212496509069963 0 -0.19724989752095329 -0.0022969708879181862 0 -0.21392853364036579 -0.0033176694410896532 0 -0.20965513127193311 -0.01297083438476905 0 -0.21750188167384341 -0.018298792924541799 0 -0.21606567424505549 -0.011002136600326879 0 -0.20965513127193311 -0.01297083438476905 0 -0.21606567424505549 -0.011002136600326879 0 -0.21392853364036579 -0.0033176694410896532 0 -0.20965513127193311 -0.01297083438476905 0 -0.19724989752095329 -0.0022969708879181862 0 -0.20380804585817919 -0.01655314086405681 0 -0.20965513127193311 -0.01297083438476905 0 -0.20302842958750561 -0.063159095118273917 0 -0.18641009937808439 -0.057677134495881029 0 -0.1860196634884885 -0.044219383282266142 0 -0.20302842958750561 -0.063159095118273917 0 -0.1860196634884885 -0.044219383282266142 0 -0.20302842958750561 -0.063159095118273917 0 -0.1860196634884885 -0.044219383282266142 0 -0.2008182484018175 -0.047493804069199667 0 -0.18746062882530889 -0.04258853217053582 0 -0.2008182484018175 -0.047493804069199667 0 -0.2122172362459033 -0.036981502271008493 0 -0.18746062882530889 -0.04258853217053582 0 -0.19450311911254589 -0.037124598543968018 0 -0.2122172362459033 -0.036981502271008493 0 -0.18746062882530889 -0.04258853217053582 0 -0.2122172362459033 -0.036981502271008493 0 -0.19450311911254589 -0.037124598543968018 0 -0.19664432976116841 -0.033309068919509827 0 -0.2122172362459033 -0.036981502271008493 0 -0.18746062882530889 -0.04258853217053582 0 -0.18637367400948951 -0.037577691507542067 0 -0.19450311911254589 -0.037124598543968018 0 -0.1860196634884885 -0.044219383282266142 0 -0.18746062882530889 -0.04258853217053582 0 -0.2008182484018175 -0.047493804069199667 0 -0.18637367400948951 -0.037577691507542067 0 -0.18751407751088531 -0.029727098247847542 0 -0.18981972672085939 -0.035166197851243891 0 -0.18637367400948951 -0.037577691507542067 0 -0.19450311911254589 -0.037124598543968018 0 -0.18981972672085939 -0.035166197851243891 0 -0.18751407751088531 -0.029727098247847542 0 -0.18981972672085939 -0.035166197851243891 0 -0.19664432976116841 -0.033309068919509827 0 -0.19450311911254589 -0.037124598543968018 0 -0.18981972672085939 -0.035166197851243891 0 -0.19664432976116841 -0.033309068919509827 0 -0.20545027613743611 -0.030507468584336801 0 -0.19664432976116841 -0.033309068919509827 0 -0.2122172362459033 -0.036981502271008493 0 -0.2122172362459033 -0.036981502271008493 0 -0.215365283861881 -0.050520507503914007 0 -0.22605299792622949 -0.04293299581087813 0 -0.2008182484018175 -0.047493804069199667 0 -0.2122172362459033 -0.036981502271008493 0 -0.215365283861881 -0.050520507503914007 0 -0.22112550982785681 -0.064153184602810026 0 -0.20302842958750561 -0.063159095118273917 0 -0.215365283861881 -0.050520507503914007 0 -0.20302842958750561 -0.063159095118273917 0 -0.2008182484018175 -0.047493804069199667 0 -0.215365283861881 -0.050520507503914007 0 -0.2324619981995274 -0.061858816087879027 0 -0.2285190812779801 -0.052617873052172831 0 -0.24115982942957651 -0.055257365204772022 0 -0.22112550982785681 -0.064153184602810026 0 -0.2324619981995274 -0.061858816087879027 0 -0.2285190812779801 -0.052617873052172831 0 -0.22112550982785681 -0.064153184602810026 0 -0.215365283861881 -0.050520507503914007 0 -0.2285190812779801 -0.052617873052172831 0 -0.215365283861881 -0.050520507503914007 0 -0.2285190812779801 -0.052617873052172831 0 -0.22605299792622949 -0.04293299581087813 0 -0.2122172362459033 -0.036981502271008493 0 -0.22605299792622949 -0.04293299581087813 0 -0.23697384366649771 -0.031374472371481138 0 -0.2122172362459033 -0.036981502271008493 0 -0.23697384366649771 -0.031374472371481138 0 -0.221052020687212 -0.029836378827815691 0 -0.2122172362459033 -0.036981502271008493 0 -0.23697384366649771 -0.031374472371481138 0 -0.2285190812779801 -0.052617873052172831 0 -0.22605299792622949 -0.04293299581087813 0 -0.23755145932475921 -0.044148523672036137 0 -0.22605299792622949 -0.04293299581087813 0 -0.23697384366649771 -0.031374472371481138 0 -0.23755145932475921 -0.044148523672036137 0 -0.23697384366649771 -0.031374472371481138 0 -0.24838003049798971 -0.037691690345494057 0 -0.26173045108709198 -0.025767442471952871 0 -0.23697384366649771 -0.031374472371481138 0 -0.24838003049798971 -0.037691690345494057 0 -0.23755145932475921 -0.044148523672036137 0 -0.24838003049798971 -0.037691690345494057 0 -0.24816204064839309 -0.045570456877888188 0 -0.23755145932475921 -0.044148523672036137 0 -0.2285190812779801 -0.052617873052172831 0 -0.23755145932475921 -0.044148523672036137 0 -0.24115982942957651 -0.055257365204772022 0 -0.24816204064839309 -0.045570456877888188 0 -0.23755145932475921 -0.044148523672036137 0 -0.24115982942957651 -0.055257365204772022 0 -0.24816204064839309 -0.045570456877888188 0 -0.24115982942957651 -0.055257365204772022 0 -0.25387919010868132 -0.054023704264645582 0 -0.24012555059909241 -0.065174416141362018 0 -0.24996424734416089 -0.063901621117924232 0 -0.24115982942957651 -0.055257365204772022 0 -0.24996424734416089 -0.063901621117924232 0 -0.24115982942957651 -0.055257365204772022 0 -0.25387919010868132 -0.054023704264645582 0 -0.24012555059909241 -0.065174416141362018 0 -0.2324619981995274 -0.061858816087879027 0 -0.24115982942957651 -0.055257365204772022 0 -0.23297612027450859 -0.01195476332762792 0 -0.22317715039408001 -0.0094212496509069963 0 -0.226373068577744 -0.01979682433124973 0 -0.23297612027450859 -0.01195476332762792 0 -0.23309364173555941 -0.0042944221710940287 0 -0.22317715039408001 -0.0094212496509069963 0 -0.23309364173555941 -0.0042944221710940287 0 -0.22317715039408001 -0.0094212496509069963 0 -0.22558511437967621 0.0017107284761218491 0 -0.21392853364036579 -0.0033176694410896532 0 -0.22317715039408001 -0.0094212496509069963 0 -0.22558511437967621 0.0017107284761218491 0 -0.21750188167384341 -0.018298792924541799 0 -0.21606567424505549 -0.011002136600326879 0 -0.22317715039408001 -0.0094212496509069963 0 -0.23697384366649771 -0.031374472371481138 0 -0.221052020687212 -0.029836378827815691 0 -0.2321126731909679 -0.02594745223303686 0 -0.21750188167384341 -0.018298792924541799 0 -0.226373068577744 -0.01979682433124973 0 -0.21750188167384341 -0.018298792924541799 0 -0.22317715039408001 -0.0094212496509069963 0 -0.226373068577744 -0.01979682433124973 0 -0.21156674107252491 -0.023580527504929869 0 -0.226373068577744 -0.01979682433124973 0 -0.226373068577744 -0.01979682433124973 0 -0.2321126731909679 -0.02594745223303686 0 -0.24405175983241811 -0.022782133401600891 0 -0.226373068577744 -0.01979682433124973 0 -0.221052020687212 -0.029836378827815691 0 -0.2321126731909679 -0.02594745223303686 0 -0.21156674107252491 -0.023580527504929869 0 -0.226373068577744 -0.01979682433124973 0 -0.221052020687212 -0.029836378827815691 0 -0.23697384366649771 -0.031374472371481138 0 -0.24405175983241811 -0.022782133401600891 0 -0.26173045108709198 -0.025767442471952871 0 -0.23697384366649771 -0.031374472371481138 0 -0.26173045108709198 -0.025767442471952871 0 -0.226373068577744 -0.01979682433124973 0 -0.2455990518399013 -0.01488369419411718 0 -0.226373068577744 -0.01979682433124973 0 -0.24405175983241811 -0.022782133401600891 0 -0.226373068577744 -0.01979682433124973 0 -0.24405175983241811 -0.022782133401600891 0 -0.2455990518399013 -0.01488369419411718 0 -0.23697384366649771 -0.031374472371481138 0 -0.2321126731909679 -0.02594745223303686 0 -0.24405175983241811 -0.022782133401600891 0 -0.23297612027450859 -0.01195476332762792 0 -0.226373068577744 -0.01979682433124973 0 -0.2455990518399013 -0.01488369419411718 0 -0.2455990518399013 -0.01488369419411718 0 -0.23900537051013199 -0.0085749873233502086 0 -0.24435266819055859 -0.0031670696005617009 0 -0.23297612027450859 -0.01195476332762792 0 -0.2455990518399013 -0.01488369419411718 0 -0.23900537051013199 -0.0085749873233502086 0 -0.23297612027450859 -0.01195476332762792 0 -0.23309364173555941 -0.0042944221710940287 0 -0.23900537051013199 -0.0085749873233502086 0 -0.23309364173555941 -0.0042944221710940287 0 -0.23900537051013199 -0.0085749873233502086 0 -0.24435266819055859 -0.0031670696005617009 0 -0.23309364173555941 -0.0042944221710940287 0 -0.24435266819055859 -0.0031670696005617009 0 -0.2376792400997387 0.0056738125745543124 0 -0.2455990518399013 -0.01488369419411718 0 -0.24435266819055859 -0.0031670696005617009 0 -0.25382201275908262 -0.003718397405113353 0 -0.24435266819055859 -0.0031670696005617009 0 -0.25382201275908262 -0.003718397405113353 0 -0.2511806455824796 0.0060036871011076654 0 -0.2455990518399013 -0.01488369419411718 0 -0.25382201275908262 -0.003718397405113353 0 -0.26482503510205863 -0.0099705640569846422 0 -0.2455990518399013 -0.01488369419411718 0 -0.26482503510205863 -0.0099705640569846422 0 -0.25382201275908262 -0.003718397405113353 0 -0.26482503510205863 -0.0099705640569846422 0 -0.26315266308041457 0.003425653724989099 0 -0.24405175983241811 -0.022782133401600891 0 -0.26173045108709198 -0.025767442471952871 0 -0.2455990518399013 -0.01488369419411718 0 -0.26482503510205863 -0.0099705640569846422 0 -0.26173045108709198 -0.025767442471952871 0 -0.24405175983241811 -0.022782133401600891 0 -0.2455990518399013 -0.01488369419411718 0 -0.26173045108709198 -0.025767442471952871 0 -0.26173045108709198 -0.025767442471952871 0 -0.29067728595059877 -0.01921138388852511 0 -0.26173045108709198 -0.025767442471952871 0 -0.27952904816324931 -0.02877299941762973 0 -0.26934893902048651 -0.037623466730294951 0 -0.26173045108709198 -0.025767442471952871 0 -0.27952904816324931 -0.02877299941762973 0 -0.26173045108709198 -0.025767442471952871 0 -0.27952904816324931 -0.02877299941762973 0 -0.29067728595059877 -0.01921138388852511 0 -0.26482503510205863 -0.0099705640569846422 0 -0.26173045108709198 -0.025767442471952871 0 -0.29067728595059877 -0.01921138388852511 0 -0.26482503510205863 -0.0099705640569846422 0 -0.27590268998574019 -0.0027832089829183701 0 -0.29067728595059877 -0.01921138388852511 0 -0.26482503510205863 -0.0099705640569846422 0 -0.27590268998574019 -0.0027832089829183701 0 -0.26315266308041457 0.003425653724989099 0 -0.29067728595059877 -0.01921138388852511 0 -0.28621886465719759 0.001186204879363336 0 -0.30287073765804928 0.0033491012984734102 0 -0.27590268998574019 -0.0027832089829183701 0 -0.29067728595059877 -0.01921138388852511 0 -0.28621886465719759 0.001186204879363336 0 -0.27952904816324931 -0.02877299941762973 0 -0.29732764523940641 -0.031778556363308119 0 -0.27952904816324931 -0.02877299941762973 0 -0.29067728595059877 -0.01921138388852511 0 -0.29732764523940641 -0.031778556363308119 0 -0.29067728595059877 -0.01921138388852511 0 -0.29796669903104989 -0.029562312647220632 0 -0.29732764523940641 -0.031778556363308119 0 -0.29067728595059877 -0.01921138388852511 0 -0.31962412081410702 -0.012655325305103391 0 -0.29067728595059877 -0.01921138388852511 0 -0.29796669903104989 -0.029562312647220632 0 -0.31962412081410702 -0.012655325305103391 0 -0.29796669903104989 -0.029562312647220632 0 -0.30707160757565821 -0.033423968838958901 0 -0.31962412081410702 -0.012655325305103391 0 -0.29796669903104989 -0.029562312647220632 0 -0.29732764523940641 -0.031778556363308119 0 -0.29067728595059877 -0.01921138388852511 0 -0.31962412081410702 -0.012655325305103391 0 -0.30287073765804928 0.0033491012984734102 0 -0.29730094609497859 -0.049589925530452612 0 -0.30568189548884001 -0.058214289902683451 0 -0.31059498724329448 -0.046589149522204727 0 -0.30568189548884001 -0.058214289902683451 0 -0.31059498724329448 -0.046589149522204727 0 -0.31837448765103182 -0.060919368721913218 0 -0.29730094609497859 -0.049589925530452612 0 -0.30707160757565821 -0.033423968838958901 0 -0.29732764523940641 -0.031778556363308119 0 -0.29730094609497859 -0.049589925530452612 0 -0.31059498724329448 -0.046589149522204727 0 -0.30707160757565821 -0.033423968838958901 0 -0.31059498724329448 -0.046589149522204727 0 -0.30707160757565821 -0.033423968838958901 0 -0.31646762555963381 -0.042185741284114918 0 -0.29730094609497859 -0.049589925530452612 0 -0.30707160757565821 -0.033423968838958901 0 -0.29796669903104989 -0.029562312647220632 0 -0.30707160757565821 -0.033423968838958901 0 -0.29732764523940641 -0.031778556363308119 0 -0.30707160757565821 -0.033423968838958901 0 -0.29732764523940641 -0.031778556363308119 0 -0.29732764523940641 -0.031778556363308119 0 -0.29242896492685538 -0.048767219292627811 0 -0.29732764523940641 -0.031778556363308119 0 -0.29242896492685538 -0.048767219292627811 0 -0.27980765245285799 -0.042751757781812109 0 -0.27952904816324931 -0.02877299941762973 0 -0.29732764523940641 -0.031778556363308119 0 -0.27980765245285799 -0.042751757781812109 0 -0.29730094609497859 -0.049589925530452612 0 -0.29732764523940641 -0.031778556363308119 0 -0.29242896492685538 -0.048767219292627811 0 -0.29730094609497859 -0.049589925530452612 0 -0.29242896492685538 -0.048767219292627811 0 -0.28753028461429819 -0.065755882221945797 0 -0.29730094609497859 -0.049589925530452612 0 -0.30568189548884001 -0.058214289902683451 0 -0.28753028461429819 -0.065755882221945797 0 -0.29242896492685538 -0.048767219292627811 0 -0.28753028461429819 -0.065755882221945797 0 -0.29242896492685538 -0.048767219292627811 0 -0.27639926899421968 -0.05671283032915822 0 -0.27980765245285799 -0.042751757781812109 0 -0.29242896492685538 -0.048767219292627811 0 -0.27639926899421968 -0.05671283032915822 0 -0.28753028461429819 -0.065755882221945797 0 -0.29730094609497859 -0.049589925530452612 0 -0.28753028461429819 -0.065755882221945797 0 -0.27639926899421968 -0.05671283032915822 0 -0.26674640793410931 -0.048893332332291817 0 -0.27980765245285799 -0.042751757781812109 0 -0.27639926899421968 -0.05671283032915822 0 -0.26674640793410931 -0.048893332332291817 0 -0.26211709313864168 -0.062070785509071032 0 -0.27952904816324931 -0.02877299941762973 0 -0.27980765245285799 -0.042751757781812109 0 -0.26934893902048651 -0.037623466730294951 0 -0.26674640793410931 -0.048893332332291817 0 -0.27980765245285799 -0.042751757781812109 0 -0.26934893902048651 -0.037623466730294951 0 -0.24838003049798971 -0.037691690345494057 0 -0.26173045108709198 -0.025767442471952871 0 -0.2574823577632066 -0.041597556334112808 0 -0.26173045108709198 -0.025767442471952871 0 -0.26934893902048651 -0.037623466730294951 0 -0.2574823577632066 -0.041597556334112808 0 -0.26674640793410931 -0.048893332332291817 0 -0.26934893902048651 -0.037623466730294951 0 -0.2574823577632066 -0.041597556334112808 0 -0.24838003049798971 -0.037691690345494057 0 -0.24816204064839309 -0.045570456877888188 0 -0.2574823577632066 -0.041597556334112808 0 -0.26674640793410931 -0.048893332332291817 0 -0.26211709313864168 -0.062070785509071032 0 -0.25387919010868132 -0.054023704264645582 0 -0.26674640793410931 -0.048893332332291817 0 -0.2574823577632066 -0.041597556334112808 0 -0.25387919010868132 -0.054023704264645582 0 -0.24816204064839309 -0.045570456877888188 0 -0.2574823577632066 -0.041597556334112808 0 -0.25387919010868132 -0.054023704264645582 0 -0.24996424734416089 -0.063901621117924232 0 -0.26211709313864168 -0.062070785509071032 0 -0.25387919010868132 -0.054023704264645582 0 -0.24996424734416089 -0.063901621117924232 0 -0.26211709313864168 -0.062070785509071032 0 -0.25697828682216539 -0.073132083951301066 0 -0.24996424734416089 -0.063901621117924232 0 -0.24432075154354529 -0.073863429162164665 0 -0.25697828682216539 -0.073132083951301066 0 -0.26211709313864168 -0.062070785509071032 0 -0.25697828682216539 -0.073132083951301066 0 -0.26976521089855549 -0.072038004837200742 0 -0.25697828682216539 -0.073132083951301066 0 -0.26287149438749441 -0.082318670102670313 0 -0.26976521089855549 -0.072038004837200742 0 -0.24432075154354529 -0.073863429162164665 0 -0.25697828682216539 -0.073132083951301066 0 -0.25203833747956028 -0.084054520604373878 0 -0.25697828682216539 -0.073132083951301066 0 -0.25203833747956028 -0.084054520604373878 0 -0.26287149438749441 -0.082318670102670313 0 -0.24864405758726629 -0.09478409224515072 0 -0.25203833747956028 -0.084054520604373878 0 -0.25870569325466009 -0.090510322783886044 0 -0.25870569325466009 -0.090510322783886044 0 -0.26287149438749441 -0.082318670102670313 0 -0.27238998423800093 -0.090806124793891635 0 -0.25203833747956028 -0.084054520604373878 0 -0.25870569325466009 -0.090510322783886044 0 -0.26287149438749441 -0.082318670102670313 0 -0.27238998423800093 -0.090806124793891635 0 -0.27923461089560442 -0.094525345748119383 0 -0.28753028461429819 -0.065755882221945797 0 -0.27238998423800093 -0.090806124793891635 0 -0.28753028461429819 -0.065755882221945797 0 -0.26287149438749441 -0.082318670102670313 0 -0.27238998423800093 -0.090806124793891635 0 -0.26976521089855549 -0.072038004837200742 0 -0.27639926899421968 -0.05671283032915822 0 -0.26976521089855549 -0.072038004837200742 0 -0.28753028461429819 -0.065755882221945797 0 -0.27238998423800093 -0.090806124793891635 0 -0.26976521089855549 -0.072038004837200742 0 -0.28753028461429819 -0.065755882221945797 0 -0.27639926899421968 -0.05671283032915822 0 -0.26211709313864168 -0.062070785509071032 0 -0.26976521089855549 -0.072038004837200742 0 -0.26340914045703512 -0.12065220398372289 0 -0.25724968386170383 -0.1158563673658374 0 -0.26122075901893838 -0.12769872472474911 0 -0.26340914045703512 -0.12065220398372289 0 -0.25724968386170383 -0.1158563673658374 0 -0.26584115370304501 -0.1164901716750585 0 -0.26340914045703512 -0.12065220398372289 0 -0.26932496524445332 -0.1225635521692469 0 -0.26122075901893838 -0.12769872472474911 0 -0.25724968386170383 -0.1158563673658374 0 -0.26938083107554212 -0.1087834695942691 0 -0.26584115370304501 -0.1164901716750585 0 -0.24831251401145021 -0.1068594192199797 0 -0.25724968386170383 -0.1158563673658374 0 -0.25811002467595101 -0.099973802857463934 0 -0.27238998423800093 -0.090806124793891635 0 -0.25724968386170383 -0.1158563673658374 0 -0.27238998423800093 -0.090806124793891635 0 -0.25724968386170383 -0.1158563673658374 0 -0.25811002467595101 -0.099973802857463934 0 -0.25724968386170383 -0.1158563673658374 0 -0.26956377751771282 -0.10249282687552939 0 -0.26938083107554212 -0.1087834695942691 0 -0.24831251401145021 -0.1068594192199797 0 -0.24864405758726629 -0.09478409224515072 0 -0.25811002467595101 -0.099973802857463934 0 -0.24864405758726629 -0.09478409224515072 0 -0.25870569325466009 -0.090510322783886044 0 -0.25811002467595101 -0.099973802857463934 0 -0.25870569325466009 -0.090510322783886044 0 -0.27238998423800093 -0.090806124793891635 0 -0.25811002467595101 -0.099973802857463934 0 -0.27923461089560442 -0.094525345748119383 0 -0.26938083107554212 -0.1087834695942691 0 -0.27093893717690898 -0.1232948092742925 0 -0.27923461089560442 -0.094525345748119383 0 -0.27093893717690898 -0.1232948092742925 0 -0.27238998423800093 -0.090806124793891635 0 -0.25724968386170383 -0.1158563673658374 0 -0.26956377751771282 -0.10249282687552939 0 -0.27238998423800093 -0.090806124793891635 0 -0.27923461089560442 -0.094525345748119383 0 -0.26956377751771282 -0.10249282687552939 0 -0.27923461089560442 -0.094525345748119383 0 -0.26956377751771282 -0.10249282687552939 0 -0.26938083107554212 -0.1087834695942691 0 -0.27093893717690898 -0.1232948092742925 0 -0.28530353892885529 -0.1203234830329185 0 -0.28714930642550851 -0.13063939033551369 0 -0.27923461089560442 -0.094525345748119383 0 -0.27093893717690898 -0.1232948092742925 0 -0.2832886420804655 -0.1112750858512689 0 -0.26938083107554212 -0.1087834695942691 0 -0.26584115370304501 -0.1164901716750585 0 -0.27093893717690898 -0.1232948092742925 0 -0.27093893717690898 -0.1232948092742925 0 -0.28530353892885529 -0.1203234830329185 0 -0.2832886420804655 -0.1112750858512689 0 -0.27093893717690898 -0.1232948092742925 0 -0.26932496524445332 -0.1225635521692469 0 -0.26122075901893838 -0.12769872472474911 0 -0.27093893717690898 -0.1232948092742925 0 -0.26932496524445332 -0.1225635521692469 0 -0.26584115370304501 -0.1164901716750585 0 -0.27093893717690898 -0.1232948092742925 0 -0.26932496524445332 -0.1225635521692469 0 -0.26340914045703512 -0.12065220398372289 0 -0.26584115370304501 -0.1164901716750585 0 -0.26932496524445332 -0.1225635521692469 0 -0.28530353892885529 -0.1203234830329185 0 -0.2832886420804655 -0.1112750858512689 0 -0.29983727003253607 -0.11608464667059799 0 -0.28530353892885529 -0.1203234830329185 0 -0.29983727003253607 -0.11608464667059799 0 -0.28714930642550851 -0.13063939033551369 0 -0.29983727003253607 -0.11608464667059799 0 -0.28714930642550851 -0.13063939033551369 0 -0.2832886420804655 -0.1112750858512689 0 -0.29544304091792351 -0.1000911281614132 0 -0.29983727003253607 -0.11608464667059799 0 -0.27923461089560442 -0.094525345748119383 0 -0.2832886420804655 -0.1112750858512689 0 -0.28715729622650188 -0.098330131331867687 0 -0.2832886420804655 -0.1112750858512689 0 -0.28715729622650188 -0.098330131331867687 0 -0.29544304091792351 -0.1000911281614132 0 -0.28715729622650188 -0.098330131331867687 0 -0.29544304091792351 -0.1000911281614132 0 -0.2906628910120142 -0.087428965566669153 0 -0.29544304091792351 -0.1000911281614132 0 -0.29983727003253607 -0.11608464667059799 0 -0.31346306436644411 -0.1019062923748411 0 -0.29544304091792351 -0.1000911281614132 0 -0.30583113019670882 -0.084578913038653045 0 -0.31346306436644411 -0.1019062923748411 0 -0.29983727003253607 -0.11608464667059799 0 -0.31924464944549169 -0.1193981324436013 0 -0.30658026208313738 -0.13944315209663249 0 -0.29983727003253607 -0.11608464667059799 0 -0.31924464944549169 -0.1193981324436013 0 -0.31346306436644411 -0.1019062923748411 0 -0.28753028461429819 -0.065755882221945797 0 -0.29727201246821411 -0.076938016654315058 0 -0.30506374404983522 -0.069988305789992211 0 -0.28753028461429819 -0.065755882221945797 0 -0.2906628910120142 -0.087428965566669153 0 -0.29727201246821411 -0.076938016654315058 0 -0.27923461089560442 -0.094525345748119383 0 -0.28753028461429819 -0.065755882221945797 0 -0.2906628910120142 -0.087428965566669153 0 -0.27923461089560442 -0.094525345748119383 0 -0.28753028461429819 -0.065755882221945797 0 -0.27923461089560442 -0.094525345748119383 0 -0.28715729622650188 -0.098330131331867687 0 -0.2906628910120142 -0.087428965566669153 0 -0.2906628910120142 -0.087428965566669153 0 -0.30583113019670882 -0.084578913038653045 0 -0.29727201246821411 -0.076938016654315058 0 -0.29544304091792351 -0.1000911281614132 0 -0.2906628910120142 -0.087428965566669153 0 -0.30583113019670882 -0.084578913038653045 0 -0.30568189548884001 -0.058214289902683451 0 -0.28753028461429819 -0.065755882221945797 0 -0.30506374404983522 -0.069988305789992211 0 -0.30583113019670882 -0.084578913038653045 0 -0.30506374404983522 -0.069988305789992211 0 -0.31699704455617628 -0.073676566274627112 0 -0.30583113019670882 -0.084578913038653045 0 -0.29727201246821411 -0.076938016654315058 0 -0.30506374404983522 -0.069988305789992211 0 -0.30568189548884001 -0.058214289902683451 0 -0.30506374404983522 -0.069988305789992211 0 -0.31837448765103182 -0.060919368721913218 0 -0.30506374404983522 -0.069988305789992211 0 -0.31699704455617628 -0.073676566274627112 0 -0.31837448765103182 -0.060919368721913218 0 -0.31699704455617628 -0.073676566274627112 0 -0.3319847312080102 -0.072689822547052016 0 -0.31837448765103182 -0.060919368721913218 0 -0.31699704455617628 -0.073676566274627112 0 -0.32767586801463022 -0.083592314874995438 0 -0.3319847312080102 -0.072689822547052016 0 -0.30583113019670882 -0.084578913038653045 0 -0.31699704455617628 -0.073676566274627112 0 -0.32767586801463022 -0.083592314874995438 0 -0.30583113019670882 -0.084578913038653045 0 -0.32767586801463022 -0.083592314874995438 0 -0.31346306436644411 -0.1019062923748411 0 -0.32767586801463022 -0.083592314874995438 0 -0.34218050755590712 -0.088349944314527626 0 -0.33274642759137413 -0.10769261905978569 0 -0.32767586801463022 -0.083592314874995438 0 -0.34218050755590712 -0.088349944314527626 0 -0.3319847312080102 -0.072689822547052016 0 -0.3319847312080102 -0.072689822547052016 0 -0.34924633882036432 -0.071306058234705788 0 -0.33743414064995209 -0.058294682861542962 0 -0.34218050755590712 -0.088349944314527626 0 -0.3319847312080102 -0.072689822547052016 0 -0.34924633882036432 -0.071306058234705788 0 -0.3319847312080102 -0.072689822547052016 0 -0.31837448765103182 -0.060919368721913218 0 -0.33743414064995209 -0.058294682861542962 0 -0.31924464944549169 -0.1193981324436013 0 -0.31346306436644411 -0.1019062923748411 0 -0.33274642759137413 -0.10769261905978569 0 -0.32767586801463022 -0.083592314874995438 0 -0.31346306436644411 -0.1019062923748411 0 -0.33274642759137413 -0.10769261905978569 0 -0.34218050755590712 -0.088349944314527626 0 -0.33274642759137413 -0.10769261905978569 0 -0.34608642825667668 -0.10426205535270031 0 -0.32767586801463022 -0.083592314874995438 0 -0.33274642759137413 -0.10769261905978569 0 -0.31924464944549169 -0.1193981324436013 0 -0.33274642759137413 -0.10769261905978569 0 -0.33781698716811809 -0.131792923244576 0 -0.33274642759137413 -0.10769261905978569 0 -0.33781698716811809 -0.131792923244576 0 -0.33274642759137413 -0.10769261905978569 0 -0.3479295457816895 -0.11708174174598091 0 -0.33781698716811809 -0.131792923244576 0 -0.33274642759137413 -0.10769261905978569 0 -0.3479295457816895 -0.11708174174598091 0 -0.34608642825667668 -0.10426205535270031 0 -0.3479295457816895 -0.11708174174598091 0 -0.36436978055373709 -0.1177810376174618 0 -0.35333410800397269 -0.1297329932894101 0 -0.3479295457816895 -0.11708174174598091 0 -0.35645267196046182 -0.10870514753195221 0 -0.36436978055373709 -0.1177810376174618 0 -0.3479295457816895 -0.11708174174598091 0 -0.35645267196046182 -0.10870514753195221 0 -0.34608642825667668 -0.10426205535270031 0 -0.34218050755590712 -0.088349944314527626 0 -0.34608642825667668 -0.10426205535270031 0 -0.35423284793934962 -0.096793201187273428 0 -0.35645267196046182 -0.10870514753195221 0 -0.34608642825667668 -0.10426205535270031 0 -0.35423284793934962 -0.096793201187273428 0 -0.35645267196046182 -0.10870514753195221 0 -0.35423284793934962 -0.096793201187273428 0 -0.36667926069258372 -0.1018630527524803 0 -0.35423284793934962 -0.096793201187273428 0 -0.36667926069258372 -0.1018630527524803 0 -0.35879057917297918 -0.084155621082660281 0 -0.36667926069258372 -0.1018630527524803 0 -0.37332665909224061 -0.08612038218917073 0 -0.38215926331170658 -0.1045982486550327 0 -0.36667926069258372 -0.1018630527524803 0 -0.37586199958902577 -0.11471433524842251 0 -0.38215926331170658 -0.1045982486550327 0 -0.36667926069258372 -0.1018630527524803 0 -0.36436978055373709 -0.1177810376174618 0 -0.37586199958902577 -0.11471433524842251 0 -0.35645267196046182 -0.10870514753195221 0 -0.36667926069258372 -0.1018630527524803 0 -0.36436978055373709 -0.1177810376174618 0 -0.36436978055373709 -0.1177810376174618 0 -0.37450924494895871 -0.1297507813620131 0 -0.37586199958902577 -0.11471433524842251 0 -0.34924633882036432 -0.071306058234705788 0 -0.36755006916143612 -0.072558080549145212 0 -0.35874279087194988 -0.058004261239129558 0 -0.34924633882036432 -0.071306058234705788 0 -0.35879057917297918 -0.084155621082660281 0 -0.36755006916143612 -0.072558080549145212 0 -0.34924633882036432 -0.071306058234705788 0 -0.35874279087194988 -0.058004261239129558 0 -0.33743414064995209 -0.058294682861542962 0 -0.34218050755590712 -0.088349944314527626 0 -0.35423284793934962 -0.096793201187273428 0 -0.35879057917297918 -0.084155621082660281 0 -0.34218050755590712 -0.088349944314527626 0 -0.34924633882036432 -0.071306058234705788 0 -0.35879057917297918 -0.084155621082660281 0 -0.36667926069258372 -0.1018630527524803 0 -0.35879057917297918 -0.084155621082660281 0 -0.37332665909224061 -0.08612038218917073 0 -0.35879057917297918 -0.084155621082660281 0 -0.37332665909224061 -0.08612038218917073 0 -0.36755006916143612 -0.072558080549145212 0 -0.36755006916143612 -0.072558080549145212 0 -0.35874279087194988 -0.058004261239129558 0 -0.38084548646524102 -0.061585626789706749 0 -0.37332665909224061 -0.08612038218917073 0 -0.36755006916143612 -0.072558080549145212 0 -0.38300214128270432 -0.075652690928650512 0 -0.35874279087194988 -0.058004261239129558 0 -0.37156710019964101 -0.044314988787971042 0 -0.38084548646524102 -0.061585626789706749 0 -0.35874279087194988 -0.058004261239129558 0 -0.34581360993506521 -0.039966130211705628 0 -0.37156710019964101 -0.044314988787971042 0 -0.35874279087194988 -0.058004261239129558 0 -0.34581360993506521 -0.039966130211705628 0 -0.33743414064995209 -0.058294682861542962 0 -0.34581360993506521 -0.039966130211705628 0 -0.37156710019964101 -0.044314988787971042 0 -0.37156710019964101 -0.044314988787971042 0 -0.36564471060928821 -0.026694204919340991 0 -0.38529434146045483 -0.034278459522657942 0 -0.34581360993506521 -0.039966130211705628 0 -0.37156710019964101 -0.044314988787971042 0 -0.36564471060928821 -0.026694204919340991 0 -0.36564471060928821 -0.026694204919340991 0 -0.37081023416420861 -0.0088368789994708111 0 -0.35012258671727919 -0.0183642647286342 0 -0.37081023416420861 -0.0088368789994708111 0 -0.35294124532442639 0.00089412184765842381 0 -0.37081023416420861 -0.0088368789994708111 0 -0.35012258671727919 -0.0183642647286342 0 -0.35294124532442639 0.00089412184765842381 0 -0.35012258671727919 -0.0183642647286342 0 -0.34305195426649399 -0.0089721878387813963 0 -0.35294124532442639 0.00089412184765842381 0 -0.3408318510851775 -7.0430601114411463e-05 0 -0.34305195426649399 -0.0089721878387813963 0 -0.35294124532442639 0.00089412184765842381 0 -0.34581360993506521 -0.039966130211705628 0 -0.36564471060928821 -0.026694204919340991 0 -0.35012258671727919 -0.0183642647286342 0 -0.35012258671727919 -0.0183642647286342 0 -0.33440678971386151 -0.026517724129313629 0 -0.3377958854385637 -0.0148296381766775 0 -0.33440678971386151 -0.026517724129313629 0 -0.3377958854385637 -0.0148296381766775 0 -0.32814068186403 -0.010726441769610641 0 -0.34581360993506521 -0.039966130211705628 0 -0.35012258671727919 -0.0183642647286342 0 -0.33440678971386151 -0.026517724129313629 0 -0.32814068186403 -0.010726441769610641 0 -0.33325741463115371 -0.0095675724170476255 0 -0.33507225648464423 0.010625122694787451 0 -0.32814068186403 -0.010726441769610641 0 -0.33507225648464423 0.010625122694787451 0 -0.3408318510851775 -7.0430601114411463e-05 0 -0.34305195426649399 -0.0089721878387813963 0 -0.33325741463115371 -0.0095675724170476255 0 -0.34305195426649399 -0.0089721878387813963 0 -0.3377958854385637 -0.0148296381766775 0 -0.33325741463115371 -0.0095675724170476255 0 -0.35012258671727919 -0.0183642647286342 0 -0.34305195426649399 -0.0089721878387813963 0 -0.3377958854385637 -0.0148296381766775 0 -0.3377958854385637 -0.0148296381766775 0 -0.32814068186403 -0.010726441769610641 0 -0.33325741463115371 -0.0095675724170476255 0 -0.32814068186403 -0.010726441769610641 0 -0.33325741463115371 -0.0095675724170476255 0 -0.31962412081410702 -0.012655325305103391 0 -0.33507225648464423 0.010625122694787451 0 -0.31962412081410702 -0.012655325305103391 0 -0.30287073765804928 0.0033491012984734102 0 -0.3174427573646198 0.0055651620128599998 0 -0.32814068186403 -0.010726441769610641 0 -0.31962412081410702 -0.012655325305103391 0 -0.33507225648464423 0.010625122694787451 0 -0.32814068186403 -0.010726441769610641 0 -0.31962412081410702 -0.012655325305103391 0 -0.33440678971386151 -0.026517724129313629 0 -0.32814068186403 -0.010726441769610641 0 -0.32006011967048997 -0.035617271635437028 0 -0.32814068186403 -0.010726441769610641 0 -0.31962412081410702 -0.012655325305103391 0 -0.32006011967048997 -0.035617271635437028 0 -0.30707160757565821 -0.033423968838958901 0 -0.31962412081410702 -0.012655325305103391 0 -0.32814068186403 -0.010726441769610641 0 -0.32006011967048997 -0.035617271635437028 0 -0.30707160757565821 -0.033423968838958901 0 -0.31962412081410702 -0.012655325305103391 0 -0.32006011967048997 -0.035617271635437028 0 -0.30707160757565821 -0.033423968838958901 0 -0.32006011967048997 -0.035617271635437028 0 -0.31646762555963381 -0.042185741284114918 0 -0.30707160757565821 -0.033423968838958901 0 -0.32006011967048997 -0.035617271635437028 0 -0.31059498724329448 -0.046589149522204727 0 -0.32413410857288899 -0.046250402106425462 0 -0.31646762555963381 -0.042185741284114918 0 -0.32006011967048997 -0.035617271635437028 0 -0.32413410857288899 -0.046250402106425462 0 -0.31646762555963381 -0.042185741284114918 0 -0.31059498724329448 -0.046589149522204727 0 -0.32413410857288899 -0.046250402106425462 0 -0.31837448765103182 -0.060919368721913218 0 -0.32413410857288899 -0.046250402106425462 0 -0.31837448765103182 -0.060919368721913218 0 -0.33743414064995209 -0.058294682861542962 0 -0.34581360993506521 -0.039966130211705628 0 -0.32413410857288899 -0.046250402106425462 0 -0.33743414064995209 -0.058294682861542962 0 -0.34581360993506521 -0.039966130211705628 0 -0.32006011967048997 -0.035617271635437028 0 -0.32413410857288899 -0.046250402106425462 0 -0.34581360993506521 -0.039966130211705628 0 -0.32006011967048997 -0.035617271635437028 0 -0.34581360993506521 -0.039966130211705628 0 -0.33440678971386151 -0.026517724129313629 0 -0.32006011967048997 -0.035617271635437028 0 -0.30059364284392781 -0.26073206230967899 0 -0.3059790900976298 -0.24100614775169921 0 -0.29429240070356588 -0.24288348042963359 0 -0.3059790900976298 -0.24100614775169921 0 -0.29883643845181412 -0.22689400996038231 0 -0.29429240070356588 -0.24288348042963359 0 -0.29883643845181412 -0.22689400996038231 0 -0.31631794163962851 -0.2095557210199219 0 -0.32197620539698241 -0.23222827380590991 0 -0.3059790900976298 -0.24100614775169921 0 -0.29883643845181412 -0.22689400996038231 0 -0.32197620539698241 -0.23222827380590991 0 -0.29883643845181412 -0.22689400996038231 0 -0.28248542569765228 -0.22421882609015059 0 -0.29241551753672917 -0.2102848389073364 0 -0.29883643845181412 -0.22689400996038231 0 -0.28248542569765228 -0.22421882609015059 0 -0.28408591232549979 -0.23586476335450701 0 -0.29883643845181412 -0.22689400996038231 0 -0.28408591232549979 -0.23586476335450701 0 -0.29429240070356588 -0.24288348042963359 0 -0.28408591232549979 -0.23586476335450701 0 -0.29429240070356588 -0.24288348042963359 0 -0.28227790444285261 -0.24748029260235141 0 -0.26968452270859528 -0.25105584918283508 0 -0.28227790444285261 -0.24748029260235141 0 -0.27255533385857622 -0.23815281327296561 0 -0.28408591232549979 -0.23586476335450701 0 -0.28227790444285261 -0.24748029260235141 0 -0.27255533385857622 -0.23815281327296561 0 -0.26968452270859528 -0.25105584918283508 0 -0.27255533385857622 -0.23815281327296561 0 -0.25723339985396632 -0.24528001249266571 0 -0.27255533385857622 -0.23815281327296561 0 -0.25723339985396632 -0.24528001249266571 0 -0.25681069471921369 -0.22882700100864781 0 -0.23726921172755491 -0.24006168934922731 0 -0.25723339985396632 -0.24528001249266571 0 -0.25681069471921369 -0.22882700100864781 0 -0.25681069471921369 -0.22882700100864781 0 -0.26931939133882332 -0.22265922476031191 0 -0.25902516243353968 -0.21130337598408419 0 -0.27255533385857622 -0.23815281327296561 0 -0.25681069471921369 -0.22882700100864781 0 -0.26931939133882332 -0.22265922476031191 0 -0.28248542569765228 -0.22421882609015059 0 -0.27255533385857622 -0.23815281327296561 0 -0.28248542569765228 -0.22421882609015059 0 -0.28408591232549979 -0.23586476335450701 0 -0.27255533385857622 -0.23815281327296561 0 -0.28248542569765228 -0.22421882609015059 0 -0.27255533385857622 -0.23815281327296561 0 -0.26931939133882332 -0.22265922476031191 0 -0.28248542569765228 -0.22421882609015059 0 -0.26931939133882332 -0.22265922476031191 0 -0.27572033998513451 -0.21079410744571109 0 -0.27572033998513451 -0.21079410744571109 0 -0.25902516243353968 -0.21130337598408419 0 -0.26896398050014259 -0.1983059157608725 0 -0.27572033998513451 -0.21079410744571109 0 -0.25902516243353968 -0.21130337598408419 0 -0.26931939133882332 -0.22265922476031191 0 -0.27572033998513451 -0.21079410744571109 0 -0.25902516243353968 -0.21130337598408419 0 -0.24476685473631651 -0.21405980277710229 0 -0.25681069471921369 -0.22882700100864781 0 -0.25902516243353968 -0.21130337598408419 0 -0.25902516243353968 -0.21130337598408419 0 -0.25747534191789212 -0.1998206152762696 0 -0.26896398050014259 -0.1983059157608725 0 -0.24476685473631651 -0.21405980277710229 0 -0.25902516243353968 -0.21130337598408419 0 -0.25747534191789212 -0.1998206152762696 0 -0.24476685473631651 -0.21405980277710229 0 -0.25226449774507809 -0.1880579162049773 0 -0.25747534191789212 -0.1998206152762696 0 -0.25226449774507809 -0.1880579162049773 0 -0.25747534191789212 -0.1998206152762696 0 -0.26306977518420771 -0.18803299592647069 0 -0.25747534191789212 -0.1998206152762696 0 -0.26306977518420771 -0.18803299592647069 0 -0.26896398050014259 -0.1983059157608725 0 -0.26896398050014259 -0.1983059157608725 0 -0.2857848870053088 -0.19566851356437309 0 -0.27769519514398089 -0.18246397688370569 0 -0.27572033998513451 -0.21079410744571109 0 -0.26896398050014259 -0.1983059157608725 0 -0.2857848870053088 -0.19566851356437309 0 -0.26306977518420771 -0.18803299592647069 0 -0.26896398050014259 -0.1983059157608725 0 -0.27769519514398089 -0.18246397688370569 0 -0.2857848870053088 -0.19566851356437309 0 -0.30449033356976551 -0.19334135695713839 0 -0.29709549386514822 -0.1781904966225395 0 -0.2857848870053088 -0.19566851356437309 0 -0.29241551753672917 -0.2102848389073364 0 -0.30449033356976551 -0.19334135695713839 0 -0.27572033998513451 -0.21079410744571109 0 -0.29241551753672917 -0.2102848389073364 0 -0.27572033998513451 -0.21079410744571109 0 -0.2857848870053088 -0.19566851356437309 0 -0.29241551753672917 -0.2102848389073364 0 -0.28248542569765228 -0.22421882609015059 0 -0.27572033998513451 -0.21079410744571109 0 -0.29241551753672917 -0.2102848389073364 0 -0.28248542569765228 -0.22421882609015059 0 -0.29241551753672917 -0.2102848389073364 0 -0.29241551753672917 -0.2102848389073364 0 -0.30449033356976551 -0.19334135695713839 0 -0.31631794163962851 -0.2095557210199219 0 -0.29883643845181412 -0.22689400996038231 0 -0.29241551753672917 -0.2102848389073364 0 -0.31631794163962851 -0.2095557210199219 0 -0.29241551753672917 -0.2102848389073364 0 -0.31631794163962851 -0.2095557210199219 0 -0.29241551753672917 -0.2102848389073364 0 -0.30449033356976551 -0.19334135695713839 0 -0.30449033356976551 -0.19334135695713839 0 -0.31656514960280269 -0.1763978750069411 0 -0.30449033356976551 -0.19334135695713839 0 -0.29709549386514822 -0.1781904966225395 0 -0.31656514960280269 -0.1763978750069411 0 -0.29709549386514822 -0.1781904966225395 0 -0.30991182112959031 -0.15793510562429841 0 -0.31656514960280269 -0.1763978750069411 0 -0.29709549386514822 -0.1781904966225395 0 -0.30991182112959031 -0.15793510562429841 0 -0.28812557673944128 -0.16333615169878021 0 -0.30991182112959031 -0.15793510562429841 0 -0.28812557673944128 -0.16333615169878021 0 -0.29304453799347058 -0.14754030194788181 0 -0.2857848870053088 -0.19566851356437309 0 -0.29709549386514822 -0.1781904966225395 0 -0.27769519514398089 -0.18246397688370569 0 -0.29709549386514822 -0.1781904966225395 0 -0.28812557673944128 -0.16333615169878021 0 -0.27769519514398089 -0.18246397688370569 0 -0.27769519514398089 -0.18246397688370569 0 -0.2651721126196136 -0.17724498747975451 0 -0.27343981647922722 -0.16627780839352649 0 -0.26306977518420771 -0.18803299592647069 0 -0.27769519514398089 -0.18246397688370569 0 -0.2651721126196136 -0.17724498747975451 0 -0.25226449774507809 -0.1880579162049773 0 -0.25976214075384019 -0.16205602963285251 0 -0.25226449774507809 -0.1880579162049773 0 -0.26306977518420771 -0.18803299592647069 0 -0.2651721126196136 -0.17724498747975451 0 -0.2425852920552439 -0.1817601080430922 0 -0.25976214075384019 -0.16205602963285251 0 -0.2425852920552439 -0.1817601080430922 0 -0.25226449774507809 -0.1880579162049773 0 -0.25976214075384019 -0.16205602963285251 0 -0.25226449774507809 -0.1880579162049773 0 -0.2651721126196136 -0.17724498747975451 0 -0.25976214075384019 -0.16205602963285251 0 -0.24422020208295089 -0.167514444885139 0 -0.24998907486214761 -0.1541215804146413 0 -0.25976214075384019 -0.16205602963285251 0 -0.25976214075384019 -0.16205602963285251 0 -0.27343981647922722 -0.16627780839352649 0 -0.27345572358967479 -0.1463477099841835 0 -0.28812557673944128 -0.16333615169878021 0 -0.27343981647922722 -0.16627780839352649 0 -0.27345572358967479 -0.1463477099841835 0 -0.28812557673944128 -0.16333615169878021 0 -0.27769519514398089 -0.18246397688370569 0 -0.27343981647922722 -0.16627780839352649 0 -0.2651721126196136 -0.17724498747975451 0 -0.25976214075384019 -0.16205602963285251 0 -0.27343981647922722 -0.16627780839352649 0 -0.25976214075384019 -0.16205602963285251 0 -0.27345572358967479 -0.1463477099841835 0 -0.26535053896537508 -0.14267541945357259 0 -0.25976214075384019 -0.16205602963285251 0 -0.27345572358967479 -0.1463477099841835 0 -0.27345572358967479 -0.1463477099841835 0 -0.26535053896537508 -0.14267541945357259 0 -0.27396698941020142 -0.13492462531044749 0 -0.25976214075384019 -0.16205602963285251 0 -0.26535053896537508 -0.14267541945357259 0 -0.24998907486214761 -0.1541215804146413 0 -0.25976214075384019 -0.16205602963285251 0 -0.26535053896537508 -0.14267541945357259 0 -0.24210938348540681 -0.14090660993778309 0 -0.24998907486214761 -0.1541215804146413 0 -0.26535053896537508 -0.14267541945357259 0 -0.24210938348540681 -0.14090660993778309 0 -0.26535053896537508 -0.14267541945357259 0 -0.26122075901893838 -0.12769872472474911 0 -0.24210938348540681 -0.14090660993778309 0 -0.25724968386170383 -0.1158563673658374 0 -0.26122075901893838 -0.12769872472474911 0 -0.27093893717690898 -0.1232948092742925 0 -0.26535053896537508 -0.14267541945357259 0 -0.27093893717690898 -0.1232948092742925 0 -0.26535053896537508 -0.14267541945357259 0 -0.26122075901893838 -0.12769872472474911 0 -0.27093893717690898 -0.1232948092742925 0 -0.28714930642550851 -0.13063939033551369 0 -0.27093893717690898 -0.1232948092742925 0 -0.26535053896537508 -0.14267541945357259 0 -0.27396698941020142 -0.13492462531044749 0 -0.27345572358967479 -0.1463477099841835 0 -0.27396698941020142 -0.13492462531044749 0 -0.28714930642550851 -0.13063939033551369 0 -0.27093893717690898 -0.1232948092742925 0 -0.27396698941020142 -0.13492462531044749 0 -0.28714930642550851 -0.13063939033551369 0 -0.27345572358967479 -0.1463477099841835 0 -0.28714930642550851 -0.13063939033551369 0 -0.28714930642550851 -0.13063939033551369 0 -0.30658026208313738 -0.13944315209663249 0 -0.28714930642550851 -0.13063939033551369 0 -0.29304453799347058 -0.14754030194788181 0 -0.30658026208313738 -0.13944315209663249 0 -0.28812557673944128 -0.16333615169878021 0 -0.27345572358967479 -0.1463477099841835 0 -0.29304453799347058 -0.14754030194788181 0 -0.27345572358967479 -0.1463477099841835 0 -0.28714930642550851 -0.13063939033551369 0 -0.29304453799347058 -0.14754030194788181 0 -0.30991182112959031 -0.15793510562429841 0 -0.29304453799347058 -0.14754030194788181 0 -0.30658026208313738 -0.13944315209663249 0 -0.29983727003253607 -0.11608464667059799 0 -0.28714930642550851 -0.13063939033551369 0 -0.30658026208313738 -0.13944315209663249 0 -0.31924464944549169 -0.1193981324436013 0 -0.32601121774076641 -0.1482469138577511 0 -0.31924464944549169 -0.1193981324436013 0 -0.30658026208313738 -0.13944315209663249 0 -0.32601121774076641 -0.1482469138577511 0 -0.31924464944549169 -0.1193981324436013 0 -0.32601121774076641 -0.1482469138577511 0 -0.33124808832155311 -0.13954205214944401 0 -0.30658026208313738 -0.13944315209663249 0 -0.32601121774076641 -0.1482469138577511 0 -0.30991182112959031 -0.15793510562429841 0 -0.32601121774076641 -0.1482469138577511 0 -0.32863996563583958 -0.1594543930567435 0 -0.30991182112959031 -0.15793510562429841 0 -0.30658026208313738 -0.13944315209663249 0 -0.32601121774076641 -0.1482469138577511 0 -0.32601121774076641 -0.1482469138577511 0 -0.32863996563583958 -0.1594543930567435 0 -0.3428875467448631 -0.15589322742936601 0 -0.33781698716811809 -0.131792923244576 0 -0.33136008105985892 -0.1471149884084661 0 -0.33674007703452752 -0.14808824959727021 0 -0.33124808832155311 -0.13954205214944401 0 -0.3428875467448631 -0.15589322742936601 0 -0.33674007703452752 -0.14808824959727021 0 -0.33781698716811809 -0.131792923244576 0 -0.32601121774076641 -0.1482469138577511 0 -0.33136008105985892 -0.1471149884084661 0 -0.33124808832155311 -0.13954205214944401 0 -0.3428875467448631 -0.15589322742936601 0 -0.33781698716811809 -0.131792923244576 0 -0.35010999465331372 -0.14206060727601499 0 -0.32601121774076641 -0.1482469138577511 0 -0.33403592304950303 -0.1518827408847947 0 -0.32601121774076641 -0.1482469138577511 0 -0.33136008105985892 -0.1471149884084661 0 -0.33403592304950303 -0.1518827408847947 0 -0.32601121774076641 -0.1482469138577511 0 -0.33403592304950303 -0.1518827408847947 0 -0.32863996563583958 -0.1594543930567435 0 -0.33403592304950303 -0.1518827408847947 0 -0.32863996563583958 -0.1594543930567435 0 -0.33136008105985892 -0.1471149884084661 0 -0.33403592304950303 -0.1518827408847947 0 -0.33674007703452752 -0.14808824959727021 0 -0.33403592304950303 -0.1518827408847947 0 -0.33674007703452752 -0.14808824959727021 0 -0.33403592304950303 -0.1518827408847947 0 -0.3428875467448631 -0.15589322742936601 0 -0.33403592304950303 -0.1518827408847947 0 -0.3428875467448631 -0.15589322742936601 0 -0.33674007703452752 -0.14808824959727021 0 -0.31924464944549169 -0.1193981324436013 0 -0.33124808832155311 -0.13954205214944401 0 -0.33781698716811809 -0.131792923244576 0 -0.33674007703452752 -0.14808824959727021 0 -0.33124808832155311 -0.13954205214944401 0 -0.33781698716811809 -0.131792923244576 0 -0.3479295457816895 -0.11708174174598091 0 -0.33781698716811809 -0.131792923244576 0 -0.35333410800397269 -0.1297329932894101 0 -0.33781698716811809 -0.131792923244576 0 -0.35333410800397269 -0.1297329932894101 0 -0.35010999465331372 -0.14206060727601499 0 -0.35333410800397269 -0.1297329932894101 0 -0.36206268431740002 -0.14026969569852721 0 -0.35010999465331372 -0.14206060727601499 0 -0.35333410800397269 -0.1297329932894101 0 -0.3637843904388231 -0.12833352866140901 0 -0.36206268431740002 -0.14026969569852721 0 -0.36436978055373709 -0.1177810376174618 0 -0.35333410800397269 -0.1297329932894101 0 -0.3637843904388231 -0.12833352866140901 0 -0.3637843904388231 -0.12833352866140901 0 -0.36206268431740002 -0.14026969569852721 0 -0.37450924494895871 -0.1297507813620131 0 -0.36206268431740002 -0.14026969569852721 0 -0.37450924494895871 -0.1297507813620131 0 -0.37753836581969208 -0.14379386440428779 0 -0.36436978055373709 -0.1177810376174618 0 -0.3637843904388231 -0.12833352866140901 0 -0.37450924494895871 -0.1297507813620131 0 -0.36206268431740002 -0.14026969569852721 0 -0.36812994489156969 -0.1533575864653714 0 -0.37753836581969208 -0.14379386440428779 0 -0.36206268431740002 -0.14026969569852721 0 -0.36812994489156969 -0.1533575864653714 0 -0.35671208429496531 -0.1512798040921898 0 -0.36206268431740002 -0.14026969569852721 0 -0.35671208429496531 -0.1512798040921898 0 -0.35010999465331372 -0.14206060727601499 0 -0.3428875467448631 -0.15589322742936601 0 -0.35671208429496531 -0.1512798040921898 0 -0.35010999465331372 -0.14206060727601499 0 -0.34455500141722822 -0.1638186179528672 0 -0.36121391747410753 -0.16419652473954391 0 -0.35263801936113481 -0.17487116212052381 0 -0.3428875467448631 -0.15589322742936601 0 -0.36121391747410753 -0.16419652473954391 0 -0.3428875467448631 -0.15589322742936601 0 -0.34455500141722822 -0.1638186179528672 0 -0.36121391747410753 -0.16419652473954391 0 -0.3428875467448631 -0.15589322742936601 0 -0.35671208429496531 -0.1512798040921898 0 -0.36121391747410753 -0.16419652473954391 0 -0.34455500141722822 -0.1638186179528672 0 -0.35263801936113481 -0.17487116212052381 0 -0.34089034486957492 -0.17133002710633011 0 -0.36812994489156969 -0.1533575864653714 0 -0.35671208429496531 -0.1512798040921898 0 -0.36121391747410753 -0.16419652473954391 0 -0.36121391747410753 -0.16419652473954391 0 -0.37361720577819091 -0.1638329679750688 0 -0.37187522066282508 -0.17805200639884089 0 -0.36812994489156969 -0.1533575864653714 0 -0.36121391747410753 -0.16419652473954391 0 -0.37361720577819091 -0.1638329679750688 0 -0.36812994489156969 -0.1533575864653714 0 -0.37361720577819091 -0.1638329679750688 0 -0.37971124880423429 -0.15504778954554199 0 -0.37187522066282508 -0.17805200639884089 0 -0.35945827081052778 -0.18612631685893019 0 -0.36757691284182809 -0.19568024907814779 0 -0.36121391747410753 -0.16419652473954391 0 -0.37187522066282508 -0.17805200639884089 0 -0.35263801936113481 -0.17487116212052381 0 -0.37187522066282508 -0.17805200639884089 0 -0.35945827081052778 -0.18612631685893019 0 -0.35263801936113481 -0.17487116212052381 0 -0.35945827081052778 -0.18612631685893019 0 -0.35263801936113481 -0.17487116212052381 0 -0.34712355889635188 -0.18299554313977451 0 -0.35263801936113481 -0.17487116212052381 0 -0.34712355889635188 -0.18299554313977451 0 -0.34089034486957492 -0.17133002710633011 0 -0.34712355889635188 -0.18299554313977451 0 -0.33443016568918432 -0.18414049809462421 0 -0.34089034486957492 -0.17133002710633011 0 -0.33443016568918432 -0.18414049809462421 0 -0.34089034486957492 -0.17133002710633011 0 -0.32863996563583958 -0.1594543930567435 0 -0.34455500141722822 -0.1638186179528672 0 -0.34089034486957492 -0.17133002710633011 0 -0.33825131226282318 -0.16116967685930891 0 -0.33443016568918432 -0.18414049809462421 0 -0.32863996563583958 -0.1594543930567435 0 -0.3428875467448631 -0.15589322742936601 0 -0.34455500141722822 -0.1638186179528672 0 -0.33825131226282318 -0.16116967685930891 0 -0.3428875467448631 -0.15589322742936601 0 -0.34455500141722822 -0.1638186179528672 0 -0.33403592304950303 -0.1518827408847947 0 -0.3428875467448631 -0.15589322742936601 0 -0.33825131226282318 -0.16116967685930891 0 -0.34089034486957492 -0.17133002710633011 0 -0.33825131226282318 -0.16116967685930891 0 -0.32863996563583958 -0.1594543930567435 0 -0.33403592304950303 -0.1518827408847947 0 -0.33825131226282318 -0.16116967685930891 0 -0.32863996563583958 -0.1594543930567435 0 -0.30991182112959031 -0.15793510562429841 0 -0.32863996563583958 -0.1594543930567435 0 -0.31656514960280269 -0.1763978750069411 0 -0.32863996563583958 -0.1594543930567435 0 -0.31656514960280269 -0.1763978750069411 0 -0.33443016568918432 -0.18414049809462421 0 -0.31656514960280269 -0.1763978750069411 0 -0.32099197835074889 -0.1937252123032818 0 -0.33443016568918432 -0.18414049809462421 0 -0.32863996563583958 -0.1594543930567435 0 -0.31656514960280269 -0.1763978750069411 0 -0.30449033356976551 -0.19334135695713839 0 -0.31656514960280269 -0.1763978750069411 0 -0.32099197835074889 -0.1937252123032818 0 -0.30449033356976551 -0.19334135695713839 0 -0.32099197835074889 -0.1937252123032818 0 -0.31631794163962851 -0.2095557210199219 0 -0.31631794163962851 -0.2095557210199219 0 -0.34022036574252779 -0.20882660313250531 0 -0.32197620539698241 -0.23222827380590991 0 -0.32099197835074889 -0.1937252123032818 0 -0.31631794163962851 -0.2095557210199219 0 -0.34022036574252779 -0.20882660313250531 0 -0.31631794163962851 -0.2095557210199219 0 -0.34022036574252779 -0.20882660313250531 0 -0.33443016568918432 -0.18414049809462421 0 -0.34022036574252779 -0.20882660313250531 0 -0.34879290184156259 -0.1954491686901878 0 -0.33443016568918432 -0.18414049809462421 0 -0.34022036574252779 -0.20882660313250531 0 -0.33443016568918432 -0.18414049809462421 0 -0.32099197835074889 -0.1937252123032818 0 -0.34022036574252779 -0.20882660313250531 0 -0.34712355889635188 -0.18299554313977451 0 -0.33443016568918432 -0.18414049809462421 0 -0.34879290184156259 -0.1954491686901878 0 -0.35945827081052778 -0.18612631685893019 0 -0.34879290184156259 -0.1954491686901878 0 -0.36757691284182809 -0.19568024907814779 0 -0.34879290184156259 -0.1954491686901878 0 -0.36757691284182809 -0.19568024907814779 0 -0.35659827062369531 -0.20832701265767131 0 -0.35945827081052778 -0.18612631685893019 0 -0.34712355889635188 -0.18299554313977451 0 -0.34879290184156259 -0.1954491686901878 0 -0.37187522066282508 -0.17805200639884089 0 -0.36757691284182809 -0.19568024907814779 0 -0.38098571878036569 -0.1938249982392809 0 -0.36757691284182809 -0.19568024907814779 0 -0.37297617550486278 -0.20782742218283701 0 -0.38098571878036569 -0.1938249982392809 0 -0.37297617550486278 -0.20782742218283701 0 -0.36127794552131182 -0.2282784728838044 0 -0.37297617550486278 -0.20782742218283701 0 -0.35798073102607841 -0.21197486788472819 0 -0.36127794552131182 -0.2282784728838044 0 -0.37297617550486278 -0.20782742218283701 0 -0.35798073102607841 -0.21197486788472819 0 -0.35659827062369531 -0.20832701265767131 0 -0.37297617550486278 -0.20782742218283701 0 -0.35659827062369531 -0.20832701265767131 0 -0.36757691284182809 -0.19568024907814779 0 -0.37297617550486278 -0.20782742218283701 0 -0.35659827062369531 -0.20832701265767131 0 -0.34022036574252779 -0.20882660313250531 0 -0.34879290184156259 -0.1954491686901878 0 -0.35659827062369531 -0.20832701265767131 0 -0.34022036574252779 -0.20882660313250531 0 -0.34855827145879709 -0.21345989254902539 0 -0.34557635476038789 -0.2316614803834674 0 -0.34022036574252779 -0.20882660313250531 0 -0.35659827062369531 -0.20832701265767131 0 -0.34855827145879709 -0.21345989254902539 0 -0.35798073102607841 -0.21197486788472819 0 -0.35659827062369531 -0.20832701265767131 0 -0.34855827145879709 -0.21345989254902539 0 -0.34022036574252779 -0.20882660313250531 0 -0.35659827062369531 -0.20832701265767131 0 -0.35798073102607841 -0.21197486788472819 0 -0.34557635476038789 -0.2316614803834674 0 -0.35798073102607841 -0.21197486788472819 0 -0.34557635476038789 -0.2316614803834674 0 -0.36127794552131182 -0.2282784728838044 0 -0.35798073102607841 -0.21197486788472819 0 -0.34855827145879709 -0.21345989254902539 0 -0.34557635476038789 -0.2316614803834674 0 -0.37297617550486278 -0.20782742218283701 0 -0.36127794552131182 -0.2282784728838044 0 -0.37436681250690218 -0.22416368676438861 0 -0.36127794552131182 -0.2282784728838044 0 -0.37436681250690218 -0.22416368676438861 0 -0.37040568777004051 -0.2353067150245495 0 -0.38363630264229848 -0.25809705366370023 0 -0.3658643060594724 -0.25625595869071832 0 -0.37040568777004051 -0.2353067150245495 0 -0.36127794552131182 -0.2282784728838044 0 -0.37040568777004051 -0.2353067150245495 0 -0.34957971553776052 -0.24872952358477179 0 -0.3658643060594724 -0.25625595869071832 0 -0.37040568777004051 -0.2353067150245495 0 -0.34957971553776052 -0.24872952358477179 0 -0.34557635476038789 -0.2316614803834674 0 -0.36127794552131182 -0.2282784728838044 0 -0.34957971553776052 -0.24872952358477179 0 -0.36127794552131182 -0.2282784728838044 0 -0.34957971553776052 -0.24872952358477179 0 -0.34557635476038789 -0.2316614803834674 0 -0.34957971553776052 -0.24872952358477179 0 -0.33224286800269481 -0.25282265620023531 0 -0.34557635476038789 -0.2316614803834674 0 -0.32197620539698241 -0.23222827380590991 0 -0.33224286800269481 -0.25282265620023531 0 -0.34557635476038789 -0.2316614803834674 0 -0.34957971553776052 -0.24872952358477179 0 -0.33224286800269481 -0.25282265620023531 0 -0.34557635476038789 -0.2316614803834674 0 -0.34022036574252779 -0.20882660313250531 0 -0.34557635476038789 -0.2316614803834674 0 -0.34022036574252779 -0.20882660313250531 0 -0.34557635476038789 -0.2316614803834674 0 -0.32197620539698241 -0.23222827380590991 0 -0.31629866879799751 -0.25491618832279089 0 -0.3059790900976298 -0.24100614775169921 0 -0.32197620539698241 -0.23222827380590991 0 -0.31629866879799751 -0.25491618832279089 0 -0.33224286800269481 -0.25282265620023531 0 -0.32197620539698241 -0.23222827380590991 0 -0.43358298565690417 -0.241082157972731 0 -0.42985242159975362 -0.22740650598564441 0 -0.41036478893875628 -0.24424314929707239 0 -0.42667168072618078 -0.25551905905227312 0 -0.43358298565690417 -0.241082157972731 0 -0.41036478893875628 -0.24424314929707239 0 -0.42985242159975362 -0.22740650598564441 0 -0.4176127522550323 -0.21878823543326559 0 -0.4362001577861121 -0.21132000631676959 0 -0.42985242159975362 -0.22740650598564441 0 -0.4362001577861121 -0.21132000631676959 0 -0.44615636075579429 -0.2293402666779705 0 -0.43358298565690417 -0.241082157972731 0 -0.42985242159975362 -0.22740650598564441 0 -0.44615636075579429 -0.2293402666779705 0 -0.4176127522550323 -0.21878823543326559 0 -0.41036478893875628 -0.24424314929707239 0 -0.4176127522550323 -0.21878823543326559 0 -0.41036478893875628 -0.24424314929707239 0 -0.40236745167738119 -0.2194034089856351 0 -0.42985242159975362 -0.22740650598564441 0 -0.4176127522550323 -0.21878823543326559 0 -0.41036478893875628 -0.24424314929707239 0 -0.38363630264229848 -0.25809705366370023 0 -0.41036478893875628 -0.24424314929707239 0 -0.38485331625252689 -0.24193557382599529 0 -0.41036478893875628 -0.24424314929707239 0 -0.38485331625252689 -0.24193557382599529 0 -0.39262830745029709 -0.23028670435882839 0 -0.38363630264229848 -0.25809705366370023 0 -0.37040568777004051 -0.2353067150245495 0 -0.38363630264229848 -0.25809705366370023 0 -0.37040568777004051 -0.2353067150245495 0 -0.38485331625252689 -0.24193557382599529 0 -0.37040568777004051 -0.2353067150245495 0 -0.38485331625252689 -0.24193557382599529 0 -0.38168530870699091 -0.2300930354990369 0 -0.37436681250690218 -0.22416368676438861 0 -0.38168530870699091 -0.2300930354990369 0 -0.38607285310995049 -0.21953215021016129 0 -0.37436681250690218 -0.22416368676438861 0 -0.37040568777004051 -0.2353067150245495 0 -0.38168530870699091 -0.2300930354990369 0 -0.38485331625252689 -0.24193557382599529 0 -0.38168530870699091 -0.2300930354990369 0 -0.39262830745029709 -0.23028670435882839 0 -0.38168530870699091 -0.2300930354990369 0 -0.38607285310995049 -0.21953215021016129 0 -0.39262830745029709 -0.23028670435882839 0 -0.38607285310995049 -0.21953215021016129 0 -0.39262830745029709 -0.23028670435882839 0 -0.40236745167738119 -0.2194034089856351 0 -0.41036478893875628 -0.24424314929707239 0 -0.39262830745029709 -0.23028670435882839 0 -0.40236745167738119 -0.2194034089856351 0 -0.38607285310995049 -0.21953215021016129 0 -0.40236745167738119 -0.2194034089856351 0 -0.3921741033447001 -0.20724180992321459 0 -0.3921741033447001 -0.20724180992321459 0 -0.41137203118453741 -0.20665619766359231 0 -0.40236745167738119 -0.2194034089856351 0 -0.3921741033447001 -0.20724180992321459 0 -0.41137203118453741 -0.20665619766359231 0 -0.37297617550486278 -0.20782742218283701 0 -0.3921741033447001 -0.20724180992321459 0 -0.37297617550486278 -0.20782742218283701 0 -0.38607285310995049 -0.21953215021016129 0 -0.3921741033447001 -0.20724180992321459 0 -0.37297617550486278 -0.20782742218283701 0 -0.37436681250690218 -0.22416368676438861 0 -0.38607285310995049 -0.21953215021016129 0 -0.37297617550486278 -0.20782742218283701 0 -0.3921741033447001 -0.20724180992321459 0 -0.38098571878036569 -0.1938249982392809 0 -0.37297617550486278 -0.20782742218283701 0 -0.38098571878036569 -0.1938249982392809 0 -0.3921741033447001 -0.20724180992321459 0 -0.38098571878036569 -0.1938249982392809 0 -0.39127234412104378 -0.19295874585362599 0 -0.38098571878036569 -0.1938249982392809 0 -0.39127234412104378 -0.19295874585362599 0 -0.38899526205586848 -0.1798225742957249 0 -0.3921741033447001 -0.20724180992321459 0 -0.39127234412104378 -0.19295874585362599 0 -0.40293429230324079 -0.1909456009562836 0 -0.39127234412104378 -0.19295874585362599 0 -0.40293429230324079 -0.1909456009562836 0 -0.38899526205586848 -0.1798225742957249 0 -0.3921741033447001 -0.20724180992321459 0 -0.40293429230324079 -0.1909456009562836 0 -0.41137203118453741 -0.20665619766359231 0 -0.40293429230324079 -0.1909456009562836 0 -0.41331129962192831 -0.19408209997029141 0 -0.41137203118453741 -0.20665619766359231 0 -0.40293429230324079 -0.1909456009562836 0 -0.41331129962192831 -0.19408209997029141 0 -0.41317698021996768 -0.18045739091590399 0 -0.41331129962192831 -0.19408209997029141 0 -0.42486071557130822 -0.1933333215694589 0 -0.41317698021996768 -0.18045739091590399 0 -0.41331129962192831 -0.19408209997029141 0 -0.41137203118453741 -0.20665619766359231 0 -0.42486071557130822 -0.1933333215694589 0 -0.4176127522550323 -0.21878823543326559 0 -0.41137203118453741 -0.20665619766359231 0 -0.42486071557130822 -0.1933333215694589 0 -0.4176127522550323 -0.21878823543326559 0 -0.42486071557130822 -0.1933333215694589 0 -0.4176127522550323 -0.21878823543326559 0 -0.40236745167738119 -0.2194034089856351 0 -0.41137203118453741 -0.20665619766359231 0 -0.4176127522550323 -0.21878823543326559 0 -0.4362001577861121 -0.21132000631676959 0 -0.42486071557130822 -0.1933333215694589 0 -0.4362001577861121 -0.21132000631676959 0 -0.42486071557130822 -0.1933333215694589 0 -0.44229433502699977 -0.19044164501328531 0 -0.42486071557130822 -0.1933333215694589 0 -0.43210867888758481 -0.16787840770565221 0 -0.44229433502699977 -0.19044164501328531 0 -0.43210867888758481 -0.16787840770565221 0 -0.44229433502699977 -0.19044164501328531 0 -0.42486071557130822 -0.1933333215694589 0 -0.43210867888758481 -0.16787840770565221 0 -0.42167865550202621 -0.17008555973329631 0 -0.42486071557130822 -0.1933333215694589 0 -0.43210867888758481 -0.16787840770565221 0 -0.43210867888758481 -0.16787840770565221 0 -0.43739039813411013 -0.14932896110853469 0 -0.44210695830673458 -0.15809578038124819 0 -0.43210867888758481 -0.16787840770565221 0 -0.4270789713649556 -0.15673661351313631 0 -0.43739039813411013 -0.14932896110853469 0 -0.43210867888758481 -0.16787840770565221 0 -0.43739039813411013 -0.14932896110853469 0 -0.43210867888758481 -0.16787840770565221 0 -0.4270789713649556 -0.15673661351313631 0 -0.43210867888758481 -0.16787840770565221 0 -0.4270789713649556 -0.15673661351313631 0 -0.42167865550202621 -0.17008555973329631 0 -0.42167865550202621 -0.17008555973329631 0 -0.41324220780794108 -0.1643252601605068 0 -0.41317698021996768 -0.18045739091590399 0 -0.4270789713649556 -0.15673661351313631 0 -0.42167865550202621 -0.17008555973329631 0 -0.41324220780794108 -0.1643252601605068 0 -0.4270789713649556 -0.15673661351313631 0 -0.41324220780794108 -0.1643252601605068 0 -0.41428797453641281 -0.14922169607865399 0 -0.41324220780794108 -0.1643252601605068 0 -0.40201938042375163 -0.15835244720266661 0 -0.41428797453641281 -0.14922169607865399 0 -0.42486071557130822 -0.1933333215694589 0 -0.42167865550202621 -0.17008555973329631 0 -0.41317698021996768 -0.18045739091590399 0 -0.41324220780794108 -0.1643252601605068 0 -0.41317698021996768 -0.18045739091590399 0 -0.40121128480053297 -0.17109785351938389 0 -0.40293429230324079 -0.1909456009562836 0 -0.41317698021996768 -0.18045739091590399 0 -0.40121128480053297 -0.17109785351938389 0 -0.40293429230324079 -0.1909456009562836 0 -0.38899526205586848 -0.1798225742957249 0 -0.40121128480053297 -0.17109785351938389 0 -0.38899526205586848 -0.1798225742957249 0 -0.38788083478567331 -0.16519246831536391 0 -0.40121128480053297 -0.17109785351938389 0 -0.38098571878036569 -0.1938249982392809 0 -0.38899526205586848 -0.1798225742957249 0 -0.37187522066282508 -0.17805200639884089 0 -0.38098571878036569 -0.1938249982392809 0 -0.38899526205586848 -0.1798225742957249 0 -0.37187522066282508 -0.17805200639884089 0 -0.38899526205586848 -0.1798225742957249 0 -0.38788083478567331 -0.16519246831536391 0 -0.37361720577819091 -0.1638329679750688 0 -0.37187522066282508 -0.17805200639884089 0 -0.38788083478567331 -0.16519246831536391 0 -0.38788083478567331 -0.16519246831536391 0 -0.39269106485846872 -0.1488642859378928 0 -0.37971124880423429 -0.15504778954554199 0 -0.37361720577819091 -0.1638329679750688 0 -0.38788083478567331 -0.16519246831536391 0 -0.37971124880423429 -0.15504778954554199 0 -0.38788083478567331 -0.16519246831536391 0 -0.40201938042375163 -0.15835244720266661 0 -0.39269106485846872 -0.1488642859378928 0 -0.38788083478567331 -0.16519246831536391 0 -0.40121128480053297 -0.17109785351938389 0 -0.40201938042375163 -0.15835244720266661 0 -0.41324220780794108 -0.1643252601605068 0 -0.40121128480053297 -0.17109785351938389 0 -0.40201938042375163 -0.15835244720266661 0 -0.40201938042375163 -0.15835244720266661 0 -0.40352805512278361 -0.14857409048883061 0 -0.39269106485846872 -0.1488642859378928 0 -0.40352805512278361 -0.14857409048883061 0 -0.39269106485846872 -0.1488642859378928 0 -0.40511380067250152 -0.13785793273610891 0 -0.39269106485846872 -0.1488642859378928 0 -0.37753836581969208 -0.14379386440428779 0 -0.37971124880423429 -0.15504778954554199 0 -0.39269106485846872 -0.1488642859378928 0 -0.37753836581969208 -0.14379386440428779 0 -0.38896967370394853 -0.13485166856425529 0 -0.36812994489156969 -0.1533575864653714 0 -0.37753836581969208 -0.14379386440428779 0 -0.37971124880423429 -0.15504778954554199 0 -0.37450924494895871 -0.1297507813620131 0 -0.38896967370394853 -0.13485166856425529 0 -0.38885942621782488 -0.11883320660732059 0 -0.37450924494895871 -0.1297507813620131 0 -0.37753836581969208 -0.14379386440428779 0 -0.38896967370394853 -0.13485166856425529 0 -0.39269106485846872 -0.1488642859378928 0 -0.38896967370394853 -0.13485166856425529 0 -0.40511380067250152 -0.13785793273610891 0 -0.38896967370394853 -0.13485166856425529 0 -0.40055910045300319 -0.12518897445588739 0 -0.38885942621782488 -0.11883320660732059 0 -0.38896967370394853 -0.13485166856425529 0 -0.40511380067250152 -0.13785793273610891 0 -0.40055910045300319 -0.12518897445588739 0 -0.40511380067250152 -0.13785793273610891 0 -0.41955756701583158 -0.13473073207956951 0 -0.41546929335679977 -0.12187605018846059 0 -0.40511380067250152 -0.13785793273610891 0 -0.40055910045300319 -0.12518897445588739 0 -0.41546929335679977 -0.12187605018846059 0 -0.41955756701583158 -0.13473073207956951 0 -0.41546929335679977 -0.12187605018846059 0 -0.42982198298510338 -0.1216037293172005 0 -0.40511380067250152 -0.13785793273610891 0 -0.41955756701583158 -0.13473073207956951 0 -0.41428797453641281 -0.14922169607865399 0 -0.40352805512278361 -0.14857409048883061 0 -0.40511380067250152 -0.13785793273610891 0 -0.41428797453641281 -0.14922169607865399 0 -0.40201938042375163 -0.15835244720266661 0 -0.40352805512278361 -0.14857409048883061 0 -0.41428797453641281 -0.14922169607865399 0 -0.41955756701583158 -0.13473073207956951 0 -0.41428797453641281 -0.14922169607865399 0 -0.4264536240165418 -0.14584159314617129 0 -0.4270789713649556 -0.15673661351313631 0 -0.41428797453641281 -0.14922169607865399 0 -0.4264536240165418 -0.14584159314617129 0 -0.4270789713649556 -0.15673661351313631 0 -0.4264536240165418 -0.14584159314617129 0 -0.43739039813411013 -0.14932896110853469 0 -0.4264536240165418 -0.14584159314617129 0 -0.43739039813411013 -0.14932896110853469 0 -0.43128079267466968 -0.13718201367826399 0 -0.43739039813411013 -0.14932896110853469 0 -0.43128079267466968 -0.13718201367826399 0 -0.44267211738063611 -0.13077951451141731 0 -0.43128079267466968 -0.13718201367826399 0 -0.44267211738063611 -0.13077951451141731 0 -0.42982198298510338 -0.1216037293172005 0 -0.41955756701583158 -0.13473073207956951 0 -0.43128079267466968 -0.13718201367826399 0 -0.42982198298510338 -0.1216037293172005 0 -0.41955756701583158 -0.13473073207956951 0 -0.4264536240165418 -0.14584159314617129 0 -0.43128079267466968 -0.13718201367826399 0 -0.44267211738063611 -0.13077951451141731 0 -0.44316768406366081 -0.14370396554782991 0 -0.46219681628934162 -0.13286197430266741 0 -0.43739039813411013 -0.14932896110853469 0 -0.44267211738063611 -0.13077951451141731 0 -0.44267211738063611 -0.13077951451141731 0 -0.46219681628934162 -0.13286197430266741 0 -0.45425112615932689 -0.1130450828404206 0 -0.44316768406366081 -0.14370396554782991 0 -0.46219681628934162 -0.13286197430266741 0 -0.43739039813411013 -0.14932896110853469 0 -0.44267211738063611 -0.13077951451141731 0 -0.44316768406366081 -0.14370396554782991 0 -0.43739039813411013 -0.14932896110853469 0 -0.44316768406366081 -0.14370396554782991 0 -0.44552735383881059 -0.15116325021876451 0 -0.43739039813411013 -0.14932896110853469 0 -0.44552735383881059 -0.15116325021876451 0 -0.44210695830673458 -0.15809578038124819 0 -0.44552735383881059 -0.15116325021876451 0 -0.45574577280000439 -0.14748356830132131 0 -0.44922595588954328 -0.15720397575488851 0 -0.44552735383881059 -0.15116325021876451 0 -0.44922595588954328 -0.15720397575488851 0 -0.44210695830673458 -0.15809578038124819 0 -0.44316768406366081 -0.14370396554782991 0 -0.44552735383881059 -0.15116325021876451 0 -0.45574577280000439 -0.14748356830132131 0 -0.44316768406366081 -0.14370396554782991 0 -0.45574577280000439 -0.14748356830132131 0 -0.46219681628934162 -0.13286197430266741 0 -0.45574577280000439 -0.14748356830132131 0 -0.47371056135088518 -0.15151446790381221 0 -0.45868265644558709 -0.1654183356670893 0 -0.45574577280000439 -0.14748356830132131 0 -0.46219681628934162 -0.13286197430266741 0 -0.47371056135088518 -0.15151446790381221 0 -0.46219681628934162 -0.13286197430266741 0 -0.48122594851502221 -0.1220199830575044 0 -0.46219681628934162 -0.13286197430266741 0 -0.48430618115467777 -0.13807476474772301 0 -0.48122594851502221 -0.1220199830575044 0 -0.48430618115467777 -0.13807476474772301 0 -0.49999999999999611 -0.1282663722468812 0 -0.48122594851502221 -0.1220199830575044 0 -0.49999999999999611 -0.1282663722468812 0 -0.48122594851502221 -0.1220199830575044 0 -0.48430618115467777 -0.13807476474772301 0 -0.47371056135088518 -0.15151446790381221 0 -0.5 -0.1568802971094784 0 -0.48430618115467777 -0.13807476474772301 0 -0.49999999999999611 -0.1282663722468812 0 -0.5 -0.1568802971094784 0 -0.46219681628934162 -0.13286197430266741 0 -0.48430618115467777 -0.13807476474772301 0 -0.47371056135088518 -0.15151446790381221 0 -0.47371056135088518 -0.15151446790381221 0 -0.47800860780135751 -0.17183876729596451 0 -0.45868265644558709 -0.1654183356670893 0 -0.47371056135088518 -0.15151446790381221 0 -0.47800860780135751 -0.17183876729596451 0 -0.5 -0.1568802971094784 0 -0.47800860780135751 -0.17183876729596451 0 -0.5 -0.1568802971094784 0 -0.5 -0.18549422197207549 0 -0.47800860780135751 -0.17183876729596451 0 -0.5 -0.18549422197207549 0 -0.47207165330896078 -0.1914923459536593 0 -0.47800860780135751 -0.17183876729596451 0 -0.45931083259201388 -0.1815343582426211 0 -0.47207165330896078 -0.1914923459536593 0 -0.45931083259201388 -0.1815343582426211 0 -0.45868265644558709 -0.1654183356670893 0 -0.44617876242582333 -0.1751074502139702 0 -0.47800860780135751 -0.17183876729596451 0 -0.45931083259201388 -0.1815343582426211 0 -0.45868265644558709 -0.1654183356670893 0 -0.45574577280000439 -0.14748356830132131 0 -0.45868265644558709 -0.1654183356670893 0 -0.44922595588954328 -0.15720397575488851 0 -0.45868265644558709 -0.1654183356670893 0 -0.44747736034761137 -0.16538799678921409 0 -0.44617876242582333 -0.1751074502139702 0 -0.45868265644558709 -0.1654183356670893 0 -0.44747736034761137 -0.16538799678921409 0 -0.44922595588954328 -0.15720397575488851 0 -0.44747736034761137 -0.16538799678921409 0 -0.44922595588954328 -0.15720397575488851 0 -0.44210695830673458 -0.15809578038124819 0 -0.43210867888758481 -0.16787840770565221 0 -0.44747736034761137 -0.16538799678921409 0 -0.44210695830673458 -0.15809578038124819 0 -0.43210867888758481 -0.16787840770565221 0 -0.44747736034761137 -0.16538799678921409 0 -0.44617876242582333 -0.1751074502139702 0 -0.45931083259201388 -0.1815343582426211 0 -0.44617876242582333 -0.1751074502139702 0 -0.44229433502699977 -0.19044164501328531 0 -0.43210867888758481 -0.16787840770565221 0 -0.44617876242582333 -0.1751074502139702 0 -0.44229433502699977 -0.19044164501328531 0 -0.44229433502699977 -0.19044164501328531 0 -0.45247999116641408 -0.2130048823209188 0 -0.4572433548014288 -0.19789955669161161 0 -0.44229433502699977 -0.19044164501328531 0 -0.45247999116641408 -0.2130048823209188 0 -0.45931083259201388 -0.1815343582426211 0 -0.44229433502699977 -0.19044164501328531 0 -0.4572433548014288 -0.19789955669161161 0 -0.4362001577861121 -0.21132000631676959 0 -0.44229433502699977 -0.19044164501328531 0 -0.45247999116641408 -0.2130048823209188 0 -0.4362001577861121 -0.21132000631676959 0 -0.45247999116641408 -0.2130048823209188 0 -0.44615636075579429 -0.2293402666779705 0 -0.45247999116641408 -0.2130048823209188 0 -0.4572433548014288 -0.19789955669161161 0 -0.47301053866096621 -0.2160674720424603 0 -0.4572433548014288 -0.19789955669161161 0 -0.47207165330896078 -0.1914923459536593 0 -0.47301053866096621 -0.2160674720424603 0 -0.45931083259201388 -0.1815343582426211 0 -0.4572433548014288 -0.19789955669161161 0 -0.47207165330896078 -0.1914923459536593 0 -0.5 -0.18549422197207549 0 -0.47207165330896078 -0.1914923459536593 0 -0.48602952694326568 -0.20326569425343299 0 -0.5 -0.18549422197207549 0 -0.5 -0.21410814683467261 0 -0.48602952694326568 -0.20326569425343299 0 -0.5 -0.21410814683467261 0 -0.48602952694326568 -0.20326569425343299 0 -0.4882386961730103 -0.2259673585187503 0 -0.48602952694326568 -0.20326569425343299 0 -0.47301053866096621 -0.2160674720424603 0 -0.4882386961730103 -0.2259673585187503 0 -0.47207165330896078 -0.1914923459536593 0 -0.48602952694326568 -0.20326569425343299 0 -0.47301053866096621 -0.2160674720424603 0 -0.47301053866096621 -0.2160674720424603 0 -0.4882386961730103 -0.2259673585187503 0 -0.47739559617414051 -0.2386715449111575 0 -0.46931789820554792 -0.26722866842968263 0 -0.47739559617414051 -0.2386715449111575 0 -0.46266564730582838 -0.2355681196285522 0 -0.47301053866096621 -0.2160674720424603 0 -0.47739559617414051 -0.2386715449111575 0 -0.46266564730582838 -0.2355681196285522 0 -0.5 -0.21410814683467261 0 -0.4882386961730103 -0.2259673585187503 0 -0.5 -0.24272207169726981 0 -0.4882386961730103 -0.2259673585187503 0 -0.5 -0.24272207169726981 0 -0.47739559617414051 -0.2386715449111575 0 -0.4858679574491267 -0.25648904075215551 0 -0.5 -0.24272207169726981 0 -0.47739559617414051 -0.2386715449111575 0 -0.45247999116641408 -0.2130048823209188 0 -0.47301053866096621 -0.2160674720424603 0 -0.46266564730582838 -0.2355681196285522 0 -0.45247999116641408 -0.2130048823209188 0 -0.46266564730582838 -0.2355681196285522 0 -0.45247999116641408 -0.2130048823209188 0 -0.46266564730582838 -0.2355681196285522 0 -0.44615636075579429 -0.2293402666779705 0 -0.44750537529870138 -0.25369843784153162 0 -0.46266564730582838 -0.2355681196285522 0 -0.44615636075579429 -0.2293402666779705 0 -0.44750537529870138 -0.25369843784153162 0 -0.43358298565690417 -0.241082157972731 0 -0.44615636075579429 -0.2293402666779705 0 -0.4178074536005334 -0.044642816453115193 0 -0.4107368274989231 -0.035532083311074027 0 -0.39732059046421653 -0.048663847364236429 0 -0.4178074536005334 -0.044642816453115193 0 -0.42408349102643261 -0.041833575315700491 0 -0.42189638530823192 -0.035155093584199507 0 -0.4178074536005334 -0.044642816453115193 0 -0.42292610542706388 -0.047797717176331057 0 -0.42408349102643261 -0.041833575315700491 0 -0.4178074536005334 -0.044642816453115193 0 -0.4107368274989231 -0.035532083311074027 0 -0.42189638530823192 -0.035155093584199507 0 -0.4230740807287921 -0.053012705940501822 0 -0.39732059046421653 -0.048663847364236429 0 -0.40645197845322589 -0.070783109078258535 0 -0.4178074536005334 -0.044642816453115193 0 -0.4230740807287921 -0.053012705940501822 0 -0.39732059046421653 -0.048663847364236429 0 -0.4230740807287921 -0.053012705940501822 0 -0.42606744366507371 -0.054349962119545743 0 -0.40645197845322589 -0.070783109078258535 0 -0.4230740807287921 -0.053012705940501822 0 -0.39732059046421653 -0.048663847364236429 0 -0.4178074536005334 -0.044642816453115193 0 -0.42292610542706388 -0.047797717176331057 0 -0.4230740807287921 -0.053012705940501822 0 -0.42606744366507371 -0.054349962119545743 0 -0.42743254761561911 -0.047275409317818498 0 -0.4347085767819806 -0.039844540314743097 0 -0.42292610542706388 -0.047797717176331057 0 -0.42458147878189328 -0.050788407551434843 0 -0.42743254761561911 -0.047275409317818498 0 -0.42606744366507371 -0.054349962119545743 0 -0.43715773992110568 -0.052600055040298153 0 -0.44568290887692152 -0.037916815160833367 0 -0.42292610542706388 -0.047797717176331057 0 -0.4230740807287921 -0.053012705940501822 0 -0.42458147878189328 -0.050788407551434843 0 -0.4230740807287921 -0.053012705940501822 0 -0.42458147878189328 -0.050788407551434843 0 -0.42606744366507371 -0.054349962119545743 0 -0.42458147878189328 -0.050788407551434843 0 -0.42606744366507371 -0.054349962119545743 0 -0.42743254761561911 -0.047275409317818498 0 -0.42606744366507371 -0.054349962119545743 0 -0.43715773992110568 -0.052600055040298153 0 -0.43322093576247572 -0.062708073016021201 0 -0.42606744366507371 -0.054349962119545743 0 -0.4347085767819806 -0.039844540314743097 0 -0.44568290887692152 -0.037916815160833367 0 -0.42743254761561911 -0.047275409317818498 0 -0.4347085767819806 -0.039844540314743097 0 -0.42864298153996272 -0.039255772978804018 0 -0.42606744366507371 -0.054349962119545743 0 -0.44568290887692152 -0.037916815160833367 0 -0.42743254761561911 -0.047275409317818498 0 -0.42864298153996272 -0.039255772978804018 0 -0.42408349102643261 -0.041833575315700491 0 -0.42292610542706388 -0.047797717176331057 0 -0.42743254761561911 -0.047275409317818498 0 -0.42408349102643261 -0.041833575315700491 0 -0.42864298153996272 -0.039255772978804018 0 -0.42189638530823192 -0.035155093584199507 0 -0.43141819220891398 -0.032519860395122183 0 -0.42864298153996272 -0.039255772978804018 0 -0.42408349102643261 -0.041833575315700491 0 -0.42189638530823192 -0.035155093584199507 0 -0.4347085767819806 -0.039844540314743097 0 -0.43141819220891398 -0.032519860395122183 0 -0.44091834711687461 -0.03101758494452149 0 -0.4347085767819806 -0.039844540314743097 0 -0.42864298153996272 -0.039255772978804018 0 -0.43141819220891398 -0.032519860395122183 0 -0.43141819220891398 -0.032519860395122183 0 -0.43453929864575602 -0.024151852255735681 0 -0.42568412295872421 -0.023096813203631598 0 -0.43141819220891398 -0.032519860395122183 0 -0.43453929864575602 -0.024151852255735681 0 -0.44091834711687461 -0.03101758494452149 0 -0.43453929864575602 -0.024151852255735681 0 -0.42568412295872421 -0.023096813203631598 0 -0.43151537580850069 -0.01265190496765988 0 -0.43453929864575602 -0.024151852255735681 0 -0.43151537580850069 -0.01265190496765988 0 -0.44174534378340508 -0.019046505479292378 0 -0.42189638530823192 -0.035155093584199507 0 -0.43141819220891398 -0.032519860395122183 0 -0.42568412295872421 -0.023096813203631598 0 -0.43151537580850069 -0.01265190496765988 0 -0.44399585252460932 -0.0078163753776613661 0 -0.43275016892445639 0.00046701914879945539 0 -0.42568412295872421 -0.023096813203631598 0 -0.43151537580850069 -0.01265190496765988 0 -0.4213930150627242 -0.011076559103186291 0 -0.43151537580850069 -0.01265190496765988 0 -0.42161360453248181 -0.00097516644071870585 0 -0.4213930150627242 -0.011076559103186291 0 -0.43151537580850069 -0.01265190496765988 0 -0.42161360453248181 -0.00097516644071870585 0 -0.43275016892445639 0.00046701914879945539 0 -0.4213930150627242 -0.011076559103186291 0 -0.41477584270431239 -0.020379267431378391 0 -0.41337612930960183 0.001720356527457117 0 -0.41477584270431239 -0.020379267431378391 0 -0.41337612930960183 0.001720356527457117 0 -0.41477584270431239 -0.020379267431378391 0 -0.40238022698241188 -0.010070224190761441 0 -0.41337612930960183 0.001720356527457117 0 -0.42161360453248181 -0.00097516644071870585 0 -0.4213930150627242 -0.011076559103186291 0 -0.41337612930960183 0.001720356527457117 0 -0.42189638530823192 -0.035155093584199507 0 -0.42568412295872421 -0.023096813203631598 0 -0.41477584270431239 -0.020379267431378391 0 -0.4107368274989231 -0.035532083311074027 0 -0.42189638530823192 -0.035155093584199507 0 -0.41477584270431239 -0.020379267431378391 0 -0.42568412295872421 -0.023096813203631598 0 -0.4213930150627242 -0.011076559103186291 0 -0.41477584270431239 -0.020379267431378391 0 -0.4107368274989231 -0.035532083311074027 0 -0.41477584270431239 -0.020379267431378391 0 -0.39997845413334981 -0.02809100109715908 0 -0.39997845413334981 -0.02809100109715908 0 -0.38867922300399083 -0.01856787984660006 0 -0.38529434146045483 -0.034278459522657942 0 -0.39997845413334981 -0.02809100109715908 0 -0.40238022698241188 -0.010070224190761441 0 -0.38867922300399083 -0.01856787984660006 0 -0.41477584270431239 -0.020379267431378391 0 -0.39997845413334981 -0.02809100109715908 0 -0.40238022698241188 -0.010070224190761441 0 -0.40238022698241188 -0.010070224190761441 0 -0.38867922300399083 -0.01856787984660006 0 -0.38970351915524232 0.0094666698894100166 0 -0.37081023416420861 -0.0088368789994708111 0 -0.38867922300399083 -0.01856787984660006 0 -0.37081023416420861 -0.0088368789994708111 0 -0.38867922300399083 -0.01856787984660006 0 -0.38970351915524232 0.0094666698894100166 0 -0.36564471060928821 -0.026694204919340991 0 -0.37081023416420861 -0.0088368789994708111 0 -0.38867922300399083 -0.01856787984660006 0 -0.36564471060928821 -0.026694204919340991 0 -0.38867922300399083 -0.01856787984660006 0 -0.38529434146045483 -0.034278459522657942 0 -0.37156710019964101 -0.044314988787971042 0 -0.38529434146045483 -0.034278459522657942 0 -0.39732059046421653 -0.048663847364236429 0 -0.37156710019964101 -0.044314988787971042 0 -0.39732059046421653 -0.048663847364236429 0 -0.39997845413334981 -0.02809100109715908 0 -0.38529434146045483 -0.034278459522657942 0 -0.39732059046421653 -0.048663847364236429 0 -0.4107368274989231 -0.035532083311074027 0 -0.39997845413334981 -0.02809100109715908 0 -0.39732059046421653 -0.048663847364236429 0 -0.39732059046421653 -0.048663847364236429 0 -0.38084548646524102 -0.061585626789706749 0 -0.40645197845322589 -0.070783109078258535 0 -0.37156710019964101 -0.044314988787971042 0 -0.39732059046421653 -0.048663847364236429 0 -0.38084548646524102 -0.061585626789706749 0 -0.38084548646524102 -0.061585626789706749 0 -0.38300214128270432 -0.075652690928650512 0 -0.40645197845322589 -0.070783109078258535 0 -0.36755006916143612 -0.072558080549145212 0 -0.38084548646524102 -0.061585626789706749 0 -0.38300214128270432 -0.075652690928650512 0 -0.37332665909224061 -0.08612038218917073 0 -0.38300214128270432 -0.075652690928650512 0 -0.38683651324137808 -0.087216256036971321 0 -0.37332665909224061 -0.08612038218917073 0 -0.38683651324137808 -0.087216256036971321 0 -0.40030148144793598 -0.095095282406254006 0 -0.37332665909224061 -0.08612038218917073 0 -0.40030148144793598 -0.095095282406254006 0 -0.38683651324137808 -0.087216256036971321 0 -0.40030148144793598 -0.095095282406254006 0 -0.40645197845322589 -0.070783109078258535 0 -0.38683651324137808 -0.087216256036971321 0 -0.40645197845322589 -0.070783109078258535 0 -0.38300214128270432 -0.075652690928650512 0 -0.38683651324137808 -0.087216256036971321 0 -0.40645197845322589 -0.070783109078258535 0 -0.37450924494895871 -0.1297507813620131 0 -0.38885942621782488 -0.11883320660732059 0 -0.37586199958902577 -0.11471433524842251 0 -0.38885942621782488 -0.11883320660732059 0 -0.37586199958902577 -0.11471433524842251 0 -0.38215926331170658 -0.1045982486550327 0 -0.38885942621782488 -0.11883320660732059 0 -0.38215926331170658 -0.1045982486550327 0 -0.39466863074859582 -0.10742041036860631 0 -0.37332665909224061 -0.08612038218917073 0 -0.38215926331170658 -0.1045982486550327 0 -0.40030148144793598 -0.095095282406254006 0 -0.40030148144793598 -0.095095282406254006 0 -0.39466863074859582 -0.10742041036860631 0 -0.40438330831394131 -0.11252601418329181 0 -0.38215926331170658 -0.1045982486550327 0 -0.40030148144793598 -0.095095282406254006 0 -0.39466863074859582 -0.10742041036860631 0 -0.38885942621782488 -0.11883320660732059 0 -0.39466863074859582 -0.10742041036860631 0 -0.40438330831394131 -0.11252601418329181 0 -0.40055910045300319 -0.12518897445588739 0 -0.38885942621782488 -0.11883320660732059 0 -0.40438330831394131 -0.11252601418329181 0 -0.40438330831394131 -0.11252601418329181 0 -0.41546929335679977 -0.12187605018846059 0 -0.42727630380363152 -0.1040701826233373 0 -0.40055910045300319 -0.12518897445588739 0 -0.40438330831394131 -0.11252601418329181 0 -0.41546929335679977 -0.12187605018846059 0 -0.40030148144793598 -0.095095282406254006 0 -0.42727630380363152 -0.1040701826233373 0 -0.40030148144793598 -0.095095282406254006 0 -0.42727630380363152 -0.1040701826233373 0 -0.41862137962650081 -0.085125008471958058 0 -0.40030148144793598 -0.095095282406254006 0 -0.40438330831394131 -0.11252601418329181 0 -0.42727630380363152 -0.1040701826233373 0 -0.41546929335679977 -0.12187605018846059 0 -0.42727630380363152 -0.1040701826233373 0 -0.42982198298510338 -0.1216037293172005 0 -0.42727630380363152 -0.1040701826233373 0 -0.42982198298510338 -0.1216037293172005 0 -0.45425112615932689 -0.1130450828404206 0 -0.42606744366507371 -0.054349962119545743 0 -0.40645197845322589 -0.070783109078258535 0 -0.42397348906127652 -0.071774105179627554 0 -0.42606744366507371 -0.054349962119545743 0 -0.40645197845322589 -0.070783109078258535 0 -0.40645197845322589 -0.070783109078258535 0 -0.41862137962650081 -0.085125008471958058 0 -0.42397348906127652 -0.071774105179627554 0 -0.40030148144793598 -0.095095282406254006 0 -0.40645197845322589 -0.070783109078258535 0 -0.41862137962650081 -0.085125008471958058 0 -0.42727630380363152 -0.1040701826233373 0 -0.41862137962650081 -0.085125008471958058 0 -0.43756984930250109 -0.076623427816400649 0 -0.42397348906127652 -0.071774105179627554 0 -0.43322093576247572 -0.062708073016021201 0 -0.43756984930250109 -0.076623427816400649 0 -0.42606744366507371 -0.054349962119545743 0 -0.42397348906127652 -0.071774105179627554 0 -0.43322093576247572 -0.062708073016021201 0 -0.41862137962650081 -0.085125008471958058 0 -0.42397348906127652 -0.071774105179627554 0 -0.43756984930250109 -0.076623427816400649 0 -0.43756984930250109 -0.076623427816400649 0 -0.46074990835757729 -0.059734288271920948 0 -0.44365967137995199 -0.05542536986479224 0 -0.43322093576247572 -0.062708073016021201 0 -0.43756984930250109 -0.076623427816400649 0 -0.44365967137995199 -0.05542536986479224 0 -0.43756984930250109 -0.076623427816400649 0 -0.45508055162983779 -0.090972660276278733 0 -0.46074990835757729 -0.059734288271920948 0 -0.42727630380363152 -0.1040701826233373 0 -0.43756984930250109 -0.076623427816400649 0 -0.45508055162983779 -0.090972660276278733 0 -0.45508055162983779 -0.090972660276278733 0 -0.47156469252130329 -0.10248098851470321 0 -0.47581690783822939 -0.081551761383010887 0 -0.47581690783822939 -0.081551761383010887 0 -0.46074990835757729 -0.059734288271920948 0 -0.45508055162983779 -0.090972660276278733 0 -0.47581690783822939 -0.081551761383010887 0 -0.46074990835757729 -0.059734288271920948 0 -0.44267211738063611 -0.13077951451141731 0 -0.42982198298510338 -0.1216037293172005 0 -0.45425112615932689 -0.1130450828404206 0 -0.42727630380363152 -0.1040701826233373 0 -0.45425112615932689 -0.1130450828404206 0 -0.42727630380363152 -0.1040701826233373 0 -0.45508055162983779 -0.090972660276278733 0 -0.45425112615932689 -0.1130450828404206 0 -0.45508055162983779 -0.090972660276278733 0 -0.45425112615932689 -0.1130450828404206 0 -0.47156469252130329 -0.10248098851470321 0 -0.46219681628934162 -0.13286197430266741 0 -0.45425112615932689 -0.1130450828404206 0 -0.48122594851502221 -0.1220199830575044 0 -0.45425112615932689 -0.1130450828404206 0 -0.48122594851502221 -0.1220199830575044 0 -0.45425112615932689 -0.1130450828404206 0 -0.48122594851502221 -0.1220199830575044 0 -0.47156469252130329 -0.10248098851470321 0 -0.48122594851502221 -0.1220199830575044 0 -0.47156469252130329 -0.10248098851470321 0 -0.49088390731888148 -0.1033692344941009 0 -0.47156469252130329 -0.10248098851470321 0 -0.49088390731888148 -0.1033692344941009 0 -0.47581690783822939 -0.081551761383010887 0 -0.49088390731888148 -0.1033692344941009 0 -0.50000000000000044 -0.1113233259833756 0 -0.5 -0.085892750913204474 0 -0.48122594851502221 -0.1220199830575044 0 -0.50000000000000044 -0.1113233259833756 0 -0.49999999999999611 -0.1282663722468812 0 -0.48122594851502221 -0.1220199830575044 0 -0.50000000000000044 -0.1113233259833756 0 -0.48122594851502221 -0.1220199830575044 0 -0.49088390731888148 -0.1033692344941009 0 -0.50000000000000044 -0.1113233259833756 0 -0.47581690783822939 -0.081551761383010887 0 -0.4806311035716711 -0.050811590548365322 0 -0.46074990835757729 -0.059734288271920948 0 -0.49088390731888148 -0.1033692344941009 0 -0.47581690783822939 -0.081551761383010887 0 -0.49088390731888148 -0.1033692344941009 0 -0.47581690783822939 -0.081551761383010887 0 -0.5 -0.085892750913204474 0 -0.47581690783822939 -0.081551761383010887 0 -0.5 -0.085892750913204474 0 -0.5 -0.060462175843033483 0 -0.47581690783822939 -0.081551761383010887 0 -0.5 -0.060462175843033483 0 -0.4806311035716711 -0.050811590548365322 0 -0.5 -0.060462175843033483 0 -0.5 -0.035031600772862492 0 -0.4806311035716711 -0.050811590548365322 0 -0.5 -0.035031600772862492 0 -0.4806311035716711 -0.050811590548365322 0 -0.48219686168266612 -0.027416784475098911 0 -0.4806311035716711 -0.050811590548365322 0 -0.46502294355155371 -0.040672932544265163 0 -0.48219686168266612 -0.027416784475098911 0 -0.4806311035716711 -0.050811590548365322 0 -0.46074990835757729 -0.059734288271920948 0 -0.46502294355155371 -0.040672932544265163 0 -0.46074990835757729 -0.059734288271920948 0 -0.44568290887692152 -0.037916815160833367 0 -0.46502294355155371 -0.040672932544265163 0 -0.44568290887692152 -0.037916815160833367 0 -0.4634657969818004 -0.02301893685808867 0 -0.46074990835757729 -0.059734288271920948 0 -0.46502294355155371 -0.040672932544265163 0 -0.44568290887692152 -0.037916815160833367 0 -0.4347085767819806 -0.039844540314743097 0 -0.44568290887692152 -0.037916815160833367 0 -0.44091834711687461 -0.03101758494452149 0 -0.44568290887692152 -0.037916815160833367 0 -0.44091834711687461 -0.03101758494452149 0 -0.43715773992110568 -0.052600055040298153 0 -0.44568290887692152 -0.037916815160833367 0 -0.44365967137995199 -0.05542536986479224 0 -0.46074990835757729 -0.059734288271920948 0 -0.44568290887692152 -0.037916815160833367 0 -0.44365967137995199 -0.05542536986479224 0 -0.43715773992110568 -0.052600055040298153 0 -0.43322093576247572 -0.062708073016021201 0 -0.44365967137995199 -0.05542536986479224 0 -0.44399585252460932 -0.0078163753776613661 0 -0.46268198186676268 -0.00066775376749940592 0 -0.44428993081756452 0.0039676797828104033 0 -0.44399585252460932 -0.0078163753776613661 0 -0.44174534378340508 -0.019046505479292378 0 -0.4541186654167384 -0.01379228403672202 0 -0.44399585252460932 -0.0078163753776613661 0 -0.44428993081756452 0.0039676797828104033 0 -0.43275016892445639 0.00046701914879945539 0 -0.43151537580850069 -0.01265190496765988 0 -0.44399585252460932 -0.0078163753776613661 0 -0.44174534378340508 -0.019046505479292378 0 -0.44568290887692152 -0.037916815160833367 0 -0.44956693801482661 -0.024696562232098651 0 -0.4634657969818004 -0.02301893685808867 0 -0.43453929864575602 -0.024151852255735681 0 -0.44174534378340508 -0.019046505479292378 0 -0.44091834711687461 -0.03101758494452149 0 -0.44174534378340508 -0.019046505479292378 0 -0.44091834711687461 -0.03101758494452149 0 -0.44956693801482661 -0.024696562232098651 0 -0.44568290887692152 -0.037916815160833367 0 -0.44091834711687461 -0.03101758494452149 0 -0.44956693801482661 -0.024696562232098651 0 -0.44174534378340508 -0.019046505479292378 0 -0.44956693801482661 -0.024696562232098651 0 -0.4541186654167384 -0.01379228403672202 0 -0.44956693801482661 -0.024696562232098651 0 -0.4634657969818004 -0.02301893685808867 0 -0.4541186654167384 -0.01379228403672202 0 -0.44568290887692152 -0.037916815160833367 0 -0.4634657969818004 -0.02301893685808867 0 -0.4634657969818004 -0.02301893685808867 0 -0.46268198186676268 -0.00066775376749940592 0 -0.4541186654167384 -0.01379228403672202 0 -0.44399585252460932 -0.0078163753776613661 0 -0.46268198186676268 -0.00066775376749940592 0 -0.4541186654167384 -0.01379228403672202 0 -0.4634657969818004 -0.02301893685808867 0 -0.48124868508667962 -0.0081210585553442155 0 -0.4634657969818004 -0.02301893685808867 0 -0.46268198186676268 -0.00066775376749940592 0 -0.48124868508667962 -0.0081210585553442155 0 -0.46502294355155371 -0.040672932544265163 0 -0.4634657969818004 -0.02301893685808867 0 -0.48219686168266612 -0.027416784475098911 0 -0.4634657969818004 -0.02301893685808867 0 -0.48124868508667962 -0.0081210585553442155 0 -0.48219686168266612 -0.027416784475098911 0 -0.5 -0.035031600772862492 0 -0.48219686168266612 -0.027416784475098911 0 -0.5 -0.0096010257026913903 0 -0.48124868508667962 -0.0081210585553442155 0 -0.5 -0.0096010257026913903 0 -0.50000000000000044 0.01582954936747966 0 -0.48124868508667962 -0.0081210585553442155 0 -0.48219686168266612 -0.027416784475098911 0 -0.5 -0.0096010257026913903 0 -0.48124868508667962 -0.0081210585553442155 0 -0.50000000000000044 0.01582954936747966 0 -0.47457293675769058 0.01542197626438449 0 -0.50000000000000044 0.01582954936747966 0 -0.5 0.04456290468576557 0 -0.48548652727963748 0.031583120882533282 0 -0.50000000000000044 0.01582954936747966 0 -0.47457293675769058 0.01542197626438449 0 -0.48548652727963748 0.031583120882533282 0 -0.50000000000000044 0.01582954936747966 0 -0.47457293675769058 0.01542197626438449 0 -0.47306481401396361 0.028141368801914531 0 -0.47457293675769058 0.01542197626438449 0 -0.48548652727963748 0.031583120882533282 0 -0.47306481401396361 0.028141368801914531 0 -0.47457293675769058 0.01542197626438449 0 -0.4622829050060383 0.026831218964439268 0 -0.46268198186676268 -0.00066775376749940592 0 -0.48124868508667962 -0.0081210585553442155 0 -0.47457293675769058 0.01542197626438449 0 -0.48520960878308528 0.050238955260537281 0 -0.5 0.04456290468576557 0 -0.5 0.073296260004051594 0 -0.48520960878308528 0.050238955260537281 0 -0.5 0.04456290468576557 0 -0.48548652727963748 0.031583120882533282 0 -0.48520960878308528 0.050238955260537281 0 -0.46991688701248802 0.038729159096301091 0 -0.46619066567599171 0.048649513890696168 0 -0.48520960878308528 0.050238955260537281 0 -0.48548652727963748 0.031583120882533282 0 -0.46991688701248802 0.038729159096301091 0 -0.47306481401396361 0.028141368801914531 0 -0.48548652727963748 0.031583120882533282 0 -0.46991688701248802 0.038729159096301091 0 -0.48520960878308528 0.050238955260537281 0 -0.46591886513858399 0.060398914753291108 0 -0.48520960878308528 0.050238955260537281 0 -0.46591886513858399 0.060398914753291108 0 -0.46619066567599171 0.048649513890696168 0 -0.48520960878308528 0.050238955260537281 0 -0.46591886513858399 0.060398914753291108 0 -0.46864327541780221 0.063132526820982193 0 -0.48520960878308528 0.050238955260537281 0 -0.46864327541780221 0.063132526820982193 0 -0.48193290733273692 0.06662657255411765 0 -0.46591886513858399 0.060398914753291108 0 -0.4537862245821882 0.048225295790346533 0 -0.45727242129551687 0.064952783739413267 0 -0.4537862245821882 0.048225295790346533 0 -0.45727242129551687 0.064952783739413267 0 -0.46591886513858399 0.060398914753291108 0 -0.46864327541780221 0.063132526820982193 0 -0.46591886513858399 0.060398914753291108 0 -0.46619066567599171 0.048649513890696168 0 -0.4537862245821882 0.048225295790346533 0 -0.46591886513858399 0.060398914753291108 0 -0.4537862245821882 0.048225295790346533 0 -0.46001884973968482 0.042794518411457157 0 -0.45828480443024322 0.03492232456952455 0 -0.4522592513751354 0.040898564679064733 0 -0.46619066567599171 0.048649513890696168 0 -0.4537862245821882 0.048225295790346533 0 -0.46001884973968482 0.042794518411457157 0 -0.4537862245821882 0.048225295790346533 0 -0.46001884973968482 0.042794518411457157 0 -0.4522592513751354 0.040898564679064733 0 -0.46991688701248802 0.038729159096301091 0 -0.46619066567599171 0.048649513890696168 0 -0.46001884973968482 0.042794518411457157 0 -0.46991688701248802 0.038729159096301091 0 -0.46001884973968482 0.042794518411457157 0 -0.45828480443024322 0.03492232456952455 0 -0.46991688701248802 0.038729159096301091 0 -0.45828480443024322 0.03492232456952455 0 -0.4622829050060383 0.026831218964439268 0 -0.4537862245821882 0.048225295790346533 0 -0.43434521538154031 0.028718623919235849 0 -0.4537862245821882 0.048225295790346533 0 -0.43434521538154031 0.028718623919235849 0 -0.43734326934221629 0.046299911159676577 0 -0.4537862245821882 0.048225295790346533 0 -0.4522592513751354 0.040898564679064733 0 -0.43434521538154031 0.028718623919235849 0 -0.4522592513751354 0.040898564679064733 0 -0.44802127378429218 0.028278992522471388 0 -0.43434521538154031 0.028718623919235849 0 -0.45828480443024322 0.03492232456952455 0 -0.4522592513751354 0.040898564679064733 0 -0.44802127378429218 0.028278992522471388 0 -0.4537862245821882 0.048225295790346533 0 -0.4522592513751354 0.040898564679064733 0 -0.4537862245821882 0.048225295790346533 0 -0.44365944362825621 0.059062856178093717 0 -0.45727242129551687 0.064952783739413267 0 -0.4537862245821882 0.048225295790346533 0 -0.44365944362825621 0.059062856178093717 0 -0.43734326934221629 0.046299911159676577 0 -0.47457293675769058 0.01542197626438449 0 -0.44914587351538082 0.01501440316128932 0 -0.46268198186676268 -0.00066775376749940592 0 -0.47457293675769058 0.01542197626438449 0 -0.44914587351538082 0.01501440316128932 0 -0.47457293675769058 0.01542197626438449 0 -0.4622829050060383 0.026831218964439268 0 -0.44914587351538082 0.01501440316128932 0 -0.47306481401396361 0.028141368801914531 0 -0.46991688701248802 0.038729159096301091 0 -0.4622829050060383 0.026831218964439268 0 -0.45828480443024322 0.03492232456952455 0 -0.4622829050060383 0.026831218964439268 0 -0.44802127378429218 0.028278992522471388 0 -0.4622829050060383 0.026831218964439268 0 -0.44802127378429218 0.028278992522471388 0 -0.44914587351538082 0.01501440316128932 0 -0.44914587351538082 0.01501440316128932 0 -0.43106136750341412 0.012550298108191719 0 -0.43434521538154031 0.028718623919235849 0 -0.44802127378429218 0.028278992522471388 0 -0.44914587351538082 0.01501440316128932 0 -0.43434521538154031 0.028718623919235849 0 -0.46268198186676268 -0.00066775376749940592 0 -0.44914587351538082 0.01501440316128932 0 -0.44428993081756452 0.0039676797828104033 0 -0.44914587351538082 0.01501440316128932 0 -0.44428993081756452 0.0039676797828104033 0 -0.43106136750341412 0.012550298108191719 0 -0.44428993081756452 0.0039676797828104033 0 -0.43275016892445639 0.00046701914879945539 0 -0.43106136750341412 0.012550298108191719 0 -0.43106136750341412 0.012550298108191719 0 -0.42274109529016951 0.0045948918783708347 0 -0.4149042061808928 0.0092119520481245901 0 -0.42161360453248181 -0.00097516644071870585 0 -0.43275016892445639 0.00046701914879945539 0 -0.42274109529016951 0.0045948918783708347 0 -0.43275016892445639 0.00046701914879945539 0 -0.43106136750341412 0.012550298108191719 0 -0.42274109529016951 0.0045948918783708347 0 -0.42161360453248181 -0.00097516644071870585 0 -0.41337612930960183 0.001720356527457117 0 -0.42161360453248181 -0.00097516644071870585 0 -0.42274109529016951 0.0045948918783708347 0 -0.41337612930960183 0.001720356527457117 0 -0.42274109529016951 0.0045948918783708347 0 -0.4149042061808928 0.0092119520481245901 0 -0.41337612930960183 0.001720356527457117 0 -0.4149042061808928 0.0092119520481245901 0 -0.41337612930960183 0.001720356527457117 0 -0.41148628816406729 0.031558449680000468 0 -0.41337612930960183 0.001720356527457117 0 -0.41148628816406729 0.031558449680000468 0 -0.39878560456299689 0.019928393800039312 0 -0.41337612930960183 0.001720356527457117 0 -0.41148628816406729 0.031558449680000468 0 -0.4149042061808928 0.0092119520481245901 0 -0.43434521538154031 0.028718623919235849 0 -0.41148628816406729 0.031558449680000468 0 -0.43106136750341412 0.012550298108191719 0 -0.4149042061808928 0.0092119520481245901 0 -0.43434521538154031 0.028718623919235849 0 -0.4149042061808928 0.0092119520481245901 0 -0.43434521538154031 0.028718623919235849 0 -0.43434521538154031 0.028718623919235849 0 -0.43734326934221629 0.046299911159676577 0 -0.42452854110731919 0.043193913725692833 0 -0.43434521538154031 0.028718623919235849 0 -0.42452854110731919 0.043193913725692833 0 -0.41148628816406729 0.031558449680000468 0 -0.43734326934221629 0.046299911159676577 0 -0.42452854110731919 0.043193913725692833 0 -0.43092235839331788 0.056601691333019427 0 -0.44365944362825621 0.059062856178093717 0 -0.43734326934221629 0.046299911159676577 0 -0.43092235839331788 0.056601691333019427 0 -0.42452854110731919 0.043193913725692833 0 -0.43092235839331788 0.056601691333019427 0 -0.40959644701853293 0.0613965428325439 0 -0.40959644701853293 0.0613965428325439 0 -0.41148628816406729 0.031558449680000468 0 -0.42452854110731919 0.043193913725692833 0 -0.40959644701853293 0.0613965428325439 0 -0.41148628816406729 0.031558449680000468 0 -0.41148628816406729 0.031558449680000468 0 -0.39560638892699379 0.046700285426541477 0 -0.39455270187365987 0.03228496404554048 0 -0.40959644701853293 0.0613965428325439 0 -0.41148628816406729 0.031558449680000468 0 -0.39560638892699379 0.046700285426541477 0 -0.39560638892699379 0.046700285426541477 0 -0.39455270187365987 0.03228496404554048 0 -0.38373495198669988 0.038772796730078649 0 -0.40959644701853293 0.0613965428325439 0 -0.39560638892699379 0.046700285426541477 0 -0.38698813916789992 0.060907770210175453 0 -0.39560638892699379 0.046700285426541477 0 -0.38698813916789992 0.060907770210175453 0 -0.38108888395909918 0.04938413124520831 0 -0.38108888395909918 0.04938413124520831 0 -0.37456796677091958 0.042380625345535258 0 -0.36975683342996851 0.04909015969521225 0 -0.38108888395909918 0.04938413124520831 0 -0.37543853759690121 0.058490770255522961 0 -0.36975683342996851 0.04909015969521225 0 -0.38698813916789992 0.060907770210175453 0 -0.38108888395909918 0.04938413124520831 0 -0.37543853759690121 0.058490770255522961 0 -0.39455270187365987 0.03228496404554048 0 -0.38373495198669988 0.038772796730078649 0 -0.38315027572754151 0.024464894591042501 0 -0.39560638892699379 0.046700285426541477 0 -0.38108888395909918 0.04938413124520831 0 -0.38373495198669988 0.038772796730078649 0 -0.38108888395909918 0.04938413124520831 0 -0.38373495198669988 0.038772796730078649 0 -0.37456796677091958 0.042380625345535258 0 -0.38373495198669988 0.038772796730078649 0 -0.37123054926455767 0.033165699933513537 0 -0.37456796677091958 0.042380625345535258 0 -0.38373495198669988 0.038772796730078649 0 -0.38315027572754151 0.024464894591042501 0 -0.37123054926455767 0.033165699933513537 0 -0.38315027572754151 0.024464894591042501 0 -0.38970351915524232 0.0094666698894100166 0 -0.39878560456299689 0.019928393800039312 0 -0.38315027572754151 0.024464894591042501 0 -0.38970351915524232 0.0094666698894100166 0 -0.36603090900088292 0.017212983251362831 0 -0.37081023416420861 -0.0088368789994708111 0 -0.38970351915524232 0.0094666698894100166 0 -0.36603090900088292 0.017212983251362831 0 -0.38970351915524232 0.0094666698894100166 0 -0.36603090900088292 0.017212983251362831 0 -0.41337612930960183 0.001720356527457117 0 -0.38970351915524232 0.0094666698894100166 0 -0.39878560456299689 0.019928393800039312 0 -0.40238022698241188 -0.010070224190761441 0 -0.41337612930960183 0.001720356527457117 0 -0.38970351915524232 0.0094666698894100166 0 -0.41337612930960183 0.001720356527457117 0 -0.38970351915524232 0.0094666698894100166 0 -0.41148628816406729 0.031558449680000468 0 -0.39455270187365987 0.03228496404554048 0 -0.39878560456299689 0.019928393800039312 0 -0.39455270187365987 0.03228496404554048 0 -0.38315027572754151 0.024464894591042501 0 -0.39878560456299689 0.019928393800039312 0 -0.39192727675828631 0.099368461734064495 0 -0.40387364955746829 0.1114641874578928 0 -0.41370899160403007 0.087896569069181238 0 -0.39192727675828631 0.099368461734064495 0 -0.40387364955746829 0.1114641874578928 0 -0.38462448899452278 0.1235442590651198 0 -0.40387364955746829 0.1114641874578928 0 -0.38462448899452278 0.1235442590651198 0 -0.40821600484205761 0.12939796327653089 0 -0.39192727675828631 0.099368461734064495 0 -0.38462448899452278 0.1235442590651198 0 -0.37014556191254228 0.11084035439894779 0 -0.39192727675828631 0.099368461734064495 0 -0.37014556191254228 0.11084035439894779 0 -0.39192727675828631 0.099368461734064495 0 -0.37838448872862013 0.084566092585628805 0 -0.37014556191254228 0.11084035439894779 0 -0.39192727675828631 0.099368461734064495 0 -0.37838448872862013 0.084566092585628805 0 -0.39314948663916882 0.077289999464672229 0 -0.38698813916789992 0.060907770210175453 0 -0.37829157655764362 0.069604560356439527 0 -0.39314948663916882 0.077289999464672229 0 -0.38698813916789992 0.060907770210175453 0 -0.37543853759690121 0.058490770255522961 0 -0.37829157655764362 0.069604560356439527 0 -0.37838448872862013 0.084566092585628805 0 -0.37829157655764362 0.069604560356439527 0 -0.39314948663916882 0.077289999464672229 0 -0.40959644701853293 0.0613965428325439 0 -0.38698813916789992 0.060907770210175453 0 -0.39314948663916882 0.077289999464672229 0 -0.40959644701853293 0.0613965428325439 0 -0.39314948663916882 0.077289999464672229 0 -0.41370899160403007 0.087896569069181238 0 -0.39192727675828631 0.099368461734064495 0 -0.39314948663916882 0.077289999464672229 0 -0.41370899160403007 0.087896569069181238 0 -0.39192727675828631 0.099368461734064495 0 -0.41370899160403007 0.087896569069181238 0 -0.40959644701853293 0.0613965428325439 0 -0.41370899160403007 0.087896569069181238 0 -0.43549070644977389 0.076424676404298009 0 -0.43092235839331788 0.056601691333019427 0 -0.40959644701853293 0.0613965428325439 0 -0.43549070644977389 0.076424676404298009 0 -0.44365944362825621 0.059062856178093717 0 -0.43092235839331788 0.056601691333019427 0 -0.43549070644977389 0.076424676404298009 0 -0.41370899160403007 0.087896569069181238 0 -0.43549070644977389 0.076424676404298009 0 -0.41370899160403007 0.087896569069181238 0 -0.43549070644977389 0.076424676404298009 0 -0.44211677774703778 0.095507366079950848 0 -0.41370899160403007 0.087896569069181238 0 -0.42330837957596162 0.1141633905746294 0 -0.44211677774703778 0.095507366079950848 0 -0.40387364955746829 0.1114641874578928 0 -0.41370899160403007 0.087896569069181238 0 -0.42330837957596162 0.1141633905746294 0 -0.40387364955746829 0.1114641874578928 0 -0.42330837957596162 0.1141633905746294 0 -0.40821600484205761 0.12939796327653089 0 -0.42330837957596162 0.1141633905746294 0 -0.44450459624351801 0.11895274529009379 0 -0.43211404398761849 0.13147082840716981 0 -0.42330837957596162 0.1141633905746294 0 -0.44450459624351801 0.11895274529009379 0 -0.44211677774703778 0.095507366079950848 0 -0.44450459624351801 0.11895274529009379 0 -0.44211677774703778 0.095507366079950848 0 -0.46611828027058272 0.1073970321776171 0 -0.44211677774703778 0.095507366079950848 0 -0.46611828027058272 0.1073970321776171 0 -0.4616953507830468 0.086174907958515831 0 -0.46611828027058272 0.1073970321776171 0 -0.4616953507830468 0.086174907958515831 0 -0.46611828027058272 0.1073970321776171 0 -0.47054120975811681 0.12861915639671881 0 -0.44450459624351801 0.11895274529009379 0 -0.46611828027058272 0.1073970321776171 0 -0.45787969212454122 0.1264610540235015 0 -0.46611828027058272 0.1073970321776171 0 -0.47054120975811681 0.12861915639671881 0 -0.45787969212454122 0.1264610540235015 0 -0.44365944362825621 0.059062856178093717 0 -0.43549070644977389 0.076424676404298009 0 -0.45727242129551687 0.064952783739413267 0 -0.43549070644977389 0.076424676404298009 0 -0.44914381406884413 0.08076493354554487 0 -0.45727242129551687 0.064952783739413267 0 -0.43549070644977389 0.076424676404298009 0 -0.45727242129551687 0.064952783739413267 0 -0.43549070644977389 0.076424676404298009 0 -0.44211677774703778 0.095507366079950848 0 -0.44914381406884413 0.08076493354554487 0 -0.44211677774703778 0.095507366079950848 0 -0.44914381406884413 0.08076493354554487 0 -0.4616953507830468 0.086174907958515831 0 -0.44914381406884413 0.08076493354554487 0 -0.4616953507830468 0.086174907958515831 0 -0.45727242129551687 0.064952783739413267 0 -0.4616953507830468 0.086174907958515831 0 -0.45727242129551687 0.064952783739413267 0 -0.4616953507830468 0.086174907958515831 0 -0.45727242129551687 0.064952783739413267 0 -0.46965784321744131 0.073092615465589511 0 -0.46591886513858399 0.060398914753291108 0 -0.46864327541780221 0.063132526820982193 0 -0.45727242129551687 0.064952783739413267 0 -0.46591886513858399 0.060398914753291108 0 -0.45727242129551687 0.064952783739413267 0 -0.46864327541780221 0.063132526820982193 0 -0.45727242129551687 0.064952783739413267 0 -0.46965784321744131 0.073092615465589511 0 -0.46864327541780221 0.063132526820982193 0 -0.48193290733273692 0.06662657255411765 0 -0.46965784321744131 0.073092615465589511 0 -0.48193290733273692 0.06662657255411765 0 -0.46965784321744131 0.073092615465589511 0 -0.48071507763996518 0.079341201715508763 0 -0.4616953507830468 0.086174907958515831 0 -0.48071507763996518 0.079341201715508763 0 -0.47870045322456928 0.097925956561548066 0 -0.4616953507830468 0.086174907958515831 0 -0.46965784321744131 0.073092615465589511 0 -0.48071507763996518 0.079341201715508763 0 -0.48071507763996518 0.079341201715508763 0 -0.5 0.073296260004051594 0 -0.5 0.10202961532233761 0 -0.48071507763996518 0.079341201715508763 0 -0.47870045322456928 0.097925956561548066 0 -0.5 0.10202961532233761 0 -0.48520960878308528 0.050238955260537281 0 -0.48193290733273692 0.06662657255411765 0 -0.5 0.073296260004051594 0 -0.48193290733273692 0.06662657255411765 0 -0.48071507763996518 0.079341201715508763 0 -0.5 0.073296260004051594 0 -0.47795237945647251 0.12155921581865629 0 -0.48497355742925191 0.114687025633761 0 -0.4838466797833415 0.13430166707567509 0 -0.46611828027058272 0.1073970321776171 0 -0.47795237945647251 0.12155921581865629 0 -0.47054120975811681 0.12861915639671881 0 -0.46611828027058272 0.1073970321776171 0 -0.47795237945647251 0.12155921581865629 0 -0.48497355742925191 0.114687025633761 0 -0.46611828027058272 0.1073970321776171 0 -0.4616953507830468 0.086174907958515831 0 -0.47870045322456928 0.097925956561548066 0 -0.46611828027058272 0.1073970321776171 0 -0.47870045322456928 0.097925956561548066 0 -0.48497355742925191 0.114687025633761 0 -0.47870045322456928 0.097925956561548066 0 -0.5 0.10202961532233761 0 -0.48497355742925191 0.114687025633761 0 -0.5 0.10202961532233761 0 -0.48497355742925191 0.114687025633761 0 -0.5 0.13076297064062359 0 -0.48497355742925191 0.114687025633761 0 -0.5 0.13076297064062359 0 -0.4838466797833415 0.13430166707567509 0 -0.5 0.13076297064062359 0 -0.4838466797833415 0.13430166707567509 0 -0.48747846342258438 0.1476150286199521 0 -0.47054120975811681 0.12861915639671881 0 -0.4739189480240748 0.1448262384362895 0 -0.47539638324054118 0.13150359728000541 0 -0.47054120975811681 0.12861915639671881 0 -0.4739189480240748 0.1448262384362895 0 -0.47795237945647251 0.12155921581865629 0 -0.4838466797833415 0.13430166707567509 0 -0.47539638324054118 0.13150359728000541 0 -0.4838466797833415 0.13430166707567509 0 -0.47539638324054118 0.13150359728000541 0 -0.4739189480240748 0.1448262384362895 0 -0.47795237945647251 0.12155921581865629 0 -0.47539638324054118 0.13150359728000541 0 -0.47054120975811681 0.12861915639671881 0 -0.4739189480240748 0.1448262384362895 0 -0.47700538653740132 0.1661010469164112 0 -0.45985622384617048 0.15260718351745681 0 -0.4739189480240748 0.1448262384362895 0 -0.48747846342258438 0.1476150286199521 0 -0.47700538653740132 0.1661010469164112 0 -0.4838466797833415 0.13430166707567509 0 -0.4739189480240748 0.1448262384362895 0 -0.48747846342258438 0.1476150286199521 0 -0.5 0.13076297064062359 0 -0.48747846342258438 0.1476150286199521 0 -0.5 0.15949632595890961 0 -0.5 0.15949632595890961 0 -0.48556972777500912 0.18028145646761601 0 -0.47700538653740132 0.1661010469164112 0 -0.48747846342258438 0.1476150286199521 0 -0.5 0.15949632595890961 0 -0.47700538653740132 0.1661010469164112 0 -0.5 0.15949632595890961 0 -0.48556972777500912 0.18028145646761601 0 -0.5 0.18822968127719561 0 -0.47700538653740132 0.1661010469164112 0 -0.4631864261215396 0.1708172664494893 0 -0.46671285616836011 0.18796562472589351 0 -0.48556972777500912 0.18028145646761601 0 -0.47700538653740132 0.1661010469164112 0 -0.46671285616836011 0.18796562472589351 0 -0.47700538653740132 0.1661010469164112 0 -0.4631864261215396 0.1708172664494893 0 -0.45985622384617048 0.15260718351745681 0 -0.4631864261215396 0.1708172664494893 0 -0.44917123793422647 0.17659521063819569 0 -0.45985622384617048 0.15260718351745681 0 -0.44917123793422647 0.17659521063819569 0 -0.45985622384617048 0.15260718351745681 0 -0.44917123793422647 0.17659521063819569 0 -0.46671285616836011 0.18796562472589351 0 -0.45071045400930082 0.18887714611009329 0 -0.4631864261215396 0.1708172664494893 0 -0.44917123793422647 0.17659521063819569 0 -0.46671285616836011 0.18796562472589351 0 -0.44917123793422647 0.17659521063819569 0 -0.437679206357244 0.18585003546913259 0 -0.43428031125719191 0.16330758113924729 0 -0.44917123793422647 0.17659521063819569 0 -0.44708318916169931 0.15938422166456981 0 -0.45985622384617048 0.15260718351745681 0 -0.44917123793422647 0.17659521063819569 0 -0.44708318916169931 0.15938422166456981 0 -0.43428031125719191 0.16330758113924729 0 -0.44708318916169931 0.15938422166456981 0 -0.4450249836092085 0.1450269113633792 0 -0.43428031125719191 0.16330758113924729 0 -0.44708318916169931 0.15938422166456981 0 -0.4450249836092085 0.1450269113633792 0 -0.45985622384617048 0.15260718351745681 0 -0.4450249836092085 0.1450269113633792 0 -0.44691378669375559 0.13196294982154699 0 -0.43211404398761849 0.13147082840716981 0 -0.44450459624351801 0.11895274529009379 0 -0.44691378669375559 0.13196294982154699 0 -0.43211404398761849 0.13147082840716981 0 -0.44450459624351801 0.11895274529009379 0 -0.44691378669375559 0.13196294982154699 0 -0.45787969212454122 0.1264610540235015 0 -0.4450249836092085 0.1450269113633792 0 -0.44691378669375559 0.13196294982154699 0 -0.45504561750389222 0.13790321002359079 0 -0.47054120975811681 0.12861915639671881 0 -0.45985622384617048 0.15260718351745681 0 -0.47054120975811681 0.12861915639671881 0 -0.46083068580818021 0.136397650990317 0 -0.45985622384617048 0.15260718351745681 0 -0.46083068580818021 0.136397650990317 0 -0.45504561750389222 0.13790321002359079 0 -0.45787969212454122 0.1264610540235015 0 -0.44691378669375559 0.13196294982154699 0 -0.45504561750389222 0.13790321002359079 0 -0.45787969212454122 0.1264610540235015 0 -0.47054120975811681 0.12861915639671881 0 -0.46083068580818021 0.136397650990317 0 -0.45787969212454122 0.1264610540235015 0 -0.47054120975811681 0.12861915639671881 0 -0.4739189480240748 0.1448262384362895 0 -0.45985622384617048 0.15260718351745681 0 -0.46083068580818021 0.136397650990317 0 -0.45504561750389222 0.13790321002359079 0 -0.45985622384617048 0.15260718351745681 0 -0.4450249836092085 0.1450269113633792 0 -0.45504561750389222 0.13790321002359079 0 -0.45985622384617048 0.15260718351745681 0 -0.48123258665022223 0.2338671199023924 0 -0.46470531482263477 0.2425530545157277 0 -0.47790774020397558 0.25144110450113488 0 -0.48123258665022223 0.2338671199023924 0 -0.46722886355654619 0.2300171375048839 0 -0.46470531482263477 0.2425530545157277 0 -0.5 0.24569639191376769 0 -0.48123258665022223 0.2338671199023924 0 -0.47790774020397558 0.25144110450113488 0 -0.5 0.24569639191376769 0 -0.48123258665022223 0.2338671199023924 0 -0.5 0.21696303659548169 0 -0.48123258665022223 0.2338671199023924 0 -0.4703440239527748 0.21457826850503259 0 -0.46722886355654619 0.2300171375048839 0 -0.48123258665022223 0.2338671199023924 0 -0.4703440239527748 0.21457826850503259 0 -0.5 0.21696303659548169 0 -0.4703440239527748 0.21457826850503259 0 -0.5 0.21696303659548169 0 -0.48413039616928372 0.19961460345967 0 -0.5 0.21696303659548169 0 -0.5 0.18822968127719561 0 -0.48413039616928372 0.19961460345967 0 -0.48556972777500912 0.18028145646761601 0 -0.5 0.18822968127719561 0 -0.48413039616928372 0.19961460345967 0 -0.4703440239527748 0.21457826850503259 0 -0.48413039616928372 0.19961460345967 0 -0.46671285616836011 0.18796562472589351 0 -0.48556972777500912 0.18028145646761601 0 -0.48413039616928372 0.19961460345967 0 -0.46671285616836011 0.18796562472589351 0 -0.46671285616836011 0.18796562472589351 0 -0.45683859168060581 0.20059300110400069 0 -0.45071045400930082 0.18887714611009329 0 -0.4703440239527748 0.21457826850503259 0 -0.46671285616836011 0.18796562472589351 0 -0.45683859168060581 0.20059300110400069 0 -0.44917123793422647 0.17659521063819569 0 -0.43848625202228247 0.20058323775893461 0 -0.44917123793422647 0.17659521063819569 0 -0.45071045400930082 0.18887714611009329 0 -0.43848625202228247 0.20058323775893461 0 -0.44917123793422647 0.17659521063819569 0 -0.437679206357244 0.18585003546913259 0 -0.43848625202228247 0.20058323775893461 0 -0.45071045400930082 0.18887714611009329 0 -0.44394159357910429 0.19924043002679309 0 -0.43848625202228247 0.20058323775893461 0 -0.45683859168060581 0.20059300110400069 0 -0.45071045400930082 0.18887714611009329 0 -0.44394159357910429 0.19924043002679309 0 -0.45683859168060581 0.20059300110400069 0 -0.44394159357910429 0.19924043002679309 0 -0.45248403069348941 0.21230353615219091 0 -0.44394159357910429 0.19924043002679309 0 -0.45248403069348941 0.21230353615219091 0 -0.43906194030284562 0.21877912130218399 0 -0.44394159357910429 0.19924043002679309 0 -0.43906194030284562 0.21877912130218399 0 -0.44394159357910429 0.19924043002679309 0 -0.43848625202228247 0.20058323775893461 0 -0.43906194030284562 0.21877912130218399 0 -0.4703440239527748 0.21457826850503259 0 -0.45248403069348941 0.21230353615219091 0 -0.45263352880055341 0.22907010709638281 0 -0.4703440239527748 0.21457826850503259 0 -0.45683859168060581 0.20059300110400069 0 -0.45248403069348941 0.21230353615219091 0 -0.4703440239527748 0.21457826850503259 0 -0.46722886355654619 0.2300171375048839 0 -0.45263352880055341 0.22907010709638281 0 -0.46722886355654619 0.2300171375048839 0 -0.45263352880055341 0.22907010709638281 0 -0.46470531482263477 0.2425530545157277 0 -0.43906194030284562 0.21877912130218399 0 -0.45263352880055341 0.22907010709638281 0 -0.4341822870265869 0.23831781257757501 0 -0.45248403069348941 0.21230353615219091 0 -0.43906194030284562 0.21877912130218399 0 -0.45263352880055341 0.22907010709638281 0 -0.44907064711314898 0.24935538378234501 0 -0.4341822870265869 0.23831781257757501 0 -0.42930263375032468 0.2578565038529651 0 -0.45263352880055341 0.22907010709638281 0 -0.44907064711314898 0.24935538378234501 0 -0.4341822870265869 0.23831781257757501 0 -0.45263352880055341 0.22907010709638281 0 -0.44907064711314898 0.24935538378234501 0 -0.46470531482263477 0.2425530545157277 0 -0.41969550780862702 0.24375442173727249 0 -0.40307080517333382 0.24394062304470629 0 -0.42930263375032468 0.2578565038529651 0 -0.41098228164390371 0.2367207686681905 0 -0.41969550780862702 0.24375442173727249 0 -0.40307080517333382 0.24394062304470629 0 -0.41098228164390371 0.2367207686681905 0 -0.41969550780862702 0.24375442173727249 0 -0.41929803645034058 0.23293063294697749 0 -0.41969550780862702 0.24375442173727249 0 -0.4341822870265869 0.23831781257757501 0 -0.42930263375032468 0.2578565038529651 0 -0.4341822870265869 0.23831781257757501 0 -0.42930263375032468 0.2578565038529651 0 -0.41969550780862702 0.24375442173727249 0 -0.4341822870265869 0.23831781257757501 0 -0.41929803645034058 0.23293063294697749 0 -0.4341822870265869 0.23831781257757501 0 -0.42780126611033847 0.22457126487967349 0 -0.41929803645034058 0.23293063294697749 0 -0.43906194030284562 0.21877912130218399 0 -0.4341822870265869 0.23831781257757501 0 -0.43906194030284562 0.21877912130218399 0 -0.4341822870265869 0.23831781257757501 0 -0.42780126611033847 0.22457126487967349 0 -0.42780126611033847 0.22457126487967349 0 -0.41381664815086572 0.22249090647034159 0 -0.41835888226497198 0.21384280712759021 0 -0.41929803645034058 0.23293063294697749 0 -0.40965988874092563 0.23004709092507961 0 -0.41381664815086572 0.22249090647034159 0 -0.42780126611033847 0.22457126487967349 0 -0.41929803645034058 0.23293063294697749 0 -0.41381664815086572 0.22249090647034159 0 -0.41098228164390371 0.2367207686681905 0 -0.41929803645034058 0.23293063294697749 0 -0.40965988874092563 0.23004709092507961 0 -0.41098228164390371 0.2367207686681905 0 -0.40965988874092563 0.23004709092507961 0 -0.40318717004629151 0.23293107468691671 0 -0.40965988874092563 0.23004709092507961 0 -0.41381664815086572 0.22249090647034159 0 -0.40062062184778291 0.22264733334382819 0 -0.41381664815086572 0.22249090647034159 0 -0.40716119349083468 0.2109063095989003 0 -0.41835888226497198 0.21384280712759021 0 -0.41381664815086572 0.22249090647034159 0 -0.40716119349083468 0.2109063095989003 0 -0.40062062184778291 0.22264733334382819 0 -0.40716119349083468 0.2109063095989003 0 -0.41835888226497198 0.21384280712759021 0 -0.41645141859375301 0.20309036997113869 0 -0.40716119349083468 0.2109063095989003 0 -0.41645141859375301 0.20309036997113869 0 -0.40758641619538749 0.19881017409599941 0 -0.41835888226497198 0.21384280712759021 0 -0.42651698713406061 0.20615960964345181 0 -0.41645141859375301 0.20309036997113869 0 -0.42780126611033847 0.22457126487967349 0 -0.41835888226497198 0.21384280712759021 0 -0.42651698713406061 0.20615960964345181 0 -0.43848625202228247 0.20058323775893461 0 -0.42780126611033847 0.22457126487967349 0 -0.43848625202228247 0.20058323775893461 0 -0.43906194030284562 0.21877912130218399 0 -0.42780126611033847 0.22457126487967349 0 -0.43848625202228247 0.20058323775893461 0 -0.42780126611033847 0.22457126487967349 0 -0.42651698713406061 0.20615960964345181 0 -0.42651698713406061 0.20615960964345181 0 -0.43084665611299161 0.1992680549457474 0 -0.42577534899564268 0.1938702561955982 0 -0.42651698713406061 0.20615960964345181 0 -0.42577534899564268 0.1938702561955982 0 -0.41645141859375301 0.20309036997113869 0 -0.43848625202228247 0.20058323775893461 0 -0.42651698713406061 0.20615960964345181 0 -0.43084665611299161 0.1992680549457474 0 -0.43084665611299161 0.1992680549457474 0 -0.43319686587204009 0.19489289609235319 0 -0.42577534899564268 0.1938702561955982 0 -0.43848625202228247 0.20058323775893461 0 -0.43084665611299161 0.1992680549457474 0 -0.43319686587204009 0.19489289609235319 0 -0.437679206357244 0.18585003546913259 0 -0.43848625202228247 0.20058323775893461 0 -0.43319686587204009 0.19489289609235319 0 -0.437679206357244 0.18585003546913259 0 -0.43319686587204009 0.19489289609235319 0 -0.42577534899564268 0.1938702561955982 0 -0.42577534899564268 0.1938702561955982 0 -0.41076300567647422 0.19006445329450289 0 -0.42155817135765983 0.1793011905095829 0 -0.42577534899564268 0.1938702561955982 0 -0.41645141859375301 0.20309036997113869 0 -0.41076300567647422 0.19006445329450289 0 -0.41645141859375301 0.20309036997113869 0 -0.40758641619538749 0.19881017409599941 0 -0.41076300567647422 0.19006445329450289 0 -0.40758641619538749 0.19881017409599941 0 -0.41076300567647422 0.19006445329450289 0 -0.39724609010807638 0.19136363038149479 0 -0.40758641619538749 0.19881017409599941 0 -0.39724609010807638 0.19136363038149479 0 -0.40018944476190749 0.20445492091772269 0 -0.39189570401334289 0.2002847130957198 0 -0.39724609010807638 0.19136363038149479 0 -0.40018944476190749 0.20445492091772269 0 -0.39724609010807638 0.19136363038149479 0 -0.38189716932850992 0.19467294947844879 0 -0.38898562087408711 0.17738168162727361 0 -0.38189716932850992 0.19467294947844879 0 -0.37660802996916559 0.20951772822643011 0 -0.36674089927193348 0.20375076045597809 0 -0.39189570401334289 0.2002847130957198 0 -0.38189716932850992 0.19467294947844879 0 -0.38597197165564839 0.2072566240601674 0 -0.39189570401334289 0.2002847130957198 0 -0.39724609010807638 0.19136363038149479 0 -0.38189716932850992 0.19467294947844879 0 -0.37660802996916559 0.20951772822643011 0 -0.38466918823292701 0.21825686391841981 0 -0.36859497606693659 0.2161665961221286 0 -0.38189716932850992 0.19467294947844879 0 -0.38597197165564839 0.2072566240601674 0 -0.37660802996916559 0.20951772822643011 0 -0.38597197165564839 0.2072566240601674 0 -0.37660802996916559 0.20951772822643011 0 -0.38466918823292701 0.21825686391841981 0 -0.38597197165564839 0.2072566240601674 0 -0.38466918823292701 0.21825686391841981 0 -0.39432944003756742 0.21160375137169299 0 -0.38466918823292701 0.21825686391841981 0 -0.39432944003756742 0.21160375137169299 0 -0.40062062184778291 0.22264733334382819 0 -0.39189570401334289 0.2002847130957198 0 -0.39432944003756742 0.21160375137169299 0 -0.40018944476190749 0.20445492091772269 0 -0.39189570401334289 0.2002847130957198 0 -0.38597197165564839 0.2072566240601674 0 -0.39432944003756742 0.21160375137169299 0 -0.40716119349083468 0.2109063095989003 0 -0.40758641619538749 0.19881017409599941 0 -0.40018944476190749 0.20445492091772269 0 -0.40716119349083468 0.2109063095989003 0 -0.39432944003756742 0.21160375137169299 0 -0.40018944476190749 0.20445492091772269 0 -0.40716119349083468 0.2109063095989003 0 -0.39432944003756742 0.21160375137169299 0 -0.40062062184778291 0.22264733334382819 0 -0.38466918823292701 0.21825686391841981 0 -0.40062062184778291 0.22264733334382819 0 -0.39367735237933571 0.22956012744606361 0 -0.40062062184778291 0.22264733334382819 0 -0.40318717004629151 0.23293107468691671 0 -0.39367735237933571 0.22956012744606361 0 -0.40965988874092563 0.23004709092507961 0 -0.40062062184778291 0.22264733334382819 0 -0.40318717004629151 0.23293107468691671 0 -0.38466918823292701 0.21825686391841981 0 -0.37683897659634341 0.2300247422364467 0 -0.36859497606693659 0.2161665961221286 0 -0.38466918823292701 0.21825686391841981 0 -0.39367735237933571 0.22956012744606361 0 -0.37683897659634341 0.2300247422364467 0 -0.37683897659634341 0.2300247422364467 0 -0.38511015398572052 0.2486377952911166 0 -0.40307080517333382 0.24394062304470629 0 -0.37683897659634341 0.2300247422364467 0 -0.40307080517333382 0.24394062304470629 0 -0.37683897659634341 0.2300247422364467 0 -0.38511015398572052 0.2486377952911166 0 -0.37398612244221657 0.2434230040747235 0 -0.39367735237933571 0.22956012744606361 0 -0.37683897659634341 0.2300247422364467 0 -0.40307080517333382 0.24394062304470629 0 -0.41098228164390371 0.2367207686681905 0 -0.40318717004629151 0.23293107468691671 0 -0.40307080517333382 0.24394062304470629 0 -0.40318717004629151 0.23293107468691671 0 -0.39367735237933571 0.22956012744606361 0 -0.40307080517333382 0.24394062304470629 0 -0.42330837957596162 0.1141633905746294 0 -0.40821600484205761 0.12939796327653089 0 -0.43211404398761849 0.13147082840716981 0 -0.41873366537200779 0.144563773649967 0 -0.40821600484205761 0.12939796327653089 0 -0.39244234713480708 0.14410063593655481 0 -0.41873366537200779 0.144563773649967 0 -0.40821600484205761 0.12939796327653089 0 -0.43211404398761849 0.13147082840716981 0 -0.4450249836092085 0.1450269113633792 0 -0.41873366537200779 0.144563773649967 0 -0.43211404398761849 0.13147082840716981 0 -0.4450249836092085 0.1450269113633792 0 -0.41873366537200779 0.144563773649967 0 -0.4450249836092085 0.1450269113633792 0 -0.41873366537200779 0.144563773649967 0 -0.43428031125719191 0.16330758113924729 0 -0.43428031125719191 0.16330758113924729 0 -0.42155817135765983 0.1793011905095829 0 -0.41744012090889271 0.164166088687865 0 -0.41873366537200779 0.144563773649967 0 -0.43428031125719191 0.16330758113924729 0 -0.41744012090889271 0.164166088687865 0 -0.437679206357244 0.18585003546913259 0 -0.43428031125719191 0.16330758113924729 0 -0.42155817135765983 0.1793011905095829 0 -0.437679206357244 0.18585003546913259 0 -0.42577534899564268 0.1938702561955982 0 -0.42155817135765983 0.1793011905095829 0 -0.42155817135765983 0.1793011905095829 0 -0.41744012090889271 0.164166088687865 0 -0.40602096636463231 0.1774021822782903 0 -0.41076300567647422 0.19006445329450289 0 -0.42155817135765983 0.1793011905095829 0 -0.40602096636463231 0.1774021822782903 0 -0.41744012090889271 0.164166088687865 0 -0.40013278926260348 0.16213604916902269 0 -0.40602096636463231 0.1774021822782903 0 -0.41873366537200779 0.144563773649967 0 -0.41744012090889271 0.164166088687865 0 -0.40013278926260348 0.16213604916902269 0 -0.40013278926260348 0.16213604916902269 0 -0.38022929389110388 0.1647251370373195 0 -0.39244234713480708 0.14410063593655481 0 -0.39724609010807638 0.19136363038149479 0 -0.40602096636463231 0.1774021822782903 0 -0.38898562087408711 0.17738168162727361 0 -0.40013278926260348 0.16213604916902269 0 -0.40602096636463231 0.1774021822782903 0 -0.38898562087408711 0.17738168162727361 0 -0.41076300567647422 0.19006445329450289 0 -0.39724609010807638 0.19136363038149479 0 -0.40602096636463231 0.1774021822782903 0 -0.38898562087408711 0.17738168162727361 0 -0.38022929389110388 0.1647251370373195 0 -0.37443256976124301 0.1809414258710498 0 -0.38189716932850992 0.19467294947844879 0 -0.38898562087408711 0.17738168162727361 0 -0.37443256976124301 0.1809414258710498 0 -0.40013278926260348 0.16213604916902269 0 -0.38898562087408711 0.17738168162727361 0 -0.38022929389110388 0.1647251370373195 0 -0.39244234713480708 0.14410063593655481 0 -0.37828062067814761 0.13633913162856351 0 -0.36615102889760648 0.1436374982231427 0 -0.38022929389110388 0.1647251370373195 0 -0.39244234713480708 0.14410063593655481 0 -0.37117921582148339 0.1545265733180973 0 -0.39244234713480708 0.14410063593655481 0 -0.36615102889760648 0.1436374982231427 0 -0.37117921582148339 0.1545265733180973 0 -0.39244234713480708 0.14410063593655481 0 -0.36615102889760648 0.1436374982231427 0 -0.41873366537200779 0.144563773649967 0 -0.39244234713480708 0.14410063593655481 0 -0.41873366537200779 0.144563773649967 0 -0.40013278926260348 0.16213604916902269 0 -0.39244234713480708 0.14410063593655481 0 -0.38462448899452278 0.1235442590651198 0 -0.40821600484205761 0.12939796327653089 0 -0.39244234713480708 0.14410063593655481 0 -0.38462448899452278 0.1235442590651198 0 -0.39244234713480708 0.14410063593655481 0 -0.37828062067814761 0.13633913162856351 0 -0.38462448899452278 0.1235442590651198 0 -0.37828062067814761 0.13633913162856351 0 -0.36993273764687201 0.13040331286618101 0 -0.38462448899452278 0.1235442590651198 0 -0.36993273764687201 0.13040331286618101 0 -0.36754771439324119 0.1211315634400118 0 -0.37828062067814761 0.13633913162856351 0 -0.36919034894894959 0.13657483982328039 0 -0.36615102889760648 0.1436374982231427 0 -0.37828062067814761 0.13633913162856351 0 -0.36993273764687201 0.13040331286618101 0 -0.36919034894894959 0.13657483982328039 0 -0.36919034894894959 0.13657483982328039 0 -0.36239700857317247 0.13591941657523471 0 -0.36615102889760648 0.1436374982231427 0 -0.36993273764687201 0.13040331286618101 0 -0.36919034894894959 0.13657483982328039 0 -0.36239700857317247 0.13591941657523471 0 -0.36239700857317247 0.13591941657523471 0 -0.35965584574131171 0.1418703275545902 0 -0.36615102889760648 0.1436374982231427 0 -0.36993273764687201 0.13040331286618101 0 -0.36046544368939981 0.12768217020471401 0 -0.36754771439324119 0.1211315634400118 0 -0.36239700857317247 0.13591941657523471 0 -0.36046544368939981 0.12768217020471401 0 -0.35587786388225362 0.13317610067409771 0 -0.36993273764687201 0.13040331286618101 0 -0.36239700857317247 0.13591941657523471 0 -0.36046544368939981 0.12768217020471401 0 -0.35032517494085241 0.13812670430831739 0 -0.34723062862042331 0.12608174307771439 0 -0.33933587660318232 0.1523425547991793 0 -0.36046544368939981 0.12768217020471401 0 -0.35296047902227751 0.1279893565489667 0 -0.35587786388225362 0.13317610067409771 0 -0.36239700857317247 0.13591941657523471 0 -0.35587786388225362 0.13317610067409771 0 -0.35597769118134848 0.13745445279306881 0 -0.35296047902227751 0.1279893565489667 0 -0.35587786388225362 0.13317610067409771 0 -0.35032517494085241 0.13812670430831739 0 -0.36239700857317247 0.13591941657523471 0 -0.35597769118134848 0.13745445279306881 0 -0.35965584574131171 0.1418703275545902 0 -0.35597769118134848 0.13745445279306881 0 -0.35032517494085241 0.13812670430831739 0 -0.35417704989993798 0.14302602537001841 0 -0.35587786388225362 0.13317610067409771 0 -0.35597769118134848 0.13745445279306881 0 -0.35032517494085241 0.13812670430831739 0 -0.35296047902227751 0.1279893565489667 0 -0.35032517494085241 0.13812670430831739 0 -0.34723062862042331 0.12608174307771439 0 -0.34984102109300458 0.14799562505224989 0 -0.34849285809407332 0.1582836186363267 0 -0.33933587660318232 0.1523425547991793 0 -0.35032517494085241 0.13812670430831739 0 -0.34984102109300458 0.14799562505224989 0 -0.35417704989993798 0.14302602537001841 0 -0.35032517494085241 0.13812670430831739 0 -0.34984102109300458 0.14799562505224989 0 -0.33933587660318232 0.1523425547991793 0 -0.34984102109300458 0.14799562505224989 0 -0.35417704989993798 0.14302602537001841 0 -0.36075827478905081 0.1492171994613869 0 -0.35597769118134848 0.13745445279306881 0 -0.35417704989993798 0.14302602537001841 0 -0.35965584574131171 0.1418703275545902 0 -0.35417704989993798 0.14302602537001841 0 -0.36075827478905081 0.1492171994613869 0 -0.35965584574131171 0.1418703275545902 0 -0.34984102109300458 0.14799562505224989 0 -0.36075827478905081 0.1492171994613869 0 -0.34849285809407332 0.1582836186363267 0 -0.36075827478905081 0.1492171994613869 0 -0.36615102889760648 0.1436374982231427 0 -0.37117921582148339 0.1545265733180973 0 -0.36075827478905081 0.1492171994613869 0 -0.35965584574131171 0.1418703275545902 0 -0.36615102889760648 0.1436374982231427 0 -0.38022929389110388 0.1647251370373195 0 -0.37117921582148339 0.1545265733180973 0 -0.3563151343948488 0.17095239593208261 0 -0.36075827478905081 0.1492171994613869 0 -0.37117921582148339 0.1545265733180973 0 -0.3563151343948488 0.17095239593208261 0 -0.38022929389110388 0.1647251370373195 0 -0.37443256976124301 0.1809414258710498 0 -0.3563151343948488 0.17095239593208261 0 -0.37443256976124301 0.1809414258710498 0 -0.3563151343948488 0.17095239593208261 0 -0.36544533230235998 0.19056523765730579 0 -0.3563151343948488 0.17095239593208261 0 -0.35187199400064689 0.1926875924027783 0 -0.3563151343948488 0.17095239593208261 0 -0.36544533230235998 0.19056523765730579 0 -0.35187199400064689 0.1926875924027783 0 -0.3563151343948488 0.17095239593208261 0 -0.33812671071995021 0.18226191034130479 0 -0.35187199400064689 0.1926875924027783 0 -0.36075827478905081 0.1492171994613869 0 -0.3563151343948488 0.17095239593208261 0 -0.3563151343948488 0.17095239593208261 0 -0.34849285809407332 0.1582836186363267 0 -0.3349679204263642 0.16653724742594839 0 -0.36075827478905081 0.1492171994613869 0 -0.3563151343948488 0.17095239593208261 0 -0.34849285809407332 0.1582836186363267 0 -0.34849285809407332 0.1582836186363267 0 -0.3349679204263642 0.16653724742594839 0 -0.33933587660318232 0.1523425547991793 0 -0.3349679204263642 0.16653724742594839 0 -0.32374993966252652 0.15649072157996699 0 -0.33933587660318232 0.1523425547991793 0 -0.3563151343948488 0.17095239593208261 0 -0.3349679204263642 0.16653724742594839 0 -0.33812671071995021 0.18226191034130479 0 -0.33812671071995021 0.18226191034130479 0 -0.32249972817273731 0.17726798158410559 0 -0.32675351523723262 0.18960474299912741 0 -0.3349679204263642 0.16653724742594839 0 -0.33812671071995021 0.18226191034130479 0 -0.32249972817273731 0.17726798158410559 0 -0.32249972817273731 0.17726798158410559 0 -0.31563216375527342 0.16597501385328009 0 -0.30558790242803502 0.1733887106366773 0 -0.32249972817273731 0.17726798158410559 0 -0.31379224028362612 0.1893793440667132 0 -0.30558790242803502 0.1733887106366773 0 -0.32249972817273731 0.17726798158410559 0 -0.32675351523723262 0.18960474299912741 0 -0.31379224028362612 0.1893793440667132 0 -0.3349679204263642 0.16653724742594839 0 -0.31563216375527342 0.16597501385328009 0 -0.32374993966252652 0.15649072157996699 0 -0.3349679204263642 0.16653724742594839 0 -0.32249972817273731 0.17726798158410559 0 -0.31563216375527342 0.16597501385328009 0 -0.31563216375527342 0.16597501385328009 0 -0.32374993966252652 0.15649072157996699 0 -0.30765195842482351 0.1554988959753896 0 -0.32744129352262341 0.14079031952655199 0 -0.30765195842482351 0.1554988959753896 0 -0.32374993966252652 0.15649072157996699 0 -0.32744129352262341 0.14079031952655199 0 -0.30765195842482351 0.1554988959753896 0 -0.32744129352262341 0.14079031952655199 0 -0.30765195842482351 0.1554988959753896 0 -0.31023316775409809 0.14239473659287999 0 -0.32744129352262341 0.14079031952655199 0 -0.32929850741044842 0.13235349182835551 0 -0.31023316775409809 0.14239473659287999 0 -0.32929850741044842 0.13235349182835551 0 -0.31023316775409809 0.14239473659287999 0 -0.31667255891304391 0.13003847451082251 0 -0.32929850741044842 0.13235349182835551 0 -0.31023316775409809 0.14239473659287999 0 -0.31667255891304391 0.13003847451082251 0 -0.32929850741044842 0.13235349182835551 0 -0.32527376553556459 0.1237844215501353 0 -0.34723062862042331 0.12608174307771439 0 -0.33933587660318232 0.1523425547991793 0 -0.32929850741044842 0.13235349182835551 0 -0.34836384706679879 0.12231224706383149 0 -0.3389681165186228 0.1228068358204103 0 -0.32929850741044842 0.13235349182835551 0 -0.34836384706679879 0.12231224706383149 0 -0.34723062862042331 0.12608174307771439 0 -0.32929850741044842 0.13235349182835551 0 -0.34836384706679879 0.12231224706383149 0 -0.34723062862042331 0.12608174307771439 0 -0.32744129352262341 0.14079031952655199 0 -0.33933587660318232 0.1523425547991793 0 -0.34723062862042331 0.12608174307771439 0 -0.32744129352262341 0.14079031952655199 0 -0.34723062862042331 0.12608174307771439 0 -0.32744129352262341 0.14079031952655199 0 -0.32929850741044842 0.13235349182835551 0 -0.32929850741044842 0.13235349182835551 0 -0.33169094436477869 0.12420238024312789 0 -0.32527376553556459 0.1237844215501353 0 -0.32929850741044842 0.13235349182835551 0 -0.3389681165186228 0.1228068358204103 0 -0.33169094436477869 0.12420238024312789 0 -0.32374993966252652 0.15649072157996699 0 -0.32744129352262341 0.14079031952655199 0 -0.33933587660318232 0.1523425547991793 0 -0.34300505272109227 0.2360633792801719 0 -0.35383122004284839 0.25096525929895958 0 -0.33858125183573962 0.2577039696868697 0 -0.36153416906871921 0.23704611339983861 0 -0.34300505272109227 0.2360633792801719 0 -0.35383122004284839 0.25096525929895958 0 -0.36153416906871921 0.23704611339983861 0 -0.35383122004284839 0.25096525929895958 0 -0.37246119011808321 0.25798336537149219 0 -0.36153416906871921 0.23704611339983861 0 -0.37246119011808321 0.25798336537149219 0 -0.37398612244221657 0.2434230040747235 0 -0.36153416906871921 0.23704611339983861 0 -0.37246119011808321 0.25798336537149219 0 -0.37683897659634341 0.2300247422364467 0 -0.37398612244221657 0.2434230040747235 0 -0.36153416906871921 0.23704611339983861 0 -0.37683897659634341 0.2300247422364467 0 -0.35060714801935361 0.21610886142818581 0 -0.36859497606693659 0.2161665961221286 0 -0.37683897659634341 0.2300247422364467 0 -0.36153416906871921 0.23704611339983861 0 -0.35060714801935361 0.21610886142818581 0 -0.37683897659634341 0.2300247422364467 0 -0.35060714801935361 0.21610886142818581 0 -0.36153416906871921 0.23704611339983861 0 -0.35060714801935361 0.21610886142818581 0 -0.34300505272109227 0.2360633792801719 0 -0.34742885360644382 0.2144227888734738 0 -0.34300505272109227 0.2360633792801719 0 -0.36153416906871921 0.23704611339983861 0 -0.35060714801935361 0.21610886142818581 0 -0.35060714801935361 0.21610886142818581 0 -0.34742885360644382 0.2144227888734738 0 -0.34300505272109227 0.2360633792801719 0 -0.35060714801935361 0.21610886142818581 0 -0.35749455366648109 0.20919132565553139 0 -0.36859497606693659 0.2161665961221286 0 -0.34795474906586821 0.21185018478728551 0 -0.35187199400064689 0.1926875924027783 0 -0.33694748656426438 0.20886246531316729 0 -0.34795474906586821 0.21185018478728551 0 -0.35749455366648109 0.20919132565553139 0 -0.35187199400064689 0.1926875924027783 0 -0.34795474906586821 0.21185018478728551 0 -0.34742885360644382 0.2144227888734738 0 -0.33694748656426438 0.20886246531316729 0 -0.34795474906586821 0.21185018478728551 0 -0.35060714801935361 0.21610886142818581 0 -0.34742885360644382 0.2144227888734738 0 -0.34795474906586821 0.21185018478728551 0 -0.35060714801935361 0.21610886142818581 0 -0.34795474906586821 0.21185018478728551 0 -0.34742885360644382 0.2144227888734738 0 -0.35060714801935361 0.21610886142818581 0 -0.34742885360644382 0.2144227888734738 0 -0.34795474906586821 0.21185018478728551 0 -0.35060714801935361 0.21610886142818581 0 -0.35749455366648109 0.20919132565553139 0 -0.37660802996916559 0.20951772822643011 0 -0.36859497606693659 0.2161665961221286 0 -0.36674089927193348 0.20375076045597809 0 -0.35749455366648109 0.20919132565553139 0 -0.36859497606693659 0.2161665961221286 0 -0.36674089927193348 0.20375076045597809 0 -0.38189716932850992 0.19467294947844879 0 -0.36674089927193348 0.20375076045597809 0 -0.36544533230235998 0.19056523765730579 0 -0.38189716932850992 0.19467294947844879 0 -0.37443256976124301 0.1809414258710498 0 -0.36544533230235998 0.19056523765730579 0 -0.36674089927193348 0.20375076045597809 0 -0.36544533230235998 0.19056523765730579 0 -0.35187199400064689 0.1926875924027783 0 -0.34795474906586821 0.21185018478728551 0 -0.35187199400064689 0.1926875924027783 0 -0.35749455366648109 0.20919132565553139 0 -0.36674089927193348 0.20375076045597809 0 -0.35187199400064689 0.1926875924027783 0 -0.35187199400064689 0.1926875924027783 0 -0.33655454483065239 0.19776019523353691 0 -0.33694748656426438 0.20886246531316729 0 -0.33812671071995021 0.18226191034130479 0 -0.35187199400064689 0.1926875924027783 0 -0.33655454483065239 0.19776019523353691 0 -0.33655454483065239 0.19776019523353691 0 -0.32279435217919678 0.20135428376997669 0 -0.33694748656426438 0.20886246531316729 0 -0.33655454483065239 0.19776019523353691 0 -0.32675351523723262 0.18960474299912741 0 -0.32279435217919678 0.20135428376997669 0 -0.33812671071995021 0.18226191034130479 0 -0.33655454483065239 0.19776019523353691 0 -0.32675351523723262 0.18960474299912741 0 -0.32675351523723262 0.18960474299912741 0 -0.31379224028362612 0.1893793440667132 0 -0.32279435217919678 0.20135428376997669 0 -0.31379224028362612 0.1893793440667132 0 -0.32279435217919678 0.20135428376997669 0 -0.30813138007251262 0.20648306011370371 0 -0.32528554413828231 0.2102548566772785 0 -0.32214186647962229 0.22089887057831639 0 -0.30813138007251262 0.20648306011370371 0 -0.32279435217919678 0.20135428376997669 0 -0.32528554413828231 0.2102548566772785 0 -0.30813138007251262 0.20648306011370371 0 -0.32528554413828231 0.2102548566772785 0 -0.33694748656426438 0.20886246531316729 0 -0.32214186647962229 0.22089887057831639 0 -0.32279435217919678 0.20135428376997669 0 -0.33694748656426438 0.20886246531316729 0 -0.32279435217919678 0.20135428376997669 0 -0.32528554413828231 0.2102548566772785 0 -0.33694748656426438 0.20886246531316729 0 -0.33655454483065239 0.19776019523353691 0 -0.33694748656426438 0.20886246531316729 0 -0.34742885360644382 0.2144227888734738 0 -0.33694748656426438 0.20886246531316729 0 -0.34742885360644382 0.2144227888734738 0 -0.33781174889128213 0.2332815405944941 0 -0.34300505272109227 0.2360633792801719 0 -0.34742885360644382 0.2144227888734738 0 -0.33694748656426438 0.20886246531316729 0 -0.33781174889128213 0.2332815405944941 0 -0.33694748656426438 0.20886246531316729 0 -0.33781174889128213 0.2332815405944941 0 -0.32214186647962229 0.22089887057831639 0 -0.33694748656426438 0.20886246531316729 0 -0.33781174889128213 0.2332815405944941 0 -0.33781174889128213 0.2332815405944941 0 -0.32214186647962229 0.22089887057831639 0 -0.31985228056307641 0.2453748715902791 0 -0.32214186647962229 0.22089887057831639 0 -0.31985228056307641 0.2453748715902791 0 -0.30595943758369581 0.2287682442639461 0 -0.33781174889128213 0.2332815405944941 0 -0.33858125183573962 0.2577039696868697 0 -0.34300505272109227 0.2360633792801719 0 -0.33858125183573962 0.2577039696868697 0 -0.33781174889128213 0.2332815405944941 0 -0.31985228056307641 0.2453748715902791 0 -0.33858125183573962 0.2577039696868697 0 -0.33781174889128213 0.2332815405944941 0 -0.34300505272109227 0.2360633792801719 0 -0.33858125183573962 0.2577039696868697 0 -0.28850717374597562 0.2352174092809341 0 -0.29940859687451638 0.2465419436069875 0 -0.27882243381333138 0.25002155311163943 0 -0.31985228056307641 0.2453748715902791 0 -0.29940859687451638 0.2465419436069875 0 -0.30595943758369581 0.2287682442639461 0 -0.28850717374597562 0.2352174092809341 0 -0.29940859687451638 0.2465419436069875 0 -0.30595943758369581 0.2287682442639461 0 -0.28850717374597562 0.2352174092809341 0 -0.30595943758369581 0.2287682442639461 0 -0.28551683849911658 0.21842066288746309 0 -0.28850717374597562 0.2352174092809341 0 -0.28551683849911658 0.21842066288746309 0 -0.27282856195921779 0.23233464253463421 0 -0.28551683849911658 0.21842066288746309 0 -0.30813138007251262 0.20648306011370371 0 -0.28933507471759612 0.19574986367943351 0 -0.28551683849911658 0.21842066288746309 0 -0.28933507471759612 0.19574986367943351 0 -0.2730696425069013 0.20382919730091531 0 -0.32214186647962229 0.22089887057831639 0 -0.30595943758369581 0.2287682442639461 0 -0.30813138007251262 0.20648306011370371 0 -0.30595943758369581 0.2287682442639461 0 -0.28551683849911658 0.21842066288746309 0 -0.30813138007251262 0.20648306011370371 0 -0.30813138007251262 0.20648306011370371 0 -0.28933507471759612 0.19574986367943351 0 -0.30094184416575859 0.18704169018415101 0 -0.31379224028362612 0.1893793440667132 0 -0.30813138007251262 0.20648306011370371 0 -0.30094184416575859 0.18704169018415101 0 -0.28933507471759612 0.19574986367943351 0 -0.2730696425069013 0.20382919730091531 0 -0.26923135695884692 0.18360419760414531 0 -0.28933507471759612 0.19574986367943351 0 -0.26923135695884692 0.18360419760414531 0 -0.25488177729238148 0.20209275599548221 0 -0.2730696425069013 0.20382919730091531 0 -0.26923135695884692 0.18360419760414531 0 -0.25488177729238148 0.20209275599548221 0 -0.26923135695884692 0.18360419760414531 0 -0.24660498877890061 0.1877491309101994 0 -0.25488177729238148 0.20209275599548221 0 -0.26228521194659632 0.21781242235938611 0 -0.24404014068406429 0.21872308601562079 0 -0.25488177729238148 0.20209275599548221 0 -0.26228521194659632 0.21781242235938611 0 -0.2730696425069013 0.20382919730091531 0 -0.28551683849911658 0.21842066288746309 0 -0.26228521194659632 0.21781242235938611 0 -0.2730696425069013 0.20382919730091531 0 -0.28551683849911658 0.21842066288746309 0 -0.26228521194659632 0.21781242235938611 0 -0.27282856195921779 0.23233464253463421 0 -0.26228521194659632 0.21781242235938611 0 -0.25312730452603122 0.23956148187864251 0 -0.24404014068406429 0.21872308601562079 0 -0.26228521194659632 0.21781242235938611 0 -0.27282856195921779 0.23233464253463421 0 -0.25312730452603122 0.23956148187864251 0 -0.25312730452603122 0.23956148187864251 0 -0.27882243381333138 0.25002155311163943 0 -0.25994981113117638 0.2595370196005905 0 -0.28850717374597562 0.2352174092809341 0 -0.27282856195921779 0.23233464253463421 0 -0.27882243381333138 0.25002155311163943 0 -0.27282856195921779 0.23233464253463421 0 -0.25312730452603122 0.23956148187864251 0 -0.27882243381333138 0.25002155311163943 0 -0.29217985187798012 0.14029761532637039 0 -0.27761587694150741 0.14984093024440079 0 -0.27743083852243922 0.1356472071358007 0 -0.29116782809774788 0.1524359813574046 0 -0.29217985187798012 0.14029761532637039 0 -0.27761587694150741 0.14984093024440079 0 -0.29137975173736119 0.13038826473440959 0 -0.29217985187798012 0.14029761532637039 0 -0.27743083852243922 0.1356472071358007 0 -0.29137975173736119 0.13038826473440959 0 -0.27743083852243922 0.1356472071358007 0 -0.28159901907944951 0.1241201174486907 0 -0.29137975173736119 0.13038826473440959 0 -0.29217985187798012 0.14029761532637039 0 -0.30525164821472722 0.13107857189332661 0 -0.29217985187798012 0.14029761532637039 0 -0.30525164821472722 0.13107857189332661 0 -0.31023316775409809 0.14239473659287999 0 -0.29137975173736119 0.13038826473440959 0 -0.30525164821472722 0.13107857189332661 0 -0.29717428331860679 0.1184356904463149 0 -0.31667255891304391 0.13003847451082251 0 -0.30525164821472722 0.13107857189332661 0 -0.31330570565038113 0.1205811506894149 0 -0.31667255891304391 0.13003847451082251 0 -0.30525164821472722 0.13107857189332661 0 -0.31023316775409809 0.14239473659287999 0 -0.29116782809774788 0.1524359813574046 0 -0.30765195842482351 0.1554988959753896 0 -0.31023316775409809 0.14239473659287999 0 -0.29116782809774788 0.1524359813574046 0 -0.31023316775409809 0.14239473659287999 0 -0.29116782809774788 0.1524359813574046 0 -0.29217985187798012 0.14029761532637039 0 -0.31023316775409809 0.14239473659287999 0 -0.30765195842482351 0.1554988959753896 0 -0.28786262332702361 0.1702074724242271 0 -0.31563216375527342 0.16597501385328009 0 -0.30765195842482351 0.1554988959753896 0 -0.30558790242803502 0.1733887106366773 0 -0.30765195842482351 0.1554988959753896 0 -0.30558790242803502 0.1733887106366773 0 -0.28786262332702361 0.1702074724242271 0 -0.30558790242803502 0.1733887106366773 0 -0.30094184416575859 0.18704169018415101 0 -0.28786262332702361 0.1702074724242271 0 -0.31379224028362612 0.1893793440667132 0 -0.30558790242803502 0.1733887106366773 0 -0.30094184416575859 0.18704169018415101 0 -0.28933507471759612 0.19574986367943351 0 -0.30094184416575859 0.18704169018415101 0 -0.28786262332702361 0.1702074724242271 0 -0.28933507471759612 0.19574986367943351 0 -0.28786262332702361 0.1702074724242271 0 -0.26923135695884692 0.18360419760414531 0 -0.29116782809774788 0.1524359813574046 0 -0.28786262332702361 0.1702074724242271 0 -0.27761587694150741 0.14984093024440079 0 -0.29116782809774788 0.1524359813574046 0 -0.30765195842482351 0.1554988959753896 0 -0.28786262332702361 0.1702074724242271 0 -0.28786262332702361 0.1702074724242271 0 -0.26597628841943782 0.16323444424123509 0 -0.27761587694150741 0.14984093024440079 0 -0.28786262332702361 0.1702074724242271 0 -0.26597628841943782 0.16323444424123509 0 -0.26923135695884692 0.18360419760414531 0 -0.26923135695884692 0.18360419760414531 0 -0.2491276392000977 0.17145853152885709 0 -0.26597628841943782 0.16323444424123509 0 -0.26923135695884692 0.18360419760414531 0 -0.2491276392000977 0.17145853152885709 0 -0.26923135695884692 0.18360419760414531 0 -0.2491276392000977 0.17145853152885709 0 -0.24660498877890061 0.1877491309101994 0 -0.26597628841943782 0.16323444424123509 0 -0.24900748786687429 0.1546158918902473 0 -0.2491276392000977 0.17145853152885709 0 -0.26597628841943782 0.16323444424123509 0 -0.26389407480511018 0.14839116593603949 0 -0.24900748786687429 0.1546158918902473 0 -0.26389407480511018 0.14839116593603949 0 -0.24934602627276969 0.13996994926851331 0 -0.24900748786687429 0.1546158918902473 0 -0.26389407480511018 0.14839116593603949 0 -0.26199297413336109 0.1338215402606015 0 -0.24934602627276969 0.13996994926851331 0 -0.26597628841943782 0.16323444424123509 0 -0.26389407480511018 0.14839116593603949 0 -0.27761587694150741 0.14984093024440079 0 -0.26389407480511018 0.14839116593603949 0 -0.27761587694150741 0.14984093024440079 0 -0.27743083852243922 0.1356472071358007 0 -0.27743083852243922 0.1356472071358007 0 -0.26787441986319532 0.1209133719733219 0 -0.28159901907944951 0.1241201174486907 0 -0.26389407480511018 0.14839116593603949 0 -0.27743083852243922 0.1356472071358007 0 -0.26199297413336109 0.1338215402606015 0 -0.27743083852243922 0.1356472071358007 0 -0.26199297413336109 0.1338215402606015 0 -0.26787441986319532 0.1209133719733219 0 -0.26199297413336109 0.1338215402606015 0 -0.25028749714294168 0.1243589268005264 0 -0.26787441986319532 0.1209133719733219 0 -0.26199297413336109 0.1338215402606015 0 -0.25028749714294168 0.1243589268005264 0 -0.24934602627276969 0.13996994926851331 0 -0.25028749714294168 0.1243589268005264 0 -0.25254032146875027 0.1054194192194756 0 -0.26787441986319532 0.1209133719733219 0 -0.25254032146875027 0.1054194192194756 0 -0.27086959410575262 0.1055344840605326 0 -0.26787441986319532 0.1209133719733219 0 -0.25254032146875027 0.1054194192194756 0 -0.26720517094347412 0.091160751179452479 0 -0.2458374903262652 0.088891741327123644 0 -0.25254032146875027 0.1054194192194756 0 -0.27086959410575262 0.1055344840605326 0 -0.26720517094347412 0.091160751179452479 0 -0.27086959410575262 0.1055344840605326 0 -0.28139726864710468 0.098417874884753356 0 -0.26720517094347412 0.091160751179452479 0 -0.27086959410575262 0.1055344840605326 0 -0.28406875333280379 0.1117079766783614 0 -0.28139726864710468 0.098417874884753356 0 -0.26787441986319532 0.1209133719733219 0 -0.28159901907944951 0.1241201174486907 0 -0.28406875333280379 0.1117079766783614 0 -0.27086959410575262 0.1055344840605326 0 -0.26787441986319532 0.1209133719733219 0 -0.28406875333280379 0.1117079766783614 0 -0.28159901907944951 0.1241201174486907 0 -0.28406875333280379 0.1117079766783614 0 -0.29717428331860679 0.1184356904463149 0 -0.28406875333280379 0.1117079766783614 0 -0.29823879162097622 0.098655648674333379 0 -0.29717428331860679 0.1184356904463149 0 -0.29137975173736119 0.13038826473440959 0 -0.28159901907944951 0.1241201174486907 0 -0.29717428331860679 0.1184356904463149 0 -0.28139726864710468 0.098417874884753356 0 -0.29823879162097622 0.098655648674333379 0 -0.28660403323251687 0.085030513831086882 0 -0.28406875333280379 0.1117079766783614 0 -0.28139726864710468 0.098417874884753356 0 -0.29823879162097622 0.098655648674333379 0 -0.29823879162097622 0.098655648674333379 0 -0.31203328758565912 0.106144035971024 0 -0.29717428331860679 0.1184356904463149 0 -0.29823879162097622 0.098655648674333379 0 -0.31203328758565912 0.106144035971024 0 -0.31301185481297272 0.092046087276156513 0 -0.30525164821472722 0.13107857189332661 0 -0.29717428331860679 0.1184356904463149 0 -0.31330570565038113 0.1205811506894149 0 -0.31203328758565912 0.106144035971024 0 -0.29717428331860679 0.1184356904463149 0 -0.31330570565038113 0.1205811506894149 0 -0.29774619601280972 0.06891408354737949 0 -0.31278723529617308 0.077192570776964897 0 -0.31520394068569318 0.063992949530856824 0 -0.29774619601280972 0.06891408354737949 0 -0.3016776221950897 0.084367780821184235 0 -0.31278723529617308 0.077192570776964897 0 -0.3016776221950897 0.084367780821184235 0 -0.31301185481297272 0.092046087276156513 0 -0.31278723529617308 0.077192570776964897 0 -0.29823879162097622 0.098655648674333379 0 -0.3016776221950897 0.084367780821184235 0 -0.31301185481297272 0.092046087276156513 0 -0.29774619601280972 0.06891408354737949 0 -0.3016776221950897 0.084367780821184235 0 -0.28660403323251687 0.085030513831086882 0 -0.29823879162097622 0.098655648674333379 0 -0.3016776221950897 0.084367780821184235 0 -0.28660403323251687 0.085030513831086882 0 -0.29774619601280972 0.06891408354737949 0 -0.27414277851172431 0.07355809707195532 0 -0.28304874244916128 0.055240477689415243 0 -0.29774619601280972 0.06891408354737949 0 -0.28660403323251687 0.085030513831086882 0 -0.27414277851172431 0.07355809707195532 0 -0.27414277851172431 0.07355809707195532 0 -0.25540908252446171 0.064273543041139872 0 -0.28304874244916128 0.055240477689415243 0 -0.28139726864710468 0.098417874884753356 0 -0.28660403323251687 0.085030513831086882 0 -0.26720517094347412 0.091160751179452479 0 -0.27414277851172431 0.07355809707195532 0 -0.26720517094347412 0.091160751179452479 0 -0.26064863057648141 0.079471033154917825 0 -0.28660403323251687 0.085030513831086882 0 -0.27414277851172431 0.07355809707195532 0 -0.26720517094347412 0.091160751179452479 0 -0.26720517094347412 0.091160751179452479 0 -0.26064863057648141 0.079471033154917825 0 -0.2458374903262652 0.088891741327123644 0 -0.26064863057648141 0.079471033154917825 0 -0.25540908252446171 0.064273543041139872 0 -0.2458374903262652 0.088891741327123644 0 -0.27414277851172431 0.07355809707195532 0 -0.26064863057648141 0.079471033154917825 0 -0.25540908252446171 0.064273543041139872 0 -0.25540908252446171 0.064273543041139872 0 -0.26335106303830452 0.037867119708076123 0 -0.24710102477213031 0.053023165401856677 0 -0.26335106303830452 0.037867119708076123 0 -0.25441423010715641 0.032627046912229347 0 -0.27102322458644418 0.025522700680318991 0 -0.26335106303830452 0.037867119708076123 0 -0.25441423010715641 0.032627046912229347 0 -0.2420305313811334 0.041272291951533147 0 -0.26335106303830452 0.037867119708076123 0 -0.2391003461968062 0.043410611180948799 0 -0.26335106303830452 0.037867119708076123 0 -0.27102322458644418 0.025522700680318991 0 -0.28760177987980318 0.032323628235204641 0 -0.26335106303830452 0.037867119708076123 0 -0.28760177987980318 0.032323628235204641 0 -0.26335106303830452 0.037867119708076123 0 -0.28304874244916128 0.055240477689415243 0 -0.28760177987980318 0.032323628235204641 0 -0.25540908252446171 0.064273543041139872 0 -0.28304874244916128 0.055240477689415243 0 -0.25540908252446171 0.064273543041139872 0 -0.26335106303830452 0.037867119708076123 0 -0.28304874244916128 0.055240477689415243 0 -0.26315266308041457 0.003425653724989099 0 -0.25834616125000143 0.017114860100641009 0 -0.27463960113843172 0.01065404442656546 0 -0.25382201275908262 -0.003718397405113353 0 -0.26315266308041457 0.003425653724989099 0 -0.2511806455824796 0.0060036871011076654 0 -0.26315266308041457 0.003425653724989099 0 -0.2511806455824796 0.0060036871011076654 0 -0.25834616125000143 0.017114860100641009 0 -0.2511806455824796 0.0060036871011076654 0 -0.25834616125000143 0.017114860100641009 0 -0.2447355238744853 0.01451694924518121 0 -0.25441423010715641 0.032627046912229347 0 -0.25834616125000143 0.017114860100641009 0 -0.27102322458644418 0.025522700680318991 0 -0.25834616125000143 0.017114860100641009 0 -0.2478918613503 0.024578192860588641 0 -0.2447355238744853 0.01451694924518121 0 -0.25441423010715641 0.032627046912229347 0 -0.25834616125000143 0.017114860100641009 0 -0.2478918613503 0.024578192860588641 0 -0.27102322458644418 0.025522700680318991 0 -0.27463960113843172 0.01065404442656546 0 -0.28729614131331682 0.01545021496029367 0 -0.25834616125000143 0.017114860100641009 0 -0.27102322458644418 0.025522700680318991 0 -0.27463960113843172 0.01065404442656546 0 -0.27590268998574019 -0.0027832089829183701 0 -0.27463960113843172 0.01065404442656546 0 -0.28621886465719759 0.001186204879363336 0 -0.27590268998574019 -0.0027832089829183701 0 -0.26315266308041457 0.003425653724989099 0 -0.27463960113843172 0.01065404442656546 0 -0.28621886465719759 0.001186204879363336 0 -0.28729614131331682 0.01545021496029367 0 -0.30287073765804928 0.0033491012984734102 0 -0.27463960113843172 0.01065404442656546 0 -0.28621886465719759 0.001186204879363336 0 -0.28729614131331682 0.01545021496029367 0 -0.28729614131331682 0.01545021496029367 0 -0.29877514592152621 0.018256137132315262 0 -0.30287073765804928 0.0033491012984734102 0 -0.27102322458644418 0.025522700680318991 0 -0.28729614131331682 0.01545021496029367 0 -0.28760177987980318 0.032323628235204641 0 -0.28729614131331682 0.01545021496029367 0 -0.29877514592152621 0.018256137132315262 0 -0.28760177987980318 0.032323628235204641 0 -0.311852496721302 0.026780136762333141 0 -0.30637764764835979 0.026251483279460291 0 -0.28760177987980318 0.032323628235204641 0 -0.30637764764835979 0.026251483279460291 0 -0.29877514592152621 0.018256137132315262 0 -0.28760177987980318 0.032323628235204641 0 -0.311852496721302 0.026780136762333141 0 -0.28760177987980318 0.032323628235204641 0 -0.30637764764835979 0.026251483279460291 0 -0.3097294231081017 0.01390625788814428 0 -0.32020676176797208 0.01872049636018952 0 -0.30637764764835979 0.026251483279460291 0 -0.29877514592152621 0.018256137132315262 0 -0.3097294231081017 0.01390625788814428 0 -0.29877514592152621 0.018256137132315262 0 -0.3097294231081017 0.01390625788814428 0 -0.30287073765804928 0.0033491012984734102 0 -0.3097294231081017 0.01390625788814428 0 -0.30287073765804928 0.0033491012984734102 0 -0.3174427573646198 0.0055651620128599998 0 -0.28304874244916128 0.055240477689415243 0 -0.31068840237386108 0.046207412337690559 0 -0.28304874244916128 0.055240477689415243 0 -0.28760177987980318 0.032323628235204641 0 -0.30117572059363612 0.035888892158312202 0 -0.28304874244916128 0.055240477689415243 0 -0.30117572059363612 0.035888892158312202 0 -0.31068840237386108 0.046207412337690559 0 -0.311852496721302 0.026780136762333141 0 -0.30117572059363612 0.035888892158312202 0 -0.31820308580363321 0.034140545710517313 0 -0.311852496721302 0.026780136762333141 0 -0.28760177987980318 0.032323628235204641 0 -0.30117572059363612 0.035888892158312202 0 -0.30117572059363612 0.035888892158312202 0 -0.31068840237386108 0.046207412337690559 0 -0.31820308580363321 0.034140545710517313 0 -0.29774619601280972 0.06891408354737949 0 -0.31068840237386108 0.046207412337690559 0 -0.31520394068569318 0.063992949530856824 0 -0.29774619601280972 0.06891408354737949 0 -0.28304874244916128 0.055240477689415243 0 -0.31068840237386108 0.046207412337690559 0 -0.31068840237386108 0.046207412337690559 0 -0.32986111775940691 0.054632458335287869 0 -0.31520394068569318 0.063992949530856824 0 -0.31068840237386108 0.046207412337690559 0 -0.33832806229856072 0.03717434698596591 0 -0.31068840237386108 0.046207412337690559 0 -0.33832806229856072 0.03717434698596591 0 -0.32986111775940691 0.054632458335287869 0 -0.31068840237386108 0.046207412337690559 0 -0.31820308580363321 0.034140545710517313 0 -0.33832806229856072 0.03717434698596591 0 -0.31820308580363321 0.034140545710517313 0 -0.33832806229856072 0.03717434698596591 0 -0.32758953801275209 0.029792031518345079 0 -0.33832806229856072 0.03717434698596591 0 -0.33997851162709569 0.02573802685963204 0 -0.34926177421199522 0.054333575543771682 0 -0.33832806229856072 0.03717434698596591 0 -0.33967845117147472 0.051218656250134463 0 -0.34926177421199522 0.054333575543771682 0 -0.33832806229856072 0.03717434698596591 0 -0.33967845117147472 0.051218656250134463 0 -0.32986111775940691 0.054632458335287869 0 -0.33967845117147472 0.051218656250134463 0 -0.34126285041593613 0.058734244135512363 0 -0.34926177421199522 0.054333575543771682 0 -0.33967845117147472 0.051218656250134463 0 -0.34126285041593613 0.058734244135512363 0 -0.32986111775940691 0.054632458335287869 0 -0.34126285041593613 0.058734244135512363 0 -0.32986111775940691 0.054632458335287869 0 -0.33614850868696999 0.06629679493724952 0 -0.31962412081410702 -0.012655325305103391 0 -0.3174427573646198 0.0055651620128599998 0 -0.33507225648464423 0.010625122694787451 0 -0.3174427573646198 0.0055651620128599998 0 -0.32020676176797208 0.01872049636018952 0 -0.33507225648464423 0.010625122694787451 0 -0.3097294231081017 0.01390625788814428 0 -0.3174427573646198 0.0055651620128599998 0 -0.32020676176797208 0.01872049636018952 0 -0.32020676176797208 0.01872049636018952 0 -0.33507225648464423 0.010625122694787451 0 -0.311852496721302 0.026780136762333141 0 -0.32020676176797208 0.01872049636018952 0 -0.33610321356280071 0.021236645289461651 0 -0.311852496721302 0.026780136762333141 0 -0.33610321356280071 0.021236645289461651 0 -0.311852496721302 0.026780136762333141 0 -0.32343708352512202 0.027987339820164291 0 -0.33610321356280071 0.021236645289461651 0 -0.30637764764835979 0.026251483279460291 0 -0.32020676176797208 0.01872049636018952 0 -0.311852496721302 0.026780136762333141 0 -0.30637764764835979 0.026251483279460291 0 -0.32020676176797208 0.01872049636018952 0 -0.311852496721302 0.026780136762333141 0 -0.31820308580363321 0.034140545710517313 0 -0.32343708352512202 0.027987339820164291 0 -0.31820308580363321 0.034140545710517313 0 -0.32343708352512202 0.027987339820164291 0 -0.32758953801275209 0.029792031518345079 0 -0.32020676176797208 0.01872049636018952 0 -0.33610321356280071 0.021236645289461651 0 -0.33667074950368131 0.01554901497179401 0 -0.32758953801275209 0.029792031518345079 0 -0.33997851162709569 0.02573802685963204 0 -0.33610321356280071 0.021236645289461651 0 -0.32758953801275209 0.029792031518345079 0 -0.33997851162709569 0.02573802685963204 0 -0.32343708352512202 0.027987339820164291 0 -0.32758953801275209 0.029792031518345079 0 -0.33610321356280071 0.021236645289461651 0 -0.33832806229856072 0.03717434698596591 0 -0.32758953801275209 0.029792031518345079 0 -0.33997851162709569 0.02573802685963204 0 -0.34235829884652252 0.02495929661331342 0 -0.33997851162709569 0.02573802685963204 0 -0.34235829884652252 0.02495929661331342 0 -0.34177538441681449 0.016688782135961752 0 -0.33667074950368131 0.01554901497179401 0 -0.33997851162709569 0.02573802685963204 0 -0.33610321356280071 0.021236645289461651 0 -0.33667074950368131 0.01554901497179401 0 -0.34235829884652252 0.02495929661331342 0 -0.33997851162709569 0.02573802685963204 0 -0.33667074950368131 0.01554901497179401 0 -0.33997851162709569 0.02573802685963204 0 -0.33667074950368131 0.01554901497179401 0 -0.34235829884652252 0.02495929661331342 0 -0.33667074950368131 0.01554901497179401 0 -0.3408318510851775 -7.0430601114411463e-05 0 -0.33325741463115371 -0.0095675724170476255 0 -0.33507225648464423 0.010625122694787451 0 -0.3408318510851775 -7.0430601114411463e-05 0 -0.33507225648464423 0.010625122694787451 0 -0.35294124532442639 0.00089412184765842381 0 -0.32020676176797208 0.01872049636018952 0 -0.33507225648464423 0.010625122694787451 0 -0.33667074950368131 0.01554901497179401 0 -0.33507225648464423 0.010625122694787451 0 -0.33667074950368131 0.01554901497179401 0 -0.34177538441681449 0.016688782135961752 0 -0.33507225648464423 0.010625122694787451 0 -0.33667074950368131 0.01554901497179401 0 -0.34177538441681449 0.016688782135961752 0 -0.33507225648464423 0.010625122694787451 0 -0.34995835123122498 0.01394193433387224 0 -0.35294124532442639 0.00089412184765842381 0 -0.34995835123122498 0.01394193433387224 0 -0.36603090900088292 0.017212983251362831 0 -0.33507225648464423 0.010625122694787451 0 -0.35294124532442639 0.00089412184765842381 0 -0.33507225648464423 0.010625122694787451 0 -0.35294124532442639 0.00089412184765842381 0 -0.34995835123122498 0.01394193433387224 0 -0.34235829884652252 0.02495929661331342 0 -0.36603090900088292 0.017212983251362831 0 -0.34235829884652252 0.02495929661331342 0 -0.34995835123122498 0.01394193433387224 0 -0.36603090900088292 0.017212983251362831 0 -0.34235829884652252 0.02495929661331342 0 -0.35785664447979643 0.030765790901498322 0 -0.36603090900088292 0.017212983251362831 0 -0.34235829884652252 0.02495929661331342 0 -0.34177538441681449 0.016688782135961752 0 -0.34995835123122498 0.01394193433387224 0 -0.35785664447979643 0.030765790901498322 0 -0.36603090900088292 0.017212983251362831 0 -0.37123054926455767 0.033165699933513537 0 -0.38315027572754151 0.024464894591042501 0 -0.36603090900088292 0.017212983251362831 0 -0.37123054926455767 0.033165699933513537 0 -0.37081023416420861 -0.0088368789994708111 0 -0.35294124532442639 0.00089412184765842381 0 -0.36603090900088292 0.017212983251362831 0 -0.35426776080571498 0.058159055310327112 0 -0.35436702880722198 0.044828228604085057 0 -0.36053172506689402 0.061716081049213251 0 -0.35426776080571498 0.058159055310327112 0 -0.34926177421199522 0.054333575543771682 0 -0.35436702880722198 0.044828228604085057 0 -0.35426776080571498 0.058159055310327112 0 -0.36053172506689402 0.061716081049213251 0 -0.35596585394277552 0.064061692377475193 0 -0.35426776080571498 0.058159055310327112 0 -0.35596585394277552 0.064061692377475193 0 -0.34902029058367001 0.063547848605504345 0 -0.34126285041593613 0.058734244135512363 0 -0.34926177421199522 0.054333575543771682 0 -0.34902029058367001 0.063547848605504345 0 -0.35426776080571498 0.058159055310327112 0 -0.34926177421199522 0.054333575543771682 0 -0.34902029058367001 0.063547848605504345 0 -0.34235829884652252 0.02495929661331342 0 -0.35785664447979643 0.030765790901498322 0 -0.35436702880722198 0.044828228604085057 0 -0.33997851162709569 0.02573802685963204 0 -0.34926177421199522 0.054333575543771682 0 -0.35436702880722198 0.044828228604085057 0 -0.33997851162709569 0.02573802685963204 0 -0.34926177421199522 0.054333575543771682 0 -0.34235829884652252 0.02495929661331342 0 -0.33997851162709569 0.02573802685963204 0 -0.35436702880722198 0.044828228604085057 0 -0.34235829884652252 0.02495929661331342 0 -0.35436702880722198 0.044828228604085057 0 -0.35785664447979643 0.030765790901498322 0 -0.35436702880722198 0.044828228604085057 0 -0.36491428301325268 0.041670916044381022 0 -0.35436702880722198 0.044828228604085057 0 -0.36491428301325268 0.041670916044381022 0 -0.36228145942327378 0.050488705685620423 0 -0.35785664447979643 0.030765790901498322 0 -0.36491428301325268 0.041670916044381022 0 -0.37123054926455767 0.033165699933513537 0 -0.36491428301325268 0.041670916044381022 0 -0.37123054926455767 0.033165699933513537 0 -0.37456796677091958 0.042380625345535258 0 -0.36491428301325268 0.041670916044381022 0 -0.37456796677091958 0.042380625345535258 0 -0.36975683342996851 0.04909015969521225 0 -0.35436702880722198 0.044828228604085057 0 -0.36053172506689402 0.061716081049213251 0 -0.366375758767921 0.064697160594856862 0 -0.35436702880722198 0.044828228604085057 0 -0.36228145942327378 0.050488705685620423 0 -0.366375758767921 0.064697160594856862 0 -0.37543853759690121 0.058490770255522961 0 -0.36975683342996851 0.04909015969521225 0 -0.36879332297775869 0.055892326167752249 0 -0.35436702880722198 0.044828228604085057 0 -0.366375758767921 0.064697160594856862 0 -0.36491428301325268 0.041670916044381022 0 -0.36975683342996851 0.04909015969521225 0 -0.36228145942327378 0.050488705685620423 0 -0.36975683342996851 0.04909015969521225 0 -0.36228145942327378 0.050488705685620423 0 -0.36879332297775869 0.055892326167752249 0 -0.36228145942327378 0.050488705685620423 0 -0.36679147644848359 0.057939578280483572 0 -0.366375758767921 0.064697160594856862 0 -0.36228145942327378 0.050488705685620423 0 -0.36679147644848359 0.057939578280483572 0 -0.36879332297775869 0.055892326167752249 0 -0.36679147644848359 0.057939578280483572 0 -0.37073063459641542 0.061336214381067303 0 -0.366375758767921 0.064697160594856862 0 -0.36679147644848359 0.057939578280483572 0 -0.37073063459641542 0.061336214381067303 0 -0.36879332297775869 0.055892326167752249 0 -0.37543853759690121 0.058490770255522961 0 -0.37073063459641542 0.061336214381067303 0 -0.36879332297775869 0.055892326167752249 0 -0.37838448872862013 0.084566092585628805 0 -0.366375758767921 0.064697160594856862 0 -0.36513871671958692 0.066512939797190584 0 -0.37829157655764362 0.069604560356439527 0 -0.37073063459641542 0.061336214381067303 0 -0.366375758767921 0.064697160594856862 0 -0.37543853759690121 0.058490770255522961 0 -0.37829157655764362 0.069604560356439527 0 -0.37073063459641542 0.061336214381067303 0 -0.37838448872862013 0.084566092585628805 0 -0.366375758767921 0.064697160594856862 0 -0.37838448872862013 0.084566092585628805 0 -0.37829157655764362 0.069604560356439527 0 -0.366375758767921 0.064697160594856862 0 -0.36513871671958692 0.066512939797190584 0 -0.36003054267878731 0.065487855804099757 0 -0.35533665894890648 0.07026086827429566 0 -0.36053172506689402 0.061716081049213251 0 -0.366375758767921 0.064697160594856862 0 -0.36317975871577352 0.064887697522324067 0 -0.366375758767921 0.064697160594856862 0 -0.36513871671958692 0.066512939797190584 0 -0.36317975871577352 0.064887697522324067 0 -0.36513871671958692 0.066512939797190584 0 -0.36003054267878731 0.065487855804099757 0 -0.36317975871577352 0.064887697522324067 0 -0.36053172506689402 0.061716081049213251 0 -0.36003054267878731 0.065487855804099757 0 -0.36317975871577352 0.064887697522324067 0 -0.36053172506689402 0.061716081049213251 0 -0.36003054267878731 0.065487855804099757 0 -0.35596585394277552 0.064061692377475193 0 -0.35596585394277552 0.064061692377475193 0 -0.35533665894890648 0.07026086827429566 0 -0.34902029058367001 0.063547848605504345 0 -0.36003054267878731 0.065487855804099757 0 -0.35596585394277552 0.064061692377475193 0 -0.35533665894890648 0.07026086827429566 0 -0.35533665894890648 0.07026086827429566 0 -0.34608595707683348 0.074802172625441921 0 -0.35395902192240969 0.078720178467595325 0 -0.36513871671958692 0.066512939797190584 0 -0.35533665894890648 0.07026086827429566 0 -0.35395902192240969 0.078720178467595325 0 -0.34608595707683348 0.074802172625441921 0 -0.34902029058367001 0.063547848605504345 0 -0.33614850868696999 0.06629679493724952 0 -0.35533665894890648 0.07026086827429566 0 -0.34608595707683348 0.074802172625441921 0 -0.34902029058367001 0.063547848605504345 0 -0.36513871671958692 0.066512939797190584 0 -0.35395902192240969 0.078720178467595325 0 -0.35675128189319327 0.094412593430511199 0 -0.3464824949735284 0.087612318210537277 0 -0.35395902192240969 0.078720178467595325 0 -0.35675128189319327 0.094412593430511199 0 -0.34608595707683348 0.074802172625441921 0 -0.3464824949735284 0.087612318210537277 0 -0.35395902192240969 0.078720178467595325 0 -0.36513871671958692 0.066512939797190584 0 -0.35675128189319327 0.094412593430511199 0 -0.37838448872862013 0.084566092585628805 0 -0.36513871671958692 0.066512939797190584 0 -0.35675128189319327 0.094412593430511199 0 -0.37838448872862013 0.084566092585628805 0 -0.37014556191254228 0.11084035439894779 0 -0.35675128189319327 0.094412593430511199 0 -0.38462448899452278 0.1235442590651198 0 -0.36754771439324119 0.1211315634400118 0 -0.37014556191254228 0.11084035439894779 0 -0.36754771439324119 0.1211315634400118 0 -0.37014556191254228 0.11084035439894779 0 -0.35693777449831021 0.1188668317863901 0 -0.36046544368939981 0.12768217020471401 0 -0.36754771439324119 0.1211315634400118 0 -0.35693777449831021 0.1188668317863901 0 -0.37014556191254228 0.11084035439894779 0 -0.34836384706679879 0.12231224706383149 0 -0.37014556191254228 0.11084035439894779 0 -0.35693777449831021 0.1188668317863901 0 -0.34836384706679879 0.12231224706383149 0 -0.34836384706679879 0.12231224706383149 0 -0.3454034182464189 0.1062116790207298 0 -0.34056986047202492 0.11547123352013031 0 -0.35296047902227751 0.1279893565489667 0 -0.34723062862042331 0.12608174307771439 0 -0.35693777449831021 0.1188668317863901 0 -0.36046544368939981 0.12768217020471401 0 -0.35296047902227751 0.1279893565489667 0 -0.35693777449831021 0.1188668317863901 0 -0.34723062862042331 0.12608174307771439 0 -0.35693777449831021 0.1188668317863901 0 -0.34723062862042331 0.12608174307771439 0 -0.35693777449831021 0.1188668317863901 0 -0.34836384706679879 0.12231224706383149 0 -0.34723062862042331 0.12608174307771439 0 -0.34836384706679879 0.12231224706383149 0 -0.37014556191254228 0.11084035439894779 0 -0.34836384706679879 0.12231224706383149 0 -0.35675128189319327 0.094412593430511199 0 -0.34836384706679879 0.12231224706383149 0 -0.35675128189319327 0.094412593430511199 0 -0.3454034182464189 0.1062116790207298 0 -0.3464824949735284 0.087612318210537277 0 -0.35675128189319327 0.094412593430511199 0 -0.3454034182464189 0.1062116790207298 0 -0.34836384706679879 0.12231224706383149 0 -0.35675128189319327 0.094412593430511199 0 -0.3464824949735284 0.087612318210537277 0 -0.3454034182464189 0.1062116790207298 0 -0.33614363070965553 0.094270589170389885 0 -0.3454034182464189 0.1062116790207298 0 -0.33614363070965553 0.094270589170389885 0 -0.33438767982128581 0.1076984498769106 0 -0.33614363070965553 0.094270589170389885 0 -0.33438767982128581 0.1076984498769106 0 -0.32548442566775371 0.098916941109140871 0 -0.34836384706679879 0.12231224706383149 0 -0.3389681165186228 0.1228068358204103 0 -0.34056986047202492 0.11547123352013031 0 -0.3389681165186228 0.1228068358204103 0 -0.34056986047202492 0.11547123352013031 0 -0.33322338799447909 0.1178647717736105 0 -0.33438767982128581 0.1076984498769106 0 -0.34056986047202492 0.11547123352013031 0 -0.33322338799447909 0.1178647717736105 0 -0.3454034182464189 0.1062116790207298 0 -0.33438767982128581 0.1076984498769106 0 -0.34056986047202492 0.11547123352013031 0 -0.33438767982128581 0.1076984498769106 0 -0.33322338799447909 0.1178647717736105 0 -0.32395137537585378 0.11249829516170599 0 -0.33322338799447909 0.1178647717736105 0 -0.33169094436477869 0.12420238024312789 0 -0.32527376553556459 0.1237844215501353 0 -0.3389681165186228 0.1228068358204103 0 -0.33322338799447909 0.1178647717736105 0 -0.33169094436477869 0.12420238024312789 0 -0.32527376553556459 0.1237844215501353 0 -0.32395137537585378 0.11249829516170599 0 -0.31330570565038113 0.1205811506894149 0 -0.33322338799447909 0.1178647717736105 0 -0.32527376553556459 0.1237844215501353 0 -0.32395137537585378 0.11249829516170599 0 -0.31203328758565912 0.106144035971024 0 -0.32395137537585378 0.11249829516170599 0 -0.31330570565038113 0.1205811506894149 0 -0.31667255891304391 0.13003847451082251 0 -0.32527376553556459 0.1237844215501353 0 -0.31330570565038113 0.1205811506894149 0 -0.31203328758565912 0.106144035971024 0 -0.32395137537585378 0.11249829516170599 0 -0.32548442566775371 0.098916941109140871 0 -0.33438767982128581 0.1076984498769106 0 -0.32395137537585378 0.11249829516170599 0 -0.32548442566775371 0.098916941109140871 0 -0.31203328758565912 0.106144035971024 0 -0.32548442566775371 0.098916941109140871 0 -0.31301185481297272 0.092046087276156513 0 -0.32548442566775371 0.098916941109140871 0 -0.31301185481297272 0.092046087276156513 0 -0.32526723513915062 0.086160526433080656 0 -0.32526723513915062 0.086160526433080656 0 -0.31278723529617308 0.077192570776964897 0 -0.32509388383093279 0.073440655547823364 0 -0.31301185481297272 0.092046087276156513 0 -0.32526723513915062 0.086160526433080656 0 -0.31278723529617308 0.077192570776964897 0 -0.32986111775940691 0.054632458335287869 0 -0.31520394068569318 0.063992949530856824 0 -0.32509388383093279 0.073440655547823364 0 -0.31278723529617308 0.077192570776964897 0 -0.31520394068569318 0.063992949530856824 0 -0.32509388383093279 0.073440655547823364 0 -0.32509388383093279 0.073440655547823364 0 -0.33614850868696999 0.06629679493724952 0 -0.33581314663884199 0.079759001019186565 0 -0.32986111775940691 0.054632458335287869 0 -0.32509388383093279 0.073440655547823364 0 -0.33614850868696999 0.06629679493724952 0 -0.34126285041593613 0.058734244135512363 0 -0.34902029058367001 0.063547848605504345 0 -0.33614850868696999 0.06629679493724952 0 -0.34608595707683348 0.074802172625441921 0 -0.33614850868696999 0.06629679493724952 0 -0.33581314663884199 0.079759001019186565 0 -0.34608595707683348 0.074802172625441921 0 -0.3464824949735284 0.087612318210537277 0 -0.33581314663884199 0.079759001019186565 0 -0.3464824949735284 0.087612318210537277 0 -0.33614363070965553 0.094270589170389885 0 -0.33581314663884199 0.079759001019186565 0 -0.33614363070965553 0.094270589170389885 0 -0.32548442566775371 0.098916941109140871 0 -0.32526723513915062 0.086160526433080656 0 -0.33614363070965553 0.094270589170389885 0 -0.32526723513915062 0.086160526433080656 0 -0.33581314663884199 0.079759001019186565 0 -0.32526723513915062 0.086160526433080656 0 -0.32509388383093279 0.073440655547823364 0 -0.33581314663884199 0.079759001019186565 0 -0.40133868197378092 0.48372276461075059 0 -0.38729979959020522 0.48183441544560601 0 -0.4099295765828932 0.47033435245205307 0 -0.38729979959020522 0.48183441544560601 0 -0.4099295765828932 0.47033435245205307 0 -0.40133868197378092 0.48372276461075059 0 -0.4099295765828932 0.47033435245205307 0 -0.40133868197378092 0.48372276461075059 0 -0.39274778736466898 0.49999999999999972 0 -0.41915355404196958 0.48570351953077201 0 -0.40133868197378092 0.48372276461075059 0 -0.39274778736466898 0.49999999999999972 0 -0.40133868197378092 0.48372276461075059 0 -0.39274778736466898 0.49999999999999972 0 -0.3970921738396333 0.48824980058914119 0 -0.39274778736466898 0.49999999999999972 0 -0.3970921738396333 0.48824980058914119 0 -0.38664161970889488 0.489528150131749 0 -0.3970921738396333 0.48824980058914119 0 -0.38729979959020522 0.48183441544560601 0 -0.40133868197378092 0.48372276461075059 0 -0.3970921738396333 0.48824980058914119 0 -0.38729979959020522 0.48183441544560601 0 -0.38729979959020522 0.48183441544560601 0 -0.36942671804107302 0.49091720772280167 0 -0.3970921738396333 0.48824980058914119 0 -0.38664161970889488 0.489528150131749 0 -0.38729979959020522 0.48183441544560601 0 -0.38664161970889488 0.489528150131749 0 -0.38729979959020522 0.48183441544560601 0 -0.36942671804107302 0.49091720772280167 0 -0.39274778736466898 0.49999999999999972 0 -0.38664161970889488 0.489528150131749 0 -0.36942671804107302 0.49091720772280167 0 -0.38729979959020522 0.48183441544560601 0 -0.36404571291049348 0.46659971154116853 0 -0.38729979959020522 0.48183441544560601 0 -0.382210906452504 0.45369090763042769 0 -0.36404571291049348 0.46659971154116853 0 -0.382210906452504 0.45369090763042769 0 -0.4099295765828932 0.47033435245205307 0 -0.39867990954880339 0.43577155083277708 0 -0.382210906452504 0.45369090763042769 0 -0.39867990954880339 0.43577155083277708 0 -0.3733140392639081 0.42320803518277439 0 -0.38729979959020522 0.48183441544560601 0 -0.382210906452504 0.45369090763042769 0 -0.4099295765828932 0.47033435245205307 0 -0.42404577983369912 0.44833506648277871 0 -0.4099295765828932 0.47033435245205307 0 -0.39867990954880339 0.43577155083277708 0 -0.42404577983369912 0.44833506648277871 0 -0.4099295765828932 0.47033435245205307 0 -0.42404577983369912 0.44833506648277871 0 -0.42258767545481091 0.46256393299446719 0 -0.41217655722022789 0.46919247558411192 0 -0.42404577983369912 0.44833506648277871 0 -0.4099295765828932 0.47033435245205307 0 -0.41217655722022789 0.46919247558411192 0 -0.42258767545481091 0.46256393299446719 0 -0.41933140621899928 0.47366135396445841 0 -0.41217655722022789 0.46919247558411192 0 -0.42404577983369912 0.44833506648277871 0 -0.39867990954880339 0.43577155083277708 0 -0.42404577983369912 0.44833506648277871 0 -0.41884947427126462 0.43483926998467481 0 -0.39867990954880339 0.43577155083277708 0 -0.42404577983369912 0.44833506648277871 0 -0.43930302088475232 0.44227589293596908 0 -0.43484847050348691 0.43149969814329991 0 -0.42404577983369912 0.44833506648277871 0 -0.43484847050348691 0.43149969814329991 0 -0.42404577983369912 0.44833506648277871 0 -0.43484847050348691 0.43149969814329991 0 -0.41884947427126462 0.43483926998467481 0 -0.42404577983369912 0.44833506648277871 0 -0.43200273636243419 0.47054425804191541 0 -0.44936385322246619 0.46087490870680597 0 -0.42404577983369912 0.44833506648277871 0 -0.44936385322246619 0.46087490870680597 0 -0.42404577983369912 0.44833506648277871 0 -0.42258767545481091 0.46256393299446719 0 -0.43200273636243419 0.47054425804191541 0 -0.39274778736466898 0.49999999999999972 0 -0.41915355404196958 0.48570351953077201 0 -0.43360911702960753 0.5 0 -0.43200273636243419 0.47054425804191541 0 -0.41933140621899928 0.47366135396445841 0 -0.41915355404196958 0.48570351953077201 0 -0.42258767545481091 0.46256393299446719 0 -0.43200273636243419 0.47054425804191541 0 -0.41933140621899928 0.47366135396445841 0 -0.40133868197378092 0.48372276461075059 0 -0.41238595520757398 0.47652289322842911 0 -0.41915355404196958 0.48570351953077201 0 -0.41933140621899928 0.47366135396445841 0 -0.41217655722022789 0.46919247558411192 0 -0.41238595520757398 0.47652289322842911 0 -0.41933140621899928 0.47366135396445841 0 -0.41238595520757398 0.47652289322842911 0 -0.41915355404196958 0.48570351953077201 0 -0.40133868197378092 0.48372276461075059 0 -0.4099295765828932 0.47033435245205307 0 -0.41238595520757398 0.47652289322842911 0 -0.4099295765828932 0.47033435245205307 0 -0.41217655722022789 0.46919247558411192 0 -0.41238595520757398 0.47652289322842911 0 -0.4099295765828932 0.47033435245205307 0 -0.41217655722022789 0.46919247558411192 0 -0.43200273636243419 0.47054425804191541 0 -0.41915355404196958 0.48570351953077201 0 -0.43360911702960753 0.5 0 -0.43360911702960753 0.5 0 -0.45595833266343699 0.48191299555707179 0 -0.5 0.5 0 -0.43200273636243419 0.47054425804191541 0 -0.45595833266343699 0.48191299555707179 0 -0.44936385322246619 0.46087490870680597 0 -0.43200273636243419 0.47054425804191541 0 -0.43360911702960753 0.5 0 -0.45595833266343699 0.48191299555707179 0 -0.45595833266343699 0.48191299555707179 0 -0.47468192661123387 0.47341475093083207 0 -0.44936385322246619 0.46087490870680597 0 -0.45595833266343699 0.48191299555707179 0 -0.47468192661123387 0.47341475093083207 0 -0.5 0.5 0 -0.47468192661123387 0.47341475093083207 0 -0.50000000000000144 0.48595459315485889 0 -0.5 0.46480336607695949 0 -0.47468192661123387 0.47341475093083207 0 -0.50000000000000144 0.48595459315485889 0 -0.47468192661123387 0.47341475093083207 0 -0.5 0.5 0 -0.50000000000000144 0.48595459315485889 0 -0.49397993096968051 0.4435156396802592 0 -0.50000000000000022 0.44365213899905998 0 -0.5 0.4279580082458585 0 -0.49397993096968051 0.4435156396802592 0 -0.48930967186484642 0.45787159876389832 0 -0.47981314980466211 0.45554925182389128 0 -0.49397993096968051 0.4435156396802592 0 -0.50000000000000022 0.44365213899905998 0 -0.49397993096968051 0.4435156396802592 0 -0.50000000000000022 0.44365213899905998 0 -0.49807335193865548 0.45207498530754958 0 -0.49397993096968051 0.4435156396802592 0 -0.49807335193865548 0.45207498530754958 0 -0.48930967186484642 0.45787159876389832 0 -0.49397993096968051 0.4435156396802592 0 -0.49807335193865548 0.45207498530754958 0 -0.50000000000000022 0.44365213899905998 0 -0.49807335193865548 0.45207498530754958 0 -0.5 0.46480336607695949 0 -0.47468192661123387 0.47341475093083207 0 -0.5 0.46480336607695949 0 -0.48930967186484642 0.45787159876389832 0 -0.49807335193865548 0.45207498530754958 0 -0.5 0.46480336607695949 0 -0.48930967186484642 0.45787159876389832 0 -0.47468192661123387 0.47341475093083207 0 -0.48930967186484642 0.45787159876389832 0 -0.47981314980466211 0.45554925182389128 0 -0.47468192661123387 0.47341475093083207 0 -0.47981314980466211 0.45554925182389128 0 -0.46873849924230437 0.45355431029669541 0 -0.47981314980466211 0.45554925182389128 0 -0.46522596362716651 0.44286367091788981 0 -0.46873849924230437 0.45355431029669541 0 -0.49397993096968051 0.4435156396802592 0 -0.47981314980466211 0.45554925182389128 0 -0.46522596362716651 0.44286367091788981 0 -0.49397993096968051 0.4435156396802592 0 -0.46522596362716651 0.44286367091788981 0 -0.48648558922113111 0.42784496672455019 0 -0.49397993096968051 0.4435156396802592 0 -0.46522596362716651 0.44286367091788981 0 -0.46522596362716651 0.44286367091788981 0 -0.45841857036617362 0.45804059436782601 0 -0.46522596362716651 0.44286367091788981 0 -0.46873849924230437 0.45355431029669541 0 -0.45841857036617362 0.45804059436782601 0 -0.46522596362716651 0.44286367091788981 0 -0.45841857036617362 0.45804059436782601 0 -0.45231193563533462 0.45023707272514091 0 -0.47468192661123387 0.47341475093083207 0 -0.45841857036617362 0.45804059436782601 0 -0.44936385322246619 0.46087490870680597 0 -0.47468192661123387 0.47341475093083207 0 -0.46873849924230437 0.45355431029669541 0 -0.45841857036617362 0.45804059436782601 0 -0.47468192661123387 0.47341475093083207 0 -0.44936385322246619 0.46087490870680597 0 -0.45841857036617362 0.45804059436782601 0 -0.44936385322246619 0.46087490870680597 0 -0.45231193563533462 0.45023707272514091 0 -0.42404577983369912 0.44833506648277871 0 -0.44936385322246619 0.46087490870680597 0 -0.43930302088475232 0.44227589293596908 0 -0.46522596362716651 0.44286367091788981 0 -0.43930302088475232 0.44227589293596908 0 -0.46522596362716651 0.44286367091788981 0 -0.43930302088475232 0.44227589293596908 0 -0.44820974505702382 0.43363880809980287 0 -0.46522596362716651 0.44286367091788981 0 -0.45231193563533462 0.45023707272514091 0 -0.43930302088475232 0.44227589293596908 0 -0.44936385322246619 0.46087490870680597 0 -0.45231193563533462 0.45023707272514091 0 -0.43930302088475232 0.44227589293596908 0 -0.44523890674544708 0.42253014657595472 0 -0.43393515761333351 0.41308950145724649 0 -0.43484847050348691 0.43149969814329991 0 -0.43930302088475232 0.44227589293596908 0 -0.44820974505702382 0.43363880809980287 0 -0.43484847050348691 0.43149969814329991 0 -0.44523890674544708 0.42253014657595472 0 -0.44820974505702382 0.43363880809980287 0 -0.43484847050348691 0.43149969814329991 0 -0.44523890674544708 0.42253014657595472 0 -0.45764287667255071 0.41938045949358649 0 -0.45643236352426569 0.42902463192590101 0 -0.44523890674544708 0.42253014657595472 0 -0.44820974505702382 0.43363880809980287 0 -0.45643236352426569 0.42902463192590101 0 -0.45000813801426531 0.41082276222360042 0 -0.44086939347217691 0.39609777718157441 0 -0.43393515761333351 0.41308950145724649 0 -0.44523890674544708 0.42253014657595472 0 -0.45000813801426531 0.41082276222360042 0 -0.43393515761333351 0.41308950145724649 0 -0.44523890674544708 0.42253014657595472 0 -0.45000813801426531 0.41082276222360042 0 -0.45764287667255071 0.41938045949358649 0 -0.45764287667255071 0.41938045949358649 0 -0.46476778709849059 0.41112027129806178 0 -0.47210860554987499 0.42751898234336549 0 -0.45000813801426531 0.41082276222360042 0 -0.45764287667255071 0.41938045949358649 0 -0.46476778709849059 0.41112027129806178 0 -0.45000813801426531 0.41082276222360042 0 -0.46476778709849059 0.41112027129806178 0 -0.45595258562289759 0.39990936277527939 0 -0.46522596362716651 0.44286367091788981 0 -0.44820974505702382 0.43363880809980287 0 -0.45643236352426569 0.42902463192590101 0 -0.45764287667255071 0.41938045949358649 0 -0.45643236352426569 0.42902463192590101 0 -0.47210860554987499 0.42751898234336549 0 -0.46522596362716651 0.44286367091788981 0 -0.45643236352426569 0.42902463192590101 0 -0.47210860554987499 0.42751898234336549 0 -0.46522596362716651 0.44286367091788981 0 -0.47210860554987499 0.42751898234336549 0 -0.46522596362716651 0.44286367091788981 0 -0.47210860554987499 0.42751898234336549 0 -0.48648558922113111 0.42784496672455019 0 -0.47210860554987499 0.42751898234336549 0 -0.47899124747258259 0.41217429376884079 0 -0.48648558922113111 0.42784496672455019 0 -0.47210860554987499 0.42751898234336549 0 -0.47899124747258259 0.41217429376884079 0 -0.46476778709849059 0.41112027129806178 0 -0.47899124747258259 0.41217429376884079 0 -0.47123467032600452 0.3959552864433098 0 -0.47899124747258259 0.41217429376884079 0 -0.48648558922113111 0.42784496672455019 0 -0.46476778709849059 0.41112027129806178 0 -0.47210860554987499 0.42751898234336549 0 -0.47899124747258259 0.41217429376884079 0 -0.47899124747258259 0.41217429376884079 0 -0.48321856380378442 0.40274959125827409 0 -0.47899124747258259 0.41217429376884079 0 -0.48859083332659969 0.41413353869362018 0 -0.48321856380378442 0.40274959125827409 0 -0.49999999999999911 0.41226387749265708 0 -0.49830666081250469 0.41539583244233619 0 -0.5 0.4279580082458585 0 -0.48859083332659969 0.41413353869362018 0 -0.49254026155502562 0.42175726438853439 0 -0.48648558922113111 0.42784496672455019 0 -0.47899124747258259 0.41217429376884079 0 -0.48859083332659969 0.41413353869362018 0 -0.48648558922113111 0.42784496672455019 0 -0.48859083332659969 0.41413353869362018 0 -0.49254026155502562 0.42175726438853439 0 -0.4935053169005007 0.41631741030269243 0 -0.49789768230686599 0.41107196208957708 0 -0.48321856380378442 0.40274959125827409 0 -0.48859083332659969 0.41413353869362018 0 -0.49789768230686599 0.41107196208957708 0 -0.48321856380378442 0.40274959125827409 0 -0.48859083332659969 0.41413353869362018 0 -0.49789768230686599 0.41107196208957708 0 -0.4935053169005007 0.41631741030269243 0 -0.49789768230686599 0.41107196208957708 0 -0.49830666081250469 0.41539583244233619 0 -0.49999999999999911 0.41226387749265708 0 -0.49789768230686599 0.41107196208957708 0 -0.49830666081250469 0.41539583244233619 0 -0.49999999999999911 0.41226387749265708 0 -0.49789768230686599 0.41107196208957708 0 -0.49254026155502562 0.42175726438853439 0 -0.49830666081250469 0.41539583244233619 0 -0.5 0.4279580082458585 0 -0.49254026155502562 0.42175726438853439 0 -0.4935053169005007 0.41631741030269243 0 -0.49830666081250469 0.41539583244233619 0 -0.49789768230686599 0.41107196208957708 0 -0.4935053169005007 0.41631741030269243 0 -0.49830666081250469 0.41539583244233619 0 -0.49397993096968051 0.4435156396802592 0 -0.5 0.4279580082458585 0 -0.48648558922113111 0.42784496672455019 0 -0.49254026155502562 0.42175726438853439 0 -0.5 0.4279580082458585 0 -0.48648558922113111 0.42784496672455019 0 -0.49397993096968051 0.4435156396802592 0 -0.48648558922113111 0.42784496672455019 0 -0.49479672805323283 0.37828753949107607 0 -0.48321856380378442 0.40274959125827409 0 -0.48237598545744009 0.39046089056839561 0 -0.49479672805323283 0.37828753949107607 0 -0.5 0.3854747376179799 0 -0.4933353487408163 0.36283730287477439 0 -0.49479672805323283 0.37828753949107607 0 -0.49561651552384139 0.38695463248217582 0 -0.48321856380378442 0.40274959125827409 0 -0.49479672805323283 0.37828753949107607 0 -0.48321856380378442 0.40274959125827409 0 -0.49479672805323283 0.37828753949107607 0 -0.48088688972381832 0.3847912805159816 0 -0.48237598545744009 0.39046089056839561 0 -0.49479672805323283 0.37828753949107607 0 -0.48088688972381832 0.3847912805159816 0 -0.48265697702378879 0.37682160223087918 0 -0.49479672805323283 0.37828753949107607 0 -0.48265697702378879 0.37682160223087918 0 -0.48680067237600899 0.37095585458363151 0 -0.49479672805323283 0.37828753949107607 0 -0.49561651552384139 0.38695463248217582 0 -0.49479672805323283 0.37828753949107607 0 -0.49561651552384139 0.38695463248217582 0 -0.5 0.3854747376179799 0 -0.49789768230686599 0.41107196208957708 0 -0.49561651552384139 0.38695463248217582 0 -0.48321856380378442 0.40274959125827409 0 -0.49789768230686599 0.41107196208957708 0 -0.49561651552384139 0.38695463248217582 0 -0.49789768230686599 0.41107196208957708 0 -0.49561651552384139 0.38695463248217582 0 -0.5 0.3854747376179799 0 -0.49999999999999911 0.41226387749265708 0 -0.49789768230686599 0.41107196208957708 0 -0.5 0.3854747376179799 0 -0.47899124747258259 0.41217429376884079 0 -0.48321856380378442 0.40274959125827409 0 -0.47123467032600452 0.3959552864433098 0 -0.48321856380378442 0.40274959125827409 0 -0.47123467032600452 0.3959552864433098 0 -0.48237598545744009 0.39046089056839561 0 -0.47899124747258259 0.41217429376884079 0 -0.47123467032600452 0.3959552864433098 0 -0.48321856380378442 0.40274959125827409 0 -0.47123467032600452 0.3959552864433098 0 -0.47123467032600452 0.3959552864433098 0 -0.47375966404687281 0.3789750518935831 0 -0.46463622302169483 0.38215792929165099 0 -0.47123467032600452 0.3959552864433098 0 -0.48088688972381832 0.3847912805159816 0 -0.47375966404687281 0.3789750518935831 0 -0.47123467032600452 0.3959552864433098 0 -0.48088688972381832 0.3847912805159816 0 -0.48237598545744009 0.39046089056839561 0 -0.48265697702378879 0.37682160223087918 0 -0.47375966404687281 0.3789750518935831 0 -0.47767384099609078 0.37103842010518368 0 -0.48088688972381832 0.3847912805159816 0 -0.48265697702378879 0.37682160223087918 0 -0.47375966404687281 0.3789750518935831 0 -0.47123467032600452 0.3959552864433098 0 -0.46463622302169483 0.38215792929165099 0 -0.45288293920355049 0.38555071672985108 0 -0.47375966404687281 0.3789750518935831 0 -0.46463622302169483 0.38215792929165099 0 -0.46733549631702009 0.37239052987472571 0 -0.46463622302169483 0.38215792929165099 0 -0.45803777571738519 0.36836057213999213 0 -0.47123467032600452 0.3959552864433098 0 -0.46463622302169483 0.38215792929165099 0 -0.46463622302169483 0.38215792929165099 0 -0.45576711821368743 0.37760907932929011 0 -0.45288293920355049 0.38555071672985108 0 -0.46463622302169483 0.38215792929165099 0 -0.45576711821368743 0.37760907932929011 0 -0.45803777571738519 0.36836057213999213 0 -0.47123467032600452 0.3959552864433098 0 -0.45595258562289759 0.39990936277527939 0 -0.45288293920355049 0.38555071672985108 0 -0.47123467032600452 0.3959552864433098 0 -0.45288293920355049 0.38555071672985108 0 -0.46476778709849059 0.41112027129806178 0 -0.47123467032600452 0.3959552864433098 0 -0.45595258562289759 0.39990936277527939 0 -0.45000813801426531 0.41082276222360042 0 -0.45595258562289759 0.39990936277527939 0 -0.44086939347217691 0.39609777718157441 0 -0.45595258562289759 0.39990936277527939 0 -0.44086939347217691 0.39609777718157441 0 -0.45288293920355049 0.38555071672985108 0 -0.45288293920355049 0.38555071672985108 0 -0.44210163744236852 0.38539111885835109 0 -0.44319162583269878 0.37522763385266061 0 -0.45576711821368743 0.37760907932929011 0 -0.45288293920355049 0.38555071672985108 0 -0.44319162583269878 0.37522763385266061 0 -0.44086939347217691 0.39609777718157441 0 -0.45288293920355049 0.38555071672985108 0 -0.44210163744236852 0.38539111885835109 0 -0.44086939347217691 0.39609777718157441 0 -0.44210163744236852 0.38539111885835109 0 -0.43165782154992588 0.38359235845378697 0 -0.44210163744236852 0.38539111885835109 0 -0.44319162583269878 0.37522763385266061 0 -0.43165782154992588 0.38359235845378697 0 -0.43165782154992588 0.38359235845378697 0 -0.41864738033196569 0.39377719259665772 0 -0.41947102346486181 0.36380362071347289 0 -0.44319162583269878 0.37522763385266061 0 -0.43165782154992588 0.38359235845378697 0 -0.43394796087437681 0.37123482543454889 0 -0.41864738033196569 0.39377719259665772 0 -0.41947102346486181 0.36380362071347289 0 -0.41864738033196569 0.39377719259665772 0 -0.39610843494679188 0.37935027570664831 0 -0.40740991316149239 0.36508462759230159 0 -0.44086939347217691 0.39609777718157441 0 -0.43165782154992588 0.38359235845378697 0 -0.41864738033196569 0.39377719259665772 0 -0.44086939347217691 0.39609777718157441 0 -0.41864738033196569 0.39377719259665772 0 -0.43393515761333351 0.41308950145724649 0 -0.41864738033196569 0.39377719259665772 0 -0.43393515761333351 0.41308950145724649 0 -0.41782373719906968 0.4237507644798425 0 -0.43484847050348691 0.43149969814329991 0 -0.41884947427126462 0.43483926998467481 0 -0.41782373719906968 0.4237507644798425 0 -0.43393515761333351 0.41308950145724649 0 -0.43484847050348691 0.43149969814329991 0 -0.41782373719906968 0.4237507644798425 0 -0.41884947427126462 0.43483926998467481 0 -0.41782373719906968 0.4237507644798425 0 -0.39867990954880339 0.43577155083277708 0 -0.41864738033196569 0.39377719259665772 0 -0.41782373719906968 0.4237507644798425 0 -0.39510769333033668 0.41235403604038823 0 -0.41864738033196569 0.39377719259665772 0 -0.41782373719906968 0.4237507644798425 0 -0.41782373719906968 0.4237507644798425 0 -0.39510769333033668 0.41235403604038823 0 -0.39867990954880339 0.43577155083277708 0 -0.39510769333033668 0.41235403604038823 0 -0.39867990954880339 0.43577155083277708 0 -0.3733140392639081 0.42320803518277439 0 -0.39867990954880339 0.43577155083277708 0 -0.3733140392639081 0.42320803518277439 0 -0.39510769333033668 0.41235403604038823 0 -0.37457348775900712 0.40543977999867609 0 -0.3733140392639081 0.42320803518277439 0 -0.39510769333033668 0.41235403604038823 0 -0.38876844009419831 0.39261117144716468 0 -0.37457348775900712 0.40543977999867609 0 -0.38876844009419831 0.39261117144716468 0 -0.36772909712757962 0.38838113779028188 0 -0.37457348775900712 0.40543977999867609 0 -0.38876844009419831 0.39261117144716468 0 -0.38040619740787462 0.37666572748219151 0 -0.39610843494679188 0.37935027570664831 0 -0.38876844009419831 0.39261117144716468 0 -0.38040619740787462 0.37666572748219151 0 -0.36772909712757962 0.38838113779028188 0 -0.41864738033196569 0.39377719259665772 0 -0.38876844009419831 0.39261117144716468 0 -0.39610843494679188 0.37935027570664831 0 -0.41864738033196569 0.39377719259665772 0 -0.39510769333033668 0.41235403604038823 0 -0.38876844009419831 0.39261117144716468 0 -0.39578947148259741 0.35144770819371851 0 -0.39759658696076677 0.36017898572247148 0 -0.39011768139548131 0.35776420869921749 0 -0.39578947148259741 0.35144770819371851 0 -0.39011768139548131 0.35776420869921749 0 -0.38619190920011759 0.34987898972013959 0 -0.39578947148259741 0.35144770819371851 0 -0.39215615636744178 0.34471991892465959 0 -0.38619190920011759 0.34987898972013959 0 -0.39578947148259741 0.35144770819371851 0 -0.39215615636744178 0.34471991892465959 0 -0.39881098654105862 0.3435555623812126 0 -0.40341120657529778 0.34831163882072402 0 -0.39881098654105862 0.3435555623812126 0 -0.40795032660649289 0.34094384569242908 0 -0.39578947148259741 0.35144770819371851 0 -0.40341120657529778 0.34831163882072402 0 -0.39881098654105862 0.3435555623812126 0 -0.39578947148259741 0.35144770819371851 0 -0.40341120657529778 0.34831163882072402 0 -0.4039431500977505 0.35654153281869339 0 -0.39578947148259741 0.35144770819371851 0 -0.4039431500977505 0.35654153281869339 0 -0.39759658696076677 0.36017898572247148 0 -0.40341120657529778 0.34831163882072402 0 -0.4039431500977505 0.35654153281869339 0 -0.4091692007192354 0.35143657248882931 0 -0.4039431500977505 0.35654153281869339 0 -0.40342309763087852 0.36550806606445491 0 -0.40740991316149239 0.36508462759230159 0 -0.4039431500977505 0.35654153281869339 0 -0.40342309763087852 0.36550806606445491 0 -0.39759658696076677 0.36017898572247148 0 -0.40342309763087852 0.36550806606445491 0 -0.40740991316149239 0.36508462759230159 0 -0.39610843494679188 0.37935027570664831 0 -0.40342309763087852 0.36550806606445491 0 -0.40740991316149239 0.36508462759230159 0 -0.39610843494679188 0.37935027570664831 0 -0.40740991316149239 0.36508462759230159 0 -0.39610843494679188 0.37935027570664831 0 -0.40342309763087852 0.36550806606445491 0 -0.39257771602912611 0.36863077710557568 0 -0.40342309763087852 0.36550806606445491 0 -0.39257771602912611 0.36863077710557568 0 -0.39759658696076677 0.36017898572247148 0 -0.39257771602912611 0.36863077710557568 0 -0.39759658696076677 0.36017898572247148 0 -0.39011768139548131 0.35776420869921749 0 -0.39257771602912611 0.36863077710557568 0 -0.37657495410110609 0.35981517003075558 0 -0.39011768139548131 0.35776420869921749 0 -0.38040619740787462 0.37666572748219151 0 -0.39610843494679188 0.37935027570664831 0 -0.39257771602912611 0.36863077710557568 0 -0.38040619740787462 0.37666572748219151 0 -0.39257771602912611 0.36863077710557568 0 -0.37657495410110609 0.35981517003075558 0 -0.37657495410110609 0.35981517003075558 0 -0.38619190920011759 0.34987898972013959 0 -0.37753211857243718 0.34592948831607878 0 -0.37657495410110609 0.35981517003075558 0 -0.39011768139548131 0.35776420869921749 0 -0.38619190920011759 0.34987898972013959 0 -0.38619190920011759 0.34987898972013959 0 -0.37753211857243718 0.34592948831607878 0 -0.38661717979287658 0.3415105800401842 0 -0.39215615636744178 0.34471991892465959 0 -0.38619190920011759 0.34987898972013959 0 -0.38661717979287658 0.3415105800401842 0 -0.37753211857243718 0.34592948831607878 0 -0.38078352242204722 0.3358568273385461 0 -0.36997981312873668 0.33633618023938833 0 -0.37753211857243718 0.34592948831607878 0 -0.38078352242204722 0.3358568273385461 0 -0.38661717979287658 0.3415105800401842 0 -0.37694366708074389 0.32840442101806289 0 -0.38078352242204722 0.3358568273385461 0 -0.36997981312873668 0.33633618023938833 0 -0.37694366708074389 0.32840442101806289 0 -0.38078352242204722 0.3358568273385461 0 -0.38466834596677141 0.32906539652816341 0 -0.38078352242204722 0.3358568273385461 0 -0.38466834596677141 0.32906539652816341 0 -0.38892904909667531 0.33432202784431109 0 -0.38466834596677141 0.32906539652816341 0 -0.38892904909667531 0.33432202784431109 0 -0.39082806911507267 0.32867397373438451 0 -0.38078352242204722 0.3358568273385461 0 -0.38892904909667531 0.33432202784431109 0 -0.38661717979287658 0.3415105800401842 0 -0.38892904909667531 0.33432202784431109 0 -0.38661717979287658 0.3415105800401842 0 -0.39370994718197899 0.33874052795458398 0 -0.38183084632037317 0.32341199012391231 0 -0.38436920231913918 0.31635206791452941 0 -0.37484462938147339 0.32008442571239648 0 -0.38436920231913918 0.31635206791452941 0 -0.37537164453412292 0.31136461011921451 0 -0.37484462938147339 0.32008442571239648 0 -0.37694366708074389 0.32840442101806289 0 -0.38183084632037317 0.32341199012391231 0 -0.37484462938147339 0.32008442571239648 0 -0.37694366708074389 0.32840442101806289 0 -0.38466834596677141 0.32906539652816341 0 -0.38183084632037317 0.32341199012391231 0 -0.38466834596677141 0.32906539652816341 0 -0.38183084632037317 0.32341199012391231 0 -0.38832838685373838 0.32315363944640929 0 -0.38466834596677141 0.32906539652816341 0 -0.38832838685373838 0.32315363944640929 0 -0.39082806911507267 0.32867397373438451 0 -0.38183084632037317 0.32341199012391231 0 -0.38832838685373838 0.32315363944640929 0 -0.38436920231913918 0.31635206791452941 0 -0.38832838685373838 0.32315363944640929 0 -0.38436920231913918 0.31635206791452941 0 -0.3930112016248804 0.31706606793726982 0 -0.38436920231913918 0.31635206791452941 0 -0.3930112016248804 0.31706606793726982 0 -0.39030910441633948 0.31068228488012578 0 -0.3930112016248804 0.31706606793726982 0 -0.40041231719361681 0.3171262012068688 0 -0.39663492459555949 0.31068477745172057 0 -0.3930112016248804 0.31706606793726982 0 -0.39663492459555949 0.31068477745172057 0 -0.39030910441633948 0.31068228488012578 0 -0.3930112016248804 0.31706606793726982 0 -0.39638554246458579 0.32336689769961841 0 -0.40041231719361681 0.3171262012068688 0 -0.38832838685373838 0.32315363944640929 0 -0.39638554246458579 0.32336689769961841 0 -0.39082806911507267 0.32867397373438451 0 -0.39638554246458579 0.32336689769961841 0 -0.39082806911507267 0.32867397373438451 0 -0.39615014521790942 0.33183516775890659 0 -0.38832838685373838 0.32315363944640929 0 -0.3930112016248804 0.31706606793726982 0 -0.39638554246458579 0.32336689769961841 0 -0.39638554246458579 0.32336689769961841 0 -0.4012729161625983 0.32716344044363938 0 -0.39615014521790942 0.33183516775890659 0 -0.4012729161625983 0.32716344044363938 0 -0.40385478692384269 0.32188102611882441 0 -0.40684076942921799 0.32675084783039432 0 -0.39638554246458579 0.32336689769961841 0 -0.4012729161625983 0.32716344044363938 0 -0.40385478692384269 0.32188102611882441 0 -0.39638554246458579 0.32336689769961841 0 -0.40385478692384269 0.32188102611882441 0 -0.40041231719361681 0.3171262012068688 0 -0.40385478692384269 0.32188102611882441 0 -0.40041231719361681 0.3171262012068688 0 -0.40801823548127242 0.31566272422673958 0 -0.40041231719361681 0.3171262012068688 0 -0.40801823548127242 0.31566272422673958 0 -0.40435763886683462 0.31021253591659659 0 -0.40041231719361681 0.3171262012068688 0 -0.40435763886683462 0.31021253591659659 0 -0.39663492459555949 0.31068477745172057 0 -0.39370994718197899 0.33874052795458398 0 -0.39984881103254261 0.33716973470116091 0 -0.39881098654105862 0.3435555623812126 0 -0.39215615636744178 0.34471991892465959 0 -0.39370994718197899 0.33874052795458398 0 -0.39881098654105862 0.3435555623812126 0 -0.39215615636744178 0.34471991892465959 0 -0.38661717979287658 0.3415105800401842 0 -0.39370994718197899 0.33874052795458398 0 -0.38892904909667531 0.33432202784431109 0 -0.39370994718197899 0.33874052795458398 0 -0.39615014521790942 0.33183516775890659 0 -0.38892904909667531 0.33432202784431109 0 -0.39082806911507267 0.32867397373438451 0 -0.39615014521790942 0.33183516775890659 0 -0.39370994718197899 0.33874052795458398 0 -0.39615014521790942 0.33183516775890659 0 -0.39984881103254261 0.33716973470116091 0 -0.39615014521790942 0.33183516775890659 0 -0.40349262346180209 0.33268604957627579 0 -0.39984881103254261 0.33716973470116091 0 -0.4012729161625983 0.32716344044363938 0 -0.39615014521790942 0.33183516775890659 0 -0.40349262346180209 0.33268604957627579 0 -0.4012729161625983 0.32716344044363938 0 -0.40349262346180209 0.33268604957627579 0 -0.40684076942921799 0.32675084783039432 0 -0.40349262346180209 0.33268604957627579 0 -0.39984881103254261 0.33716973470116091 0 -0.40795032660649289 0.34094384569242908 0 -0.39984881103254261 0.33716973470116091 0 -0.39881098654105862 0.3435555623812126 0 -0.40795032660649289 0.34094384569242908 0 -0.42069201717339361 0.31936988329746041 0 -0.41986794458668719 0.34935908362955742 0 -0.40795032660649289 0.34094384569242908 0 -0.41385810915099103 0.32923322458111182 0 -0.41986794458668719 0.34935908362955742 0 -0.41385810915099103 0.32923322458111182 0 -0.42069201717339361 0.31936988329746041 0 -0.41986794458668719 0.34935908362955742 0 -0.40349262346180209 0.33268604957627579 0 -0.40795032660649289 0.34094384569242908 0 -0.40866440385638902 0.33178794144727941 0 -0.40795032660649289 0.34094384569242908 0 -0.40866440385638902 0.33178794144727941 0 -0.41385810915099103 0.32923322458111182 0 -0.40866440385638902 0.33178794144727941 0 -0.41385810915099103 0.32923322458111182 0 -0.40684076942921799 0.32675084783039432 0 -0.40349262346180209 0.33268604957627579 0 -0.40866440385638902 0.33178794144727941 0 -0.40684076942921799 0.32675084783039432 0 -0.40801823548127242 0.31566272422673958 0 -0.41461021859645208 0.31617951202795103 0 -0.41275601650015281 0.30870013756953302 0 -0.40385478692384269 0.32188102611882441 0 -0.40801823548127242 0.31566272422673958 0 -0.41019894081176489 0.32121604530568643 0 -0.40801823548127242 0.31566272422673958 0 -0.41019894081176489 0.32121604530568643 0 -0.41461021859645208 0.31617951202795103 0 -0.41019894081176489 0.32121604530568643 0 -0.4148398214331504 0.32149966630305238 0 -0.41461021859645208 0.31617951202795103 0 -0.41385810915099103 0.32923322458111182 0 -0.41019894081176489 0.32121604530568643 0 -0.40684076942921799 0.32675084783039432 0 -0.41385810915099103 0.32923322458111182 0 -0.41019894081176489 0.32121604530568643 0 -0.4148398214331504 0.32149966630305238 0 -0.40385478692384269 0.32188102611882441 0 -0.41019894081176489 0.32121604530568643 0 -0.40684076942921799 0.32675084783039432 0 -0.41385810915099103 0.32923322458111182 0 -0.4148398214331504 0.32149966630305238 0 -0.42069201717339361 0.31936988329746041 0 -0.4148398214331504 0.32149966630305238 0 -0.42069201717339361 0.31936988329746041 0 -0.41461021859645208 0.31617951202795103 0 -0.42069201717339361 0.31936988329746041 0 -0.41461021859645208 0.31617951202795103 0 -0.41925311785082081 0.31191790276354081 0 -0.43505506937184601 0.31529600537732688 0 -0.43075034150786318 0.33562243412505099 0 -0.44469223395398688 0.31802383968403619 0 -0.42069201717339361 0.31936988329746041 0 -0.42631922616399032 0.31698747168260338 0 -0.43075034150786318 0.33562243412505099 0 -0.42631922616399032 0.31698747168260338 0 -0.43075034150786318 0.33562243412505099 0 -0.42631922616399032 0.31698747168260338 0 -0.43505506937184601 0.31529600537732688 0 -0.43075034150786318 0.33562243412505099 0 -0.42069201717339361 0.31936988329746041 0 -0.42631922616399032 0.31698747168260338 0 -0.41925311785082081 0.31191790276354081 0 -0.42631922616399032 0.31698747168260338 0 -0.43505506937184601 0.31529600537732688 0 -0.42963120830162999 0.30891314773161033 0 -0.43075034150786318 0.33562243412505099 0 -0.43451752690829948 0.35146525314530158 0 -0.42069201717339361 0.31936988329746041 0 -0.43075034150786318 0.33562243412505099 0 -0.41986794458668719 0.34935908362955742 0 -0.43075034150786318 0.33562243412505099 0 -0.41986794458668719 0.34935908362955742 0 -0.43075034150786318 0.33562243412505099 0 -0.43451752690829948 0.35146525314530158 0 -0.44409178000092348 0.34591624256049253 0 -0.43075034150786318 0.33562243412505099 0 -0.43451752690829948 0.35146525314530158 0 -0.41986794458668719 0.34935908362955742 0 -0.43451752690829948 0.35146525314530158 0 -0.42895161887653649 0.35651102374158938 0 -0.44194998054629692 0.36141613747802598 0 -0.42895161887653649 0.35651102374158938 0 -0.41986794458668719 0.34935908362955742 0 -0.41947102346486181 0.36380362071347289 0 -0.43451752690829948 0.35146525314530158 0 -0.42895161887653649 0.35651102374158938 0 -0.41986794458668719 0.34935908362955742 0 -0.41986794458668719 0.34935908362955742 0 -0.40740991316149239 0.36508462759230159 0 -0.41986794458668719 0.34935908362955742 0 -0.4091692007192354 0.35143657248882931 0 -0.40740991316149239 0.36508462759230159 0 -0.41986794458668719 0.34935908362955742 0 -0.41947102346486181 0.36380362071347289 0 -0.4039431500977505 0.35654153281869339 0 -0.4091692007192354 0.35143657248882931 0 -0.40740991316149239 0.36508462759230159 0 -0.40795032660649289 0.34094384569242908 0 -0.41986794458668719 0.34935908362955742 0 -0.4091692007192354 0.35143657248882931 0 -0.40341120657529778 0.34831163882072402 0 -0.40795032660649289 0.34094384569242908 0 -0.4091692007192354 0.35143657248882931 0 -0.41864738033196569 0.39377719259665772 0 -0.40740991316149239 0.36508462759230159 0 -0.41947102346486181 0.36380362071347289 0 -0.41986794458668719 0.34935908362955742 0 -0.40740991316149239 0.36508462759230159 0 -0.41947102346486181 0.36380362071347289 0 -0.40740991316149239 0.36508462759230159 0 -0.41947102346486181 0.36380362071347289 0 -0.41947102346486181 0.36380362071347289 0 -0.44194998054629692 0.36141613747802598 0 -0.43165782154992588 0.38359235845378697 0 -0.41947102346486181 0.36380362071347289 0 -0.43394796087437681 0.37123482543454889 0 -0.42895161887653649 0.35651102374158938 0 -0.41947102346486181 0.36380362071347289 0 -0.44194998054629692 0.36141613747802598 0 -0.41947102346486181 0.36380362071347289 0 -0.43394796087437681 0.37123482543454889 0 -0.44194998054629692 0.36141613747802598 0 -0.44319162583269878 0.37522763385266061 0 -0.44194998054629692 0.36141613747802598 0 -0.46442893762773158 0.35902865424257552 0 -0.44319162583269878 0.37522763385266061 0 -0.43394796087437681 0.37123482543454889 0 -0.44194998054629692 0.36141613747802598 0 -0.45576711821368743 0.37760907932929011 0 -0.44319162583269878 0.37522763385266061 0 -0.45803777571738519 0.36836057213999213 0 -0.43451752690829948 0.35146525314530158 0 -0.44194998054629692 0.36141613747802598 0 -0.44409178000092348 0.34591624256049253 0 -0.44194998054629692 0.36141613747802598 0 -0.44409178000092348 0.34591624256049253 0 -0.45317988066892301 0.35160161080322799 0 -0.44409178000092348 0.34591624256049253 0 -0.45317988066892301 0.35160161080322799 0 -0.45432879215094069 0.34100391104764971 0 -0.44194998054629692 0.36141613747802598 0 -0.45317988066892301 0.35160161080322799 0 -0.46442893762773158 0.35902865424257552 0 -0.45317988066892301 0.35160161080322799 0 -0.4628044981603564 0.34908068211242071 0 -0.45432879215094069 0.34100391104764971 0 -0.45317988066892301 0.35160161080322799 0 -0.46442893762773158 0.35902865424257552 0 -0.4628044981603564 0.34908068211242071 0 -0.46442893762773158 0.35902865424257552 0 -0.4628044981603564 0.34908068211242071 0 -0.47774155979275912 0.34887431375497302 0 -0.4628044981603564 0.34908068211242071 0 -0.46775249084469611 0.34177006756372669 0 -0.45432879215094069 0.34100391104764971 0 -0.44319162583269878 0.37522763385266061 0 -0.46442893762773158 0.35902865424257552 0 -0.44194998054629692 0.36141613747802598 0 -0.46442893762773158 0.35902865424257552 0 -0.44319162583269878 0.37522763385266061 0 -0.46442893762773158 0.35902865424257552 0 -0.45803777571738519 0.36836057213999213 0 -0.46442893762773158 0.35902865424257552 0 -0.45803777571738519 0.36836057213999213 0 -0.47303024600583338 0.3654339590728819 0 -0.46463622302169483 0.38215792929165099 0 -0.45803777571738519 0.36836057213999213 0 -0.46733549631702009 0.37239052987472571 0 -0.45803777571738519 0.36836057213999213 0 -0.46733549631702009 0.37239052987472571 0 -0.47303024600583338 0.3654339590728819 0 -0.47375966404687281 0.3789750518935831 0 -0.46733549631702009 0.37239052987472571 0 -0.47767384099609078 0.37103842010518368 0 -0.46733549631702009 0.37239052987472571 0 -0.47767384099609078 0.37103842010518368 0 -0.47303024600583338 0.3654339590728819 0 -0.46442893762773158 0.35902865424257552 0 -0.47303024600583338 0.3654339590728819 0 -0.48745323915693561 0.35658325013820902 0 -0.47767384099609078 0.37103842010518368 0 -0.48325218621983701 0.36520232793660568 0 -0.47303024600583338 0.3654339590728819 0 -0.48265697702378879 0.37682160223087918 0 -0.47767384099609078 0.37103842010518368 0 -0.48680067237600899 0.37095585458363151 0 -0.47767384099609078 0.37103842010518368 0 -0.48325218621983701 0.36520232793660568 0 -0.48680067237600899 0.37095585458363151 0 -0.48325218621983701 0.36520232793660568 0 -0.47303024600583338 0.3654339590728819 0 -0.48745323915693561 0.35658325013820902 0 -0.46442893762773158 0.35902865424257552 0 -0.48745323915693561 0.35658325013820902 0 -0.46442893762773158 0.35902865424257552 0 -0.47774155979275912 0.34887431375497302 0 -0.48745323915693561 0.35658325013820902 0 -0.46442893762773158 0.35902865424257552 0 -0.47774155979275912 0.34887431375497302 0 -0.4628044981603564 0.34908068211242071 0 -0.47774155979275912 0.34887431375497302 0 -0.46775249084469611 0.34177006756372669 0 -0.4933353487408163 0.36283730287477439 0 -0.49105418195778872 0.33871997326737341 0 -0.5 0.35868559774330289 0 -0.4933353487408163 0.36283730287477439 0 -0.49105418195778872 0.33871997326737341 0 -0.47774155979275912 0.34887431375497302 0 -0.48745323915693561 0.35658325013820902 0 -0.49105418195778872 0.33871997326737341 0 -0.48745323915693561 0.35658325013820902 0 -0.4933353487408163 0.36283730287477439 0 -0.49105418195778872 0.33871997326737341 0 -0.47774155979275912 0.34887431375497302 0 -0.49105418195778872 0.33871997326737341 0 -0.5 0.3854747376179799 0 -0.5 0.35868559774330289 0 -0.4933353487408163 0.36283730287477439 0 -0.49479672805323283 0.37828753949107607 0 -0.4933353487408163 0.36283730287477439 0 -0.49479672805323283 0.37828753949107607 0 -0.4933353487408163 0.36283730287477439 0 -0.48680067237600899 0.37095585458363151 0 -0.48325218621983701 0.36520232793660568 0 -0.4933353487408163 0.36283730287477439 0 -0.48680067237600899 0.37095585458363151 0 -0.48325218621983701 0.36520232793660568 0 -0.48745323915693561 0.35658325013820902 0 -0.4933353487408163 0.36283730287477439 0 -0.49114922423113599 0.31706229118293222 0 -0.50000000000000111 0.33189645786862582 0 -0.5 0.30316310255033979 0 -0.49050011166203772 0.32675370426230421 0 -0.49114922423113599 0.31706229118293222 0 -0.48283489359965021 0.32501064831684912 0 -0.49050011166203772 0.32675370426230421 0 -0.48659798251695802 0.32959487124280779 0 -0.48283489359965021 0.32501064831684912 0 -0.49114922423113599 0.31706229118293222 0 -0.48283489359965021 0.32501064831684912 0 -0.48337642849944412 0.31459052737724391 0 -0.49114922423113599 0.31706229118293222 0 -0.48337642849944412 0.31459052737724391 0 -0.48923330192872999 0.30802272629239752 0 -0.49050011166203772 0.32675370426230421 0 -0.49114922423113599 0.31706229118293222 0 -0.50000000000000111 0.33189645786862582 0 -0.5 0.35868559774330289 0 -0.50000000000000111 0.33189645786862582 0 -0.49105418195778872 0.33871997326737341 0 -0.50000000000000111 0.33189645786862582 0 -0.49105418195778872 0.33871997326737341 0 -0.49056326740626338 0.33352984506790478 0 -0.49050011166203772 0.32675370426230421 0 -0.50000000000000111 0.33189645786862582 0 -0.49056326740626338 0.33352984506790478 0 -0.50000000000000111 0.33189645786862582 0 -0.49105418195778872 0.33871997326737341 0 -0.49105418195778872 0.33871997326737341 0 -0.49056326740626338 0.33352984506790478 0 -0.49056326740626338 0.33352984506790478 0 -0.48659798251695802 0.32959487124280779 0 -0.48249365739988048 0.33308528732417331 0 -0.49105418195778872 0.33871997326737341 0 -0.49056326740626338 0.33352984506790478 0 -0.48249365739988048 0.33308528732417331 0 -0.49050011166203772 0.32675370426230421 0 -0.49056326740626338 0.33352984506790478 0 -0.48659798251695802 0.32959487124280779 0 -0.48659798251695802 0.32959487124280779 0 -0.48249365739988048 0.33308528732417331 0 -0.48283489359965021 0.32501064831684912 0 -0.48249365739988048 0.33308528732417331 0 -0.47441184214149518 0.33306294069180509 0 -0.47475307834126579 0.32498830168448017 0 -0.48249365739988048 0.33308528732417331 0 -0.47869074642732379 0.33910251652041012 0 -0.47441184214149518 0.33306294069180509 0 -0.47774155979275912 0.34887431375497302 0 -0.49105418195778872 0.33871997326737341 0 -0.47869074642732379 0.33910251652041012 0 -0.49105418195778872 0.33871997326737341 0 -0.48249365739988048 0.33308528732417331 0 -0.47869074642732379 0.33910251652041012 0 -0.47869074642732379 0.33910251652041012 0 -0.47441184214149518 0.33306294069180509 0 -0.46775249084469611 0.34177006756372669 0 -0.47774155979275912 0.34887431375497302 0 -0.47869074642732379 0.33910251652041012 0 -0.46775249084469611 0.34177006756372669 0 -0.47441184214149518 0.33306294069180509 0 -0.47475307834126579 0.32498830168448017 0 -0.46420987370697381 0.33078732517422671 0 -0.47441184214149518 0.33306294069180509 0 -0.46775249084469611 0.34177006756372669 0 -0.46420987370697381 0.33078732517422671 0 -0.47475307834126579 0.32498830168448017 0 -0.47450394657781619 0.31670873180267101 0 -0.46701487013764481 0.32181285142151961 0 -0.48249365739988048 0.33308528732417331 0 -0.47475307834126579 0.32498830168448017 0 -0.48283489359965021 0.32501064831684912 0 -0.47475307834126579 0.32498830168448017 0 -0.48283489359965021 0.32501064831684912 0 -0.47450394657781619 0.31670873180267101 0 -0.48283489359965021 0.32501064831684912 0 -0.48337642849944412 0.31459052737724391 0 -0.47450394657781619 0.31670873180267101 0 -0.48337642849944412 0.31459052737724391 0 -0.47450394657781619 0.31670873180267101 0 -0.47829028578430499 0.31061212875390132 0 -0.47450394657781619 0.31670873180267101 0 -0.46278391758065812 0.31307961696737913 0 -0.46701487013764481 0.32181285142151961 0 -0.46278391758065812 0.31307961696737913 0 -0.46701487013764481 0.32181285142151961 0 -0.4588235344815097 0.32350028147884091 0 -0.46278391758065812 0.31307961696737913 0 -0.4588235344815097 0.32350028147884091 0 -0.44469223395398688 0.31802383968403619 0 -0.46701487013764481 0.32181285142151961 0 -0.4588235344815097 0.32350028147884091 0 -0.46420987370697381 0.33078732517422671 0 -0.47475307834126579 0.32498830168448017 0 -0.46701487013764481 0.32181285142151961 0 -0.46420987370697381 0.33078732517422671 0 -0.4588235344815097 0.32350028147884091 0 -0.46420987370697381 0.33078732517422671 0 -0.45236040337518668 0.32990432989896828 0 -0.46775249084469611 0.34177006756372669 0 -0.46420987370697381 0.33078732517422671 0 -0.45432879215094069 0.34100391104764971 0 -0.46420987370697381 0.33078732517422671 0 -0.45432879215094069 0.34100391104764971 0 -0.45236040337518668 0.32990432989896828 0 -0.43075034150786318 0.33562243412505099 0 -0.44365643767006641 0.33392726239706821 0 -0.44469223395398688 0.31802383968403619 0 -0.44409178000092348 0.34591624256049253 0 -0.45432879215094069 0.34100391104764971 0 -0.44365643767006641 0.33392726239706821 0 -0.45432879215094069 0.34100391104764971 0 -0.45236040337518668 0.32990432989896828 0 -0.44365643767006641 0.33392726239706821 0 -0.43075034150786318 0.33562243412505099 0 -0.44409178000092348 0.34591624256049253 0 -0.44365643767006641 0.33392726239706821 0 -0.43075034150786318 0.33562243412505099 0 -0.44469223395398688 0.31802383968403619 0 -0.45236040337518668 0.32990432989896828 0 -0.44365643767006641 0.33392726239706821 0 -0.44469223395398688 0.31802383968403619 0 -0.4588235344815097 0.32350028147884091 0 -0.45236040337518668 0.32990432989896828 0 -0.44469223395398688 0.31802383968403619 0 -0.43505506937184601 0.31529600537732688 0 -0.44469223395398688 0.31802383968403619 0 -0.43526242685056848 0.3050166046263546 0 -0.44469223395398688 0.31802383968403619 0 -0.45863412640011142 0.30042524524302178 0 -0.44469223395398688 0.31802383968403619 0 -0.44730670349988411 0.2961725163978518 0 -0.43526242685056848 0.3050166046263546 0 -0.44469223395398688 0.31802383968403619 0 -0.44730670349988411 0.2961725163978518 0 -0.45863412640011142 0.30042524524302178 0 -0.44388905983095178 0.28372217209617168 0 -0.44730670349988411 0.2961725163978518 0 -0.4598526872944792 0.28154859924639242 0 -0.44388905983095178 0.28372217209617168 0 -0.44730670349988411 0.2961725163978518 0 -0.43392523019527179 0.28942496760161662 0 -0.44730670349988411 0.2961725163978518 0 -0.45863412640011142 0.30042524524302178 0 -0.47272529617965281 0.29399252355554722 0 -0.44730670349988411 0.2961725163978518 0 -0.4598526872944792 0.28154859924639242 0 -0.47272529617965281 0.29399252355554722 0 -0.44730670349988411 0.2961725163978518 0 -0.47272529617965281 0.29399252355554722 0 -0.4598526872944792 0.28154859924639242 0 -0.47272529617965281 0.29399252355554722 0 -0.47287776764170858 0.28142044915368802 0 -0.46278391758065812 0.31307961696737913 0 -0.44469223395398688 0.31802383968403619 0 -0.45863412640011142 0.30042524524302178 0 -0.45863412640011142 0.30042524524302178 0 -0.47201414063318908 0.3061200084720318 0 -0.47272529617965281 0.29399252355554722 0 -0.46278391758065812 0.31307961696737913 0 -0.45863412640011142 0.30042524524302178 0 -0.47201414063318908 0.3061200084720318 0 -0.47450394657781619 0.31670873180267101 0 -0.46278391758065812 0.31307961696737913 0 -0.47201414063318908 0.3061200084720318 0 -0.48262816272648351 0.30493211645745238 0 -0.47272529617965281 0.29399252355554722 0 -0.48901269418658683 0.30036559389401912 0 -0.47450394657781619 0.31670873180267101 0 -0.47201414063318908 0.3061200084720318 0 -0.47829028578430499 0.31061212875390132 0 -0.47201414063318908 0.3061200084720318 0 -0.47829028578430499 0.31061212875390132 0 -0.48262816272648351 0.30493211645745238 0 -0.48337642849944412 0.31459052737724391 0 -0.47829028578430499 0.31061212875390132 0 -0.48262816272648351 0.30493211645745238 0 -0.47201414063318908 0.3061200084720318 0 -0.48262816272648351 0.30493211645745238 0 -0.47272529617965281 0.29399252355554722 0 -0.47272529617965281 0.29399252355554722 0 -0.47287776764170858 0.28142044915368802 0 -0.48453072783931811 0.28003659837775291 0 -0.49814388885942151 0.29181253071324259 0 -0.5 0.30316310255033979 0 -0.5 0.27442974723205382 0 -0.49814388885942151 0.29181253071324259 0 -0.5 0.27442974723205382 0 -0.48453072783931811 0.28003659837775291 0 -0.47272529617965281 0.29399252355554722 0 -0.49814388885942151 0.29181253071324259 0 -0.48901269418658683 0.30036559389401912 0 -0.47272529617965281 0.29399252355554722 0 -0.49814388885942151 0.29181253071324259 0 -0.48453072783931811 0.28003659837775291 0 -0.47272529617965281 0.29399252355554722 0 -0.49814388885942151 0.29181253071324259 0 -0.49814388885942151 0.29181253071324259 0 -0.5 0.30316310255033979 0 -0.48901269418658683 0.30036559389401912 0 -0.5 0.30316310255033979 0 -0.48923330192872999 0.30802272629239752 0 -0.48901269418658683 0.30036559389401912 0 -0.49114922423113599 0.31706229118293222 0 -0.5 0.30316310255033979 0 -0.48923330192872999 0.30802272629239752 0 -0.48337642849944412 0.31459052737724391 0 -0.48262816272648351 0.30493211645745238 0 -0.48923330192872999 0.30802272629239752 0 -0.48262816272648351 0.30493211645745238 0 -0.48923330192872999 0.30802272629239752 0 -0.48901269418658683 0.30036559389401912 0 -0.5 0.24569639191376769 0 -0.48736816545933559 0.26434158349195369 0 -0.5 0.27442974723205382 0 -0.5 0.24569639191376769 0 -0.48736816545933559 0.26434158349195369 0 -0.47790774020397558 0.25144110450113488 0 -0.48736816545933559 0.26434158349195369 0 -0.5 0.27442974723205382 0 -0.48453072783931811 0.28003659837775291 0 -0.48736816545933559 0.26434158349195369 0 -0.48453072783931811 0.28003659837775291 0 -0.47440235925338442 0.27010407543505971 0 -0.47287776764170858 0.28142044915368802 0 -0.48453072783931811 0.28003659837775291 0 -0.47440235925338442 0.27010407543505971 0 -0.4598526872944792 0.28154859924639242 0 -0.47287776764170858 0.28142044915368802 0 -0.47440235925338442 0.27010407543505971 0 -0.48736816545933559 0.26434158349195369 0 -0.47440235925338442 0.27010407543505971 0 -0.47790774020397558 0.25144110450113488 0 -0.47440235925338442 0.27010407543505971 0 -0.47790774020397558 0.25144110450113488 0 -0.46274711247525863 0.26068785709014081 0 -0.46470531482263477 0.2425530545157277 0 -0.47790774020397558 0.25144110450113488 0 -0.46274711247525863 0.26068785709014081 0 -0.44907064711314898 0.24935538378234501 0 -0.46470531482263477 0.2425530545157277 0 -0.46274711247525863 0.26068785709014081 0 -0.44907064711314898 0.24935538378234501 0 -0.46274711247525863 0.26068785709014081 0 -0.45054392616392869 0.26912492506018543 0 -0.4598526872944792 0.28154859924639242 0 -0.47440235925338442 0.27010407543505971 0 -0.46274711247525863 0.26068785709014081 0 -0.4598526872944792 0.28154859924639242 0 -0.46274711247525863 0.26068785709014081 0 -0.45054392616392869 0.26912492506018543 0 -0.45054392616392869 0.26912492506018543 0 -0.42930263375032468 0.2578565038529651 0 -0.43713611735243452 0.27515439597541408 0 -0.44388905983095178 0.28372217209617168 0 -0.4598526872944792 0.28154859924639242 0 -0.45054392616392869 0.26912492506018543 0 -0.44388905983095178 0.28372217209617168 0 -0.45054392616392869 0.26912492506018543 0 -0.43713611735243452 0.27515439597541408 0 -0.44388905983095178 0.28372217209617168 0 -0.43713611735243452 0.27515439597541408 0 -0.43219557623846311 0.28186877581558162 0 -0.45054392616392869 0.26912492506018543 0 -0.42930263375032468 0.2578565038529651 0 -0.44907064711314898 0.24935538378234501 0 -0.45054392616392869 0.26912492506018543 0 -0.42930263375032468 0.2578565038529651 0 -0.40307080517333382 0.24394062304470629 0 -0.42930263375032468 0.2578565038529651 0 -0.4111880249248589 0.25335352290937652 0 -0.4111880249248589 0.25335352290937652 0 -0.42032819471677008 0.26625363055695672 0 -0.41653806787248771 0.27585301607476631 0 -0.40307080517333382 0.24394062304470629 0 -0.42930263375032468 0.2578565038529651 0 -0.4111880249248589 0.25335352290937652 0 -0.41653806787248771 0.27585301607476631 0 -0.42930263375032468 0.2578565038529651 0 -0.4111880249248589 0.25335352290937652 0 -0.42032819471677008 0.26625363055695672 0 -0.4111880249248589 0.25335352290937652 0 -0.41653806787248771 0.27585301607476631 0 -0.40608290601979452 0.26745589013986432 0 -0.40655733108942271 0.27778369802509201 0 -0.41653806787248771 0.27585301607476631 0 -0.40985511736462998 0.28830321730792641 0 -0.40655733108942271 0.27778369802509201 0 -0.41653806787248771 0.27585301607476631 0 -0.40608290601979452 0.26745589013986432 0 -0.42032819471677008 0.26625363055695672 0 -0.41653806787248771 0.27585301607476631 0 -0.42428405231940919 0.27795147939071913 0 -0.42930263375032468 0.2578565038529651 0 -0.42032819471677008 0.26625363055695672 0 -0.42428405231940919 0.27795147939071913 0 -0.42930263375032468 0.2578565038529651 0 -0.42428405231940919 0.27795147939071913 0 -0.43713611735243452 0.27515439597541408 0 -0.42930263375032468 0.2578565038529651 0 -0.42428405231940919 0.27795147939071913 0 -0.41653806787248771 0.27585301607476631 0 -0.42428405231940919 0.27795147939071913 0 -0.42541800314407918 0.28549799203395848 0 -0.42428405231940919 0.27795147939071913 0 -0.43713611735243452 0.27515439597541408 0 -0.43219557623846311 0.28186877581558162 0 -0.44388905983095178 0.28372217209617168 0 -0.43219557623846311 0.28186877581558162 0 -0.43392523019527179 0.28942496760161662 0 -0.44730670349988411 0.2961725163978518 0 -0.43392523019527179 0.28942496760161662 0 -0.4218881108201154 0.29835250924015622 0 -0.43219557623846311 0.28186877581558162 0 -0.43392523019527179 0.28942496760161662 0 -0.42541800314407918 0.28549799203395848 0 -0.43392523019527179 0.28942496760161662 0 -0.42541800314407918 0.28549799203395848 0 -0.4218881108201154 0.29835250924015622 0 -0.42428405231940919 0.27795147939071913 0 -0.43219557623846311 0.28186877581558162 0 -0.42541800314407918 0.28549799203395848 0 -0.44730670349988411 0.2961725163978518 0 -0.43526242685056848 0.3050166046263546 0 -0.4218881108201154 0.29835250924015622 0 -0.44730670349988411 0.2961725163978518 0 -0.4218881108201154 0.29835250924015622 0 -0.42631922616399032 0.31698747168260338 0 -0.4218881108201154 0.29835250924015622 0 -0.42963120830162999 0.30891314773161033 0 -0.42631922616399032 0.31698747168260338 0 -0.4218881108201154 0.29835250924015622 0 -0.41925311785082081 0.31191790276354081 0 -0.42631922616399032 0.31698747168260338 0 -0.4218881108201154 0.29835250924015622 0 -0.43505506937184601 0.31529600537732688 0 -0.43526242685056848 0.3050166046263546 0 -0.42963120830162999 0.30891314773161033 0 -0.43526242685056848 0.3050166046263546 0 -0.4218881108201154 0.29835250924015622 0 -0.42963120830162999 0.30891314773161033 0 -0.4218881108201154 0.29835250924015622 0 -0.40588563262862809 0.29972494115863718 0 -0.4218881108201154 0.29835250924015622 0 -0.41275601650015281 0.30870013756953302 0 -0.40588563262862809 0.29972494115863718 0 -0.4218881108201154 0.29835250924015622 0 -0.41925311785082081 0.31191790276354081 0 -0.41275601650015281 0.30870013756953302 0 -0.41461021859645208 0.31617951202795103 0 -0.41925311785082081 0.31191790276354081 0 -0.41275601650015281 0.30870013756953302 0 -0.41275601650015281 0.30870013756953302 0 -0.40435763886683462 0.31021253591659659 0 -0.40588563262862809 0.29972494115863718 0 -0.40801823548127242 0.31566272422673958 0 -0.41275601650015281 0.30870013756953302 0 -0.40435763886683462 0.31021253591659659 0 -0.41653806787248771 0.27585301607476631 0 -0.4218881108201154 0.29835250924015622 0 -0.40985511736462998 0.28830321730792641 0 -0.41653806787248771 0.27585301607476631 0 -0.42541800314407918 0.28549799203395848 0 -0.4218881108201154 0.29835250924015622 0 -0.41653806787248771 0.27585301607476631 0 -0.4218881108201154 0.29835250924015622 0 -0.4218881108201154 0.29835250924015622 0 -0.40985511736462998 0.28830321730792641 0 -0.40588563262862809 0.29972494115863718 0 -0.40985511736462998 0.28830321730792641 0 -0.40031911331437259 0.28249277767540448 0 -0.39911617826550028 0.29082077962762298 0 -0.40655733108942271 0.27778369802509201 0 -0.40985511736462998 0.28830321730792641 0 -0.40031911331437259 0.28249277767540448 0 -0.39911617826550028 0.29082077962762298 0 -0.39431523221681108 0.29985786931479952 0 -0.38338821116744709 0.27892061734314588 0 -0.40031911331437259 0.28249277767540448 0 -0.39911617826550028 0.29082077962762298 0 -0.38338821116744709 0.27892061734314588 0 -0.40985511736462998 0.28830321730792641 0 -0.39911617826550028 0.29082077962762298 0 -0.40588563262862809 0.29972494115863718 0 -0.39911617826550028 0.29082077962762298 0 -0.40588563262862809 0.29972494115863718 0 -0.39431523221681108 0.29985786931479952 0 -0.40588563262862809 0.29972494115863718 0 -0.39825388106679133 0.30471936076991618 0 -0.38988315443714072 0.30109737307711798 0 -0.40588563262862809 0.29972494115863718 0 -0.38988315443714072 0.30109737307711798 0 -0.40588563262862809 0.29972494115863718 0 -0.39431523221681108 0.29985786931479952 0 -0.38988315443714072 0.30109737307711798 0 -0.40435763886683462 0.31021253591659659 0 -0.40588563262862809 0.29972494115863718 0 -0.39825388106679133 0.30471936076991618 0 -0.40435763886683462 0.31021253591659659 0 -0.39825388106679133 0.30471936076991618 0 -0.39663492459555949 0.31068477745172057 0 -0.39825388106679133 0.30471936076991618 0 -0.39275795241490219 0.30656408718559047 0 -0.38988315443714072 0.30109737307711798 0 -0.39825388106679133 0.30471936076991618 0 -0.39275795241490219 0.30656408718559047 0 -0.39663492459555949 0.31068477745172057 0 -0.39275795241490219 0.30656408718559047 0 -0.39663492459555949 0.31068477745172057 0 -0.39030910441633948 0.31068228488012578 0 -0.38436920231913918 0.31635206791452941 0 -0.39030910441633948 0.31068228488012578 0 -0.383155694605536 0.30717472510955018 0 -0.39030910441633948 0.31068228488012578 0 -0.38870869755867998 0.3056366397490719 0 -0.383155694605536 0.30717472510955018 0 -0.39275795241490219 0.30656408718559047 0 -0.39030910441633948 0.31068228488012578 0 -0.38870869755867998 0.3056366397490719 0 -0.38870869755867998 0.3056366397490719 0 -0.383155694605536 0.30717472510955018 0 -0.38579760855491341 0.30294333066761098 0 -0.38579760855491341 0.30294333066761098 0 -0.38988315443714072 0.30109737307711798 0 -0.38142562547606002 0.29732108470863378 0 -0.383155694605536 0.30717472510955018 0 -0.38579760855491341 0.30294333066761098 0 -0.38142562547606002 0.29732108470863378 0 -0.39275795241490219 0.30656408718559047 0 -0.38870869755867998 0.3056366397490719 0 -0.38988315443714072 0.30109737307711798 0 -0.38870869755867998 0.3056366397490719 0 -0.38579760855491341 0.30294333066761098 0 -0.38988315443714072 0.30109737307711798 0 -0.383155694605536 0.30717472510955018 0 -0.38142562547606002 0.29732108470863378 0 -0.37330517518225431 0.30256514344350072 0 -0.38142562547606002 0.29732108470863378 0 -0.37301312007017029 0.29088563109458399 0 -0.37330517518225431 0.30256514344350072 0 -0.383155694605536 0.30717472510955018 0 -0.37537164453412292 0.31136461011921451 0 -0.37330517518225431 0.30256514344350072 0 -0.38436920231913918 0.31635206791452941 0 -0.383155694605536 0.30717472510955018 0 -0.37537164453412292 0.31136461011921451 0 -0.38142562547606002 0.29732108470863378 0 -0.38338821116744709 0.27892061734314588 0 -0.37301312007017029 0.29088563109458399 0 -0.38988315443714072 0.30109737307711798 0 -0.38142562547606002 0.29732108470863378 0 -0.38338821116744709 0.27892061734314588 0 -0.39431523221681108 0.29985786931479952 0 -0.38988315443714072 0.30109737307711798 0 -0.38338821116744709 0.27892061734314588 0 -0.39431523221681108 0.29985786931479952 0 -0.38338821116744709 0.27892061734314588 0 -0.38338821116744709 0.27892061734314588 0 -0.38741813229669081 0.26316619833916832 0 -0.37246119011808321 0.25798336537149219 0 -0.38338821116744709 0.27892061734314588 0 -0.37246119011808321 0.25798336537149219 0 -0.38338821116744709 0.27892061734314588 0 -0.38741813229669081 0.26316619833916832 0 -0.39752897171286111 0.27191705439585412 0 -0.38511015398572052 0.2486377952911166 0 -0.38741813229669081 0.26316619833916832 0 -0.37246119011808321 0.25798336537149219 0 -0.38511015398572052 0.2486377952911166 0 -0.37398612244221657 0.2434230040747235 0 -0.37246119011808321 0.25798336537149219 0 -0.38511015398572052 0.2486377952911166 0 -0.38741813229669081 0.26316619833916832 0 -0.39860213449934229 0.25837215929423307 0 -0.38511015398572052 0.2486377952911166 0 -0.40307080517333382 0.24394062304470629 0 -0.39860213449934229 0.25837215929423307 0 -0.38741813229669081 0.26316619833916832 0 -0.39860213449934229 0.25837215929423307 0 -0.39752897171286111 0.27191705439585412 0 -0.40307080517333382 0.24394062304470629 0 -0.4111880249248589 0.25335352290937652 0 -0.39860213449934229 0.25837215929423307 0 -0.4111880249248589 0.25335352290937652 0 -0.39860213449934229 0.25837215929423307 0 -0.40608290601979452 0.26745589013986432 0 -0.40655733108942271 0.27778369802509201 0 -0.40608290601979452 0.26745589013986432 0 -0.39752897171286111 0.27191705439585412 0 -0.40031911331437259 0.28249277767540448 0 -0.38338821116744709 0.27892061734314588 0 -0.39752897171286111 0.27191705439585412 0 -0.39860213449934229 0.25837215929423307 0 -0.40608290601979452 0.26745589013986432 0 -0.39752897171286111 0.27191705439585412 0 -0.40655733108942271 0.27778369802509201 0 -0.40031911331437259 0.28249277767540448 0 -0.39752897171286111 0.27191705439585412 0 -0.35357443647060788 0.26602946875642569 0 -0.36196666240696251 0.28235970841195968 0 -0.3395134967611898 0.28136313346970682 0 -0.35357443647060788 0.26602946875642569 0 -0.3395134967611898 0.28136313346970682 0 -0.33858125183573962 0.2577039696868697 0 -0.35357443647060788 0.26602946875642569 0 -0.35383122004284839 0.25096525929895958 0 -0.33858125183573962 0.2577039696868697 0 -0.35357443647060788 0.26602946875642569 0 -0.35383122004284839 0.25096525929895958 0 -0.37246119011808321 0.25798336537149219 0 -0.35357443647060788 0.26602946875642569 0 -0.37246119011808321 0.25798336537149219 0 -0.36196666240696251 0.28235970841195968 0 -0.38338821116744709 0.27892061734314588 0 -0.37246119011808321 0.25798336537149219 0 -0.36196666240696251 0.28235970841195968 0 -0.38338821116744709 0.27892061734314588 0 -0.36196666240696251 0.28235970841195968 0 -0.37301312007017029 0.29088563109458399 0 -0.36196666240696251 0.28235970841195968 0 -0.37301312007017029 0.29088563109458399 0 -0.35818268999663572 0.30205444736487569 0 -0.37537164453412292 0.31136461011921451 0 -0.37330517518225431 0.30256514344350072 0 -0.36558203810121809 0.30910265848154428 0 -0.37301312007017029 0.29088563109458399 0 -0.37330517518225431 0.30256514344350072 0 -0.35818268999663572 0.30205444736487569 0 -0.37330517518225431 0.30256514344350072 0 -0.36558203810121809 0.30910265848154428 0 -0.35818268999663572 0.30205444736487569 0 -0.36558203810121809 0.30910265848154428 0 -0.35818268999663572 0.30205444736487569 0 -0.35494291918659038 0.31623682922544272 0 -0.35818268999663572 0.30205444736487569 0 -0.34035098230407851 0.30502565106359258 0 -0.35494291918659038 0.31623682922544272 0 -0.35818268999663572 0.30205444736487569 0 -0.3494109850257654 0.29276090653026021 0 -0.34035098230407851 0.30502565106359258 0 -0.36196666240696251 0.28235970841195968 0 -0.35818268999663572 0.30205444736487569 0 -0.3494109850257654 0.29276090653026021 0 -0.36196666240696251 0.28235970841195968 0 -0.3494109850257654 0.29276090653026021 0 -0.3395134967611898 0.28136313346970682 0 -0.3395134967611898 0.28136313346970682 0 -0.32846683215857991 0.29308845697885483 0 -0.31788582653708342 0.27980728983353781 0 -0.3395134967611898 0.28136313346970682 0 -0.32846683215857991 0.29308845697885483 0 -0.34035098230407851 0.30502565106359258 0 -0.3395134967611898 0.28136313346970682 0 -0.34035098230407851 0.30502565106359258 0 -0.3494109850257654 0.29276090653026021 0 -0.3395134967611898 0.28136313346970682 0 -0.34035098230407851 0.30502565106359258 0 -0.32846683215857991 0.29308845697885483 0 -0.34035098230407851 0.30502565106359258 0 -0.32721551714290859 0.30478603697005191 0 -0.34035098230407851 0.30502565106359258 0 -0.32721551714290859 0.30478603697005191 0 -0.33336662506065251 0.31674192386731909 0 -0.32721551714290859 0.30478603697005191 0 -0.31742340827655002 0.31293862188026361 0 -0.33336662506065251 0.31674192386731909 0 -0.32846683215857991 0.29308845697885483 0 -0.32721551714290859 0.30478603697005191 0 -0.31557113778172502 0.29781088856307281 0 -0.32721551714290859 0.30478603697005191 0 -0.31557113778172502 0.29781088856307281 0 -0.31742340827655002 0.31293862188026361 0 -0.32846683215857991 0.29308845697885483 0 -0.31557113778172502 0.29781088856307281 0 -0.31788582653708342 0.27980728983353781 0 -0.3395134967611898 0.28136313346970682 0 -0.31788582653708342 0.27980728983353781 0 -0.32504970262798638 0.26536410841710689 0 -0.31788582653708342 0.27980728983353781 0 -0.32504970262798638 0.26536410841710689 0 -0.30941565744284261 0.26257127750514109 0 -0.3395134967611898 0.28136313346970682 0 -0.33858125183573962 0.2577039696868697 0 -0.3395134967611898 0.28136313346970682 0 -0.33858125183573962 0.2577039696868697 0 -0.32504970262798638 0.26536410841710689 0 -0.31985228056307641 0.2453748715902791 0 -0.33858125183573962 0.2577039696868697 0 -0.32504970262798638 0.26536410841710689 0 -0.31985228056307641 0.2453748715902791 0 -0.32504970262798638 0.26536410841710689 0 -0.30941565744284261 0.26257127750514109 0 -0.31985228056307641 0.2453748715902791 0 -0.29940859687451638 0.2465419436069875 0 -0.30941565744284261 0.26257127750514109 0 -0.29940859687451638 0.2465419436069875 0 -0.30941565744284261 0.26257127750514109 0 -0.29276429172905921 0.27108606346672082 0 -0.31788582653708342 0.27980728983353781 0 -0.29276429172905921 0.27108606346672082 0 -0.29417948398053018 0.29161253276938232 0 -0.31788582653708342 0.27980728983353781 0 -0.30941565744284261 0.26257127750514109 0 -0.29276429172905921 0.27108606346672082 0 -0.29276429172905921 0.27108606346672082 0 -0.27223556368155222 0.27543783989269771 0 -0.29417948398053018 0.29161253276938232 0 -0.29940859687451638 0.2465419436069875 0 -0.29276429172905921 0.27108606346672082 0 -0.27882243381333138 0.25002155311163943 0 -0.29276429172905921 0.27108606346672082 0 -0.27882243381333138 0.25002155311163943 0 -0.27223556368155222 0.27543783989269771 0 -0.27882243381333138 0.25002155311163943 0 -0.27223556368155222 0.27543783989269771 0 -0.25994981113117638 0.2595370196005905 0 -0.27223556368155222 0.27543783989269771 0 -0.25302752541997647 0.27495473976011231 0 -0.25994981113117638 0.2595370196005905 0 -0.25302752541997647 0.27495473976011231 0 -0.25994981113117638 0.2595370196005905 0 -0.24073283793148881 0.2599430092145163 0 -0.25312730452603122 0.23956148187864251 0 -0.25994981113117638 0.2595370196005905 0 -0.24073283793148881 0.2599430092145163 0 -0.2544908832576937 0.31672420584868222 0 -0.24949777065810261 0.2920740977041657 0 -0.26888580620373792 0.29479200491066387 0 -0.2544908832576937 0.31672420584868222 0 -0.24949777065810261 0.2920740977041657 0 -0.25302752541997647 0.27495473976011231 0 -0.26888580620373792 0.29479200491066387 0 -0.24949777065810261 0.2920740977041657 0 -0.27223556368155222 0.27543783989269771 0 -0.25302752541997647 0.27495473976011231 0 -0.26888580620373792 0.29479200491066387 0 -0.27223556368155222 0.27543783989269771 0 -0.26888580620373792 0.29479200491066387 0 -0.29417948398053018 0.29161253276938232 0 -0.26888580620373792 0.29479200491066387 0 -0.28345935436648789 0.3104603338504337 0 -0.2544908832576937 0.31672420584868222 0 -0.26888580620373792 0.29479200491066387 0 -0.28345935436648789 0.3104603338504337 0 -0.29417948398053018 0.29161253276938232 0 -0.28345935436648789 0.3104603338504337 0 -0.29417948398053018 0.29161253276938232 0 -0.30259248593301918 0.30622259924901291 0 -0.31557113778172502 0.29781088856307281 0 -0.31788582653708342 0.27980728983353781 0 -0.29417948398053018 0.29161253276938232 0 -0.31557113778172502 0.29781088856307281 0 -0.29417948398053018 0.29161253276938232 0 -0.30259248593301918 0.30622259924901291 0 -0.31557113778172502 0.29781088856307281 0 -0.30259248593301918 0.30622259924901291 0 -0.31742340827655002 0.31293862188026361 0 -0.30259248593301918 0.30622259924901291 0 -0.30094689370593253 0.3214507429375732 0 -0.31742340827655002 0.31293862188026361 0 -0.30191281621361837 0.33675139603613319 0 -0.31264227723866361 0.35120432941429203 0 -0.31986653409973992 0.32874683653337639 0 -0.30094689370593253 0.3214507429375732 0 -0.30191281621361837 0.33675139603613319 0 -0.31986653409973992 0.32874683653337639 0 -0.30094689370593253 0.3214507429375732 0 -0.30191281621361837 0.33675139603613319 0 -0.28189619491915668 0.33242846113465069 0 -0.30191281621361837 0.33675139603613319 0 -0.28189619491915668 0.33242846113465069 0 -0.29421218110459968 0.34992661016077348 0 -0.28345935436648789 0.3104603338504337 0 -0.30094689370593253 0.3214507429375732 0 -0.28189619491915668 0.33242846113465069 0 -0.28345935436648789 0.3104603338504337 0 -0.30259248593301918 0.30622259924901291 0 -0.30094689370593253 0.3214507429375732 0 -0.28345935436648789 0.3104603338504337 0 -0.28189619491915668 0.33242846113465069 0 -0.2544908832576937 0.31672420584868222 0 -0.28189619491915668 0.33242846113465069 0 -0.25948399585728482 0.34137431399319879 0 -0.27592348790963372 0.35107648294115429 0 -0.25948399585728482 0.34137431399319879 0 -0.2544908832576937 0.31672420584868222 0 -0.25948399585728482 0.34137431399319879 0 -0.2544908832576937 0.31672420584868222 0 -0.2403082550886354 0.33525587944787089 0 -0.28189619491915668 0.33242846113465069 0 -0.25948399585728482 0.34137431399319879 0 -0.2544908832576937 0.31672420584868222 0 -0.26447710845687589 0.36602442213771541 0 -0.25344913916697809 0.39067791135487839 0 -0.24753088660224451 0.36542177786824348 0 -0.25948399585728482 0.34137431399319879 0 -0.26447710845687589 0.36602442213771541 0 -0.25948399585728482 0.34137431399319879 0 -0.26447710845687589 0.36602442213771541 0 -0.24753088660224451 0.36542177786824348 0 -0.25948399585728482 0.34137431399319879 0 -0.26447710845687589 0.36602442213771541 0 -0.27592348790963372 0.35107648294115429 0 -0.26447710845687589 0.36602442213771541 0 -0.28831094848046968 0.36416185716644578 0 -0.27639928179885731 0.37677566139561042 0 -0.26447710845687589 0.36602442213771541 0 -0.27592348790963372 0.35107648294115429 0 -0.28831094848046968 0.36416185716644578 0 -0.28831094848046968 0.36416185716644578 0 -0.28736245902946189 0.37521017521614503 0 -0.27639928179885731 0.37677566139561042 0 -0.28831094848046968 0.36416185716644578 0 -0.29410102025694229 0.37277749705182062 0 -0.30424876641348958 0.36704329830700011 0 -0.28831094848046968 0.36416185716644578 0 -0.29421218110459968 0.34992661016077348 0 -0.30424876641348958 0.36704329830700011 0 -0.28831094848046968 0.36416185716644578 0 -0.29410102025694229 0.37277749705182062 0 -0.28736245902946189 0.37521017521614503 0 -0.27592348790963372 0.35107648294115429 0 -0.28831094848046968 0.36416185716644578 0 -0.29421218110459968 0.34992661016077348 0 -0.28189619491915668 0.33242846113465069 0 -0.27592348790963372 0.35107648294115429 0 -0.29421218110459968 0.34992661016077348 0 -0.29421218110459968 0.34992661016077348 0 -0.30424876641348958 0.36704329830700011 0 -0.31264227723866361 0.35120432941429203 0 -0.30191281621361837 0.33675139603613319 0 -0.29421218110459968 0.34992661016077348 0 -0.31264227723866361 0.35120432941429203 0 -0.29410102025694229 0.37277749705182062 0 -0.30424876641348958 0.36704329830700011 0 -0.30159956019265621 0.37827634731242932 0 -0.30424876641348958 0.36704329830700011 0 -0.32617707414963137 0.37096797721095198 0 -0.31264227723866361 0.35120432941429203 0 -0.30424876641348958 0.36704329830700011 0 -0.32617707414963137 0.37096797721095198 0 -0.31303879990029138 0.38022391550816309 0 -0.32617707414963137 0.37096797721095198 0 -0.34808949292805857 0.35978272084784541 0 -0.34573397631723518 0.38319939157350857 0 -0.32617707414963137 0.37096797721095198 0 -0.32977184960514189 0.34385495053913551 0 -0.34808949292805857 0.35978272084784541 0 -0.32617707414963137 0.37096797721095198 0 -0.32977184960514189 0.34385495053913551 0 -0.32617707414963137 0.37096797721095198 0 -0.32977184960514189 0.34385495053913551 0 -0.31264227723866361 0.35120432941429203 0 -0.32977184960514189 0.34385495053913551 0 -0.31264227723866361 0.35120432941429203 0 -0.31986653409973992 0.32874683653337639 0 -0.32977184960514189 0.34385495053913551 0 -0.31986653409973992 0.32874683653337639 0 -0.33336662506065251 0.31674192386731909 0 -0.30094689370593253 0.3214507429375732 0 -0.31986653409973992 0.32874683653337639 0 -0.31742340827655002 0.31293862188026361 0 -0.31986653409973992 0.32874683653337639 0 -0.31742340827655002 0.31293862188026361 0 -0.33336662506065251 0.31674192386731909 0 -0.32977184960514189 0.34385495053913551 0 -0.33336662506065251 0.31674192386731909 0 -0.34302828198251722 0.32143933785332512 0 -0.34035098230407851 0.30502565106359258 0 -0.33336662506065251 0.31674192386731909 0 -0.34302828198251722 0.32143933785332512 0 -0.32977184960514189 0.34385495053913551 0 -0.34302828198251722 0.32143933785332512 0 -0.34946597784746741 0.33003988345125962 0 -0.32977184960514189 0.34385495053913551 0 -0.33336662506065251 0.31674192386731909 0 -0.32977184960514189 0.34385495053913551 0 -0.34946597784746741 0.33003988345125962 0 -0.35375878840376501 0.34180735323869788 0 -0.34946597784746741 0.33003988345125962 0 -0.35375878840376501 0.34180735323869788 0 -0.36140421983251592 0.32844954207446558 0 -0.34035098230407851 0.30502565106359258 0 -0.34302828198251722 0.32143933785332512 0 -0.35494291918659038 0.31623682922544272 0 -0.34302828198251722 0.32143933785332512 0 -0.34946597784746741 0.33003988345125962 0 -0.35494291918659038 0.31623682922544272 0 -0.34946597784746741 0.33003988345125962 0 -0.35494291918659038 0.31623682922544272 0 -0.36140421983251592 0.32844954207446558 0 -0.36558203810121809 0.30910265848154428 0 -0.35494291918659038 0.31623682922544272 0 -0.36641851258305219 0.31802776515259967 0 -0.35494291918659038 0.31623682922544272 0 -0.36641851258305219 0.31802776515259967 0 -0.36140421983251592 0.32844954207446558 0 -0.36641851258305219 0.31802776515259967 0 -0.3693419495085738 0.32577319349094402 0 -0.36140421983251592 0.32844954207446558 0 -0.37694366708074389 0.32840442101806289 0 -0.3693419495085738 0.32577319349094402 0 -0.37484462938147339 0.32008442571239648 0 -0.36641851258305219 0.31802776515259967 0 -0.3693419495085738 0.32577319349094402 0 -0.37484462938147339 0.32008442571239648 0 -0.37537164453412292 0.31136461011921451 0 -0.36558203810121809 0.30910265848154428 0 -0.36641851258305219 0.31802776515259967 0 -0.37537164453412292 0.31136461011921451 0 -0.36641851258305219 0.31802776515259967 0 -0.37484462938147339 0.32008442571239648 0 -0.35375878840376501 0.34180735323869788 0 -0.36140421983251592 0.32844954207446558 0 -0.36997981312873668 0.33633618023938833 0 -0.35375878840376501 0.34180735323869788 0 -0.36997981312873668 0.33633618023938833 0 -0.3649440582713096 0.35228473516781322 0 -0.3693419495085738 0.32577319349094402 0 -0.36140421983251592 0.32844954207446558 0 -0.36997981312873668 0.33633618023938833 0 -0.37694366708074389 0.32840442101806289 0 -0.3693419495085738 0.32577319349094402 0 -0.36997981312873668 0.33633618023938833 0 -0.37753211857243718 0.34592948831607878 0 -0.36997981312873668 0.33633618023938833 0 -0.3649440582713096 0.35228473516781322 0 -0.37657495410110609 0.35981517003075558 0 -0.37753211857243718 0.34592948831607878 0 -0.3649440582713096 0.35228473516781322 0 -0.37657495410110609 0.35981517003075558 0 -0.3649440582713096 0.35228473516781322 0 -0.36372918249375391 0.3700374983341127 0 -0.38040619740787462 0.37666572748219151 0 -0.37657495410110609 0.35981517003075558 0 -0.36372918249375391 0.3700374983341127 0 -0.3649440582713096 0.35228473516781322 0 -0.36372918249375391 0.3700374983341127 0 -0.34808949292805857 0.35978272084784541 0 -0.36372918249375391 0.3700374983341127 0 -0.34808949292805857 0.35978272084784541 0 -0.34573397631723518 0.38319939157350857 0 -0.32977184960514189 0.34385495053913551 0 -0.35375878840376501 0.34180735323869788 0 -0.34808949292805857 0.35978272084784541 0 -0.35375878840376501 0.34180735323869788 0 -0.3649440582713096 0.35228473516781322 0 -0.34808949292805857 0.35978272084784541 0 -0.34573397631723518 0.38319939157350857 0 -0.36772909712757962 0.38838113779028188 0 -0.34794816897901282 0.41064451953277159 0 -0.36372918249375391 0.3700374983341127 0 -0.34573397631723518 0.38319939157350857 0 -0.36772909712757962 0.38838113779028188 0 -0.38040619740787462 0.37666572748219151 0 -0.36372918249375391 0.3700374983341127 0 -0.36772909712757962 0.38838113779028188 0 -0.36772909712757962 0.38838113779028188 0 -0.37457348775900712 0.40543977999867609 0 -0.34794816897901282 0.41064451953277159 0 -0.37457348775900712 0.40543977999867609 0 -0.3733140392639081 0.42320803518277439 0 -0.34794816897901282 0.41064451953277159 0 -0.3733140392639081 0.42320803518277439 0 -0.34794816897901282 0.41064451953277159 0 -0.3733140392639081 0.42320803518277439 0 -0.35539728850092472 0.42668019029415499 0 -0.35999640081872158 0.44439738032818737 0 -0.35539728850092472 0.42668019029415499 0 -0.34794816897901282 0.41064451953277159 0 -0.34033054494205639 0.42847082613288662 0 -0.35539728850092472 0.42668019029415499 0 -0.34033054494205639 0.42847082613288662 0 -0.35999640081872158 0.44439738032818737 0 -0.34033054494205639 0.42847082613288662 0 -0.35999640081872158 0.44439738032818737 0 -0.3733140392639081 0.42320803518277439 0 -0.35539728850092472 0.42668019029415499 0 -0.34794816897901282 0.41064451953277159 0 -0.34794816897901282 0.41064451953277159 0 -0.32066468906539031 0.41254427193758741 0 -0.32258229869411797 0.39808100388276813 0 -0.34033054494205639 0.42847082613288662 0 -0.32066468906539031 0.41254427193758741 0 -0.34794816897901282 0.41064451953277159 0 -0.34033054494205639 0.42847082613288662 0 -0.32066468906539031 0.41254427193758741 0 -0.31753753955107039 0.43613030373229372 0 -0.32066468906539031 0.41254427193758741 0 -0.31088910120798668 0.42140057264364078 0 -0.34033054494205639 0.42847082613288662 0 -0.31753753955107039 0.43613030373229372 0 -0.32066468906539031 0.41254427193758741 0 -0.31753753955107039 0.43613030373229372 0 -0.32066468906539031 0.41254427193758741 0 -0.32066468906539031 0.41254427193758741 0 -0.31088910120798668 0.42140057264364078 0 -0.30672304957533048 0.41318377605354117 0 -0.32258229869411797 0.39808100388276813 0 -0.30625364069935029 0.3899935482600474 0 -0.32066468906539031 0.41254427193758741 0 -0.32258229869411797 0.39808100388276813 0 -0.30420328723498302 0.39921287105542502 0 -0.32066468906539031 0.41254427193758741 0 -0.32258229869411797 0.39808100388276813 0 -0.34794816897901282 0.41064451953277159 0 -0.32258229869411797 0.39808100388276813 0 -0.34573397631723518 0.38319939157350857 0 -0.34794816897901282 0.41064451953277159 0 -0.32258229869411797 0.39808100388276813 0 -0.32617707414963137 0.37096797721095198 0 -0.34573397631723518 0.38319939157350857 0 -0.32258229869411797 0.39808100388276813 0 -0.32617707414963137 0.37096797721095198 0 -0.32258229869411797 0.39808100388276813 0 -0.31303879990029138 0.38022391550816309 0 -0.32258229869411797 0.39808100388276813 0 -0.31303879990029138 0.38022391550816309 0 -0.30625364069935029 0.3899935482600474 0 -0.32617707414963137 0.37096797721095198 0 -0.32258229869411797 0.39808100388276813 0 -0.30625364069935029 0.3899935482600474 0 -0.28992498270458289 0.38190609263732578 0 -0.30625364069935029 0.3899935482600474 0 -0.30159956019265621 0.37827634731242932 0 -0.28992498270458289 0.38190609263732578 0 -0.30424876641348958 0.36704329830700011 0 -0.31303879990029138 0.38022391550816309 0 -0.30159956019265621 0.37827634731242932 0 -0.31303879990029138 0.38022391550816309 0 -0.30625364069935029 0.3899935482600474 0 -0.30159956019265621 0.37827634731242932 0 -0.30625364069935029 0.3899935482600474 0 -0.30420328723498302 0.39921287105542502 0 -0.28774188540457468 0.38588147017326407 0 -0.32258229869411797 0.39808100388276813 0 -0.30625364069935029 0.3899935482600474 0 -0.30420328723498302 0.39921287105542502 0 -0.32066468906539031 0.41254427193758741 0 -0.30420328723498302 0.39921287105542502 0 -0.30420328723498302 0.39921287105542502 0 -0.29595011805800497 0.40051391297854688 0 -0.29778998248516803 0.40700465330370422 0 -0.30420328723498302 0.39921287105542502 0 -0.29595011805800497 0.40051391297854688 0 -0.2926927793693862 0.39571646929406518 0 -0.30420328723498302 0.39921287105542502 0 -0.2926927793693862 0.39571646929406518 0 -0.28774188540457468 0.38588147017326407 0 -0.30420328723498302 0.39921287105542502 0 -0.28774188540457468 0.38588147017326407 0 -0.29595011805800497 0.40051391297854688 0 -0.28905208189591569 0.40014831429476999 0 -0.29778998248516803 0.40700465330370422 0 -0.28905208189591569 0.40014831429476999 0 -0.28898627566041329 0.40911771793725088 0 -0.29778998248516803 0.40700465330370422 0 -0.29595011805800497 0.40051391297854688 0 -0.2926927793693862 0.39571646929406518 0 -0.28905208189591569 0.40014831429476999 0 -0.2926927793693862 0.39571646929406518 0 -0.28651652425345242 0.39282577796832002 0 -0.28905208189591569 0.40014831429476999 0 -0.2926927793693862 0.39571646929406518 0 -0.28651652425345242 0.39282577796832002 0 -0.28774188540457468 0.38588147017326407 0 -0.28651652425345242 0.39282577796832002 0 -0.28905208189591569 0.40014831429476999 0 -0.28016788447111268 0.39423187010371552 0 -0.28651652425345242 0.39282577796832002 0 -0.28079089076777719 0.38696441393421438 0 -0.28016788447111268 0.39423187010371552 0 -0.28905208189591569 0.40014831429476999 0 -0.28002949085223422 0.40333972386714861 0 -0.28898627566041329 0.40911771793725088 0 -0.28905208189591569 0.40014831429476999 0 -0.28016788447111268 0.39423187010371552 0 -0.28002949085223422 0.40333972386714861 0 -0.30625364069935029 0.3899935482600474 0 -0.28992498270458289 0.38190609263732578 0 -0.28774188540457468 0.38588147017326407 0 -0.29410102025694229 0.37277749705182062 0 -0.30159956019265621 0.37827634731242932 0 -0.28992498270458289 0.38190609263732578 0 -0.29410102025694229 0.37277749705182062 0 -0.28992498270458289 0.38190609263732578 0 -0.28736245902946189 0.37521017521614503 0 -0.28992498270458289 0.38190609263732578 0 -0.28774188540457468 0.38588147017326407 0 -0.28444954762219921 0.38139717368214437 0 -0.28651652425345242 0.39282577796832002 0 -0.28774188540457468 0.38588147017326407 0 -0.28079089076777719 0.38696441393421438 0 -0.28774188540457468 0.38588147017326407 0 -0.28444954762219921 0.38139717368214437 0 -0.28079089076777719 0.38696441393421438 0 -0.28444954762219921 0.38139717368214437 0 -0.28736245902946189 0.37521017521614503 0 -0.27639928179885731 0.37677566139561042 0 -0.28992498270458289 0.38190609263732578 0 -0.28444954762219921 0.38139717368214437 0 -0.28736245902946189 0.37521017521614503 0 -0.28444954762219921 0.38139717368214437 0 -0.27639928179885731 0.37677566139561042 0 -0.28079089076777719 0.38696441393421438 0 -0.26447710845687589 0.36602442213771541 0 -0.26947022105646712 0.39067453028223198 0 -0.26447710845687589 0.36602442213771541 0 -0.27639928179885731 0.37677566139561042 0 -0.26947022105646712 0.39067453028223198 0 -0.27639928179885731 0.37677566139561042 0 -0.28079089076777719 0.38696441393421438 0 -0.26947022105646712 0.39067453028223198 0 -0.28079089076777719 0.38696441393421438 0 -0.28016788447111268 0.39423187010371552 0 -0.26947022105646712 0.39067453028223198 0 -0.26947022105646712 0.39067453028223198 0 -0.27446333365605818 0.41532463842674849 0 -0.28016788447111268 0.39423187010371552 0 -0.28002949085223422 0.40333972386714861 0 -0.26947022105646712 0.39067453028223198 0 -0.26947022105646712 0.39067453028223198 0 -0.26299115892849517 0.40563985108914408 0 -0.27446333365605818 0.41532463842674849 0 -0.28002949085223422 0.40333972386714861 0 -0.26947022105646712 0.39067453028223198 0 -0.27446333365605818 0.41532463842674849 0 -0.26947022105646712 0.39067453028223198 0 -0.25344913916697809 0.39067791135487839 0 -0.26299115892849517 0.40563985108914408 0 -0.25344913916697809 0.39067791135487839 0 -0.26299115892849517 0.40563985108914408 0 -0.25289798687035481 0.40694416098510572 0 -0.26447710845687589 0.36602442213771541 0 -0.26947022105646712 0.39067453028223198 0 -0.25344913916697809 0.39067791135487839 0 -0.25144483648059929 0.42999402445366458 0 -0.26035186593413212 0.41895376924341399 0 -0.24444952882583909 0.41755344263353689 0 -0.25144483648059929 0.42999402445366458 0 -0.26035186593413212 0.41895376924341399 0 -0.26760363313802898 0.43232386456739808 0 -0.25144483648059929 0.42999402445366458 0 -0.26760363313802898 0.43232386456739808 0 -0.24674851909745901 0.44550839537788872 0 -0.25289798687035481 0.40694416098510572 0 -0.26035186593413212 0.41895376924341399 0 -0.24444952882583909 0.41755344263353689 0 -0.26299115892849517 0.40563985108914408 0 -0.25289798687035481 0.40694416098510572 0 -0.26035186593413212 0.41895376924341399 0 -0.26299115892849517 0.40563985108914408 0 -0.26035186593413212 0.41895376924341399 0 -0.27446333365605818 0.41532463842674849 0 -0.28002949085223422 0.40333972386714861 0 -0.27972471372924379 0.41135757396999051 0 -0.27446333365605818 0.41532463842674849 0 -0.27972471372924379 0.41135757396999051 0 -0.27446333365605818 0.41532463842674849 0 -0.28228533488800861 0.42444238862959238 0 -0.27446333365605818 0.41532463842674849 0 -0.26760363313802898 0.43232386456739808 0 -0.28228533488800861 0.42444238862959238 0 -0.26035186593413212 0.41895376924341399 0 -0.27446333365605818 0.41532463842674849 0 -0.26760363313802898 0.43232386456739808 0 -0.26760363313802898 0.43232386456739808 0 -0.28228533488800861 0.42444238862959238 0 -0.28517303083194367 0.43936651290961859 0 -0.29863112664015762 0.42374393885114148 0 -0.30122217575125698 0.44246112759638268 0 -0.28517303083194367 0.43936651290961859 0 -0.28228533488800861 0.42444238862959238 0 -0.29863112664015762 0.42374393885114148 0 -0.28517303083194367 0.43936651290961859 0 -0.28898627566041329 0.40911771793725088 0 -0.29778998248516803 0.40700465330370422 0 -0.29863112664015762 0.42374393885114148 0 -0.27972471372924379 0.41135757396999051 0 -0.29863112664015762 0.42374393885114148 0 -0.27972471372924379 0.41135757396999051 0 -0.28228533488800861 0.42444238862959238 0 -0.29863112664015762 0.42374393885114148 0 -0.27972471372924379 0.41135757396999051 0 -0.28898627566041329 0.40911771793725088 0 -0.29863112664015762 0.42374393885114148 0 -0.28002949085223422 0.40333972386714861 0 -0.27972471372924379 0.41135757396999051 0 -0.28898627566041329 0.40911771793725088 0 -0.29778998248516803 0.40700465330370422 0 -0.30672304957533048 0.41318377605354117 0 -0.29863112664015762 0.42374393885114148 0 -0.32066468906539031 0.41254427193758741 0 -0.30420328723498302 0.39921287105542502 0 -0.30672304957533048 0.41318377605354117 0 -0.30420328723498302 0.39921287105542502 0 -0.29778998248516803 0.40700465330370422 0 -0.30672304957533048 0.41318377605354117 0 -0.31088910120798668 0.42140057264364078 0 -0.30672304957533048 0.41318377605354117 0 -0.29863112664015762 0.42374393885114148 0 -0.31753753955107039 0.43613030373229372 0 -0.29863112664015762 0.42374393885114148 0 -0.30122217575125698 0.44246112759638268 0 -0.31753753955107039 0.43613030373229372 0 -0.29863112664015762 0.42374393885114148 0 -0.31753753955107039 0.43613030373229372 0 -0.31088910120798668 0.42140057264364078 0 -0.29863112664015762 0.42374393885114148 0 -0.31753753955107039 0.43613030373229372 0 -0.30122217575125698 0.44246112759638268 0 -0.31532997064479001 0.45278054388681699 0 -0.30122217575125698 0.44246112759638268 0 -0.29541425600095611 0.46001494978389679 0 -0.31532997064479001 0.45278054388681699 0 -0.29541425600095611 0.46001494978389679 0 -0.32175034680071318 0.46920062093150389 0 -0.31532997064479001 0.45278054388681699 0 -0.29541425600095611 0.46001494978389679 0 -0.32175034680071318 0.46920062093150389 0 -0.29541425600095611 0.46001494978389679 0 -0.26907816520119893 0.45082927863628958 0 -0.30122217575125698 0.44246112759638268 0 -0.29541425600095611 0.46001494978389679 0 -0.28517303083194367 0.43936651290961859 0 -0.29541425600095611 0.46001494978389679 0 -0.28517303083194367 0.43936651290961859 0 -0.26907816520119893 0.45082927863628958 0 -0.26760363313802898 0.43232386456739808 0 -0.28517303083194367 0.43936651290961859 0 -0.26907816520119893 0.45082927863628958 0 -0.29541425600095611 0.46001494978389679 0 -0.26907816520119893 0.45082927863628958 0 -0.27483631231336969 0.47632362397853822 0 -0.26907816520119893 0.45082927863628958 0 -0.27483631231336969 0.47632362397853822 0 -0.24676985362994619 0.46127623686603408 0 -0.26760363313802898 0.43232386456739808 0 -0.26907816520119893 0.45082927863628958 0 -0.24674851909745901 0.44550839537788872 0 -0.26907816520119893 0.45082927863628958 0 -0.24674851909745901 0.44550839537788872 0 -0.24676985362994619 0.46127623686603408 0 -0.26617160546804203 0.5 0 -0.24863239635691059 0.48197838601783383 0 -0.2377109284600753 0.49999999999999978 0 -0.27483631231336969 0.47632362397853822 0 -0.26617160546804203 0.5 0 -0.24863239635691059 0.48197838601783383 0 -0.27483631231336969 0.47632362397853822 0 -0.24863239635691059 0.48197838601783383 0 -0.24676985362994619 0.46127623686603408 0 -0.27483631231336969 0.47632362397853822 0 -0.26617160546804203 0.5 0 -0.29463228247600859 0.5 0 -0.27483631231336969 0.47632362397853822 0 -0.29463228247600859 0.5 0 -0.30683500156254029 0.48162553040069023 0 -0.29541425600095611 0.46001494978389679 0 -0.27483631231336969 0.47632362397853822 0 -0.30683500156254029 0.48162553040069023 0 -0.29541425600095611 0.46001494978389679 0 -0.30683500156254029 0.48162553040069023 0 -0.32175034680071318 0.46920062093150389 0 -0.29463228247600859 0.5 0 -0.30683500156254029 0.48162553040069023 0 -0.32309295948397521 0.5 0 -0.30683500156254029 0.48162553040069023 0 -0.32309295948397521 0.5 0 -0.33128385230021951 0.4842139877102023 0 -0.33128385230021951 0.4842139877102023 0 -0.35155363649194182 0.49999999999999928 0 -0.34808643760047009 0.47838629207911099 0 -0.32309295948397521 0.5 0 -0.33128385230021951 0.4842139877102023 0 -0.35155363649194182 0.49999999999999928 0 -0.33128385230021951 0.4842139877102023 0 -0.32175034680071318 0.46920062093150389 0 -0.34808643760047009 0.47838629207911099 0 -0.32175034680071318 0.46920062093150389 0 -0.34808643760047009 0.47838629207911099 0 -0.30683500156254029 0.48162553040069023 0 -0.33128385230021951 0.4842139877102023 0 -0.32175034680071318 0.46920062093150389 0 -0.32175034680071318 0.46920062093150389 0 -0.31532997064479001 0.45278054388681699 0 -0.34079162623078241 0.45136500763673049 0 -0.31753753955107039 0.43613030373229372 0 -0.31532997064479001 0.45278054388681699 0 -0.34079162623078241 0.45136500763673049 0 -0.31753753955107039 0.43613030373229372 0 -0.31532997064479001 0.45278054388681699 0 -0.34033054494205639 0.42847082613288662 0 -0.31753753955107039 0.43613030373229372 0 -0.34079162623078241 0.45136500763673049 0 -0.31753753955107039 0.43613030373229372 0 -0.34079162623078241 0.45136500763673049 0 -0.32175034680071318 0.46920062093150389 0 -0.34079162623078241 0.45136500763673049 0 -0.34808643760047009 0.47838629207911099 0 -0.34079162623078241 0.45136500763673049 0 -0.35999640081872158 0.44439738032818737 0 -0.36404571291049348 0.46659971154116853 0 -0.34079162623078241 0.45136500763673049 0 -0.36404571291049348 0.46659971154116853 0 -0.34079162623078241 0.45136500763673049 0 -0.36404571291049348 0.46659971154116853 0 -0.34808643760047009 0.47838629207911099 0 -0.34033054494205639 0.42847082613288662 0 -0.34079162623078241 0.45136500763673049 0 -0.35999640081872158 0.44439738032818737 0 -0.382210906452504 0.45369090763042769 0 -0.3733140392639081 0.42320803518277439 0 -0.35999640081872158 0.44439738032818737 0 -0.382210906452504 0.45369090763042769 0 -0.35999640081872158 0.44439738032818737 0 -0.36404571291049348 0.46659971154116853 0 -0.39274778736466898 0.49999999999999972 0 -0.36942671804107302 0.49091720772280167 0 -0.35155363649194182 0.49999999999999928 0 -0.38729979959020522 0.48183441544560601 0 -0.36404571291049348 0.46659971154116853 0 -0.36942671804107302 0.49091720772280167 0 -0.36404571291049348 0.46659971154116853 0 -0.36942671804107302 0.49091720772280167 0 -0.34808643760047009 0.47838629207911099 0 -0.36942671804107302 0.49091720772280167 0 -0.35155363649194182 0.49999999999999928 0 -0.36942671804107302 0.49091720772280167 0 -0.35155363649194182 0.49999999999999928 0 -0.34808643760047009 0.47838629207911099 0 -0.1416802278881501 0.47288298442244397 0 -0.15600584741978249 0.49024855110513987 0 -0.14012038068410079 0.4873319372023856 0 -0.1416802278881501 0.47288298442244397 0 -0.15600584741978249 0.49024855110513987 0 -0.16909389065348349 0.48049710221027508 0 -0.1416802278881501 0.47288298442244397 0 -0.16909389065348349 0.48049710221027508 0 -0.15600584741978249 0.49024855110513987 0 -0.1429178041860793 0.50000000000000155 0 -0.1666160852545783 0.5 0 -0.15600584741978249 0.49024855110513987 0 -0.1429178041860793 0.50000000000000155 0 -0.14012038068410079 0.4873319372023856 0 -0.15600584741978249 0.49024855110513987 0 -0.1429178041860793 0.50000000000000155 0 -0.1429178041860793 0.50000000000000155 0 -0.12984968911680589 0.49288156918778281 0 -0.12511456243329849 0.50000000000000067 0 -0.14012038068410079 0.4873319372023856 0 -0.12984968911680589 0.49288156918778281 0 -0.1301483348096856 0.48064658129655841 0 -0.1429178041860793 0.50000000000000155 0 -0.14012038068410079 0.4873319372023856 0 -0.12984968911680589 0.49288156918778281 0 -0.12984968911680589 0.49288156918778281 0 -0.12511456243329849 0.50000000000000067 0 -0.1219165248727736 0.48976110835547237 0 -0.12984968911680589 0.49288156918778281 0 -0.1301483348096856 0.48064658129655841 0 -0.1219165248727736 0.48976110835547237 0 -0.12984968911680589 0.49288156918778281 0 -0.1219165248727736 0.48976110835547237 0 -0.1416802278881501 0.47288298442244397 0 -0.11426656512281699 0.46526886663461281 0 -0.1416802278881501 0.47288298442244397 0 -0.1301483348096856 0.48064658129655841 0 -0.11426656512281699 0.46526886663461281 0 -0.1416802278881501 0.47288298442244397 0 -0.14012038068410079 0.4873319372023856 0 -0.1301483348096856 0.48064658129655841 0 -0.1416802278881501 0.47288298442244397 0 -0.13223053434710891 0.45763418418521312 0 -0.11426656512281699 0.46526886663461281 0 -0.13223053434710891 0.45763418418521312 0 -0.13439483606552141 0.44420909927252639 0 -0.15222560227745391 0.45172461512120449 0 -0.13439483606552141 0.44420909927252639 0 -0.12264901134588251 0.43451991405170193 0 -0.12158038773696279 0.44854983512302959 0 -0.13223053434710891 0.45763418418521312 0 -0.13439483606552141 0.44420909927252639 0 -0.12158038773696279 0.44854983512302959 0 -0.13439483606552141 0.44420909927252639 0 -0.15222560227745391 0.45172461512120449 0 -0.16025659309878121 0.43079900547565642 0 -0.1416802278881501 0.47288298442244397 0 -0.13223053434710891 0.45763418418521312 0 -0.15222560227745391 0.45172461512120449 0 -0.1416802278881501 0.47288298442244397 0 -0.15222560227745391 0.45172461512120449 0 -0.1641127910676724 0.46475771585162229 0 -0.15222560227745391 0.45172461512120449 0 -0.1641127910676724 0.46475771585162229 0 -0.17442277034652959 0.44982529125803461 0 -0.15222560227745391 0.45172461512120449 0 -0.17442277034652959 0.44982529125803461 0 -0.16025659309878121 0.43079900547565642 0 -0.17442277034652959 0.44982529125803461 0 -0.16025659309878121 0.43079900547565642 0 -0.17442277034652959 0.44982529125803461 0 -0.19206508896154451 0.44902774383434041 0 -0.1825055412867374 0.4284154316887252 0 -0.17442277034652959 0.44982529125803461 0 -0.18858894759427811 0.4688515770404128 0 -0.19206508896154451 0.44902774383434041 0 -0.17442277034652959 0.44982529125803461 0 -0.18179539915040999 0.47103364699517769 0 -0.18858894759427811 0.4688515770404128 0 -0.17442277034652959 0.44982529125803461 0 -0.18858894759427811 0.4688515770404128 0 -0.1641127910676724 0.46475771585162229 0 -0.17442277034652959 0.44982529125803461 0 -0.18179539915040999 0.47103364699517769 0 -0.18691056743852469 0.47738607076205652 0 -0.16909389065348349 0.48049710221027508 0 -0.1924797418796993 0.48699249931679339 0 -0.18179539915040999 0.47103364699517769 0 -0.18691056743852469 0.47738607076205652 0 -0.18858894759427811 0.4688515770404128 0 -0.16909389065348349 0.48049710221027508 0 -0.1924797418796993 0.48699249931679339 0 -0.18179539915040999 0.47103364699517769 0 -0.18691056743852469 0.47738607076205652 0 -0.16909389065348349 0.48049710221027508 0 -0.18179539915040999 0.47103364699517769 0 -0.16909389065348349 0.48049710221027508 0 -0.1416802278881501 0.47288298442244397 0 -0.1641127910676724 0.46475771585162229 0 -0.16909389065348349 0.48049710221027508 0 -0.1641127910676724 0.46475771585162229 0 -0.18179539915040999 0.47103364699517769 0 -0.16909389065348349 0.48049710221027508 0 -0.15600584741978249 0.49024855110513987 0 -0.16909389065348349 0.48049710221027508 0 -0.1666160852545783 0.5 0 -0.16909389065348349 0.48049710221027508 0 -0.1666160852545783 0.5 0 -0.17866696512928881 0.49137705519013081 0 -0.15600584741978249 0.49024855110513987 0 -0.16909389065348349 0.48049710221027508 0 -0.16909389065348349 0.48049710221027508 0 -0.17866696512928881 0.49137705519013081 0 -0.1924797418796993 0.48699249931679339 0 -0.1666160852545783 0.5 0 -0.17866696512928881 0.49137705519013081 0 -0.1903143663230773 0.5 0 -0.17866696512928881 0.49137705519013081 0 -0.1903143663230773 0.5 0 -0.1924797418796993 0.48699249931679339 0 -0.1903143663230773 0.5 0 -0.1924797418796993 0.48699249931679339 0 -0.2140126473915763 0.5 0 -0.18691056743852469 0.47738607076205652 0 -0.18858894759427811 0.4688515770404128 0 -0.1960777830547554 0.47477240152049233 0 -0.18691056743852469 0.47738607076205652 0 -0.1924797418796993 0.48699249931679339 0 -0.1960777830547554 0.47477240152049233 0 -0.1924797418796993 0.48699249931679339 0 -0.1960777830547554 0.47477240152049233 0 -0.20686394618428131 0.47752763605854198 0 -0.1924797418796993 0.48699249931679339 0 -0.20686394618428131 0.47752763605854198 0 -0.20790108162467971 0.48499202157522298 0 -0.1960777830547554 0.47477240152049233 0 -0.20686394618428131 0.47752763605854198 0 -0.20233902720819749 0.46403675266470662 0 -0.18858894759427811 0.4688515770404128 0 -0.1960777830547554 0.47477240152049233 0 -0.20233902720819749 0.46403675266470662 0 -0.20686394618428131 0.47752763605854198 0 -0.2181202426960184 0.46481792031135949 0 -0.20233902720819749 0.46403675266470662 0 -0.20686394618428131 0.47752763605854198 0 -0.21639504532882381 0.48196005450224372 0 -0.2181202426960184 0.46481792031135949 0 -0.20686394618428131 0.47752763605854198 0 -0.21639504532882381 0.48196005450224372 0 -0.20790108162467971 0.48499202157522298 0 -0.1924797418796993 0.48699249931679339 0 -0.2158655931059146 0.49348789642331331 0 -0.1924797418796993 0.48699249931679339 0 -0.2140126473915763 0.5 0 -0.2158655931059146 0.49348789642331331 0 -0.1924797418796993 0.48699249931679339 0 -0.20790108162467971 0.48499202157522298 0 -0.2158655931059146 0.49348789642331331 0 -0.21639504532882381 0.48196005450224372 0 -0.20790108162467971 0.48499202157522298 0 -0.2158655931059146 0.49348789642331331 0 -0.22791558557804689 0.48240896015567969 0 -0.2377109284600753 0.49999999999999978 0 -0.2140126473915763 0.5 0 -0.2158655931059146 0.49348789642331331 0 -0.2377109284600753 0.49999999999999978 0 -0.2158655931059146 0.49348789642331331 0 -0.22791558557804689 0.48240896015567969 0 -0.2377109284600753 0.49999999999999978 0 -0.21639504532882381 0.48196005450224372 0 -0.2158655931059146 0.49348789642331331 0 -0.22791558557804689 0.48240896015567969 0 -0.22791558557804689 0.48240896015567969 0 -0.2181202426960184 0.46481792031135949 0 -0.21639504532882381 0.48196005450224372 0 -0.22791558557804689 0.48240896015567969 0 -0.2181202426960184 0.46481792031135949 0 -0.22791558557804689 0.48240896015567969 0 -0.23327691833849479 0.46780985372464468 0 -0.2181202426960184 0.46481792031135949 0 -0.24863239635691059 0.48197838601783383 0 -0.24676985362994619 0.46127623686603408 0 -0.23327691833849479 0.46780985372464468 0 -0.22791558557804689 0.48240896015567969 0 -0.24863239635691059 0.48197838601783383 0 -0.23327691833849479 0.46780985372464468 0 -0.22791558557804689 0.48240896015567969 0 -0.24863239635691059 0.48197838601783383 0 -0.2377109284600753 0.49999999999999978 0 -0.25144483648059929 0.42999402445366458 0 -0.24674851909745901 0.44550839537788872 0 -0.2309113136582566 0.44480957808374511 0 -0.24674851909745901 0.44550839537788872 0 -0.24676985362994619 0.46127623686603408 0 -0.2309113136582566 0.44480957808374511 0 -0.24676985362994619 0.46127623686603408 0 -0.23327691833849479 0.46780985372464468 0 -0.2309113136582566 0.44480957808374511 0 -0.23327691833849479 0.46780985372464468 0 -0.2309113136582566 0.44480957808374511 0 -0.2181202426960184 0.46481792031135949 0 -0.2309113136582566 0.44480957808374511 0 -0.20832489981398999 0.4472268804670394 0 -0.2181202426960184 0.46481792031135949 0 -0.2309113136582566 0.44480957808374511 0 -0.20832489981398999 0.4472268804670394 0 -0.21407582638264239 0.4253498858171269 0 -0.20832489981398999 0.4472268804670394 0 -0.2181202426960184 0.46481792031135949 0 -0.20832489981398999 0.4472268804670394 0 -0.2181202426960184 0.46481792031135949 0 -0.20233902720819749 0.46403675266470662 0 -0.18858894759427811 0.4688515770404128 0 -0.20233902720819749 0.46403675266470662 0 -0.19206508896154451 0.44902774383434041 0 -0.20832489981398999 0.4472268804670394 0 -0.20233902720819749 0.46403675266470662 0 -0.19206508896154451 0.44902774383434041 0 -0.20832489981398999 0.4472268804670394 0 -0.19206508896154451 0.44902774383434041 0 -0.19880852709001029 0.4329298666123596 0 -0.19880852709001029 0.4329298666123596 0 -0.19707127900513721 0.41462939125456633 0 -0.1825055412867374 0.4284154316887252 0 -0.19206508896154451 0.44902774383434041 0 -0.19880852709001029 0.4329298666123596 0 -0.1825055412867374 0.4284154316887252 0 -0.19707127900513721 0.41462939125456633 0 -0.19748399826759239 0.39882673691255921 0 -0.18411375286537041 0.40838349915507061 0 -0.19707127900513721 0.41462939125456633 0 -0.21307915542951289 0.40608581442150482 0 -0.19748399826759239 0.39882673691255921 0 -0.19707127900513721 0.41462939125456633 0 -0.18411375286537041 0.40838349915507061 0 -0.1825055412867374 0.4284154316887252 0 -0.19707127900513721 0.41462939125456633 0 -0.21407582638264239 0.4253498858171269 0 -0.21307915542951289 0.40608581442150482 0 -0.21407582638264239 0.4253498858171269 0 -0.2279831321425636 0.41146096299013979 0 -0.21307915542951289 0.40608581442150482 0 -0.20832489981398999 0.4472268804670394 0 -0.19880852709001029 0.4329298666123596 0 -0.21407582638264239 0.4253498858171269 0 -0.19880852709001029 0.4329298666123596 0 -0.19707127900513721 0.41462939125456633 0 -0.21407582638264239 0.4253498858171269 0 -0.2309113136582566 0.44480957808374511 0 -0.21407582638264239 0.4253498858171269 0 -0.23251097874359469 0.42596343105564621 0 -0.21407582638264239 0.4253498858171269 0 -0.23251097874359469 0.42596343105564621 0 -0.2279831321425636 0.41146096299013979 0 -0.23251097874359469 0.42596343105564621 0 -0.2279831321425636 0.41146096299013979 0 -0.24444952882583909 0.41755344263353689 0 -0.25289798687035481 0.40694416098510572 0 -0.24444952882583909 0.41755344263353689 0 -0.2401866487892261 0.39977265867623979 0 -0.2279831321425636 0.41146096299013979 0 -0.24444952882583909 0.41755344263353689 0 -0.2401866487892261 0.39977265867623979 0 -0.25144483648059929 0.42999402445366458 0 -0.2309113136582566 0.44480957808374511 0 -0.23251097874359469 0.42596343105564621 0 -0.25144483648059929 0.42999402445366458 0 -0.23251097874359469 0.42596343105564621 0 -0.24444952882583909 0.41755344263353689 0 -0.25344913916697809 0.39067791135487839 0 -0.2348294400394107 0.3795051470796395 0 -0.2401866487892261 0.39977265867623979 0 -0.25344913916697809 0.39067791135487839 0 -0.2348294400394107 0.3795051470796395 0 -0.24753088660224451 0.36542177786824348 0 -0.25344913916697809 0.39067791135487839 0 -0.25289798687035481 0.40694416098510572 0 -0.2401866487892261 0.39977265867623979 0 -0.2279831321425636 0.41146096299013979 0 -0.2401866487892261 0.39977265867623979 0 -0.2262092843421874 0.39458847731008762 0 -0.2279831321425636 0.41146096299013979 0 -0.2262092843421874 0.39458847731008762 0 -0.21307915542951289 0.40608581442150482 0 -0.2348294400394107 0.3795051470796395 0 -0.2401866487892261 0.39977265867623979 0 -0.2262092843421874 0.39458847731008762 0 -0.2348294400394107 0.3795051470796395 0 -0.2262092843421874 0.39458847731008762 0 -0.21196275358762251 0.38450753452797443 0 -0.2348294400394107 0.3795051470796395 0 -0.21196275358762251 0.38450753452797443 0 -0.21439109484789509 0.36439151158372901 0 -0.21196275358762251 0.38450753452797443 0 -0.19352085597546881 0.38313946929153181 0 -0.21439109484789509 0.36439151158372901 0 -0.2262092843421874 0.39458847731008762 0 -0.21196275358762251 0.38450753452797443 0 -0.21307915542951289 0.40608581442150482 0 -0.21196275358762251 0.38450753452797443 0 -0.21307915542951289 0.40608581442150482 0 -0.19748399826759239 0.39882673691255921 0 -0.19748399826759239 0.39882673691255921 0 -0.19352085597546881 0.38313946929153181 0 -0.18515619274244249 0.39621471282470772 0 -0.19748399826759239 0.39882673691255921 0 -0.18515619274244249 0.39621471282470772 0 -0.18411375286537041 0.40838349915507061 0 -0.21196275358762251 0.38450753452797443 0 -0.19748399826759239 0.39882673691255921 0 -0.19352085597546881 0.38313946929153181 0 -0.17951864621933111 0.3891865346353886 0 -0.1647640375288959 0.39247551545703968 0 -0.1809036308170747 0.3728993685036302 0 -0.1647640375288959 0.39247551545703968 0 -0.1809036308170747 0.3728993685036302 0 -0.19352085597546881 0.38313946929153181 0 -0.17951864621933111 0.3891865346353886 0 -0.1809036308170747 0.3728993685036302 0 -0.19352085597546881 0.38313946929153181 0 -0.17951864621933111 0.3891865346353886 0 -0.18515619274244249 0.39621471282470772 0 -0.1637266763804498 0.38151897906596788 0 -0.1647640375288959 0.39247551545703968 0 -0.1809036308170747 0.3728993685036302 0 -0.1637266763804498 0.38151897906596788 0 -0.16222475505686551 0.37083692788022798 0 -0.1809036308170747 0.3728993685036302 0 -0.1572168104387871 0.39041868371341643 0 -0.1637266763804498 0.38151897906596788 0 -0.1647640375288959 0.39247551545703968 0 -0.1572168104387871 0.39041868371341643 0 -0.1637266763804498 0.38151897906596788 0 -0.15546574401426569 0.37876462043108272 0 -0.1637266763804498 0.38151897906596788 0 -0.15546574401426569 0.37876462043108272 0 -0.16222475505686551 0.37083692788022798 0 -0.1572168104387871 0.39041868371341643 0 -0.1583451685416378 0.40467353784452442 0 -0.1647640375288959 0.39247551545703968 0 -0.1583451685416378 0.40467353784452442 0 -0.1647640375288959 0.39247551545703968 0 -0.1732485140327735 0.40120360710003372 0 -0.17951864621933111 0.3891865346353886 0 -0.1732485140327735 0.40120360710003372 0 -0.18515619274244249 0.39621471282470772 0 -0.17951864621933111 0.3891865346353886 0 -0.1647640375288959 0.39247551545703968 0 -0.1732485140327735 0.40120360710003372 0 -0.1732485140327735 0.40120360710003372 0 -0.18515619274244249 0.39621471282470772 0 -0.18411375286537041 0.40838349915507061 0 -0.18411375286537041 0.40838349915507061 0 -0.1825055412867374 0.4284154316887252 0 -0.1717983842424253 0.41505324579144598 0 -0.1732485140327735 0.40120360710003372 0 -0.18411375286537041 0.40838349915507061 0 -0.1717983842424253 0.41505324579144598 0 -0.17442277034652959 0.44982529125803461 0 -0.1825055412867374 0.4284154316887252 0 -0.16025659309878121 0.43079900547565642 0 -0.1825055412867374 0.4284154316887252 0 -0.16025659309878121 0.43079900547565642 0 -0.1717983842424253 0.41505324579144598 0 -0.1583451685416378 0.40467353784452442 0 -0.16025659309878121 0.43079900547565642 0 -0.1717983842424253 0.41505324579144598 0 -0.1583451685416378 0.40467353784452442 0 -0.1732485140327735 0.40120360710003372 0 -0.1717983842424253 0.41505324579144598 0 -0.1583451685416378 0.40467353784452442 0 -0.16025659309878121 0.43079900547565642 0 -0.14609041585103269 0.41177271969327828 0 -0.16025659309878121 0.43079900547565642 0 -0.14609041585103269 0.41177271969327828 0 -0.13439483606552141 0.44420909927252639 0 -0.16025659309878121 0.43079900547565642 0 -0.1352310074728906 0.42507762937121429 0 -0.16025659309878121 0.43079900547565642 0 -0.14609041585103269 0.41177271969327828 0 -0.1352310074728906 0.42507762937121429 0 -0.13439483606552141 0.44420909927252639 0 -0.1352310074728906 0.42507762937121429 0 -0.12264901134588251 0.43451991405170193 0 -0.1352310074728906 0.42507762937121429 0 -0.13093521127896679 0.40930291151521853 0 -0.1165588384469705 0.41702645062733829 0 -0.14609041585103269 0.41177271969327828 0 -0.1352310074728906 0.42507762937121429 0 -0.13093521127896679 0.40930291151521853 0 -0.13093521127896679 0.40930291151521853 0 -0.1319242386032832 0.39274643391090103 0 -0.1216479551311388 0.40302083046318071 0 -0.14609041585103269 0.41177271969327828 0 -0.1319242386032832 0.39274643391090103 0 -0.14609041585103269 0.41177271969327828 0 -0.13093521127896679 0.40930291151521853 0 -0.1319242386032832 0.39274643391090103 0 -0.127557833849961 0.38688201027526709 0 -0.13066659541470541 0.37944427975067158 0 -0.13759217654331929 0.38429682884961702 0 -0.1319242386032832 0.39274643391090103 0 -0.127557833849961 0.38688201027526709 0 -0.13759217654331929 0.38429682884961702 0 -0.1319242386032832 0.39274643391090103 0 -0.127557833849961 0.38688201027526709 0 -0.1175755153982089 0.38671844594605509 0 -0.127557833849961 0.38688201027526709 0 -0.13066659541470541 0.37944427975067158 0 -0.12299925517477479 0.38264199997416498 0 -0.1319242386032832 0.39274643391090103 0 -0.127557833849961 0.38688201027526709 0 -0.13066659541470541 0.37944427975067158 0 -0.1294927114376877 0.36792654221528148 0 -0.12299925517477479 0.38264199997416498 0 -0.13066659541470541 0.37944427975067158 0 -0.13569100006778409 0.37547401743902759 0 -0.13759217654331929 0.38429682884961702 0 -0.13569100006778409 0.37547401743902759 0 -0.13759217654331929 0.38429682884961702 0 -0.1445291000558882 0.3791054684442739 0 -0.1572168104387871 0.39041868371341643 0 -0.13759217654331929 0.38429682884961702 0 -0.1445291000558882 0.3791054684442739 0 -0.1572168104387871 0.39041868371341643 0 -0.1319242386032832 0.39274643391090103 0 -0.13759217654331929 0.38429682884961702 0 -0.1445291000558882 0.3791054684442739 0 -0.15546574401426569 0.37876462043108272 0 -0.15144323567191709 0.37104637349917191 0 -0.1572168104387871 0.39041868371341643 0 -0.1445291000558882 0.3791054684442739 0 -0.15546574401426569 0.37876462043108272 0 -0.1572168104387871 0.39041868371341643 0 -0.1583451685416378 0.40467353784452442 0 -0.14839415835868519 0.39990284379052998 0 -0.14609041585103269 0.41177271969327828 0 -0.1319242386032832 0.39274643391090103 0 -0.14839415835868519 0.39990284379052998 0 -0.1572168104387871 0.39041868371341643 0 -0.1319242386032832 0.39274643391090103 0 -0.14839415835868519 0.39990284379052998 0 -0.1572168104387871 0.39041868371341643 0 -0.1319242386032832 0.39274643391090103 0 -0.1583451685416378 0.40467353784452442 0 -0.14609041585103269 0.41177271969327828 0 -0.14839415835868519 0.39990284379052998 0 -0.15390795032598739 0.35845516846076492 0 -0.14006450581507829 0.35655869908846383 0 -0.1424327352758242 0.34150385198559458 0 -0.15390795032598739 0.35845516846076492 0 -0.1424327352758242 0.34150385198559458 0 -0.16258689032034729 0.34405312833023832 0 -0.15390795032598739 0.35845516846076492 0 -0.15144323567191709 0.37104637349917191 0 -0.14052231220317701 0.36826018375848413 0 -0.15390795032598739 0.35845516846076492 0 -0.15144323567191709 0.37104637349917191 0 -0.16222475505686551 0.37083692788022798 0 -0.1445291000558882 0.3791054684442739 0 -0.15144323567191709 0.37104637349917191 0 -0.14052231220317701 0.36826018375848413 0 -0.15390795032598739 0.35845516846076492 0 -0.14052231220317701 0.36826018375848413 0 -0.14006450581507829 0.35655869908846383 0 -0.14052231220317701 0.36826018375848413 0 -0.1294927114376877 0.36792654221528148 0 -0.14006450581507829 0.35655869908846383 0 -0.13569100006778409 0.37547401743902759 0 -0.14052231220317701 0.36826018375848413 0 -0.1294927114376877 0.36792654221528148 0 -0.13569100006778409 0.37547401743902759 0 -0.1445291000558882 0.3791054684442739 0 -0.14052231220317701 0.36826018375848413 0 -0.13066659541470541 0.37944427975067158 0 -0.13569100006778409 0.37547401743902759 0 -0.1294927114376877 0.36792654221528148 0 -0.14006450581507829 0.35655869908846383 0 -0.1424327352758242 0.34150385198559458 0 -0.12353522793947 0.34917744274458162 0 -0.14006450581507829 0.35655869908846383 0 -0.12353522793947 0.34917744274458162 0 -0.1294927114376877 0.36792654221528148 0 -0.14006450581507829 0.35655869908846383 0 -0.12353522793947 0.34917744274458162 0 -0.13643809785080599 0.32078882377821399 0 -0.1424327352758242 0.34150385198559458 0 -0.1241086637900518 0.33146449503669712 0 -0.1424327352758242 0.34150385198559458 0 -0.1241086637900518 0.33146449503669712 0 -0.12353522793947 0.34917744274458162 0 -0.13643809785080599 0.32078882377821399 0 -0.12671107379015031 0.31163608923085712 0 -0.1210323474749385 0.31940787830236839 0 -0.13643809785080599 0.32078882377821399 0 -0.1210323474749385 0.31940787830236839 0 -0.1241086637900518 0.33146449503669712 0 -0.13643809785080599 0.32078882377821399 0 -0.15507793533903391 0.32972906739011709 0 -0.1545099066061906 0.31221243948807148 0 -0.13643809785080599 0.32078882377821399 0 -0.15507793533903391 0.32972906739011709 0 -0.1424327352758242 0.34150385198559458 0 -0.15507793533903391 0.32972906739011709 0 -0.1424327352758242 0.34150385198559458 0 -0.16258689032034729 0.34405312833023832 0 -0.15507793533903391 0.32972906739011709 0 -0.1729382134997082 0.32580870778066301 0 -0.16258689032034729 0.34405312833023832 0 -0.1729382134997082 0.32580870778066301 0 -0.1726078703228143 0.30120428301840591 0 -0.1545099066061906 0.31221243948807148 0 -0.15507793533903391 0.32972906739011709 0 -0.1729382134997082 0.32580870778066301 0 -0.1545099066061906 0.31221243948807148 0 -0.1729382134997082 0.32580870778066301 0 -0.1916695871185348 0.31314201236146799 0 -0.1726078703228143 0.30120428301840591 0 -0.1729382134997082 0.32580870778066301 0 -0.1913763477241652 0.33428273913866152 0 -0.1916695871185348 0.31314201236146799 0 -0.1729382134997082 0.32580870778066301 0 -0.18046952317169021 0.34690693111961401 0 -0.1913763477241652 0.33428273913866152 0 -0.1729382134997082 0.32580870778066301 0 -0.18046952317169021 0.34690693111961401 0 -0.16258689032034729 0.34405312833023832 0 -0.18046952317169021 0.34690693111961401 0 -0.1809036308170747 0.3728993685036302 0 -0.1970432241052533 0.35332322155022078 0 -0.18046952317169021 0.34690693111961401 0 -0.16801854993839299 0.35863030485889508 0 -0.16258689032034729 0.34405312833023832 0 -0.15390795032598739 0.35845516846076492 0 -0.16801854993839299 0.35863030485889508 0 -0.16258689032034729 0.34405312833023832 0 -0.16801854993839299 0.35863030485889508 0 -0.16222475505686551 0.37083692788022798 0 -0.1809036308170747 0.3728993685036302 0 -0.15546574401426569 0.37876462043108272 0 -0.15144323567191709 0.37104637349917191 0 -0.16222475505686551 0.37083692788022798 0 -0.15390795032598739 0.35845516846076492 0 -0.16801854993839299 0.35863030485889508 0 -0.16222475505686551 0.37083692788022798 0 -0.18046952317169021 0.34690693111961401 0 -0.16801854993839299 0.35863030485889508 0 -0.1809036308170747 0.3728993685036302 0 -0.19352085597546881 0.38313946929153181 0 -0.1809036308170747 0.3728993685036302 0 -0.1970432241052533 0.35332322155022078 0 -0.19352085597546881 0.38313946929153181 0 -0.1970432241052533 0.35332322155022078 0 -0.21439109484789509 0.36439151158372901 0 -0.1809036308170747 0.3728993685036302 0 -0.1970432241052533 0.35332322155022078 0 -0.18046952317169021 0.34690693111961401 0 -0.1970432241052533 0.35332322155022078 0 -0.1913763477241652 0.33428273913866152 0 -0.1970432241052533 0.35332322155022078 0 -0.21439109484789509 0.36439151158372901 0 -0.21318281739343201 0.3337470745968113 0 -0.2348294400394107 0.3795051470796395 0 -0.21439109484789509 0.36439151158372901 0 -0.23368485675694969 0.35363872380928718 0 -0.21439109484789509 0.36439151158372901 0 -0.23368485675694969 0.35363872380928718 0 -0.21318281739343201 0.3337470745968113 0 -0.25948399585728482 0.34137431399319879 0 -0.23368485675694969 0.35363872380928718 0 -0.24753088660224451 0.36542177786824348 0 -0.2348294400394107 0.3795051470796395 0 -0.23368485675694969 0.35363872380928718 0 -0.24753088660224451 0.36542177786824348 0 -0.2544908832576937 0.31672420584868222 0 -0.23149774927212 0.31973959041506889 0 -0.23254947142574389 0.30115394148774488 0 -0.2544908832576937 0.31672420584868222 0 -0.2403082550886354 0.33525587944787089 0 -0.23149774927212 0.31973959041506889 0 -0.25948399585728482 0.34137431399319879 0 -0.23368485675694969 0.35363872380928718 0 -0.2403082550886354 0.33525587944787089 0 -0.23368485675694969 0.35363872380928718 0 -0.2403082550886354 0.33525587944787089 0 -0.21318281739343201 0.3337470745968113 0 -0.2403082550886354 0.33525587944787089 0 -0.23149774927212 0.31973959041506889 0 -0.21318281739343201 0.3337470745968113 0 -0.23149774927212 0.31973959041506889 0 -0.21318281739343201 0.3337470745968113 0 -0.21299768926910839 0.30507112103817058 0 -0.21318281739343201 0.3337470745968113 0 -0.1916695871185348 0.31314201236146799 0 -0.21299768926910839 0.30507112103817058 0 -0.1970432241052533 0.35332322155022078 0 -0.21318281739343201 0.3337470745968113 0 -0.1970432241052533 0.35332322155022078 0 -0.21318281739343201 0.3337470745968113 0 -0.1913763477241652 0.33428273913866152 0 -0.21318281739343201 0.3337470745968113 0 -0.1913763477241652 0.33428273913866152 0 -0.1916695871185348 0.31314201236146799 0 -0.1916695871185348 0.31314201236146799 0 -0.19322481323979879 0.29249112131027782 0 -0.21299768926910839 0.30507112103817058 0 -0.19322481323979879 0.29249112131027782 0 -0.20780271286941029 0.28977420494356487 0 -0.20369795723435161 0.2759665762211338 0 -0.19322481323979879 0.29249112131027782 0 -0.20369795723435161 0.2759665762211338 0 -0.18744631447598251 0.27617759775544543 0 -0.20780271286941029 0.28977420494356487 0 -0.22129039173438239 0.2855680012046774 0 -0.20369795723435161 0.2759665762211338 0 -0.19322481323979879 0.29249112131027782 0 -0.20780271286941029 0.28977420494356487 0 -0.21299768926910839 0.30507112103817058 0 -0.20780271286941029 0.28977420494356487 0 -0.21299768926910839 0.30507112103817058 0 -0.22129039173438239 0.2855680012046774 0 -0.23149774927212 0.31973959041506889 0 -0.21299768926910839 0.30507112103817058 0 -0.23254947142574389 0.30115394148774488 0 -0.21299768926910839 0.30507112103817058 0 -0.23254947142574389 0.30115394148774488 0 -0.22129039173438239 0.2855680012046774 0 -0.23254947142574389 0.30115394148774488 0 -0.22129039173438239 0.2855680012046774 0 -0.2365855050507209 0.28031954728252317 0 -0.25302752541997647 0.27495473976011231 0 -0.24949777065810261 0.2920740977041657 0 -0.2365855050507209 0.28031954728252317 0 -0.23254947142574389 0.30115394148774488 0 -0.24949777065810261 0.2920740977041657 0 -0.2365855050507209 0.28031954728252317 0 -0.2544908832576937 0.31672420584868222 0 -0.23254947142574389 0.30115394148774488 0 -0.24949777065810261 0.2920740977041657 0 -0.25302752541997647 0.27495473976011231 0 -0.24073283793148881 0.2599430092145163 0 -0.2365855050507209 0.28031954728252317 0 -0.22129039173438239 0.2855680012046774 0 -0.2365855050507209 0.28031954728252317 0 -0.22241503313463121 0.26822349432392278 0 -0.24073283793148881 0.2599430092145163 0 -0.2365855050507209 0.28031954728252317 0 -0.22241503313463121 0.26822349432392278 0 -0.24073283793148881 0.2599430092145163 0 -0.22480727068720499 0.2507498063256724 0 -0.23738482535905969 0.245080794879867 0 -0.24073283793148881 0.2599430092145163 0 -0.22241503313463121 0.26822349432392278 0 -0.22480727068720499 0.2507498063256724 0 -0.22241503313463121 0.26822349432392278 0 -0.22480727068720499 0.2507498063256724 0 -0.20824365681318621 0.25972678944317079 0 -0.22129039173438239 0.2855680012046774 0 -0.22241503313463121 0.26822349432392278 0 -0.20369795723435161 0.2759665762211338 0 -0.22241503313463121 0.26822349432392278 0 -0.20824365681318621 0.25972678944317079 0 -0.20369795723435161 0.2759665762211338 0 -0.20824365681318621 0.25972678944317079 0 -0.20369795723435161 0.2759665762211338 0 -0.1938927658205962 0.26135809408211902 0 -0.20369795723435161 0.2759665762211338 0 -0.1938927658205962 0.26135809408211902 0 -0.18744631447598251 0.27617759775544543 0 -0.20824365681318621 0.25972678944317079 0 -0.1938927658205962 0.26135809408211902 0 -0.1996891956023244 0.2484379794903481 0 -0.1938927658205962 0.26135809408211902 0 -0.18558547935525149 0.2507341425259047 0 -0.1996891956023244 0.2484379794903481 0 -0.1938927658205962 0.26135809408211902 0 -0.18558547935525149 0.2507341425259047 0 -0.17930628033644999 0.26336939574738372 0 -0.17930628033644999 0.26336939574738372 0 -0.1727604863792532 0.25381268665708989 0 -0.16794445408702241 0.26640085630944521 0 -0.18558547935525149 0.2507341425259047 0 -0.17930628033644999 0.26336939574738372 0 -0.1727604863792532 0.25381268665708989 0 -0.1727604863792532 0.25381268665708989 0 -0.16420559833547191 0.26029670196638188 0 -0.16090034084645971 0.25013721452634491 0 -0.16090034084645971 0.25013721452634491 0 -0.1552171120291525 0.27083605037264769 0 -0.1727604863792532 0.25381268665708989 0 -0.16090034084645971 0.25013721452634491 0 -0.16420559833547191 0.26029670196638188 0 -0.16090034084645971 0.25013721452634491 0 -0.1552171120291525 0.27083605037264769 0 -0.1727604863792532 0.25381268665708989 0 -0.16420559833547191 0.26029670196638188 0 -0.16794445408702241 0.26640085630944521 0 -0.1652208014631564 0.27409915634324838 0 -0.1637753678355906 0.28400331694283032 0 -0.1552171120291525 0.27083605037264769 0 -0.16420559833547191 0.26029670196638188 0 -0.16794445408702241 0.26640085630944521 0 -0.1552171120291525 0.27083605037264769 0 -0.16794445408702241 0.26640085630944521 0 -0.1652208014631564 0.27409915634324838 0 -0.1552171120291525 0.27083605037264769 0 -0.16794445408702241 0.26640085630944521 0 -0.1652208014631564 0.27409915634324838 0 -0.17394627190086029 0.27515640174807038 0 -0.1652208014631564 0.27409915634324838 0 -0.17394627190086029 0.27515640174807038 0 -0.1637753678355906 0.28400331694283032 0 -0.17930628033644999 0.26336939574738372 0 -0.16794445408702241 0.26640085630944521 0 -0.17394627190086029 0.27515640174807038 0 -0.17930628033644999 0.26336939574738372 0 -0.17394627190086029 0.27515640174807038 0 -0.18744631447598251 0.27617759775544543 0 -0.1938927658205962 0.26135809408211902 0 -0.17930628033644999 0.26336939574738372 0 -0.18744631447598251 0.27617759775544543 0 -0.17394627190086029 0.27515640174807038 0 -0.18744631447598251 0.27617759775544543 0 -0.17820012755500941 0.28580654415500589 0 -0.19322481323979879 0.29249112131027782 0 -0.18744631447598251 0.27617759775544543 0 -0.17820012755500941 0.28580654415500589 0 -0.19322481323979879 0.29249112131027782 0 -0.17820012755500941 0.28580654415500589 0 -0.1726078703228143 0.30120428301840591 0 -0.17394627190086029 0.27515640174807038 0 -0.17820012755500941 0.28580654415500589 0 -0.1637753678355906 0.28400331694283032 0 -0.1916695871185348 0.31314201236146799 0 -0.19322481323979879 0.29249112131027782 0 -0.1726078703228143 0.30120428301840591 0 -0.1726078703228143 0.30120428301840591 0 -0.1495338832118453 0.29153488621895052 0 -0.1545099066061906 0.31221243948807148 0 -0.1726078703228143 0.30120428301840591 0 -0.1637753678355906 0.28400331694283032 0 -0.1495338832118453 0.29153488621895052 0 -0.17820012755500941 0.28580654415500589 0 -0.1726078703228143 0.30120428301840591 0 -0.1637753678355906 0.28400331694283032 0 -0.1637753678355906 0.28400331694283032 0 -0.1495338832118453 0.29153488621895052 0 -0.1552171120291525 0.27083605037264769 0 -0.13643809785080599 0.32078882377821399 0 -0.1545099066061906 0.31221243948807148 0 -0.13367856478925719 0.30232684436661272 0 -0.1495338832118453 0.29153488621895052 0 -0.1545099066061906 0.31221243948807148 0 -0.13367856478925719 0.30232684436661272 0 -0.13367856478925719 0.30232684436661272 0 -0.12671107379015031 0.31163608923085712 0 -0.11603871717274281 0.30680482060292991 0 -0.13643809785080599 0.32078882377821399 0 -0.13367856478925719 0.30232684436661272 0 -0.12671107379015031 0.31163608923085712 0 -0.13367856478925719 0.30232684436661272 0 -0.12890627908413901 0.2821999001088461 0 -0.11660964464089379 0.29230084899784398 0 -0.1495338832118453 0.29153488621895052 0 -0.12890627908413901 0.2821999001088461 0 -0.1428889004808778 0.27599093007353231 0 -0.1495338832118453 0.29153488621895052 0 -0.13367856478925719 0.30232684436661272 0 -0.12890627908413901 0.2821999001088461 0 -0.12890627908413901 0.2821999001088461 0 -0.13426702448132699 0.26830389744575228 0 -0.1186734279432355 0.26119571506609252 0 -0.12890627908413901 0.2821999001088461 0 -0.13426702448132699 0.26830389744575228 0 -0.1428889004808778 0.27599093007353231 0 -0.1186734279432355 0.26119571506609252 0 -0.1325121594120921 0.24133968591119689 0 -0.1346016357313822 0.25638005015610033 0 -0.1186734279432355 0.26119571506609252 0 -0.1325121594120921 0.24133968591119689 0 -0.13426702448132699 0.26830389744575228 0 -0.1346016357313822 0.25638005015610033 0 -0.1186734279432355 0.26119571506609252 0 -0.13426702448132699 0.26830389744575228 0 -0.1346016357313822 0.25638005015610033 0 -0.14626487916700029 0.26575289182419048 0 -0.14626487916700029 0.26575289182419048 0 -0.14103536322233101 0.2439810361359955 0 -0.16090034084645971 0.25013721452634491 0 -0.14894211464656959 0.25359584751982611 0 -0.1552171120291525 0.27083605037264769 0 -0.14894211464656959 0.25359584751982611 0 -0.1552171120291525 0.27083605037264769 0 -0.14626487916700029 0.26575289182419048 0 -0.1346016357313822 0.25638005015610033 0 -0.14626487916700029 0.26575289182419048 0 -0.14103536322233101 0.2439810361359955 0 -0.14894211464656959 0.25359584751982611 0 -0.14626487916700029 0.26575289182419048 0 -0.14103536322233101 0.2439810361359955 0 -0.1495338832118453 0.29153488621895052 0 -0.1552171120291525 0.27083605037264769 0 -0.1428889004808778 0.27599093007353231 0 -0.1495338832118453 0.29153488621895052 0 -0.1552171120291525 0.27083605037264769 0 -0.13426702448132699 0.26830389744575228 0 -0.1428889004808778 0.27599093007353231 0 -0.14626487916700029 0.26575289182419048 0 -0.1552171120291525 0.27083605037264769 0 -0.1428889004808778 0.27599093007353231 0 -0.14626487916700029 0.26575289182419048 0 -0.1048346964743781 0.28105174422098739 0 -0.097264489031920476 0.26129629357132 0 -0.1186734279432355 0.26119571506609252 0 -0.1048346964743781 0.28105174422098739 0 -0.08529589490910966 0.28635018200255402 0 -0.092466218146827206 0.27506809710660951 0 -0.1048346964743781 0.28105174422098739 0 -0.097264489031920476 0.26129629357132 0 -0.092466218146827206 0.27506809710660951 0 -0.097264489031920476 0.26129629357132 0 -0.1186734279432355 0.26119571506609252 0 -0.1043815395599072 0.2474654427881548 0 -0.097264489031920476 0.26129629357132 0 -0.1043815395599072 0.2474654427881548 0 -0.090497332216694357 0.24133107060736531 0 -0.12890627908413901 0.2821999001088461 0 -0.1048346964743781 0.28105174422098739 0 -0.1186734279432355 0.26119571506609252 0 -0.1048346964743781 0.28105174422098739 0 -0.1186734279432355 0.26119571506609252 0 -0.12890627908413901 0.2821999001088461 0 -0.1048346964743781 0.28105174422098739 0 -0.11660964464089379 0.29230084899784398 0 -0.13367856478925719 0.30232684436661272 0 -0.11660964464089379 0.29230084899784398 0 -0.11603871717274281 0.30680482060292991 0 -0.11660964464089379 0.29230084899784398 0 -0.11603871717274281 0.30680482060292991 0 -0.10628371291807261 0.29804505516329272 0 -0.11603871717274281 0.30680482060292991 0 -0.1043340719706035 0.31101928017578873 0 -0.10628371291807261 0.29804505516329272 0 -0.1043340719706035 0.31101928017578873 0 -0.10628371291807261 0.29804505516329272 0 -0.090995965005519985 0.30090777337588198 0 -0.1048346964743781 0.28105174422098739 0 -0.090995965005519985 0.30090777337588198 0 -0.1048346964743781 0.28105174422098739 0 -0.11660964464089379 0.29230084899784398 0 -0.10628371291807261 0.29804505516329272 0 -0.1048346964743781 0.28105174422098739 0 -0.10628371291807261 0.29804505516329272 0 -0.090995965005519985 0.30090777337588198 0 -0.1048346964743781 0.28105174422098739 0 -0.08529589490910966 0.28635018200255402 0 -0.090995965005519985 0.30090777337588198 0 -0.08529589490910966 0.28635018200255402 0 -0.090995965005519985 0.30090777337588198 0 -0.08529589490910966 0.28635018200255402 0 -0.078890903571770019 0.29869060804916481 0 -0.07113634712417817 0.28687304518428641 0 -0.08529589490910966 0.28635018200255402 0 -0.090995965005519985 0.30090777337588198 0 -0.078890903571770019 0.29869060804916481 0 -0.08529589490910966 0.28635018200255402 0 -0.07113634712417817 0.28687304518428641 0 -0.079595824812699709 0.27179259062922578 0 -0.090995965005519985 0.30090777337588198 0 -0.085234860432229567 0.30917389665669709 0 -0.088216605733160536 0.31921900245810331 0 -0.090995965005519985 0.30090777337588198 0 -0.085234860432229567 0.30917389665669709 0 -0.090995965005519985 0.30090777337588198 0 -0.078890903571770019 0.29869060804916481 0 -0.085234860432229567 0.30917389665669709 0 -0.085234860432229567 0.30917389665669709 0 -0.07636830531370109 0.3068481387271223 0 -0.074439498801533638 0.31580263089350319 0 -0.078890903571770019 0.29869060804916481 0 -0.085234860432229567 0.30917389665669709 0 -0.07636830531370109 0.3068481387271223 0 -0.07636830531370109 0.3068481387271223 0 -0.066907958449271138 0.30372541930912428 0 -0.074439498801533638 0.31580263089350319 0 -0.078890903571770019 0.29869060804916481 0 -0.07636830531370109 0.3068481387271223 0 -0.066907958449271138 0.30372541930912428 0 -0.078890903571770019 0.29869060804916481 0 -0.066907958449271138 0.30372541930912428 0 -0.07113634712417817 0.28687304518428641 0 -0.066907958449271138 0.30372541930912428 0 -0.07113634712417817 0.28687304518428641 0 -0.05580063731157775 0.28974634239585828 0 -0.07113634712417817 0.28687304518428641 0 -0.079595824812699709 0.27179259062922578 0 -0.060326863690640851 0.27093312871979158 0 -0.079595824812699709 0.27179259062922578 0 -0.07114272556186009 0.26285795189773359 0 -0.060326863690640851 0.27093312871979158 0 -0.097264489031920476 0.26129629357132 0 -0.079595824812699709 0.27179259062922578 0 -0.092466218146827206 0.27506809710660951 0 -0.08529589490910966 0.28635018200255402 0 -0.079595824812699709 0.27179259062922578 0 -0.092466218146827206 0.27506809710660951 0 -0.08529589490910966 0.28635018200255402 0 -0.079595824812699709 0.27179259062922578 0 -0.097264489031920476 0.26129629357132 0 -0.080021156004827343 0.25548485022154299 0 -0.090497332216694357 0.24133107060736531 0 -0.097264489031920476 0.26129629357132 0 -0.079595824812699709 0.27179259062922578 0 -0.080021156004827343 0.25548485022154299 0 -0.080021156004827343 0.25548485022154299 0 -0.07114272556186009 0.26285795189773359 0 -0.064627057739272464 0.25322123802037422 0 -0.07114272556186009 0.26285795189773359 0 -0.064627057739272464 0.25322123802037422 0 -0.060326863690640851 0.27093312871979158 0 -0.079595824812699709 0.27179259062922578 0 -0.080021156004827343 0.25548485022154299 0 -0.07114272556186009 0.26285795189773359 0 -0.064627057739272464 0.25322123802037422 0 -0.060326863690640851 0.27093312871979158 0 -0.043187104470462999 0.26208664968169287 0 -0.064627057739272464 0.25322123802037422 0 -0.043187104470462999 0.26208664968169287 0 -0.051281228244768932 0.24392012724752221 0 -0.060326863690640851 0.27093312871979158 0 -0.043130397461556183 0.27848313425767229 0 -0.05580063731157775 0.28974634239585828 0 -0.060326863690640851 0.27093312871979158 0 -0.043130397461556183 0.27848313425767229 0 -0.043187104470462999 0.26208664968169287 0 -0.043130397461556183 0.27848313425767229 0 -0.043187104470462999 0.26208664968169287 0 -0.02991021430266437 0.27332695899709669 0 -0.043130397461556183 0.27848313425767229 0 -0.02991021430266437 0.27332695899709669 0 -0.02826522259664585 0.28607673136884432 0 -0.043187104470462999 0.26208664968169287 0 -0.034066851528046782 0.25263223628814813 0 -0.051281228244768932 0.24392012724752221 0 -0.043187104470462999 0.26208664968169287 0 -0.034066851528046782 0.25263223628814813 0 -0.016995495808833489 0.26267841769448091 0 -0.034066851528046782 0.25263223628814813 0 -0.020959431072985289 0.25350428867414271 0 -0.016995495808833489 0.26267841769448091 0 -0.043187104470462999 0.26208664968169287 0 -0.016995495808833489 0.26267841769448091 0 -0.020959431072985289 0.25350428867414271 0 -0.016995495808833489 0.26267841769448091 0 -0.010697346538625301 0.25429425469017047 0 -0.043187104470462999 0.26208664968169287 0 -0.016995495808833489 0.26267841769448091 0 -0.02991021430266437 0.27332695899709669 0 -0.02991021430266437 0.27332695899709669 0 -0.01797285117582333 0.277309861982793 0 -0.02826522259664585 0.28607673136884432 0 -0.016995495808833489 0.26267841769448091 0 -0.02991021430266437 0.27332695899709669 0 -0.01797285117582333 0.277309861982793 0 -0.016995495808833489 0.26267841769448091 0 -0.010542722391178301 0.27306160523153822 0 -0.0028270096312297622 0.27028594766949049 0 -0.016995495808833489 0.26267841769448091 0 -0.01797285117582333 0.277309861982793 0 -0.010542722391178301 0.27306160523153822 0 -0.01797285117582333 0.277309861982793 0 -0.010542722391178301 0.27306160523153822 0 -0.0043755329488266211 0.28197219357938841 0 -0.010542722391178301 0.27306160523153822 0 -0.0028270096312297622 0.27028594766949049 0 -0.0043755329488266211 0.28197219357938841 0 -0.016995495808833489 0.26267841769448091 0 0.0091961128527961265 0.2632701857072689 0 -0.016995495808833489 0.26267841769448091 0 -0.010697346538625301 0.25429425469017047 0 0.0013968678610932379 0.25402272509214019 0 -0.016995495808833489 0.26267841769448091 0 -0.0028270096312297622 0.27028594766949049 0 0.0091961128527961265 0.2632701857072689 0 -0.016995495808833489 0.26267841769448091 0 0.0091961128527961265 0.2632701857072689 0 0.0013968678610932379 0.25402272509214019 0 -0.010697346538625301 0.25429425469017047 0 0.00069615477047229072 0.24213838121001291 0 0.0013968678610932379 0.25402272509214019 0 -0.020959431072985289 0.25350428867414271 0 -0.010697346538625301 0.25429425469017047 0 -0.014936262559913991 0.2423100706723525 0 -0.0070426362117476243 0.30627825765644129 0 -0.014229451190720841 0.29198270109564411 0 -0.025503647346116869 0.30185726052965611 0 -0.0070426362117476243 0.30627825765644129 0 -0.00053078136912822172 0.29323698237685231 0 -0.014229451190720841 0.29198270109564411 0 -0.00053078136912822172 0.29323698237685231 0 -0.0043755329488266211 0.28197219357938841 0 -0.014229451190720841 0.29198270109564411 0 -0.01797285117582333 0.277309861982793 0 -0.0043755329488266211 0.28197219357938841 0 -0.014229451190720841 0.29198270109564411 0 -0.014229451190720841 0.29198270109564411 0 -0.02826522259664585 0.28607673136884432 0 -0.025503647346116869 0.30185726052965611 0 -0.01797285117582333 0.277309861982793 0 -0.014229451190720841 0.29198270109564411 0 -0.02826522259664585 0.28607673136884432 0 -0.0070426362117476243 0.30627825765644129 0 -0.025503647346116869 0.30185726052965611 0 -0.030409587835816949 0.31691218143212968 0 -0.025503647346116869 0.30185726052965611 0 -0.038776380958057133 0.3074625499261433 0 -0.030409587835816949 0.31691218143212968 0 -0.025503647346116869 0.30185726052965611 0 -0.038776380958057133 0.3074625499261433 0 -0.040622962435323789 0.29356720238157902 0 -0.038776380958057133 0.3074625499261433 0 -0.040622962435323789 0.29356720238157902 0 -0.052946587685670968 0.30587501555022728 0 -0.038776380958057133 0.3074625499261433 0 -0.052946587685670968 0.30587501555022728 0 -0.04567638616245652 0.316738714736507 0 -0.02826522259664585 0.28607673136884432 0 -0.025503647346116869 0.30185726052965611 0 -0.040622962435323789 0.29356720238157902 0 -0.043130397461556183 0.27848313425767229 0 -0.02826522259664585 0.28607673136884432 0 -0.040622962435323789 0.29356720238157902 0 -0.043130397461556183 0.27848313425767229 0 -0.040622962435323789 0.29356720238157902 0 -0.05580063731157775 0.28974634239585828 0 -0.07113634712417817 0.28687304518428641 0 -0.060326863690640851 0.27093312871979158 0 -0.05580063731157775 0.28974634239585828 0 -0.040622962435323789 0.29356720238157902 0 -0.05580063731157775 0.28974634239585828 0 -0.052946587685670968 0.30587501555022728 0 -0.066907958449271138 0.30372541930912428 0 -0.05580063731157775 0.28974634239585828 0 -0.052946587685670968 0.30587501555022728 0 -0.066907958449271138 0.30372541930912428 0 -0.052946587685670968 0.30587501555022728 0 -0.057126177016331922 0.31952204992545852 0 -0.057126177016331922 0.31952204992545852 0 -0.050274765714128908 0.33109045428724471 0 -0.079646101482562501 0.3295784683958275 0 -0.057126177016331922 0.31952204992545852 0 -0.050274765714128908 0.33109045428724471 0 -0.04567638616245652 0.316738714736507 0 -0.052946587685670968 0.30587501555022728 0 -0.057126177016331922 0.31952204992545852 0 -0.04567638616245652 0.316738714736507 0 -0.061534067771663752 0.34047960837696539 0 -0.050274765714128908 0.33109045428724471 0 -0.045694576038307767 0.3448370463215108 0 -0.050274765714128908 0.33109045428724471 0 -0.0209034299456952 0.33260244017866059 0 -0.050274765714128908 0.33109045428724471 0 -0.0209034299456952 0.33260244017866059 0 -0.045694576038307767 0.3448370463215108 0 -0.0209034299456952 0.33260244017866059 0 -0.045694576038307767 0.3448370463215108 0 -0.034094658828757722 0.35323831954182688 0 -0.050274765714128908 0.33109045428724471 0 -0.04567638616245652 0.316738714736507 0 -0.030409587835816949 0.31691218143212968 0 -0.050274765714128908 0.33109045428724471 0 -0.030409587835816949 0.31691218143212968 0 -0.0209034299456952 0.33260244017866059 0 -0.038776380958057133 0.3074625499261433 0 -0.04567638616245652 0.316738714736507 0 -0.030409587835816949 0.31691218143212968 0 -0.0070426362117476243 0.30627825765644129 0 -0.030409587835816949 0.31691218143212968 0 -0.0209034299456952 0.33260244017866059 0 -0.0209034299456952 0.33260244017866059 0 -0.003353034474883573 0.35101667105113399 0 0.0050556740678513118 0.32913959941934551 0 -0.0070426362117476243 0.30627825765644129 0 -0.0209034299456952 0.33260244017866059 0 0.0027817502058227121 0.31571106157761608 0 -0.0209034299456952 0.33260244017866059 0 0.0027817502058227121 0.31571106157761608 0 0.0050556740678513118 0.32913959941934551 0 -0.011761743017618429 0.37289374268292241 0 -0.003353034474883573 0.35101667105113399 0 0.004340173904461269 0.37532524476536749 0 -0.011761743017618429 0.37289374268292241 0 -0.003353034474883573 0.35101667105113399 0 -0.019530836541290199 0.35735307206330819 0 -0.011761743017618429 0.37289374268292241 0 -0.003353034474883573 0.35101667105113399 0 -0.0209034299456952 0.33260244017866059 0 -0.003353034474883573 0.35101667105113399 0 -0.019530836541290199 0.35735307206330819 0 -0.0209034299456952 0.33260244017866059 0 -0.019530836541290199 0.35735307206330819 0 -0.034094658828757722 0.35323831954182688 0 -0.019530836541290199 0.35735307206330819 0 -0.034261610142284959 0.36714968538934789 0 -0.034094658828757722 0.35323831954182688 0 -0.019530836541290199 0.35735307206330819 0 -0.034261610142284959 0.36714968538934789 0 -0.02448849062284254 0.38055659687025611 0 -0.011761743017618429 0.37289374268292241 0 -0.019530836541290199 0.35735307206330819 0 -0.02448849062284254 0.38055659687025611 0 -0.034261610142284959 0.36714968538934789 0 -0.047821179013566098 0.36174073230743442 0 -0.043750531558205782 0.38294060206445629 0 -0.034261610142284959 0.36714968538934789 0 -0.034094658828757722 0.35323831954182688 0 -0.047821179013566098 0.36174073230743442 0 -0.045694576038307767 0.3448370463215108 0 -0.034094658828757722 0.35323831954182688 0 -0.047821179013566098 0.36174073230743442 0 -0.045694576038307767 0.3448370463215108 0 -0.059615197975618567 0.35200038794928051 0 -0.047821179013566098 0.36174073230743442 0 -0.061534067771663752 0.34047960837696539 0 -0.045694576038307767 0.3448370463215108 0 -0.059615197975618567 0.35200038794928051 0 -0.059615197975618567 0.35200038794928051 0 -0.060165739652869997 0.37074431296530841 0 -0.047821179013566098 0.36174073230743442 0 -0.060165739652869997 0.37074431296530841 0 -0.047821179013566098 0.36174073230743442 0 -0.043750531558205782 0.38294060206445629 0 -0.059615197975618567 0.35200038794928051 0 -0.060165739652869997 0.37074431296530841 0 -0.076580947747534212 0.35854802386616053 0 -0.060165739652869997 0.37074431296530841 0 -0.076580947747534212 0.35854802386616053 0 -0.075519101409240855 0.37722763717800478 0 -0.060165739652869997 0.37074431296530841 0 -0.076580947747534212 0.35854802386616053 0 -0.076580947747534212 0.35854802386616053 0 -0.094472075561999005 0.374195622247601 0 -0.098209659074501215 0.35701741190600822 0 -0.076580947747534212 0.35854802386616053 0 -0.094472075561999005 0.374195622247601 0 -0.075519101409240855 0.37722763717800478 0 -0.086520370427471738 0.34590070487838082 0 -0.076580947747534212 0.35854802386616053 0 -0.098209659074501215 0.35701741190600822 0 -0.086520370427471738 0.34590070487838082 0 -0.072439697647700946 0.34489168493096217 0 -0.076580947747534212 0.35854802386616053 0 -0.059615197975618567 0.35200038794928051 0 -0.072439697647700946 0.34489168493096217 0 -0.076580947747534212 0.35854802386616053 0 -0.061534067771663752 0.34047960837696539 0 -0.059615197975618567 0.35200038794928051 0 -0.072439697647700946 0.34489168493096217 0 -0.061534067771663752 0.34047960837696539 0 -0.072439697647700946 0.34489168493096217 0 -0.079646101482562501 0.3295784683958275 0 -0.061534067771663752 0.34047960837696539 0 -0.050274765714128908 0.33109045428724471 0 -0.079646101482562501 0.3295784683958275 0 -0.050274765714128908 0.33109045428724471 0 -0.079646101482562501 0.3295784683958275 0 -0.057126177016331922 0.31952204992545852 0 -0.074439498801533638 0.31580263089350319 0 -0.079646101482562501 0.3295784683958275 0 -0.066907958449271138 0.30372541930912428 0 -0.057126177016331922 0.31952204992545852 0 -0.074439498801533638 0.31580263089350319 0 -0.057126177016331922 0.31952204992545852 0 -0.079646101482562501 0.3295784683958275 0 -0.090995965005519985 0.30090777337588198 0 -0.088216605733160536 0.31921900245810331 0 -0.10177600369672481 0.32843925905955412 0 -0.088216605733160536 0.31921900245810331 0 -0.079646101482562501 0.3295784683958275 0 -0.10177600369672481 0.32843925905955412 0 -0.085234860432229567 0.30917389665669709 0 -0.074439498801533638 0.31580263089350319 0 -0.088216605733160536 0.31921900245810331 0 -0.074439498801533638 0.31580263089350319 0 -0.088216605733160536 0.31921900245810331 0 -0.079646101482562501 0.3295784683958275 0 -0.079646101482562501 0.3295784683958275 0 -0.10177600369672481 0.32843925905955412 0 -0.086520370427471738 0.34590070487838082 0 -0.072439697647700946 0.34489168493096217 0 -0.079646101482562501 0.3295784683958275 0 -0.086520370427471738 0.34590070487838082 0 -0.079646101482562501 0.3295784683958275 0 -0.1070059500638615 0.34179618640070009 0 -0.079646101482562501 0.3295784683958275 0 -0.1070059500638615 0.34179618640070009 0 -0.079646101482562501 0.3295784683958275 0 -0.10177600369672481 0.32843925905955412 0 -0.1070059500638615 0.34179618640070009 0 -0.10177600369672481 0.32843925905955412 0 -0.1070059500638615 0.34179618640070009 0 -0.10177600369672481 0.32843925905955412 0 -0.10639374969076899 0.32820154543126839 0 -0.1070059500638615 0.34179618640070009 0 -0.10177600369672481 0.32843925905955412 0 -0.10639374969076899 0.32820154543126839 0 -0.1043340719706035 0.31101928017578873 0 -0.10177600369672481 0.32843925905955412 0 -0.1085200618378659 0.3196911370206893 0 -0.1043340719706035 0.31101928017578873 0 -0.090995965005519985 0.30090777337588198 0 -0.10177600369672481 0.32843925905955412 0 -0.090995965005519985 0.30090777337588198 0 -0.10177600369672481 0.32843925905955412 0 -0.10177600369672481 0.32843925905955412 0 -0.10639374969076899 0.32820154543126839 0 -0.1085200618378659 0.3196911370206893 0 -0.11603871717274281 0.30680482060292991 0 -0.1085200618378659 0.3196911370206893 0 -0.1210323474749385 0.31940787830236839 0 -0.11603871717274281 0.30680482060292991 0 -0.1043340719706035 0.31101928017578873 0 -0.1085200618378659 0.3196911370206893 0 -0.10639374969076899 0.32820154543126839 0 -0.1085200618378659 0.3196911370206893 0 -0.1149677676227268 0.32679415686284058 0 -0.1085200618378659 0.3196911370206893 0 -0.1149677676227268 0.32679415686284058 0 -0.1210323474749385 0.31940787830236839 0 -0.1149677676227268 0.32679415686284058 0 -0.1210323474749385 0.31940787830236839 0 -0.1241086637900518 0.33146449503669712 0 -0.12671107379015031 0.31163608923085712 0 -0.11603871717274281 0.30680482060292991 0 -0.1210323474749385 0.31940787830236839 0 -0.1147840153200085 0.33520572852317998 0 -0.1241086637900518 0.33146449503669712 0 -0.12353522793947 0.34917744274458162 0 -0.1070059500638615 0.34179618640070009 0 -0.1147840153200085 0.33520572852317998 0 -0.12353522793947 0.34917744274458162 0 -0.10639374969076899 0.32820154543126839 0 -0.1149677676227268 0.32679415686284058 0 -0.1147840153200085 0.33520572852317998 0 -0.10639374969076899 0.32820154543126839 0 -0.1070059500638615 0.34179618640070009 0 -0.1147840153200085 0.33520572852317998 0 -0.1149677676227268 0.32679415686284058 0 -0.1147840153200085 0.33520572852317998 0 -0.1241086637900518 0.33146449503669712 0 -0.1070059500638615 0.34179618640070009 0 -0.12353522793947 0.34917744274458162 0 -0.1070059500638615 0.34179618640070009 0 -0.1150026026193179 0.36221909318743262 0 -0.1070059500638615 0.34179618640070009 0 -0.12353522793947 0.34917744274458162 0 -0.1150026026193179 0.36221909318743262 0 -0.1294927114376877 0.36792654221528148 0 -0.12353522793947 0.34917744274458162 0 -0.1150026026193179 0.36221909318743262 0 -0.1150026026193179 0.36221909318743262 0 -0.12299925517477479 0.38264199997416498 0 -0.1294927114376877 0.36792654221528148 0 -0.1150026026193179 0.36221909318743262 0 -0.12299925517477479 0.38264199997416498 0 -0.1150026026193179 0.36221909318743262 0 -0.1093950557719677 0.37619175602444949 0 -0.12299925517477479 0.38264199997416498 0 -0.1150026026193179 0.36221909318743262 0 -0.1042698482569465 0.36740597084137278 0 -0.1093950557719677 0.37619175602444949 0 -0.1042698482569465 0.36740597084137278 0 -0.094472075561999005 0.374195622247601 0 -0.098209659074501215 0.35701741190600822 0 -0.1150026026193179 0.36221909318743262 0 -0.1042698482569465 0.36740597084137278 0 -0.098209659074501215 0.35701741190600822 0 -0.1042698482569465 0.36740597084137278 0 -0.094472075561999005 0.374195622247601 0 -0.1093950557719677 0.37619175602444949 0 -0.1070059500638615 0.34179618640070009 0 -0.1150026026193179 0.36221909318743262 0 -0.098209659074501215 0.35701741190600822 0 -0.086520370427471738 0.34590070487838082 0 -0.1070059500638615 0.34179618640070009 0 -0.098209659074501215 0.35701741190600822 0 -0.094472075561999005 0.374195622247601 0 -0.10566613565686481 0.39516304479241798 0 -0.1093950557719677 0.37619175602444949 0 -0.10566613565686481 0.39516304479241798 0 -0.1093950557719677 0.37619175602444949 0 -0.1175755153982089 0.38671844594605509 0 -0.1093950557719677 0.37619175602444949 0 -0.12299925517477479 0.38264199997416498 0 -0.1175755153982089 0.38671844594605509 0 -0.127557833849961 0.38688201027526709 0 -0.12299925517477479 0.38264199997416498 0 -0.1175755153982089 0.38671844594605509 0 -0.1319242386032832 0.39274643391090103 0 -0.10566613565686481 0.39516304479241798 0 -0.10566613565686481 0.39516304479241798 0 -0.1216479551311388 0.40302083046318071 0 -0.1165588384469705 0.41702645062733829 0 -0.1319242386032832 0.39274643391090103 0 -0.10566613565686481 0.39516304479241798 0 -0.1216479551311388 0.40302083046318071 0 -0.1319242386032832 0.39274643391090103 0 -0.10566613565686481 0.39516304479241798 0 -0.1175755153982089 0.38671844594605509 0 -0.13093521127896679 0.40930291151521853 0 -0.1216479551311388 0.40302083046318071 0 -0.1165588384469705 0.41702645062733829 0 -0.1165588384469705 0.41702645062733829 0 -0.12264901134588251 0.43451991405170193 0 -0.1058584654811647 0.43834935129496932 0 -0.1352310074728906 0.42507762937121429 0 -0.1165588384469705 0.41702645062733829 0 -0.12264901134588251 0.43451991405170193 0 -0.1165588384469705 0.41702645062733829 0 -0.091131101253643904 0.4175315466667337 0 -0.1058584654811647 0.43834935129496932 0 -0.091131101253643904 0.4175315466667337 0 -0.086768300881779337 0.43579822490980907 0 -0.1058584654811647 0.43834935129496932 0 -0.10566613565686481 0.39516304479241798 0 -0.1165588384469705 0.41702645062733829 0 -0.091131101253643904 0.4175315466667337 0 -0.091131101253643904 0.4175315466667337 0 -0.086768300881779337 0.43579822490980907 0 -0.070897394216519652 0.42966475972502483 0 -0.086768300881779337 0.43579822490980907 0 -0.070897394216519652 0.42966475972502483 0 -0.074978646937666524 0.44678216154403422 0 -0.091131101253643904 0.4175315466667337 0 -0.063392682017539267 0.41339734666433331 0 -0.079408032710446164 0.39757965567393239 0 -0.091131101253643904 0.4175315466667337 0 -0.070897394216519652 0.42966475972502483 0 -0.063392682017539267 0.41339734666433331 0 -0.063392682017539267 0.41339734666433331 0 -0.079408032710446164 0.39757965567393239 0 -0.053149929764027527 0.39999626655544701 0 -0.079408032710446164 0.39757965567393239 0 -0.053149929764027527 0.39999626655544701 0 -0.079408032710446164 0.39757965567393239 0 -0.060865483965597447 0.38700250527721181 0 -0.053149929764027527 0.39999626655544701 0 -0.10566613565686481 0.39516304479241798 0 -0.079408032710446164 0.39757965567393239 0 -0.10566613565686481 0.39516304479241798 0 -0.091131101253643904 0.4175315466667337 0 -0.079408032710446164 0.39757965567393239 0 -0.094472075561999005 0.374195622247601 0 -0.079408032710446164 0.39757965567393239 0 -0.075519101409240855 0.37722763717800478 0 -0.094472075561999005 0.374195622247601 0 -0.10566613565686481 0.39516304479241798 0 -0.079408032710446164 0.39757965567393239 0 -0.079408032710446164 0.39757965567393239 0 -0.075519101409240855 0.37722763717800478 0 -0.060865483965597447 0.38700250527721181 0 -0.060165739652869997 0.37074431296530841 0 -0.075519101409240855 0.37722763717800478 0 -0.060865483965597447 0.38700250527721181 0 -0.060865483965597447 0.38700250527721181 0 -0.045964330915219821 0.39346379458125308 0 -0.043750531558205782 0.38294060206445629 0 -0.060165739652869997 0.37074431296530841 0 -0.043750531558205782 0.38294060206445629 0 -0.060165739652869997 0.37074431296530841 0 -0.060865483965597447 0.38700250527721181 0 -0.043750531558205782 0.38294060206445629 0 -0.060865483965597447 0.38700250527721181 0 -0.053149929764027527 0.39999626655544701 0 -0.045964330915219821 0.39346379458125308 0 -0.053149929764027527 0.39999626655544701 0 -0.045964330915219821 0.39346379458125308 0 -0.044769324684581023 0.40628267501045218 0 -0.035336774473748188 0.39554571158801882 0 -0.043750531558205782 0.38294060206445629 0 -0.027335323463540281 0.39513689116360251 0 -0.045964330915219821 0.39346379458125308 0 -0.035336774473748188 0.39554571158801882 0 -0.044769324684581023 0.40628267501045218 0 -0.045964330915219821 0.39346379458125308 0 -0.035336774473748188 0.39554571158801882 0 -0.043750531558205782 0.38294060206445629 0 -0.035336774473748188 0.39554571158801882 0 -0.027335323463540281 0.39513689116360251 0 -0.035336774473748188 0.39554571158801882 0 -0.03081558955659253 0.40552775547543768 0 -0.02842210914936007 0.39943718558587388 0 -0.035336774473748188 0.39554571158801882 0 -0.03081558955659253 0.40552775547543768 0 -0.044769324684581023 0.40628267501045218 0 -0.043750531558205782 0.38294060206445629 0 -0.02448849062284254 0.38055659687025611 0 -0.027335323463540281 0.39513689116360251 0 -0.034261610142284959 0.36714968538934789 0 -0.043750531558205782 0.38294060206445629 0 -0.02448849062284254 0.38055659687025611 0 -0.043750531558205782 0.38294060206445629 0 -0.027335323463540281 0.39513689116360251 0 -0.011761743017618429 0.37289374268292241 0 -0.02448849062284254 0.38055659687025611 0 -0.02017045156035276 0.39477081431471089 0 -0.011761743017618429 0.37289374268292241 0 -0.02017045156035276 0.39477081431471089 0 -0.02448849062284254 0.38055659687025611 0 -0.027335323463540281 0.39513689116360251 0 -0.02017045156035276 0.39477081431471089 0 -0.035336774473748188 0.39554571158801882 0 -0.027335323463540281 0.39513689116360251 0 -0.02842210914936007 0.39943718558587388 0 -0.027335323463540281 0.39513689116360251 0 -0.02842210914936007 0.39943718558587388 0 -0.021871494813981509 0.39919644577991009 0 -0.027335323463540281 0.39513689116360251 0 -0.021871494813981509 0.39919644577991009 0 -0.027335323463540281 0.39513689116360251 0 -0.02017045156035276 0.39477081431471089 0 -0.03081558955659253 0.40552775547543768 0 -0.02842210914936007 0.39943718558587388 0 -0.021871494813981509 0.39919644577991009 0 -0.021871494813981509 0.39919644577991009 0 -0.02017045156035276 0.39477081431471089 0 -0.01416230796762463 0.40492427274105619 0 -0.021871494813981509 0.39919644577991009 0 -0.01416230796762463 0.40492427274105619 0 -0.027335323463540281 0.39513689116360251 0 -0.021871494813981509 0.39919644577991009 0 -0.02017045156035276 0.39477081431471089 0 -0.021871494813981509 0.39919644577991009 0 -0.02017045156035276 0.39477081431471089 0 -0.01416230796762463 0.40492427274105619 0 0.0016941141115774749 0.40820952139338279 0 0.0089550659885869084 0.39328269591836518 0 -0.02017045156035276 0.39477081431471089 0 -0.0046592386712307511 0.38406812442034161 0 0.0089550659885869084 0.39328269591836518 0 -0.02017045156035276 0.39477081431471089 0 0.0089550659885869084 0.39328269591836518 0 -0.02017045156035276 0.39477081431471089 0 -0.01416230796762463 0.40492427274105619 0 0.0089550659885869084 0.39328269591836518 0 -0.011761743017618429 0.37289374268292241 0 -0.02017045156035276 0.39477081431471089 0 -0.0046592386712307511 0.38406812442034161 0 -0.011761743017618429 0.37289374268292241 0 -0.0046592386712307511 0.38406812442034161 0 0.004340173904461269 0.37532524476536749 0 -0.01349265811170708 0.4285927806055147 0 -0.0065096785154871162 0.4334514320172197 0 -0.0045322490052715951 0.42213904960798337 0 -0.01349265811170708 0.4285927806055147 0 -0.0045322490052715951 0.42213904960798337 0 -0.016444367349349849 0.4169633557289858 0 -0.01349265811170708 0.4285927806055147 0 -0.0065096785154871162 0.4334514320172197 0 -0.01671607269932324 0.43887614868803138 0 -0.0065096785154871162 0.4334514320172197 0 -0.01671607269932324 0.43887614868803138 0 -0.0079464809977098927 0.43982666850718333 0 -0.0065096785154871162 0.4334514320172197 0 -0.0045322490052715951 0.42213904960798337 0 0.0046778973195330479 0.43049481374472531 0 -0.0045322490052715951 0.42213904960798337 0 -0.0077666442758373829 0.41289778957757772 0 0.0016941141115774749 0.40820952139338279 0 -0.01416230796762463 0.40492427274105619 0 -0.0077666442758373829 0.41289778957757772 0 0.0016941141115774749 0.40820952139338279 0 -0.01416230796762463 0.40492427274105619 0 -0.0077666442758373829 0.41289778957757772 0 -0.016444367349349849 0.4169633557289858 0 -0.0045322490052715951 0.42213904960798337 0 -0.0077666442758373829 0.41289778957757772 0 -0.016444367349349849 0.4169633557289858 0 -0.021871494813981509 0.39919644577991009 0 -0.029601558221614959 0.41930787549918053 0 -0.021871494813981509 0.39919644577991009 0 -0.016444367349349849 0.4169633557289858 0 -0.029601558221614959 0.41930787549918053 0 -0.021871494813981509 0.39919644577991009 0 -0.01416230796762463 0.40492427274105619 0 -0.016444367349349849 0.4169633557289858 0 -0.03081558955659253 0.40552775547543768 0 -0.021871494813981509 0.39919644577991009 0 -0.029601558221614959 0.41930787549918053 0 -0.029601558221614959 0.41930787549918053 0 -0.023260922989103591 0.43153391698535298 0 -0.037331621629247518 0.43941930521845129 0 -0.016444367349349849 0.4169633557289858 0 -0.029601558221614959 0.41930787549918053 0 -0.023260922989103591 0.43153391698535298 0 -0.01349265811170708 0.4285927806055147 0 -0.016444367349349849 0.4169633557289858 0 -0.023260922989103591 0.43153391698535298 0 -0.01349265811170708 0.4285927806055147 0 -0.023260922989103591 0.43153391698535298 0 -0.01671607269932324 0.43887614868803138 0 -0.029601558221614959 0.41930787549918053 0 -0.037331621629247518 0.43941930521845129 0 -0.029601558221614959 0.41930787549918053 0 -0.048150264625901697 0.42333228958095942 0 -0.037331621629247518 0.43941930521845129 0 -0.029601558221614959 0.41930787549918053 0 -0.038334184272172563 0.41361264889150751 0 -0.048150264625901697 0.42333228958095942 0 -0.038334184272172563 0.41361264889150751 0 -0.044769324684581023 0.40628267501045218 0 -0.048150264625901697 0.42333228958095942 0 -0.03081558955659253 0.40552775547543768 0 -0.038334184272172563 0.41361264889150751 0 -0.044769324684581023 0.40628267501045218 0 -0.03081558955659253 0.40552775547543768 0 -0.029601558221614959 0.41930787549918053 0 -0.038334184272172563 0.41361264889150751 0 -0.063392682017539267 0.41339734666433331 0 -0.053149929764027527 0.39999626655544701 0 -0.044769324684581023 0.40628267501045218 0 -0.063392682017539267 0.41339734666433331 0 -0.044769324684581023 0.40628267501045218 0 -0.048150264625901697 0.42333228958095942 0 -0.070897394216519652 0.42966475972502483 0 -0.063392682017539267 0.41339734666433331 0 -0.048150264625901697 0.42333228958095942 0 -0.070897394216519652 0.42966475972502483 0 -0.048150264625901697 0.42333228958095942 0 -0.056198943829740028 0.44370871413078289 0 -0.048150264625901697 0.42333228958095942 0 -0.056198943829740028 0.44370871413078289 0 -0.037331621629247518 0.43941930521845129 0 -0.056198943829740028 0.44370871413078289 0 -0.045061685036879608 0.45953073493772217 0 -0.070679964982177587 0.46960752607697231 0 -0.045061685036879608 0.45953073493772217 0 -0.070679964982177587 0.46960752607697231 0 -0.062775298818416522 0.47657999478732183 0 -0.046604247442270791 0.46354404424291829 0 -0.045061685036879608 0.45953073493772217 0 -0.062775298818416522 0.47657999478732183 0 -0.045061685036879608 0.45953073493772217 0 -0.070679964982177587 0.46960752607697231 0 -0.034967685073054783 0.45883671547966731 0 -0.02167372294868674 0.46069017591748379 0 -0.040518229083293028 0.47178183075224012 0 -0.046604247442270791 0.46354404424291829 0 -0.034967685073054783 0.45883671547966731 0 -0.046604247442270791 0.46354404424291829 0 -0.034967685073054783 0.45883671547966731 0 -0.040518229083293028 0.47178183075224012 0 -0.046604247442270791 0.46354404424291829 0 -0.045061685036879608 0.45953073493772217 0 -0.046604247442270791 0.46354404424291829 0 -0.045061685036879608 0.45953073493772217 0 -0.034967685073054783 0.45883671547966731 0 -0.045061685036879608 0.45953073493772217 0 -0.033277848006110652 0.45489563590564291 0 -0.045061685036879608 0.45953073493772217 0 -0.033277848006110652 0.45489563590564291 0 -0.034967685073054783 0.45883671547966731 0 -0.033277848006110652 0.45489563590564291 0 -0.034967685073054783 0.45883671547966731 0 -0.034967685073054783 0.45883671547966731 0 -0.040518229083293028 0.47178183075224012 0 -0.045061685036879608 0.45953073493772217 0 -0.037331621629247518 0.43941930521845129 0 -0.023260922989103591 0.43153391698535298 0 -0.033277848006110652 0.45489563590564291 0 -0.037331621629247518 0.43941930521845129 0 -0.056198943829740028 0.44370871413078289 0 -0.045061685036879608 0.45953073493772217 0 -0.037331621629247518 0.43941930521845129 0 -0.045061685036879608 0.45953073493772217 0 -0.033277848006110652 0.45489563590564291 0 -0.037331621629247518 0.43941930521845129 0 -0.033277848006110652 0.45489563590564291 0 -0.013946006927380039 0.44729157640970818 0 -0.033277848006110652 0.45489563590564291 0 -0.01671607269932324 0.43887614868803138 0 -0.013946006927380039 0.44729157640970818 0 -0.023260922989103591 0.43153391698535298 0 -0.033277848006110652 0.45489563590564291 0 -0.01671607269932324 0.43887614868803138 0 -0.034967685073054783 0.45883671547966731 0 -0.0082520182386178285 0.44752539581358081 0 -0.013946006927380039 0.44729157640970818 0 -0.023260922989103591 0.43153391698535298 0 -0.033277848006110652 0.45489563590564291 0 -0.034967685073054783 0.45883671547966731 0 -0.02167372294868674 0.46069017591748379 0 -0.0082520182386178285 0.44752539581358081 0 -0.033277848006110652 0.45489563590564291 0 -0.034967685073054783 0.45883671547966731 0 -0.013946006927380039 0.44729157640970818 0 -0.02167372294868674 0.46069017591748379 0 -0.040518229083293028 0.47178183075224012 0 -0.034967685073054783 0.45883671547966731 0 -0.0082520182386178285 0.44752539581358081 0 -0.02167372294868674 0.46069017591748379 0 -0.012172756790017621 0.46731455950033618 0 -0.022151344270642949 0.47434409168583758 0 -0.02167372294868674 0.46069017591748379 0 -0.0052704842108084043 0.45796804236960659 0 -0.0028292168140803208 0.44959852108272791 0 -0.02167372294868674 0.46069017591748379 0 -0.012172756790017621 0.46731455950033618 0 -0.0052704842108084043 0.45796804236960659 0 -0.02167372294868674 0.46069017591748379 0 -0.0028292168140803208 0.44959852108272791 0 -0.002540330405828736 0.46770344598872898 0 -0.0052704842108084043 0.45796804236960659 0 0.0073115781214012554 0.46392644178254189 0 -0.012172756790017621 0.46731455950033618 0 -0.002540330405828736 0.46770344598872898 0 -0.0052704842108084043 0.45796804236960659 0 -0.0052704842108084043 0.45796804236960659 0 -0.0028292168140803208 0.44959852108272791 0 0.003686567682114407 0.45348632369656539 0 -0.02167372294868674 0.46069017591748379 0 -0.0028292168140803208 0.44959852108272791 0 -0.0082520182386178285 0.44752539581358081 0 -0.0082520182386178285 0.44752539581358081 0 -0.013946006927380039 0.44729157640970818 0 0.0053858341513508129 0.43968751691377422 0 -0.0079464809977098927 0.43982666850718333 0 -0.013946006927380039 0.44729157640970818 0 0.0053858341513508129 0.43968751691377422 0 -0.013946006927380039 0.44729157640970818 0 0.0053858341513508129 0.43968751691377422 0 -0.0065096785154871162 0.4334514320172197 0 -0.0079464809977098927 0.43982666850718333 0 0.0053858341513508129 0.43968751691377422 0 -0.01671607269932324 0.43887614868803138 0 -0.0079464809977098927 0.43982666850718333 0 -0.013946006927380039 0.44729157640970818 0 -0.014895700762663489 0.48606956374216259 0 0.00079915787713980067 0.48380178818253211 0 0.0018240551682290329 0.5 0 -0.014895700762663489 0.48606956374216259 0 -0.025396712125021152 0.5 0 0.0018240551682290329 0.5 0 -0.014895700762663489 0.48606956374216259 0 -0.0092279021141212624 0.47586704154002413 0 0.00079915787713980067 0.48380178818253211 0 -0.00012984661960833009 0.47462569808089689 0 -0.0092279021141212624 0.47586704154002413 0 0.00079915787713980067 0.48380178818253211 0 -0.002540330405828736 0.46770344598872898 0 -0.00012984661960833009 0.47462569808089689 0 -0.0092279021141212624 0.47586704154002413 0 -0.012172756790017621 0.46731455950033618 0 -0.0092279021141212624 0.47586704154002413 0 -0.022151344270642949 0.47434409168583758 0 -0.012172756790017621 0.46731455950033618 0 -0.002540330405828736 0.46770344598872898 0 -0.0092279021141212624 0.47586704154002413 0 -0.014895700762663489 0.48606956374216259 0 -0.0092279021141212624 0.47586704154002413 0 -0.022151344270642949 0.47434409168583758 0 -0.022151344270642949 0.47434409168583758 0 -0.029905968098480552 0.48361728031127188 0 -0.040518229083293028 0.47178183075224012 0 -0.014895700762663489 0.48606956374216259 0 -0.022151344270642949 0.47434409168583758 0 -0.029905968098480552 0.48361728031127188 0 -0.02167372294868674 0.46069017591748379 0 -0.022151344270642949 0.47434409168583758 0 -0.040518229083293028 0.47178183075224012 0 -0.014895700762663489 0.48606956374216259 0 -0.029905968098480552 0.48361728031127188 0 -0.025396712125021152 0.5 0 -0.029905968098480552 0.48361728031127188 0 -0.025396712125021152 0.5 0 -0.04656785425078229 0.4858909153761195 0 -0.025396712125021152 0.5 0 -0.04656785425078229 0.4858909153761195 0 -0.052617479418271322 0.49999999999999889 0 -0.029905968098480552 0.48361728031127188 0 -0.04656785425078229 0.4858909153761195 0 -0.040518229083293028 0.47178183075224012 0 -0.04656785425078229 0.4858909153761195 0 -0.040518229083293028 0.47178183075224012 0 -0.052475680746667107 0.47881984626753521 0 -0.04656785425078229 0.4858909153761195 0 -0.040518229083293028 0.47178183075224012 0 -0.040518229083293028 0.47178183075224012 0 -0.052475680746667107 0.47881984626753521 0 -0.046604247442270791 0.46354404424291829 0 -0.040518229083293028 0.47178183075224012 0 -0.052475680746667107 0.47881984626753521 0 -0.046604247442270791 0.46354404424291829 0 -0.052475680746667107 0.47881984626753521 0 -0.062775298818416522 0.47657999478732183 0 -0.04656785425078229 0.4858909153761195 0 -0.052475680746667107 0.47881984626753521 0 -0.065816481175558564 0.48667208460796457 0 -0.046604247442270791 0.46354404424291829 0 -0.052475680746667107 0.47881984626753521 0 -0.052475680746667107 0.47881984626753521 0 -0.065816481175558564 0.48667208460796457 0 -0.052475680746667107 0.47881984626753521 0 -0.065816481175558564 0.48667208460796457 0 -0.062775298818416522 0.47657999478732183 0 -0.04656785425078229 0.4858909153761195 0 -0.052617479418271322 0.49999999999999889 0 -0.065816481175558564 0.48667208460796457 0 -0.04656785425078229 0.4858909153761195 0 -0.052617479418271322 0.49999999999999889 0 -0.052617479418271322 0.49999999999999889 0 -0.065816481175558564 0.48667208460796457 0 -0.076783173756613698 0.5 0 -0.065816481175558564 0.48667208460796457 0 -0.079157281604449653 0.4945243229483946 0 -0.065816481175558564 0.48667208460796457 0 -0.079157281604449653 0.4945243229483946 0 -0.077071915001247299 0.48235756171887451 0 -0.065816481175558564 0.48667208460796457 0 -0.076783173756613698 0.5 0 -0.079157281604449653 0.4945243229483946 0 -0.076783173756613698 0.5 0 -0.079157281604449653 0.4945243229483946 0 -0.1009488680949561 0.5 0 -0.079157281604449653 0.4945243229483946 0 -0.087704218499405892 0.48707712467637099 0 -0.1009488680949561 0.5 0 -0.079157281604449653 0.4945243229483946 0 -0.087704218499405892 0.48707712467637099 0 -0.077071915001247299 0.48235756171887451 0 -0.087704218499405892 0.48707712467637099 0 -0.077071915001247299 0.48235756171887451 0 -0.096298244927475754 0.47968431721622218 0 -0.070679964982177587 0.46960752607697231 0 -0.077071915001247299 0.48235756171887451 0 -0.096298244927475754 0.47968431721622218 0 -0.070679964982177587 0.46960752607697231 0 -0.090183560846067157 0.4573600769721341 0 -0.096298244927475754 0.47968431721622218 0 -0.070679964982177587 0.46960752607697231 0 -0.096298244927475754 0.47968431721622218 0 -0.065816481175558564 0.48667208460796457 0 -0.077071915001247299 0.48235756171887451 0 -0.062775298818416522 0.47657999478732183 0 -0.070679964982177587 0.46960752607697231 0 -0.077071915001247299 0.48235756171887451 0 -0.062775298818416522 0.47657999478732183 0 -0.056198943829740028 0.44370871413078289 0 -0.070679964982177587 0.46960752607697231 0 -0.074978646937666524 0.44678216154403422 0 -0.070897394216519652 0.42966475972502483 0 -0.056198943829740028 0.44370871413078289 0 -0.074978646937666524 0.44678216154403422 0 -0.086768300881779337 0.43579822490980907 0 -0.074978646937666524 0.44678216154403422 0 -0.090183560846067157 0.4573600769721341 0 -0.070679964982177587 0.46960752607697231 0 -0.074978646937666524 0.44678216154403422 0 -0.090183560846067157 0.4573600769721341 0 -0.090183560846067157 0.4573600769721341 0 -0.1058584654811647 0.43834935129496932 0 -0.1104008496022905 0.46419516796255139 0 -0.090183560846067157 0.4573600769721341 0 -0.1104008496022905 0.46419516796255139 0 -0.096298244927475754 0.47968431721622218 0 -0.086768300881779337 0.43579822490980907 0 -0.090183560846067157 0.4573600769721341 0 -0.1058584654811647 0.43834935129496932 0 -0.1058584654811647 0.43834935129496932 0 -0.12158038773696279 0.44854983512302959 0 -0.11426656512281699 0.46526886663461281 0 -0.12264901134588251 0.43451991405170193 0 -0.1058584654811647 0.43834935129496932 0 -0.12158038773696279 0.44854983512302959 0 -0.1058584654811647 0.43834935129496932 0 -0.11426656512281699 0.46526886663461281 0 -0.1058584654811647 0.43834935129496932 0 -0.11426656512281699 0.46526886663461281 0 -0.1104008496022905 0.46419516796255139 0 -0.13223053434710891 0.45763418418521312 0 -0.12158038773696279 0.44854983512302959 0 -0.11426656512281699 0.46526886663461281 0 -0.11426656512281699 0.46526886663461281 0 -0.1104008496022905 0.46419516796255139 0 -0.11426656512281699 0.46526886663461281 0 -0.1219165248727736 0.48976110835547237 0 -0.11426656512281699 0.46526886663461281 0 -0.1219165248727736 0.48976110835547237 0 -0.096298244927475754 0.47968431721622218 0 -0.1301483348096856 0.48064658129655841 0 -0.11426656512281699 0.46526886663461281 0 -0.1219165248727736 0.48976110835547237 0 -0.12511456243329849 0.50000000000000067 0 -0.1219165248727736 0.48976110835547237 0 -0.1009488680949561 0.5 0 -0.12511456243329849 0.50000000000000067 0 -0.1219165248727736 0.48976110835547237 0 -0.1219165248727736 0.48976110835547237 0 -0.1009488680949561 0.5 0 -0.096298244927475754 0.47968431721622218 0 -0.087704218499405892 0.48707712467637099 0 -0.1009488680949561 0.5 0 -0.096298244927475754 0.47968431721622218 0 -0.1219165248727736 0.48976110835547237 0 -0.096298244927475754 0.47968431721622218 0 -0.11426656512281699 0.46526886663461281 0 -0.1104008496022905 0.46419516796255139 0 -0.096298244927475754 0.47968431721622218 0 -0.1770702696508146 0.088677410764117462 0 -0.15543419256272969 0.10446646052590899 0 -0.15401077940574531 0.077709950420596308 0 -0.1770702696508146 0.088677410764117462 0 -0.15401077940574531 0.077709950420596308 0 -0.17590720216990241 0.062306541858710929 0 -0.15401077940574531 0.077709950420596308 0 -0.1525873662487584 0.050953440315283788 0 -0.17590720216990241 0.062306541858710929 0 -0.1770702696508146 0.088677410764117462 0 -0.17590720216990241 0.062306541858710929 0 -0.1987183493818945 0.072904808484157618 0 -0.1770702696508146 0.088677410764117462 0 -0.18734753996278461 0.102177812519857 0 -0.17180206851676219 0.1089769370617566 0 -0.17180206851676219 0.1089769370617566 0 -0.1887542232679254 0.1178756706855139 0 -0.17364348522165729 0.1258547611616187 0 -0.18734753996278461 0.102177812519857 0 -0.17180206851676219 0.1089769370617566 0 -0.1887542232679254 0.1178756706855139 0 -0.1560051259911866 0.1151985420532872 0 -0.1569454019514277 0.13287331420812989 0 -0.17364348522165729 0.1258547611616187 0 -0.17180206851676219 0.1089769370617566 0 -0.1560051259911866 0.1151985420532872 0 -0.17364348522165729 0.1258547611616187 0 -0.1560051259911866 0.1151985420532872 0 -0.1569454019514277 0.13287331420812989 0 -0.17180206851676219 0.1089769370617566 0 -0.15543419256272969 0.10446646052590899 0 -0.1560051259911866 0.1151985420532872 0 -0.1560051259911866 0.1151985420532872 0 -0.17364348522165729 0.1258547611616187 0 -0.1770702696508146 0.088677410764117462 0 -0.15543419256272969 0.10446646052590899 0 -0.1770702696508146 0.088677410764117462 0 -0.17180206851676219 0.1089769370617566 0 -0.15543419256272969 0.10446646052590899 0 -0.15543419256272969 0.10446646052590899 0 -0.1429417351227355 0.095524447412523736 0 -0.14764717259857771 0.1101490824360378 0 -0.15543419256272969 0.10446646052590899 0 -0.14764717259857771 0.1101490824360378 0 -0.1560051259911866 0.1151985420532872 0 -0.14611929128669859 0.12328695656161121 0 -0.1569454019514277 0.13287331420812989 0 -0.1560051259911866 0.1151985420532872 0 -0.14764717259857771 0.1101490824360378 0 -0.1560051259911866 0.1151985420532872 0 -0.14764717259857771 0.1101490824360378 0 -0.14611929128669859 0.12328695656161121 0 -0.15543419256272969 0.10446646052590899 0 -0.1560051259911866 0.1151985420532872 0 -0.14764717259857771 0.1101490824360378 0 -0.15543419256272969 0.10446646052590899 0 -0.1560051259911866 0.1151985420532872 0 -0.14764717259857771 0.1101490824360378 0 -0.13396385679810219 0.1201345596184516 0 -0.14764717259857771 0.1101490824360378 0 -0.14611929128669859 0.12328695656161121 0 -0.13396385679810219 0.1201345596184516 0 -0.14764717259857771 0.1101490824360378 0 -0.13396385679810219 0.1201345596184516 0 -0.12780696903317659 0.098162618526083323 0 -0.13396385679810219 0.1201345596184516 0 -0.12780696903317659 0.098162618526083323 0 -0.12184853691571421 0.11835011368002001 0 -0.14611929128669859 0.12328695656161121 0 -0.13396385679810219 0.1201345596184516 0 -0.13829875673924441 0.1297618807717682 0 -0.13396385679810219 0.1201345596184516 0 -0.12028054099762631 0.13012003680086459 0 -0.12184853691571421 0.11835011368002001 0 -0.1429417351227355 0.095524447412523736 0 -0.14764717259857771 0.1101490824360378 0 -0.12780696903317659 0.098162618526083323 0 -0.14764717259857771 0.1101490824360378 0 -0.12780696903317659 0.098162618526083323 0 -0.1429417351227355 0.095524447412523736 0 -0.12780696903317659 0.098162618526083323 0 -0.13305303690383161 0.08352651876960146 0 -0.15543419256272969 0.10446646052590899 0 -0.15401077940574531 0.077709950420596308 0 -0.1429417351227355 0.095524447412523736 0 -0.13305303690383161 0.08352651876960146 0 -0.15401077940574531 0.077709950420596308 0 -0.15543419256272969 0.10446646052590899 0 -0.1429417351227355 0.095524447412523736 0 -0.15401077940574531 0.077709950420596308 0 -0.15401077940574531 0.077709950420596308 0 -0.1525873662487584 0.050953440315283788 0 -0.15401077940574531 0.077709950420596308 0 -0.1277319973666067 0.066678414431113137 0 -0.1525873662487584 0.050953440315283788 0 -0.13305303690383161 0.08352651876960146 0 -0.15401077940574531 0.077709950420596308 0 -0.1277319973666067 0.066678414431113137 0 -0.1277319973666067 0.066678414431113137 0 -0.1525873662487584 0.050953440315283788 0 -0.1224948028051992 0.047496469063538549 0 -0.13553305014057851 0.0307580020127095 0 -0.1176673902139687 0.02572409622204553 0 -0.1224948028051992 0.047496469063538549 0 -0.1525873662487584 0.050953440315283788 0 -0.13553305014057851 0.0307580020127095 0 -0.1224948028051992 0.047496469063538549 0 -0.1525873662487584 0.050953440315283788 0 -0.13553305014057851 0.0307580020127095 0 -0.1511639530917715 0.02419693020997124 0 -0.1525873662487584 0.050953440315283788 0 -0.1511639530917715 0.02419693020997124 0 -0.1289042152683513 0.0036931705937147661 0 -0.13553305014057851 0.0307580020127095 0 -0.1480717631732047 0.0053903871034023214 0 -0.1289042152683513 0.0036931705937147661 0 -0.13553305014057851 0.0307580020127095 0 -0.1176673902139687 0.02572409622204553 0 -0.13553305014057851 0.0307580020127095 0 -0.1511639530917715 0.02419693020997124 0 -0.1480717631732047 0.0053903871034023214 0 -0.1511639530917715 0.02419693020997124 0 -0.1480717631732047 0.0053903871034023214 0 -0.17339482477880311 0.0046843474987315293 0 -0.1511639530917715 0.02419693020997124 0 -0.17339482477880311 0.0046843474987315293 0 -0.1748275829039542 0.035756092474644723 0 -0.17339482477880311 0.0046843474987315293 0 -0.1748275829039542 0.035756092474644723 0 -0.19773938147460041 0.022770288902773751 0 -0.1525873662487584 0.050953440315283788 0 -0.1748275829039542 0.035756092474644723 0 -0.17590720216990241 0.062306541858710929 0 -0.1525873662487584 0.050953440315283788 0 -0.1511639530917715 0.02419693020997124 0 -0.1748275829039542 0.035756092474644723 0 -0.1748275829039542 0.035756092474644723 0 -0.17590720216990241 0.062306541858710929 0 -0.19822886542824741 0.047837548693465688 0 -0.19822886542824741 0.047837548693465688 0 -0.1987183493818945 0.072904808484157618 0 -0.17590720216990241 0.062306541858710929 0 -0.19822886542824741 0.047837548693465688 0 -0.1987183493818945 0.072904808484157618 0 -0.19822886542824741 0.047837548693465688 0 -0.19773938147460041 0.022770288902773751 0 -0.1748275829039542 0.035756092474644723 0 -0.19822886542824741 0.047837548693465688 0 -0.19773938147460041 0.022770288902773751 0 -0.19822886542824741 0.047837548693465688 0 -0.21461107166077789 0.035361578774645283 0 -0.21352716769829791 0.046633998098229788 0 -0.19822886542824741 0.047837548693465688 0 -0.21461107166077789 0.035361578774645283 0 -0.19773938147460041 0.022770288902773751 0 -0.21461107166077789 0.035361578774645283 0 -0.21352716769829791 0.046633998098229788 0 -0.226232688598729 0.046352039701885298 0 -0.19822886542824741 0.047837548693465688 0 -0.21890334646785359 0.05814948609163835 0 -0.1987183493818945 0.072904808484157618 0 -0.19822886542824741 0.047837548693465688 0 -0.21352716769829791 0.046633998098229788 0 -0.21890334646785359 0.05814948609163835 0 -0.19724989752095329 -0.0022969708879181862 0 -0.19773938147460041 0.022770288902773751 0 -0.19724989752095329 -0.0022969708879181862 0 -0.17339482477880311 0.0046843474987315293 0 -0.19773938147460041 0.022770288902773751 0 -0.21461107166077789 0.035361578774645283 0 -0.19773938147460041 0.022770288902773751 0 -0.2148301569220778 0.022565888676319229 0 -0.19773938147460041 0.022770288902773751 0 -0.2148301569220778 0.022565888676319229 0 -0.21498890758927561 0.01013199725759904 0 -0.21461107166077789 0.035361578774645283 0 -0.2148301569220778 0.022565888676319229 0 -0.22278179651010691 0.027577556745733981 0 -0.19724989752095329 -0.0022969708879181862 0 -0.19773938147460041 0.022770288902773751 0 -0.21498890758927561 0.01013199725759904 0 -0.19724989752095329 -0.0022969708879181862 0 -0.21392853364036579 -0.0033176694410896532 0 -0.21498890758927561 0.01013199725759904 0 -0.21392853364036579 -0.0033176694410896532 0 -0.21498890758927561 0.01013199725759904 0 -0.22558511437967621 0.0017107284761218491 0 -0.22558511437967621 0.0017107284761218491 0 -0.22880996486729269 0.010553900169298349 0 -0.2376792400997387 0.0056738125745543124 0 -0.23309364173555941 -0.0042944221710940287 0 -0.22558511437967621 0.0017107284761218491 0 -0.2376792400997387 0.0056738125745543124 0 -0.21498890758927561 0.01013199725759904 0 -0.22558511437967621 0.0017107284761218491 0 -0.22880996486729269 0.010553900169298349 0 -0.21498890758927561 0.01013199725759904 0 -0.22880996486729269 0.010553900169298349 0 -0.22677930431996349 0.018937814907687919 0 -0.22880996486729269 0.010553900169298349 0 -0.2353348783768931 0.013409601280728069 0 -0.2376792400997387 0.0056738125745543124 0 -0.22880996486729269 0.010553900169298349 0 -0.22677930431996349 0.018937814907687919 0 -0.2353348783768931 0.013409601280728069 0 -0.22677930431996349 0.018937814907687919 0 -0.23779877707816091 0.02109943946045412 0 -0.2353348783768931 0.013409601280728069 0 -0.22677930431996349 0.018937814907687919 0 -0.2310560416342764 0.02854155355478805 0 -0.23779877707816091 0.02109943946045412 0 -0.2148301569220778 0.022565888676319229 0 -0.21498890758927561 0.01013199725759904 0 -0.22677930431996349 0.018937814907687919 0 -0.2148301569220778 0.022565888676319229 0 -0.22677930431996349 0.018937814907687919 0 -0.22278179651010691 0.027577556745733981 0 -0.22278179651010691 0.027577556745733981 0 -0.2310560416342764 0.02854155355478805 0 -0.22695284841228219 0.035431621820207253 0 -0.22677930431996349 0.018937814907687919 0 -0.22278179651010691 0.027577556745733981 0 -0.2310560416342764 0.02854155355478805 0 -0.2310560416342764 0.02854155355478805 0 -0.23935973817954151 0.029285820876063282 0 -0.23518623740517811 0.035190806562931873 0 -0.23935973817954151 0.029285820876063282 0 -0.2478918613503 0.024578192860588641 0 -0.23779877707816091 0.02109943946045412 0 -0.2310560416342764 0.02854155355478805 0 -0.23935973817954151 0.029285820876063282 0 -0.23779877707816091 0.02109943946045412 0 -0.25441423010715641 0.032627046912229347 0 -0.2455801322317081 0.030687492735043401 0 -0.2478918613503 0.024578192860588641 0 -0.23935973817954151 0.029285820876063282 0 -0.2455801322317081 0.030687492735043401 0 -0.2478918613503 0.024578192860588641 0 -0.2478918613503 0.024578192860588641 0 -0.23779877707816091 0.02109943946045412 0 -0.2447355238744853 0.01451694924518121 0 -0.23779877707816091 0.02109943946045412 0 -0.2353348783768931 0.013409601280728069 0 -0.2447355238744853 0.01451694924518121 0 -0.2353348783768931 0.013409601280728069 0 -0.2447355238744853 0.01451694924518121 0 -0.2376792400997387 0.0056738125745543124 0 -0.2511806455824796 0.0060036871011076654 0 -0.2447355238744853 0.01451694924518121 0 -0.2376792400997387 0.0056738125745543124 0 -0.24435266819055859 -0.0031670696005617009 0 -0.2511806455824796 0.0060036871011076654 0 -0.2376792400997387 0.0056738125745543124 0 -0.21890334646785359 0.05814948609163835 0 -0.23569737268285379 0.053713724790858203 0 -0.23768477329462501 0.060271636488988978 0 -0.21890334646785359 0.05814948609163835 0 -0.2391003461968062 0.043410611180948799 0 -0.23569737268285379 0.053713724790858203 0 -0.21890334646785359 0.05814948609163835 0 -0.226232688598729 0.046352039701885298 0 -0.2391003461968062 0.043410611180948799 0 -0.21890334646785359 0.05814948609163835 0 -0.2391003461968062 0.043410611180948799 0 -0.21352716769829791 0.046633998098229788 0 -0.21890334646785359 0.05814948609163835 0 -0.226232688598729 0.046352039701885298 0 -0.21461107166077789 0.035361578774645283 0 -0.22278179651010691 0.027577556745733981 0 -0.22695284841228219 0.035431621820207253 0 -0.21461107166077789 0.035361578774645283 0 -0.226232688598729 0.046352039701885298 0 -0.22695284841228219 0.035431621820207253 0 -0.2310560416342764 0.02854155355478805 0 -0.22695284841228219 0.035431621820207253 0 -0.23518623740517811 0.035190806562931873 0 -0.22695284841228219 0.035431621820207253 0 -0.23200947486404649 0.041041532583747958 0 -0.23518623740517811 0.035190806562931873 0 -0.226232688598729 0.046352039701885298 0 -0.2391003461968062 0.043410611180948799 0 -0.226232688598729 0.046352039701885298 0 -0.22695284841228219 0.035431621820207253 0 -0.23200947486404649 0.041041532583747958 0 -0.226232688598729 0.046352039701885298 0 -0.23200947486404649 0.041041532583747958 0 -0.2391003461968062 0.043410611180948799 0 -0.26335106303830452 0.037867119708076123 0 -0.2420305313811334 0.041272291951533147 0 -0.2391003461968062 0.043410611180948799 0 -0.26335106303830452 0.037867119708076123 0 -0.2391003461968062 0.043410611180948799 0 -0.24710102477213031 0.053023165401856677 0 -0.23200947486404649 0.041041532583747958 0 -0.23825145472294429 0.039170549049084173 0 -0.2391003461968062 0.043410611180948799 0 -0.23825145472294429 0.039170549049084173 0 -0.2420305313811334 0.041272291951533147 0 -0.2391003461968062 0.043410611180948799 0 -0.2420305313811334 0.041272291951533147 0 -0.2391003461968062 0.043410611180948799 0 -0.23200947486404649 0.041041532583747958 0 -0.23825145472294429 0.039170549049084173 0 -0.23518623740517811 0.035190806562931873 0 -0.23825145472294429 0.039170549049084173 0 -0.23518623740517811 0.035190806562931873 0 -0.24236168461240401 0.03528036380963491 0 -0.23825145472294429 0.039170549049084173 0 -0.2420305313811334 0.041272291951533147 0 -0.24236168461240401 0.03528036380963491 0 -0.23935973817954151 0.029285820876063282 0 -0.23518623740517811 0.035190806562931873 0 -0.24236168461240401 0.03528036380963491 0 -0.25441423010715641 0.032627046912229347 0 -0.2420305313811334 0.041272291951533147 0 -0.24236168461240401 0.03528036380963491 0 -0.25441423010715641 0.032627046912229347 0 -0.2455801322317081 0.030687492735043401 0 -0.24236168461240401 0.03528036380963491 0 -0.23935973817954151 0.029285820876063282 0 -0.2455801322317081 0.030687492735043401 0 -0.24236168461240401 0.03528036380963491 0 -0.25540908252446171 0.064273543041139872 0 -0.24710102477213031 0.053023165401856677 0 -0.23768477329462501 0.060271636488988978 0 -0.2391003461968062 0.043410611180948799 0 -0.24710102477213031 0.053023165401856677 0 -0.23569737268285379 0.053713724790858203 0 -0.24710102477213031 0.053023165401856677 0 -0.23569737268285379 0.053713724790858203 0 -0.23768477329462501 0.060271636488988978 0 -0.25540908252446171 0.064273543041139872 0 -0.2458374903262652 0.088891741327123644 0 -0.22776942259976221 0.073306608392864486 0 -0.25540908252446171 0.064273543041139872 0 -0.23768477329462501 0.060271636488988978 0 -0.22776942259976221 0.073306608392864486 0 -0.25540908252446171 0.064273543041139872 0 -0.22776942259976221 0.073306608392864486 0 -0.2458374903262652 0.088891741327123644 0 -0.22776942259976221 0.073306608392864486 0 -0.23284560271843929 0.094885040822305991 0 -0.22776942259976221 0.073306608392864486 0 -0.21865321200467769 0.093072631298696085 0 -0.2131684791212918 0.07855780148424811 0 -0.22776942259976221 0.073306608392864486 0 -0.21865321200467769 0.093072631298696085 0 -0.23284560271843929 0.094885040822305991 0 -0.21890334646785359 0.05814948609163835 0 -0.22776942259976221 0.073306608392864486 0 -0.2131684791212918 0.07855780148424811 0 -0.21890334646785359 0.05814948609163835 0 -0.23768477329462501 0.060271636488988978 0 -0.22776942259976221 0.073306608392864486 0 -0.21890334646785359 0.05814948609163835 0 -0.1987183493818945 0.072904808484157618 0 -0.21890334646785359 0.05814948609163835 0 -0.2131684791212918 0.07855780148424811 0 -0.1987183493818945 0.072904808484157618 0 -0.2131684791212918 0.07855780148424811 0 -0.19943115294232011 0.090362675469188705 0 -0.1987183493818945 0.072904808484157618 0 -0.21865321200467769 0.093072631298696085 0 -0.2131684791212918 0.07855780148424811 0 -0.19943115294232011 0.090362675469188705 0 -0.1770702696508146 0.088677410764117462 0 -0.18734753996278461 0.102177812519857 0 -0.19943115294232011 0.090362675469188705 0 -0.1770702696508146 0.088677410764117462 0 -0.19943115294232011 0.090362675469188705 0 -0.1987183493818945 0.072904808484157618 0 -0.1770702696508146 0.088677410764117462 0 -0.1987183493818945 0.072904808484157618 0 -0.1887542232679254 0.1178756706855139 0 -0.20214198387360441 0.1072564355391474 0 -0.2044033480343023 0.1247389922702256 0 -0.18734753996278461 0.102177812519857 0 -0.19943115294232011 0.090362675469188705 0 -0.20214198387360441 0.1072564355391474 0 -0.18734753996278461 0.102177812519857 0 -0.1887542232679254 0.1178756706855139 0 -0.20214198387360441 0.1072564355391474 0 -0.21865321200467769 0.093072631298696085 0 -0.19943115294232011 0.090362675469188705 0 -0.20214198387360441 0.1072564355391474 0 -0.21865321200467769 0.093072631298696085 0 -0.20214198387360441 0.1072564355391474 0 -0.21665054697359129 0.11290035743059949 0 -0.21665054697359129 0.11290035743059949 0 -0.2044033480343023 0.1247389922702256 0 -0.2216235065364339 0.12850989387118561 0 -0.20214198387360441 0.1072564355391474 0 -0.21665054697359129 0.11290035743059949 0 -0.2044033480343023 0.1247389922702256 0 -0.21665054697359129 0.11290035743059949 0 -0.2326830523554432 0.11141899621406701 0 -0.2216235065364339 0.12850989387118561 0 -0.2326830523554432 0.11141899621406701 0 -0.23709742796101221 0.13054138298008 0 -0.2216235065364339 0.12850989387118561 0 -0.21865321200467769 0.093072631298696085 0 -0.21665054697359129 0.11290035743059949 0 -0.2326830523554432 0.11141899621406701 0 -0.21865321200467769 0.093072631298696085 0 -0.2326830523554432 0.11141899621406701 0 -0.23284560271843929 0.094885040822305991 0 -0.25254032146875027 0.1054194192194756 0 -0.2326830523554432 0.11141899621406701 0 -0.23284560271843929 0.094885040822305991 0 -0.25254032146875027 0.1054194192194756 0 -0.2458374903262652 0.088891741327123644 0 -0.23284560271843929 0.094885040822305991 0 -0.25028749714294168 0.1243589268005264 0 -0.25254032146875027 0.1054194192194756 0 -0.2326830523554432 0.11141899621406701 0 -0.25028749714294168 0.1243589268005264 0 -0.2326830523554432 0.11141899621406701 0 -0.23709742796101221 0.13054138298008 0 -0.25028749714294168 0.1243589268005264 0 -0.24934602627276969 0.13996994926851331 0 -0.23709742796101221 0.13054138298008 0 -0.24934602627276969 0.13996994926851331 0 -0.23709742796101221 0.13054138298008 0 -0.2366769770624822 0.14532839491326999 0 -0.2216235065364339 0.12850989387118561 0 -0.2366769770624822 0.14532839491326999 0 -0.2089202036826002 0.14716719937827941 0 -0.23709742796101221 0.13054138298008 0 -0.2216235065364339 0.12850989387118561 0 -0.2366769770624822 0.14532839491326999 0 -0.2366769770624822 0.14532839491326999 0 -0.2290239214413485 0.15931286545356901 0 -0.2089202036826002 0.14716719937827941 0 -0.2290239214413485 0.15931286545356901 0 -0.2089202036826002 0.14716719937827941 0 -0.2366769770624822 0.14532839491326999 0 -0.2089202036826002 0.14716719937827941 0 -0.2366769770624822 0.14532839491326999 0 -0.24900748786687429 0.1546158918902473 0 -0.2290239214413485 0.15931286545356901 0 -0.24934602627276969 0.13996994926851331 0 -0.2366769770624822 0.14532839491326999 0 -0.24900748786687429 0.1546158918902473 0 -0.24900748786687429 0.1546158918902473 0 -0.2491276392000977 0.17145853152885709 0 -0.2290239214413485 0.15931286545356901 0 -0.2491276392000977 0.17145853152885709 0 -0.2290239214413485 0.15931286545356901 0 -0.2491276392000977 0.17145853152885709 0 -0.22928061515361681 0.1820701899660048 0 -0.2290239214413485 0.15931286545356901 0 -0.2491276392000977 0.17145853152885709 0 -0.22928061515361681 0.1820701899660048 0 -0.24660498877890061 0.1877491309101994 0 -0.22928061515361681 0.1820701899660048 0 -0.21982509058244629 0.16949961341658201 0 -0.21346724826313371 0.18418450789604859 0 -0.2290239214413485 0.15931286545356901 0 -0.21982509058244629 0.16949961341658201 0 -0.2089202036826002 0.14716719937827941 0 -0.22928061515361681 0.1820701899660048 0 -0.2290239214413485 0.15931286545356901 0 -0.21982509058244629 0.16949961341658201 0 -0.20610828243127499 0.1700517072647838 0 -0.19623832511918751 0.1590654939978047 0 -0.2089202036826002 0.14716719937827941 0 -0.21982509058244629 0.16949961341658201 0 -0.20610828243127499 0.1700517072647838 0 -0.2089202036826002 0.14716719937827941 0 -0.20610828243127499 0.1700517072647838 0 -0.21346724826313371 0.18418450789604859 0 -0.19753060531956229 0.1845306981703331 0 -0.21982509058244629 0.16949961341658201 0 -0.20610828243127499 0.1700517072647838 0 -0.21346724826313371 0.18418450789604859 0 -0.19753060531956229 0.1845306981703331 0 -0.18114739602644769 0.1915827121944417 0 -0.18652187356574351 0.1701854264775314 0 -0.20610828243127499 0.1700517072647838 0 -0.19753060531956229 0.1845306981703331 0 -0.18652187356574351 0.1701854264775314 0 -0.20610828243127499 0.1700517072647838 0 -0.19623832511918751 0.1590654939978047 0 -0.18652187356574351 0.1701854264775314 0 -0.19623832511918751 0.1590654939978047 0 -0.1834029407971314 0.1488576428706255 0 -0.18652187356574351 0.1701854264775314 0 -0.2089202036826002 0.14716719937827941 0 -0.1834029407971314 0.1488576428706255 0 -0.1912818444521284 0.13651098026994971 0 -0.2089202036826002 0.14716719937827941 0 -0.1834029407971314 0.1488576428706255 0 -0.19623832511918751 0.1590654939978047 0 -0.2089202036826002 0.14716719937827941 0 -0.1834029407971314 0.1488576428706255 0 -0.1912818444521284 0.13651098026994971 0 -0.2089202036826002 0.14716719937827941 0 -0.2044033480343023 0.1247389922702256 0 -0.1912818444521284 0.13651098026994971 0 -0.2089202036826002 0.14716719937827941 0 -0.1887542232679254 0.1178756706855139 0 -0.2044033480343023 0.1247389922702256 0 -0.1912818444521284 0.13651098026994971 0 -0.2044033480343023 0.1247389922702256 0 -0.2216235065364339 0.12850989387118561 0 -0.2089202036826002 0.14716719937827941 0 -0.22480727068720499 0.2507498063256724 0 -0.2299974450098021 0.23107710017950439 0 -0.21108186579293781 0.23952170856393851 0 -0.22480727068720499 0.2507498063256724 0 -0.23738482535905969 0.245080794879867 0 -0.2299974450098021 0.23107710017950439 0 -0.25312730452603122 0.23956148187864251 0 -0.24073283793148881 0.2599430092145163 0 -0.23738482535905969 0.245080794879867 0 -0.25312730452603122 0.23956148187864251 0 -0.23738482535905969 0.245080794879867 0 -0.2299974450098021 0.23107710017950439 0 -0.25312730452603122 0.23956148187864251 0 -0.2299974450098021 0.23107710017950439 0 -0.24404014068406429 0.21872308601562079 0 -0.2299974450098021 0.23107710017950439 0 -0.22883960315600499 0.213832613637195 0 -0.21190881978979539 0.21796204349126841 0 -0.2299974450098021 0.23107710017950439 0 -0.22883960315600499 0.213832613637195 0 -0.24404014068406429 0.21872308601562079 0 -0.22883960315600499 0.213832613637195 0 -0.23699629141132711 0.20138807715915369 0 -0.22125531888503641 0.2000127613404277 0 -0.22883960315600499 0.213832613637195 0 -0.22125531888503641 0.2000127613404277 0 -0.21190881978979539 0.21796204349126841 0 -0.25488177729238148 0.20209275599548221 0 -0.24404014068406429 0.21872308601562079 0 -0.23699629141132711 0.20138807715915369 0 -0.22883960315600499 0.213832613637195 0 -0.24404014068406429 0.21872308601562079 0 -0.23699629141132711 0.20138807715915369 0 -0.25488177729238148 0.20209275599548221 0 -0.23699629141132711 0.20138807715915369 0 -0.24660498877890061 0.1877491309101994 0 -0.22928061515361681 0.1820701899660048 0 -0.23699629141132711 0.20138807715915369 0 -0.24660498877890061 0.1877491309101994 0 -0.22928061515361681 0.1820701899660048 0 -0.23699629141132711 0.20138807715915369 0 -0.22125531888503641 0.2000127613404277 0 -0.22928061515361681 0.1820701899660048 0 -0.21346724826313371 0.18418450789604859 0 -0.22125531888503641 0.2000127613404277 0 -0.21346724826313371 0.18418450789604859 0 -0.19753060531956229 0.1845306981703331 0 -0.20539013891096469 0.19840175644703359 0 -0.21346724826313371 0.18418450789604859 0 -0.22125531888503641 0.2000127613404277 0 -0.20539013891096469 0.19840175644703359 0 -0.19391002381787559 0.19636920560900581 0 -0.19153217964365071 0.2098806060861963 0 -0.18114739602644769 0.1915827121944417 0 -0.19753060531956229 0.1845306981703331 0 -0.19391002381787559 0.19636920560900581 0 -0.18114739602644769 0.1915827121944417 0 -0.19753060531956229 0.1845306981703331 0 -0.20539013891096469 0.19840175644703359 0 -0.19391002381787559 0.19636920560900581 0 -0.20539013891096469 0.19840175644703359 0 -0.19391002381787559 0.19636920560900581 0 -0.19153217964365071 0.2098806060861963 0 -0.20539013891096469 0.19840175644703359 0 -0.19153217964365071 0.2098806060861963 0 -0.21190881978979539 0.21796204349126841 0 -0.19153217964365071 0.2098806060861963 0 -0.21190881978979539 0.21796204349126841 0 -0.19762899666187031 0.22341395709378051 0 -0.22125531888503641 0.2000127613404277 0 -0.20539013891096469 0.19840175644703359 0 -0.21190881978979539 0.21796204349126841 0 -0.21190881978979539 0.21796204349126841 0 -0.19762899666187031 0.22341395709378051 0 -0.21108186579293781 0.23952170856393851 0 -0.2299974450098021 0.23107710017950439 0 -0.21190881978979539 0.21796204349126841 0 -0.21108186579293781 0.23952170856393851 0 -0.19153217964365071 0.2098806060861963 0 -0.19762899666187031 0.22341395709378051 0 -0.18215575533378961 0.226333071150469 0 -0.19762899666187031 0.22341395709378051 0 -0.1926815934582656 0.23693023595674911 0 -0.21108186579293781 0.23952170856393851 0 -0.19762899666187031 0.22341395709378051 0 -0.1926815934582656 0.23693023595674911 0 -0.18215575533378961 0.226333071150469 0 -0.1926815934582656 0.23693023595674911 0 -0.1996891956023244 0.2484379794903481 0 -0.21108186579293781 0.23952170856393851 0 -0.18558547935525149 0.2507341425259047 0 -0.1926815934582656 0.23693023595674911 0 -0.1996891956023244 0.2484379794903481 0 -0.22480727068720499 0.2507498063256724 0 -0.20824365681318621 0.25972678944317079 0 -0.21108186579293781 0.23952170856393851 0 -0.20824365681318621 0.25972678944317079 0 -0.1996891956023244 0.2484379794903481 0 -0.21108186579293781 0.23952170856393851 0 -0.16090034084645971 0.25013721452634491 0 -0.1656819509599389 0.2327221559387824 0 -0.15035549185723129 0.23543949892274449 0 -0.16090034084645971 0.25013721452634491 0 -0.17618703261833621 0.2416413728622408 0 -0.1656819509599389 0.2327221559387824 0 -0.16090034084645971 0.25013721452634491 0 -0.1656819509599389 0.2327221559387824 0 -0.1727604863792532 0.25381268665708989 0 -0.16090034084645971 0.25013721452634491 0 -0.17618703261833621 0.2416413728622408 0 -0.1926815934582656 0.23693023595674911 0 -0.17618703261833621 0.2416413728622408 0 -0.18215575533378961 0.226333071150469 0 -0.18558547935525149 0.2507341425259047 0 -0.1926815934582656 0.23693023595674911 0 -0.17618703261833621 0.2416413728622408 0 -0.18558547935525149 0.2507341425259047 0 -0.1727604863792532 0.25381268665708989 0 -0.17618703261833621 0.2416413728622408 0 -0.17618703261833621 0.2416413728622408 0 -0.18215575533378961 0.226333071150469 0 -0.1656819509599389 0.2327221559387824 0 -0.18215575533378961 0.226333071150469 0 -0.1656819509599389 0.2327221559387824 0 -0.17046356107341809 0.21530709735122 0 -0.1656819509599389 0.2327221559387824 0 -0.17046356107341809 0.21530709735122 0 -0.15552622803385299 0.224522252553816 0 -0.1656819509599389 0.2327221559387824 0 -0.17046356107341809 0.21530709735122 0 -0.1656819509599389 0.2327221559387824 0 -0.15552622803385299 0.224522252553816 0 -0.15035549185723129 0.23543949892274449 0 -0.17046356107341809 0.21530709735122 0 -0.1622310328745129 0.1971558593782767 0 -0.15242772664447751 0.21095652426763559 0 -0.17046356107341809 0.21530709735122 0 -0.15242772664447751 0.21095652426763559 0 -0.15552622803385299 0.224522252553816 0 -0.19153217964365071 0.2098806060861963 0 -0.18215575533378961 0.226333071150469 0 -0.17046356107341809 0.21530709735122 0 -0.19153217964365071 0.2098806060861963 0 -0.17046356107341809 0.21530709735122 0 -0.18114739602644769 0.1915827121944417 0 -0.17046356107341809 0.21530709735122 0 -0.18114739602644769 0.1915827121944417 0 -0.1622310328745129 0.1971558593782767 0 -0.18114739602644769 0.1915827121944417 0 -0.1622310328745129 0.1971558593782767 0 -0.1592643061846688 0.17646275571737291 0 -0.1622310328745129 0.1971558593782767 0 -0.1459367326995796 0.1920069211128059 0 -0.15242772664447751 0.21095652426763559 0 -0.1622310328745129 0.1971558593782767 0 -0.1459367326995796 0.1920069211128059 0 -0.1592643061846688 0.17646275571737291 0 -0.1326877441061424 0.20922769363534721 0 -0.12699649602101279 0.18553352512985269 0 -0.1459367326995796 0.1920069211128059 0 -0.1326877441061424 0.20922769363534721 0 -0.12699649602101279 0.18553352512985269 0 -0.1326877441061424 0.20922769363534721 0 -0.12699649602101279 0.18553352512985269 0 -0.1188292223037329 0.20002586504003769 0 -0.1459367326995796 0.1920069211128059 0 -0.1326877441061424 0.20922769363534721 0 -0.15242772664447751 0.21095652426763559 0 -0.1326877441061424 0.20922769363534721 0 -0.15242772664447751 0.21095652426763559 0 -0.1426679986179315 0.22676792839011559 0 -0.15242772664447751 0.21095652426763559 0 -0.15552622803385299 0.224522252553816 0 -0.1426679986179315 0.22676792839011559 0 -0.15552622803385299 0.224522252553816 0 -0.1426679986179315 0.22676792839011559 0 -0.15035549185723129 0.23543949892274449 0 -0.1426679986179315 0.22676792839011559 0 -0.13837899219126909 0.23292186214084229 0 -0.15035549185723129 0.23543949892274449 0 -0.1326877441061424 0.20922769363534721 0 -0.13837899219126909 0.23292186214084229 0 -0.1326877441061424 0.20922769363534721 0 -0.1426679986179315 0.22676792839011559 0 -0.13837899219126909 0.23292186214084229 0 -0.1326877441061424 0.20922769363534721 0 -0.125652781857677 0.2303056508020368 0 -0.13837899219126909 0.23292186214084229 0 -0.1426679986179315 0.22676792839011559 0 -0.13837899219126909 0.23292186214084229 0 -0.13837899219126909 0.23292186214084229 0 -0.1325121594120921 0.24133968591119689 0 -0.14103536322233101 0.2439810361359955 0 -0.13837899219126909 0.23292186214084229 0 -0.14103536322233101 0.2439810361359955 0 -0.13837899219126909 0.23292186214084229 0 -0.1325121594120921 0.24133968591119689 0 -0.125652781857677 0.2303056508020368 0 -0.13837899219126909 0.23292186214084229 0 -0.1325121594120921 0.24133968591119689 0 -0.1346016357313822 0.25638005015610033 0 -0.1325121594120921 0.24133968591119689 0 -0.14103536322233101 0.2439810361359955 0 -0.1325121594120921 0.24133968591119689 0 -0.14103536322233101 0.2439810361359955 0 -0.16090034084645971 0.25013721452634491 0 -0.14894211464656959 0.25359584751982611 0 -0.14103536322233101 0.2439810361359955 0 -0.16090034084645971 0.25013721452634491 0 -0.14103536322233101 0.2439810361359955 0 -0.15035549185723129 0.23543949892274449 0 -0.16090034084645971 0.25013721452634491 0 -0.14103536322233101 0.2439810361359955 0 -0.13837899219126909 0.23292186214084229 0 -0.14103536322233101 0.2439810361359955 0 -0.15035549185723129 0.23543949892274449 0 -0.15788567791166261 0.15054808636297301 0 -0.1569454019514277 0.13287331420812989 0 -0.15788567791166261 0.15054808636297301 0 -0.17049371548195491 0.13930196514645529 0 -0.1834029407971314 0.1488576428706255 0 -0.15788567791166261 0.15054808636297301 0 -0.1834029407971314 0.1488576428706255 0 -0.15788567791166261 0.15054808636297301 0 -0.1834029407971314 0.1488576428706255 0 -0.1704859548700402 0.16287177258877519 0 -0.15788567791166261 0.15054808636297301 0 -0.1569454019514277 0.13287331420812989 0 -0.17049371548195491 0.13930196514645529 0 -0.1569454019514277 0.13287331420812989 0 -0.17049371548195491 0.13930196514645529 0 -0.17364348522165729 0.1258547611616187 0 -0.1887542232679254 0.1178756706855139 0 -0.1912818444521284 0.13651098026994971 0 -0.17364348522165729 0.1258547611616187 0 -0.1912818444521284 0.13651098026994971 0 -0.17364348522165729 0.1258547611616187 0 -0.17970549648821799 0.13763133736216229 0 -0.1912818444521284 0.13651098026994971 0 -0.17364348522165729 0.1258547611616187 0 -0.17049371548195491 0.13930196514645529 0 -0.17364348522165729 0.1258547611616187 0 -0.17970549648821799 0.13763133736216229 0 -0.1912818444521284 0.13651098026994971 0 -0.17970549648821799 0.13763133736216229 0 -0.1834029407971314 0.1488576428706255 0 -0.17049371548195491 0.13930196514645529 0 -0.17970549648821799 0.13763133736216229 0 -0.1834029407971314 0.1488576428706255 0 -0.1834029407971314 0.1488576428706255 0 -0.18652187356574351 0.1701854264775314 0 -0.1704859548700402 0.16287177258877519 0 -0.18652187356574351 0.1701854264775314 0 -0.1592643061846688 0.17646275571737291 0 -0.1704859548700402 0.16287177258877519 0 -0.18114739602644769 0.1915827121944417 0 -0.18652187356574351 0.1701854264775314 0 -0.1592643061846688 0.17646275571737291 0 -0.15788567791166261 0.15054808636297301 0 -0.1592643061846688 0.17646275571737291 0 -0.15788567791166261 0.15054808636297301 0 -0.1592643061846688 0.17646275571737291 0 -0.1704859548700402 0.16287177258877519 0 -0.15788567791166261 0.15054808636297301 0 -0.1592643061846688 0.17646275571737291 0 -0.14897534923465949 0.16026339818721841 0 -0.14897534923465949 0.16026339818721841 0 -0.14201309036666321 0.1727051685483503 0 -0.1384626766764141 0.15679728190452411 0 -0.1592643061846688 0.17646275571737291 0 -0.14897534923465949 0.16026339818721841 0 -0.14201309036666321 0.1727051685483503 0 -0.1459367326995796 0.1920069211128059 0 -0.1592643061846688 0.17646275571737291 0 -0.14201309036666321 0.1727051685483503 0 -0.14201309036666321 0.1727051685483503 0 -0.12699649602101279 0.18553352512985269 0 -0.1305275396396717 0.1657038429904206 0 -0.1459367326995796 0.1920069211128059 0 -0.14201309036666321 0.1727051685483503 0 -0.12699649602101279 0.18553352512985269 0 -0.1384626766764141 0.15679728190452411 0 -0.1305275396396717 0.1657038429904206 0 -0.120838034266774 0.1598942227559422 0 -0.14201309036666321 0.1727051685483503 0 -0.1384626766764141 0.15679728190452411 0 -0.1305275396396717 0.1657038429904206 0 -0.1384626766764141 0.15679728190452411 0 -0.12483267878580651 0.1527377501809789 0 -0.120838034266774 0.1598942227559422 0 -0.12699649602101279 0.18553352512985269 0 -0.1305275396396717 0.1657038429904206 0 -0.1213052479358832 0.16183935662435819 0 -0.1384626766764141 0.15679728190452411 0 -0.120838034266774 0.1598942227559422 0 -0.1384626766764141 0.15679728190452411 0 -0.14135917834873449 0.1516429182719761 0 -0.12483267878580651 0.1527377501809789 0 -0.137161871862614 0.1436639405874611 0 -0.14135917834873449 0.1516429182719761 0 -0.12483267878580651 0.1527377501809789 0 -0.14135917834873449 0.1516429182719761 0 -0.12483267878580651 0.1527377501809789 0 -0.13084075459940639 0.13723549262755691 0 -0.1228086101006902 0.1440162745452219 0 -0.12483267878580651 0.1527377501809789 0 -0.13084075459940639 0.13723549262755691 0 -0.12483267878580651 0.1527377501809789 0 -0.137161871862614 0.1436639405874611 0 -0.13084075459940639 0.13723549262755691 0 -0.12483267878580651 0.1527377501809789 0 -0.15788567791166261 0.15054808636297301 0 -0.14897534923465949 0.16026339818721841 0 -0.14135917834873449 0.1516429182719761 0 -0.15788567791166261 0.15054808636297301 0 -0.14135917834873449 0.1516429182719761 0 -0.14520999138159971 0.1458062859550267 0 -0.15788567791166261 0.15054808636297301 0 -0.14135917834873449 0.1516429182719761 0 -0.14897534923465949 0.16026339818721841 0 -0.1384626766764141 0.15679728190452411 0 -0.14135917834873449 0.1516429182719761 0 -0.137161871862614 0.1436639405874611 0 -0.14520999138159971 0.1458062859550267 0 -0.1444332374033826 0.137370198597697 0 -0.137161871862614 0.1436639405874611 0 -0.14135917834873449 0.1516429182719761 0 -0.14520999138159971 0.1458062859550267 0 -0.15788567791166261 0.15054808636297301 0 -0.14520999138159971 0.1458062859550267 0 -0.1444332374033826 0.137370198597697 0 -0.15788567791166261 0.15054808636297301 0 -0.1569454019514277 0.13287331420812989 0 -0.1444332374033826 0.137370198597697 0 -0.14611929128669859 0.12328695656161121 0 -0.1569454019514277 0.13287331420812989 0 -0.1444332374033826 0.137370198597697 0 -0.14611929128669859 0.12328695656161121 0 -0.1444332374033826 0.137370198597697 0 -0.13829875673924441 0.1297618807717682 0 -0.13396385679810219 0.1201345596184516 0 -0.13829875673924441 0.1297618807717682 0 -0.12028054099762631 0.13012003680086459 0 -0.13829875673924441 0.1297618807717682 0 -0.13084075459940639 0.13723549262755691 0 -0.12028054099762631 0.13012003680086459 0 -0.1444332374033826 0.137370198597697 0 -0.13829875673924441 0.1297618807717682 0 -0.13084075459940639 0.13723549262755691 0 -0.137161871862614 0.1436639405874611 0 -0.1444332374033826 0.137370198597697 0 -0.13084075459940639 0.13723549262755691 0 -0.13084075459940639 0.13723549262755691 0 -0.1226915452379604 0.13769127365001779 0 -0.1228086101006902 0.1440162745452219 0 -0.13396385679810219 0.1201345596184516 0 -0.12028054099762631 0.13012003680086459 0 -0.12028054099762631 0.13012003680086459 0 -0.1120101002970207 0.1272544604226285 0 -0.12184853691571421 0.11835011368002001 0 -0.12028054099762631 0.13012003680086459 0 -0.1226915452379604 0.13769127365001779 0 -0.1158582141516606 0.1391619167363107 0 -0.13084075459940639 0.13723549262755691 0 -0.12028054099762631 0.13012003680086459 0 -0.1226915452379604 0.13769127365001779 0 -0.1226915452379604 0.13769127365001779 0 -0.1158582141516606 0.1391619167363107 0 -0.1228086101006902 0.1440162745452219 0 -0.1158582141516606 0.1391619167363107 0 -0.1120101002970207 0.1272544604226285 0 -0.10249463005629809 0.13748812855405659 0 -0.12028054099762631 0.13012003680086459 0 -0.1158582141516606 0.1391619167363107 0 -0.1120101002970207 0.1272544604226285 0 -0.1120101002970207 0.1272544604226285 0 -0.10249463005629809 0.13748812855405659 0 -0.099610711202155922 0.12502302909978619 0 -0.10249463005629809 0.13748812855405659 0 -0.095883197833888975 0.14463578927359849 0 -0.086809431206253534 0.13897544147227181 0 -0.10249463005629809 0.13748812855405659 0 -0.099610711202155922 0.12502302909978619 0 -0.086809431206253534 0.13897544147227181 0 -0.11920856953958089 0.1531103308499222 0 -0.092755608463831699 0.15486276159081319 0 -0.10563789475948659 0.14586687654113659 0 -0.11920856953958089 0.1531103308499222 0 -0.092755608463831699 0.15486276159081319 0 -0.095883197833888975 0.14463578927359849 0 -0.10563789475948659 0.14586687654113659 0 -0.092755608463831699 0.15486276159081319 0 -0.10249463005629809 0.13748812855405659 0 -0.095883197833888975 0.14463578927359849 0 -0.10563789475948659 0.14586687654113659 0 -0.1158582141516606 0.1391619167363107 0 -0.10249463005629809 0.13748812855405659 0 -0.10563789475948659 0.14586687654113659 0 -0.1158582141516606 0.1391619167363107 0 -0.10563789475948659 0.14586687654113659 0 -0.11920856953958089 0.1531103308499222 0 -0.1158582141516606 0.1391619167363107 0 -0.11920856953958089 0.1531103308499222 0 -0.1158582141516606 0.1391619167363107 0 -0.1228086101006902 0.1440162745452219 0 -0.11920856953958089 0.1531103308499222 0 -0.1228086101006902 0.1440162745452219 0 -0.11920856953958089 0.1531103308499222 0 -0.12483267878580651 0.1527377501809789 0 -0.11920856953958089 0.1531103308499222 0 -0.12483267878580651 0.1527377501809789 0 -0.120838034266774 0.1598942227559422 0 -0.11920856953958089 0.1531103308499222 0 -0.12483267878580651 0.1527377501809789 0 -0.1305275396396717 0.1657038429904206 0 -0.120838034266774 0.1598942227559422 0 -0.1213052479358832 0.16183935662435819 0 -0.120838034266774 0.1598942227559422 0 -0.1001114130622842 0.16353623252999441 0 -0.11920856953958089 0.1531103308499222 0 -0.120838034266774 0.1598942227559422 0 -0.1001114130622842 0.16353623252999441 0 -0.120838034266774 0.1598942227559422 0 -0.1213052479358832 0.16183935662435819 0 -0.1001114130622842 0.16353623252999441 0 -0.1213052479358832 0.16183935662435819 0 -0.1125366584437381 0.18446439280977781 0 -0.1001114130622842 0.16353623252999441 0 -0.12483267878580651 0.1527377501809789 0 -0.120838034266774 0.1598942227559422 0 -0.11920856953958089 0.1531103308499222 0 -0.120838034266774 0.1598942227559422 0 -0.120838034266774 0.1598942227559422 0 -0.1213052479358832 0.16183935662435819 0 -0.12699649602101279 0.18553352512985269 0 -0.1213052479358832 0.16183935662435819 0 -0.12699649602101279 0.18553352512985269 0 -0.1213052479358832 0.16183935662435819 0 -0.1125366584437381 0.18446439280977781 0 -0.1213052479358832 0.16183935662435819 0 -0.1125366584437381 0.18446439280977781 0 -0.1125366584437381 0.18446439280977781 0 -0.1001114130622842 0.16353623252999441 0 -0.087567384407559914 0.18075230502761791 0 -0.1125366584437381 0.18446439280977781 0 -0.087567384407559914 0.18075230502761791 0 -0.092526217151207735 0.19537742340558301 0 -0.11920856953958089 0.1531103308499222 0 -0.1001114130622842 0.16353623252999441 0 -0.092755608463831699 0.15486276159081319 0 -0.1001114130622842 0.16353623252999441 0 -0.079384791857794318 0.16717824230404579 0 -0.087567384407559914 0.18075230502761791 0 -0.1001114130622842 0.16353623252999441 0 -0.079384791857794318 0.16717824230404579 0 -0.092755608463831699 0.15486276159081319 0 -0.1001114130622842 0.16353623252999441 0 -0.079384791857794318 0.16717824230404579 0 -0.079384791857794318 0.16717824230404579 0 -0.066302647388082309 0.1566151923317014 0 -0.092755608463831699 0.15486276159081319 0 -0.079384791857794318 0.16717824230404579 0 -0.087567384407559914 0.18075230502761791 0 -0.071849357860749793 0.1800547315795466 0 -0.079384791857794318 0.16717824230404579 0 -0.071849357860749793 0.1800547315795466 0 -0.058658170653304448 0.1708202520780972 0 -0.071849357860749793 0.1800547315795466 0 -0.059485354210998737 0.18834683858585069 0 -0.058658170653304448 0.1708202520780972 0 -0.087567384407559914 0.18075230502761791 0 -0.071849357860749793 0.1800547315795466 0 -0.074151088174091537 0.19317601990212169 0 -0.071849357860749793 0.1800547315795466 0 -0.074151088174091537 0.19317601990212169 0 -0.059485354210998737 0.18834683858585069 0 -0.079384791857794318 0.16717824230404579 0 -0.066302647388082309 0.1566151923317014 0 -0.058658170653304448 0.1708202520780972 0 -0.079384791857794318 0.16717824230404579 0 -0.058658170653304448 0.1708202520780972 0 -0.066856036483140729 0.14089718844364729 0 -0.086809431206253534 0.13897544147227181 0 -0.078180930885327071 0.14783764595960849 0 -0.066302647388082309 0.1566151923317014 0 -0.066856036483140729 0.14089718844364729 0 -0.078180930885327071 0.14783764595960849 0 -0.066856036483140729 0.14089718844364729 0 -0.067427294661326811 0.12758761643112149 0 -0.086809431206253534 0.13897544147227181 0 -0.067427294661326811 0.12758761643112149 0 -0.086809431206253534 0.13897544147227181 0 -0.075216095275555353 0.1133412842635465 0 -0.099610711202155922 0.12502302909978619 0 -0.086809431206253534 0.13897544147227181 0 -0.075216095275555353 0.1133412842635465 0 -0.086809431206253534 0.13897544147227181 0 -0.075216095275555353 0.1133412842635465 0 -0.066302647388082309 0.1566151923317014 0 -0.092755608463831699 0.15486276159081319 0 -0.095883197833888975 0.14463578927359849 0 -0.086809431206253534 0.13897544147227181 0 -0.092755608463831699 0.15486276159081319 0 -0.086809431206253534 0.13897544147227181 0 -0.078180930885327071 0.14783764595960849 0 -0.092755608463831699 0.15486276159081319 0 -0.066302647388082309 0.1566151923317014 0 -0.078180930885327071 0.14783764595960849 0 -0.092755608463831699 0.15486276159081319 0 -0.1043815395599072 0.2474654427881548 0 -0.1137558194357688 0.23552707554590641 0 -0.094999479459445341 0.22971446518061631 0 -0.1043815395599072 0.2474654427881548 0 -0.094999479459445341 0.22971446518061631 0 -0.090497332216694357 0.24133107060736531 0 -0.125652781857677 0.2303056508020368 0 -0.1325121594120921 0.24133968591119689 0 -0.1137558194357688 0.23552707554590641 0 -0.1186734279432355 0.26119571506609252 0 -0.1325121594120921 0.24133968591119689 0 -0.1137558194357688 0.23552707554590641 0 -0.1186734279432355 0.26119571506609252 0 -0.1043815395599072 0.2474654427881548 0 -0.1137558194357688 0.23552707554590641 0 -0.1325121594120921 0.24133968591119689 0 -0.1137558194357688 0.23552707554590641 0 -0.1326877441061424 0.20922769363534721 0 -0.125652781857677 0.2303056508020368 0 -0.1149488526857269 0.21864836319985709 0 -0.125652781857677 0.2303056508020368 0 -0.1137558194357688 0.23552707554590641 0 -0.1149488526857269 0.21864836319985709 0 -0.1137558194357688 0.23552707554590641 0 -0.094999479459445341 0.22971446518061631 0 -0.1149488526857269 0.21864836319985709 0 -0.1137558194357688 0.23552707554590641 0 -0.094999479459445341 0.22971446518061631 0 -0.094999479459445341 0.22971446518061631 0 -0.10376806895159291 0.20708942899519739 0 -0.094999479459445341 0.22971446518061631 0 -0.10376806895159291 0.20708942899519739 0 -0.084607885779056188 0.2114049702931998 0 -0.094999479459445341 0.22971446518061631 0 -0.10376806895159291 0.20708942899519739 0 -0.1149488526857269 0.21864836319985709 0 -0.1326877441061424 0.20922769363534721 0 -0.1149488526857269 0.21864836319985709 0 -0.1188292223037329 0.20002586504003769 0 -0.10376806895159291 0.20708942899519739 0 -0.1149488526857269 0.21864836319985709 0 -0.1188292223037329 0.20002586504003769 0 -0.1125366584437381 0.18446439280977781 0 -0.10376806895159291 0.20708942899519739 0 -0.1188292223037329 0.20002586504003769 0 -0.12699649602101279 0.18553352512985269 0 -0.1125366584437381 0.18446439280977781 0 -0.1188292223037329 0.20002586504003769 0 -0.1125366584437381 0.18446439280977781 0 -0.10376806895159291 0.20708942899519739 0 -0.1125366584437381 0.18446439280977781 0 -0.10376806895159291 0.20708942899519739 0 -0.092526217151207735 0.19537742340558301 0 -0.092526217151207735 0.19537742340558301 0 -0.074151088174091537 0.19317601990212169 0 -0.084607885779056188 0.2114049702931998 0 -0.087567384407559914 0.18075230502761791 0 -0.092526217151207735 0.19537742340558301 0 -0.074151088174091537 0.19317601990212169 0 -0.074151088174091537 0.19317601990212169 0 -0.064270822511232867 0.20702049760821431 0 -0.059485354210998737 0.18834683858585069 0 -0.064270822511232867 0.20702049760821431 0 -0.084607885779056188 0.2114049702931998 0 -0.070644078034315105 0.2221666995209394 0 -0.074151088174091537 0.19317601990212169 0 -0.064270822511232867 0.20702049760821431 0 -0.084607885779056188 0.2114049702931998 0 -0.10376806895159291 0.20708942899519739 0 -0.092526217151207735 0.19537742340558301 0 -0.084607885779056188 0.2114049702931998 0 -0.094999479459445341 0.22971446518061631 0 -0.084607885779056188 0.2114049702931998 0 -0.070644078034315105 0.2221666995209394 0 -0.094999479459445341 0.22971446518061631 0 -0.070644078034315105 0.2221666995209394 0 -0.094999479459445341 0.22971446518061631 0 -0.070644078034315105 0.2221666995209394 0 -0.077717967360420623 0.23958543391181311 0 -0.070644078034315105 0.2221666995209394 0 -0.063688190377190784 0.23640165623770509 0 -0.077717967360420623 0.23958543391181311 0 -0.064627057739272464 0.25322123802037422 0 -0.063688190377190784 0.23640165623770509 0 -0.077717967360420623 0.23958543391181311 0 -0.080021156004827343 0.25548485022154299 0 -0.064627057739272464 0.25322123802037422 0 -0.077717967360420623 0.23958543391181311 0 -0.094999479459445341 0.22971446518061631 0 -0.077717967360420623 0.23958543391181311 0 -0.090497332216694357 0.24133107060736531 0 -0.080021156004827343 0.25548485022154299 0 -0.077717967360420623 0.23958543391181311 0 -0.090497332216694357 0.24133107060736531 0 -0.094999479459445341 0.22971446518061631 0 -0.090497332216694357 0.24133107060736531 0 -0.034066851528046782 0.25263223628814813 0 -0.039592435519351418 0.23977256581689349 0 -0.051281228244768932 0.24392012724752221 0 -0.034066851528046782 0.25263223628814813 0 -0.039592435519351418 0.23977256581689349 0 -0.028901770711319941 0.2415755063033006 0 -0.039592435519351418 0.23977256581689349 0 -0.034226392379724628 0.23043796246133949 0 -0.028901770711319941 0.2415755063033006 0 -0.064627057739272464 0.25322123802037422 0 -0.063688190377190784 0.23640165623770509 0 -0.051281228244768932 0.24392012724752221 0 -0.039592435519351418 0.23977256581689349 0 -0.051281228244768932 0.24392012724752221 0 -0.050509599845624753 0.22472953512320851 0 -0.063688190377190784 0.23640165623770509 0 -0.051281228244768932 0.24392012724752221 0 -0.050509599845624753 0.22472953512320851 0 -0.070644078034315105 0.2221666995209394 0 -0.063688190377190784 0.23640165623770509 0 -0.050509599845624753 0.22472953512320851 0 -0.050509599845624753 0.22472953512320851 0 -0.034226392379724628 0.23043796246133949 0 -0.033048525951108132 0.2158196875084481 0 -0.039592435519351418 0.23977256581689349 0 -0.050509599845624753 0.22472953512320851 0 -0.034226392379724628 0.23043796246133949 0 -0.050509599845624753 0.22472953512320851 0 -0.033048525951108132 0.2158196875084481 0 -0.047795905814942891 0.20290159793781701 0 -0.033048525951108132 0.2158196875084481 0 -0.047795905814942891 0.20290159793781701 0 -0.030199820587405869 0.19434594113191911 0 -0.064270822511232867 0.20702049760821431 0 -0.050509599845624753 0.22472953512320851 0 -0.047795905814942891 0.20290159793781701 0 -0.064270822511232867 0.20702049760821431 0 -0.070644078034315105 0.2221666995209394 0 -0.050509599845624753 0.22472953512320851 0 -0.064270822511232867 0.20702049760821431 0 -0.047795905814942891 0.20290159793781701 0 -0.059485354210998737 0.18834683858585069 0 -0.047795905814942891 0.20290159793781701 0 -0.059485354210998737 0.18834683858585069 0 -0.043680857753481822 0.18212151096462151 0 -0.047795905814942891 0.20290159793781701 0 -0.030199820587405869 0.19434594113191911 0 -0.043680857753481822 0.18212151096462151 0 -0.017199828669452469 0.2070807464355508 0 -0.01532002746768606 0.1838689753162549 0 -0.030199820587405869 0.19434594113191911 0 -0.017199828669452469 0.2070807464355508 0 -0.01532002746768606 0.1838689753162549 0 -0.017199828669452469 0.2070807464355508 0 -0.01532002746768606 0.1838689753162549 0 0.0011284886159709589 0.19553043523140759 0 -0.017199828669452469 0.2070807464355508 0 -0.0047844289613271406 0.22491234496078891 0 0.0011284886159709589 0.19553043523140759 0 -0.0047844289613271406 0.22491234496078891 0 0.0011284886159709589 0.19553043523140759 0 -0.017199828669452469 0.2070807464355508 0 -0.019079629871218879 0.2302925175548467 0 -0.033048525951108132 0.2158196875084481 0 -0.017199828669452469 0.2070807464355508 0 -0.019079629871218879 0.2302925175548467 0 -0.033048525951108132 0.2158196875084481 0 -0.030199820587405869 0.19434594113191911 0 -0.017199828669452469 0.2070807464355508 0 -0.034226392379724628 0.23043796246133949 0 -0.033048525951108132 0.2158196875084481 0 -0.019079629871218879 0.2302925175548467 0 -0.034226392379724628 0.23043796246133949 0 -0.019079629871218879 0.2302925175548467 0 -0.028901770711319941 0.2415755063033006 0 -0.017199828669452469 0.2070807464355508 0 -0.019079629871218879 0.2302925175548467 0 -0.0047844289613271406 0.22491234496078891 0 -0.019079629871218879 0.2302925175548467 0 -0.0047844289613271406 0.22491234496078891 0 -0.014936262559913991 0.2423100706723525 0 -0.010697346538625301 0.25429425469017047 0 -0.0047844289613271406 0.22491234496078891 0 -0.010697346538625301 0.25429425469017047 0 -0.0047844289613271406 0.22491234496078891 0 0.00069615477047229072 0.24213838121001291 0 -0.010697346538625301 0.25429425469017047 0 -0.0047844289613271406 0.22491234496078891 0 -0.014936262559913991 0.2423100706723525 0 -0.020959431072985289 0.25350428867414271 0 -0.019079629871218879 0.2302925175548467 0 -0.014936262559913991 0.2423100706723525 0 -0.020959431072985289 0.25350428867414271 0 -0.019079629871218879 0.2302925175548467 0 -0.020959431072985289 0.25350428867414271 0 -0.019079629871218879 0.2302925175548467 0 -0.028901770711319941 0.2415755063033006 0 -0.034066851528046782 0.25263223628814813 0 -0.020959431072985289 0.25350428867414271 0 -0.028901770711319941 0.2415755063033006 0 -0.043056176957467399 0.14254294988343569 0 -0.053428514792835502 0.1465362108708412 0 -0.039849686312333037 0.15836762307258959 0 -0.031843403282642922 0.14348423854983219 0 -0.039849686312333037 0.15836762307258959 0 -0.023342201681704689 0.1487761977135314 0 -0.043056176957467399 0.14254294988343569 0 -0.031843403282642922 0.14348423854983219 0 -0.039849686312333037 0.15836762307258959 0 -0.031843403282642922 0.14348423854983219 0 -0.038507717227529742 0.13332447697157751 0 -0.0239880922815109 0.13465244999791251 0 -0.043056176957467399 0.14254294988343569 0 -0.031843403282642922 0.14348423854983219 0 -0.038507717227529742 0.13332447697157751 0 -0.038507717227529742 0.13332447697157751 0 -0.051651563171995783 0.13100219995233819 0 -0.043073717614611859 0.1170289896980536 0 -0.043056176957467399 0.14254294988343569 0 -0.038507717227529742 0.13332447697157751 0 -0.051651563171995783 0.13100219995233819 0 -0.043056176957467399 0.14254294988343569 0 -0.051651563171995783 0.13100219995233819 0 -0.053428514792835502 0.1465362108708412 0 -0.066856036483140729 0.14089718844364729 0 -0.067427294661326811 0.12758761643112149 0 -0.051651563171995783 0.13100219995233819 0 -0.066856036483140729 0.14089718844364729 0 -0.051651563171995783 0.13100219995233819 0 -0.053428514792835502 0.1465362108708412 0 -0.066302647388082309 0.1566151923317014 0 -0.053428514792835502 0.1465362108708412 0 -0.039849686312333037 0.15836762307258959 0 -0.066302647388082309 0.1566151923317014 0 -0.066856036483140729 0.14089718844364729 0 -0.053428514792835502 0.1465362108708412 0 -0.066302647388082309 0.1566151923317014 0 -0.058658170653304448 0.1708202520780972 0 -0.039849686312333037 0.15836762307258959 0 -0.058658170653304448 0.1708202520780972 0 -0.043680857753481822 0.18212151096462151 0 -0.039849686312333037 0.15836762307258959 0 -0.066302647388082309 0.1566151923317014 0 -0.039849686312333037 0.15836762307258959 0 -0.059485354210998737 0.18834683858585069 0 -0.058658170653304448 0.1708202520780972 0 -0.043680857753481822 0.18212151096462151 0 -0.030199820587405869 0.19434594113191911 0 -0.043680857753481822 0.18212151096462151 0 -0.028296031183493109 0.1732059709821209 0 -0.043680857753481822 0.18212151096462151 0 -0.039849686312333037 0.15836762307258959 0 -0.028296031183493109 0.1732059709821209 0 -0.039849686312333037 0.15836762307258959 0 -0.028296031183493109 0.1732059709821209 0 -0.013396725236583969 0.1601200538134796 0 -0.039849686312333037 0.15836762307258959 0 -0.013396725236583969 0.1601200538134796 0 -0.028296031183493109 0.1732059709821209 0 -0.01532002746768606 0.1838689753162549 0 -0.013396725236583969 0.1601200538134796 0 -0.030199820587405869 0.19434594113191911 0 -0.028296031183493109 0.1732059709821209 0 -0.01532002746768606 0.1838689753162549 0 -0.01532002746768606 0.1838689753162549 0 -0.013396725236583969 0.1601200538134796 0 -0.01532002746768606 0.1838689753162549 0 -0.0052875140954570981 0.17119111425245789 0 0.0011284886159709589 0.19553043523140759 0 -0.0052875140954570981 0.17119111425245789 0 -0.013396725236583969 0.1601200538134796 0 0.0070414061932690848 0.16614852550202611 0 -0.01532002746768606 0.1838689753162549 0 -0.0052875140954570981 0.17119111425245789 0 -0.013396725236583969 0.1601200538134796 0 -0.013396725236583969 0.1601200538134796 0 0.0039669069538619244 0.14804542191679551 0 -0.013396725236583969 0.1601200538134796 0 -0.01209060626173232 0.14399210652291669 0 -0.013396725236583969 0.1601200538134796 0 -0.01209060626173232 0.14399210652291669 0 0.0039669069538619244 0.14804542191679551 0 -0.01209060626173232 0.14399210652291669 0 0.002700318406108963 0.1356911531519954 0 0.0039669069538619244 0.14804542191679551 0 -0.013396725236583969 0.1601200538134796 0 -0.01209060626173232 0.14399210652291669 0 -0.023342201681704689 0.1487761977135314 0 -0.039849686312333037 0.15836762307258959 0 -0.013396725236583969 0.1601200538134796 0 -0.023342201681704689 0.1487761977135314 0 -0.01209060626173232 0.14399210652291669 0 -0.023342201681704689 0.1487761977135314 0 -0.0239880922815109 0.13465244999791251 0 -0.031843403282642922 0.14348423854983219 0 -0.023342201681704689 0.1487761977135314 0 -0.0239880922815109 0.13465244999791251 0 -0.0239880922815109 0.13465244999791251 0 -0.030344618332758731 0.1233905191437923 0 -0.02000916156340625 0.12185491834744749 0 -0.038507717227529742 0.13332447697157751 0 -0.0239880922815109 0.13465244999791251 0 -0.030344618332758731 0.1233905191437923 0 -0.0239880922815109 0.13465244999791251 0 -0.01072468440122405 0.12786900235853099 0 -0.02000916156340625 0.12185491834744749 0 -0.01209060626173232 0.14399210652291669 0 -0.01072468440122405 0.12786900235853099 0 0.002700318406108963 0.1356911531519954 0 -0.01209060626173232 0.14399210652291669 0 -0.0239880922815109 0.13465244999791251 0 -0.01072468440122405 0.12786900235853099 0 -0.01209060626173232 0.14399210652291669 0 -0.01072468440122405 0.12786900235853099 0 -0.01072468440122405 0.12786900235853099 0 -0.009622303651300089 0.1135135244299402 0 0.013345320839888781 0.12584022037569101 0 -0.01072468440122405 0.12786900235853099 0 -0.009622303651300089 0.1135135244299402 0 -0.02000916156340625 0.12185491834744749 0 -0.01072468440122405 0.12786900235853099 0 -0.009622303651300089 0.1135135244299402 0 -0.009622303651300089 0.1135135244299402 0 -0.0038174434113906479 0.097245822122756814 0 -0.01476561952533993 0.10410262698127309 0 -0.0038174434113906479 0.097245822122756814 0 -0.01476561952533993 0.10410262698127309 0 -0.018891383453940268 0.094662830613782833 0 -0.01476561952533993 0.10410262698127309 0 -0.018891383453940268 0.094662830613782833 0 -0.025306306264580851 0.109853938933239 0 -0.009622303651300089 0.1135135244299402 0 -0.01476561952533993 0.10410262698127309 0 -0.025306306264580851 0.109853938933239 0 -0.018891383453940268 0.094662830613782833 0 -0.025306306264580851 0.109853938933239 0 -0.031519142313472047 0.094387974071056729 0 -0.009622303651300089 0.1135135244299402 0 -0.025306306264580851 0.109853938933239 0 -0.02000916156340625 0.12185491834744749 0 -0.025306306264580851 0.109853938933239 0 -0.030344618332758731 0.1233905191437923 0 -0.02000916156340625 0.12185491834744749 0 -0.0061948394653856256 0.07539956384625307 0 -0.006745958462948288 0.059681008307345101 0 0.01068835749376784 0.065234271108784964 0 -0.0061948394653856256 0.07539956384625307 0 -0.021364090609689551 0.064610713303805578 0 -0.006745958462948288 0.059681008307345101 0 -0.0038174434113906479 0.097245822122756814 0 -0.018891383453940268 0.094662830613782833 0 -0.0061948394653856256 0.07539956384625307 0 -0.018891383453940268 0.094662830613782833 0 -0.0061948394653856256 0.07539956384625307 0 -0.02289956576876882 0.080400212837743318 0 -0.018891383453940268 0.094662830613782833 0 -0.02289956576876882 0.080400212837743318 0 -0.031519142313472047 0.094387974071056729 0 -0.02289956576876882 0.080400212837743318 0 -0.037418530720973779 0.083914269627642521 0 -0.031519142313472047 0.094387974071056729 0 -0.02289956576876882 0.080400212837743318 0 -0.033141286277072489 0.07342986524704298 0 -0.037418530720973779 0.083914269627642521 0 -0.0061948394653856256 0.07539956384625307 0 -0.02289956576876882 0.080400212837743318 0 -0.021364090609689551 0.064610713303805578 0 -0.02289956576876882 0.080400212837743318 0 -0.021364090609689551 0.064610713303805578 0 -0.033141286277072489 0.07342986524704298 0 -0.021364090609689551 0.064610713303805578 0 -0.041009753604965199 0.063859420137649697 0 -0.033141286277072489 0.07342986524704298 0 -0.041009753604965199 0.063859420137649697 0 -0.033141286277072489 0.07342986524704298 0 -0.043373810602110881 0.077227148238409205 0 -0.043373810602110881 0.077227148238409205 0 -0.037418530720973779 0.083914269627642521 0 -0.047721798929020343 0.083967904681973293 0 -0.033141286277072489 0.07342986524704298 0 -0.043373810602110881 0.077227148238409205 0 -0.037418530720973779 0.083914269627642521 0 -0.037418530720973779 0.083914269627642521 0 -0.031519142313472047 0.094387974071056729 0 -0.046988318785557127 0.094236937320182373 0 -0.037418530720973779 0.083914269627642521 0 -0.047721798929020343 0.083967904681973293 0 -0.046988318785557127 0.094236937320182373 0 -0.054747518669279287 0.0894501040153311 0 -0.047721798929020343 0.083967904681973293 0 -0.046988318785557127 0.094236937320182373 0 -0.054747518669279287 0.0894501040153311 0 -0.057577683478522608 0.080964281497737545 0 -0.063622759344857158 0.08770712705482113 0 -0.054747518669279287 0.0894501040153311 0 -0.057827032808439212 0.1003742695219412 0 -0.063622759344857158 0.08770712705482113 0 -0.054747518669279287 0.0894501040153311 0 -0.057577683478522608 0.080964281497737545 0 -0.047721798929020343 0.083967904681973293 0 -0.043373810602110881 0.077227148238409205 0 -0.057577683478522608 0.080964281497737545 0 -0.047721798929020343 0.083967904681973293 0 -0.041009753604965199 0.063859420137649697 0 -0.043373810602110881 0.077227148238409205 0 -0.057577683478522608 0.080964281497737545 0 -0.057577683478522608 0.080964281497737545 0 -0.063622759344857158 0.08770712705482113 0 -0.052029423414158969 0.062072969846095769 0 -0.063622759344857158 0.08770712705482113 0 -0.052029423414158969 0.062072969846095769 0 -0.063622759344857158 0.08770712705482113 0 -0.0672391860442874 0.070040289371530978 0 -0.052029423414158969 0.062072969846095769 0 -0.041009753604965199 0.063859420137649697 0 -0.057577683478522608 0.080964281497737545 0 -0.041009753604965199 0.063859420137649697 0 -0.057577683478522608 0.080964281497737545 0 -0.052029423414158969 0.062072969846095769 0 -0.025306306264580851 0.109853938933239 0 -0.043073717614611859 0.1170289896980536 0 -0.038967712804493973 0.1041883169232511 0 -0.025306306264580851 0.109853938933239 0 -0.030344618332758731 0.1233905191437923 0 -0.043073717614611859 0.1170289896980536 0 -0.038507717227529742 0.13332447697157751 0 -0.030344618332758731 0.1233905191437923 0 -0.043073717614611859 0.1170289896980536 0 -0.025306306264580851 0.109853938933239 0 -0.038967712804493973 0.1041883169232511 0 -0.031519142313472047 0.094387974071056729 0 -0.038967712804493973 0.1041883169232511 0 -0.04869202583655817 0.1059100962974464 0 -0.046988318785557127 0.094236937320182373 0 -0.038967712804493973 0.1041883169232511 0 -0.031519142313472047 0.094387974071056729 0 -0.046988318785557127 0.094236937320182373 0 -0.043073717614611859 0.1170289896980536 0 -0.038967712804493973 0.1041883169232511 0 -0.04869202583655817 0.1059100962974464 0 -0.04869202583655817 0.1059100962974464 0 -0.057827032808439212 0.1003742695219412 0 -0.056603347169688692 0.11372196802380349 0 -0.04869202583655817 0.1059100962974464 0 -0.046988318785557127 0.094236937320182373 0 -0.057827032808439212 0.1003742695219412 0 -0.054747518669279287 0.0894501040153311 0 -0.046988318785557127 0.094236937320182373 0 -0.057827032808439212 0.1003742695219412 0 -0.067427294661326811 0.12758761643112149 0 -0.051651563171995783 0.13100219995233819 0 -0.056603347169688692 0.11372196802380349 0 -0.051651563171995783 0.13100219995233819 0 -0.043073717614611859 0.1170289896980536 0 -0.056603347169688692 0.11372196802380349 0 -0.043073717614611859 0.1170289896980536 0 -0.04869202583655817 0.1059100962974464 0 -0.056603347169688692 0.11372196802380349 0 -0.067427294661326811 0.12758761643112149 0 -0.056603347169688692 0.11372196802380349 0 -0.075216095275555353 0.1133412842635465 0 -0.099610711202155922 0.12502302909978619 0 -0.075216095275555353 0.1133412842635465 0 -0.094767367066251954 0.1048663962654886 0 -0.080625403856066757 0.095693514198095603 0 -0.092149140216964881 0.088662888749703989 0 -0.094767367066251954 0.1048663962654886 0 -0.075216095275555353 0.1133412842635465 0 -0.080625403856066757 0.095693514198095603 0 -0.094767367066251954 0.1048663962654886 0 -0.075216095275555353 0.1133412842635465 0 -0.080625403856066757 0.095693514198095603 0 -0.063622759344857158 0.08770712705482113 0 -0.057827032808439212 0.1003742695219412 0 -0.056603347169688692 0.11372196802380349 0 -0.075216095275555353 0.1133412842635465 0 -0.057827032808439212 0.1003742695219412 0 -0.075216095275555353 0.1133412842635465 0 -0.063622759344857158 0.08770712705482113 0 -0.075216095275555353 0.1133412842635465 0 -0.063622759344857158 0.08770712705482113 0 -0.080625403856066757 0.095693514198095603 0 -0.063622759344857158 0.08770712705482113 0 -0.076565380138590364 0.080025080410492444 0 -0.063622759344857158 0.08770712705482113 0 -0.076565380138590364 0.080025080410492444 0 -0.0672391860442874 0.070040289371530978 0 -0.076565380138590364 0.080025080410492444 0 -0.0672391860442874 0.070040289371530978 0 -0.077802714138863804 0.065855396110446593 0 -0.0672391860442874 0.070040289371530978 0 -0.077802714138863804 0.065855396110446593 0 -0.067614982877472224 0.054920818963323723 0 -0.077802714138863804 0.065855396110446593 0 -0.090886460151237983 0.073775655440155727 0 -0.1008491813089282 0.058268448739811213 0 -0.076565380138590364 0.080025080410492444 0 -0.077802714138863804 0.065855396110446593 0 -0.090886460151237983 0.073775655440155727 0 -0.080625403856066757 0.095693514198095603 0 -0.076565380138590364 0.080025080410492444 0 -0.092149140216964881 0.088662888749703989 0 -0.076565380138590364 0.080025080410492444 0 -0.090886460151237983 0.073775655440155727 0 -0.092149140216964881 0.088662888749703989 0 -0.092149140216964881 0.088662888749703989 0 -0.10706588495284269 0.076066463190324382 0 -0.1109941291318695 0.093993186520316366 0 -0.090886460151237983 0.073775655440155727 0 -0.092149140216964881 0.088662888749703989 0 -0.10706588495284269 0.076066463190324382 0 -0.090886460151237983 0.073775655440155727 0 -0.10706588495284269 0.076066463190324382 0 -0.1008491813089282 0.058268448739811213 0 -0.1277319973666067 0.066678414431113137 0 -0.10706588495284269 0.076066463190324382 0 -0.1008491813089282 0.058268448739811213 0 -0.13305303690383161 0.08352651876960146 0 -0.1277319973666067 0.066678414431113137 0 -0.10706588495284269 0.076066463190324382 0 -0.13305303690383161 0.08352651876960146 0 -0.10706588495284269 0.076066463190324382 0 -0.1109941291318695 0.093993186520316366 0 -0.12780696903317659 0.098162618526083323 0 -0.13305303690383161 0.08352651876960146 0 -0.1109941291318695 0.093993186520316366 0 -0.12780696903317659 0.098162618526083323 0 -0.1109941291318695 0.093993186520316366 0 -0.11112237661814919 0.11267423362069651 0 -0.12780696903317659 0.098162618526083323 0 -0.12184853691571421 0.11835011368002001 0 -0.11112237661814919 0.11267423362069651 0 -0.1120101002970207 0.1272544604226285 0 -0.12184853691571421 0.11835011368002001 0 -0.11112237661814919 0.11267423362069651 0 -0.099610711202155922 0.12502302909978619 0 -0.11112237661814919 0.11267423362069651 0 -0.094767367066251954 0.1048663962654886 0 -0.1120101002970207 0.1272544604226285 0 -0.099610711202155922 0.12502302909978619 0 -0.11112237661814919 0.11267423362069651 0 -0.092149140216964881 0.088662888749703989 0 -0.1109941291318695 0.093993186520316366 0 -0.094767367066251954 0.1048663962654886 0 -0.1109941291318695 0.093993186520316366 0 -0.11112237661814919 0.11267423362069651 0 -0.094767367066251954 0.1048663962654886 0 -0.10949852996144149 0.008215710650763694 0 -0.096307297759936336 0.03233389273378956 0 -0.0902517972109418 0.0064176925966310744 0 -0.10949852996144149 0.008215710650763694 0 -0.1176673902139687 0.02572409622204553 0 -0.096307297759936336 0.03233389273378956 0 -0.1051458819538037 -0.013913872234538089 0 -0.10949852996144149 0.008215710650763694 0 -0.0902517972109418 0.0064176925966310744 0 -0.1289042152683513 0.0036931705937147661 0 -0.10949852996144149 0.008215710650763694 0 -0.1176673902139687 0.02572409622204553 0 -0.1176673902139687 0.02572409622204553 0 -0.1224948028051992 0.047496469063538549 0 -0.096307297759936336 0.03233389273378956 0 -0.1277319973666067 0.066678414431113137 0 -0.1224948028051992 0.047496469063538549 0 -0.1008491813089282 0.058268448739811213 0 -0.1224948028051992 0.047496469063538549 0 -0.1008491813089282 0.058268448739811213 0 -0.096307297759936336 0.03233389273378956 0 -0.096307297759936336 0.03233389273378956 0 -0.084067249676499187 0.049831241493484148 0 -0.070074541322771758 0.035879481879750492 0 -0.1008491813089282 0.058268448739811213 0 -0.096307297759936336 0.03233389273378956 0 -0.084067249676499187 0.049831241493484148 0 -0.077802714138863804 0.065855396110446593 0 -0.1008491813089282 0.058268448739811213 0 -0.084067249676499187 0.049831241493484148 0 -0.084067249676499187 0.049831241493484148 0 -0.067614982877472224 0.054920818963323723 0 -0.070074541322771758 0.035879481879750492 0 -0.077802714138863804 0.065855396110446593 0 -0.084067249676499187 0.049831241493484148 0 -0.067614982877472224 0.054920818963323723 0 -0.067614982877472224 0.054920818963323723 0 -0.070074541322771758 0.035879481879750492 0 -0.056991674583212693 0.044390049046855222 0 -0.070074541322771758 0.035879481879750492 0 -0.075920854929958273 0.0183215692756536 0 -0.058152145818299722 0.01746606351507423 0 -0.096307297759936336 0.03233389273378956 0 -0.070074541322771758 0.035879481879750492 0 -0.075920854929958273 0.0183215692756536 0 -0.096307297759936336 0.03233389273378956 0 -0.075920854929958273 0.0183215692756536 0 -0.0902517972109418 0.0064176925966310744 0 -0.066411623782526366 -0.0027931021134092919 0 -0.075920854929958273 0.0183215692756536 0 -0.0902517972109418 0.0064176925966310744 0 -0.066411623782526366 -0.0027931021134092919 0 -0.075920854929958273 0.0183215692756536 0 -0.058152145818299722 0.01746606351507423 0 -0.066411623782526366 -0.0027931021134092919 0 -0.053637110729056837 0.002990323415030006 0 -0.058152145818299722 0.01746606351507423 0 -0.043869853131501289 -0.0033856076487974169 0 -0.053637110729056837 0.002990323415030006 0 -0.045153440614922928 0.01088833923094846 0 -0.053637110729056837 0.002990323415030006 0 -0.058152145818299722 0.01746606351507423 0 -0.045153440614922928 0.01088833923094846 0 -0.070074541322771758 0.035879481879750492 0 -0.058152145818299722 0.01746606351507423 0 -0.053680708069243008 0.031650652400634853 0 -0.058152145818299722 0.01746606351507423 0 -0.045253026707737731 0.02144970464253463 0 -0.053680708069243008 0.031650652400634853 0 -0.058152145818299722 0.01746606351507423 0 -0.045253026707737731 0.02144970464253463 0 -0.045153440614922928 0.01088833923094846 0 -0.040436087483460781 0.036438812637370407 0 -0.028842751552762211 0.01080465542864523 0 -0.045253026707737731 0.02144970464253463 0 -0.040436087483460781 0.036438812637370407 0 -0.028842751552762211 0.01080465542864523 0 -0.045253026707737731 0.02144970464253463 0 -0.053680708069243008 0.031650652400634853 0 -0.040436087483460781 0.036438812637370407 0 -0.032603002991312642 -0.0064236466643313554 0 -0.043869853131501289 -0.0033856076487974169 0 -0.028842751552762211 0.01080465542864523 0 -0.043869853131501289 -0.0033856076487974169 0 -0.045153440614922928 0.01088833923094846 0 -0.028842751552762211 0.01080465542864523 0 -0.045253026707737731 0.02144970464253463 0 -0.045153440614922928 0.01088833923094846 0 -0.028842751552762211 0.01080465542864523 0 -0.067614982877472224 0.054920818963323723 0 -0.052029423414158969 0.062072969846095769 0 -0.056991674583212693 0.044390049046855222 0 -0.052029423414158969 0.062072969846095769 0 -0.056991674583212693 0.044390049046855222 0 -0.040436087483460781 0.036438812637370407 0 -0.0672391860442874 0.070040289371530978 0 -0.067614982877472224 0.054920818963323723 0 -0.052029423414158969 0.062072969846095769 0 -0.056991674583212693 0.044390049046855222 0 -0.053680708069243008 0.031650652400634853 0 -0.040436087483460781 0.036438812637370407 0 -0.070074541322771758 0.035879481879750492 0 -0.056991674583212693 0.044390049046855222 0 -0.053680708069243008 0.031650652400634853 0 -0.040436087483460781 0.036438812637370407 0 -0.039054288225920088 0.051688529827051528 0 -0.02444182373140778 0.046754558777561843 0 -0.052029423414158969 0.062072969846095769 0 -0.040436087483460781 0.036438812637370407 0 -0.039054288225920088 0.051688529827051528 0 -0.041009753604965199 0.063859420137649697 0 -0.02444182373140778 0.046754558777561843 0 -0.052029423414158969 0.062072969846095769 0 -0.040436087483460781 0.036438812637370407 0 -0.041009753604965199 0.063859420137649697 0 -0.039054288225920088 0.051688529827051528 0 -0.02444182373140778 0.046754558777561843 0 -0.041009753604965199 0.063859420137649697 0 -0.052029423414158969 0.062072969846095769 0 -0.039054288225920088 0.051688529827051528 0 -0.021364090609689551 0.064610713303805578 0 -0.041009753604965199 0.063859420137649697 0 -0.02444182373140778 0.046754558777561843 0 -0.021364090609689551 0.064610713303805578 0 -0.02444182373140778 0.046754558777561843 0 -0.015363089657278801 0.054154763072261462 0 -0.02444182373140778 0.046754558777561843 0 -0.0089004858250695991 0.04557277190033332 0 -0.015363089657278801 0.054154763072261462 0 -0.02444182373140778 0.046754558777561843 0 -0.017098613914306081 0.031297665678018061 0 -0.0078738938578503774 0.029649697417473999 0 -0.040436087483460781 0.036438812637370407 0 -0.02444182373140778 0.046754558777561843 0 -0.02332567446965245 0.036082185990452639 0 -0.02444182373140778 0.046754558777561843 0 -0.0078738938578503774 0.029649697417473999 0 -0.02444182373140778 0.046754558777561843 0 -0.02332567446965245 0.036082185990452639 0 -0.017098613914306081 0.031297665678018061 0 -0.00020915340281049059 0.038034206290205333 0 -0.0089004858250695991 0.04557277190033332 0 -0.0078738938578503774 0.029649697417473999 0 -0.02444182373140778 0.046754558777561843 0 -0.0089004858250695991 0.04557277190033332 0 -0.0078738938578503774 0.029649697417473999 0 -0.00020915340281049059 0.038034206290205333 0 -0.0078738938578503774 0.029649697417473999 0 0.00027439030587288887 0.02643035013913219 0 -0.00020915340281049059 0.038034206290205333 0 -0.0089004858250695991 0.04557277190033332 0 0.0037714176971371722 0.049134561560809822 0 -0.0089004858250695991 0.04557277190033332 0 -0.015363089657278801 0.054154763072261462 0 -0.006745958462948288 0.059681008307345101 0 -0.0089004858250695991 0.04557277190033332 0 -0.006745958462948288 0.059681008307345101 0 0.0037714176971371722 0.049134561560809822 0 -0.021364090609689551 0.064610713303805578 0 -0.015363089657278801 0.054154763072261462 0 -0.006745958462948288 0.059681008307345101 0 -0.032603002991312642 -0.0064236466643313554 0 -0.028842751552762211 0.01080465542864523 0 -0.021405201553429981 -0.0056405961426311546 0 -0.028842751552762211 0.01080465542864523 0 -0.021405201553429981 -0.0056405961426311546 0 -0.028842751552762211 0.01080465542864523 0 -0.01357803753568306 0.0023392803976896841 0 -0.028842751552762211 0.01080465542864523 0 -0.01481259633523708 0.013176088854304531 0 -0.01357803753568306 0.0023392803976896841 0 -0.028842751552762211 0.01080465542864523 0 -0.018852229520619261 0.022549192192599831 0 -0.01481259633523708 0.013176088854304531 0 -0.02332567446965245 0.036082185990452639 0 -0.028842751552762211 0.01080465542864523 0 -0.02332567446965245 0.036082185990452639 0 -0.028842751552762211 0.01080465542864523 0 -0.018852229520619261 0.022549192192599831 0 -0.040436087483460781 0.036438812637370407 0 -0.02332567446965245 0.036082185990452639 0 -0.028842751552762211 0.01080465542864523 0 -0.02332567446965245 0.036082185990452639 0 -0.017098613914306081 0.031297665678018061 0 -0.018852229520619261 0.022549192192599831 0 -0.018852229520619261 0.022549192192599831 0 -0.0090938050029655895 0.019575257675343391 0 -0.01481259633523708 0.013176088854304531 0 -0.0090938050029655895 0.019575257675343391 0 -0.0078738938578503774 0.029649697417473999 0 0.0086940360157070143 0.01254483605738616 0 -0.017098613914306081 0.031297665678018061 0 -0.018852229520619261 0.022549192192599831 0 -0.0090938050029655895 0.019575257675343391 0 -0.017098613914306081 0.031297665678018061 0 -0.0090938050029655895 0.019575257675343391 0 -0.0078738938578503774 0.029649697417473999 0 -0.0090938050029655895 0.019575257675343391 0 -0.0046195324054877571 0.008234065852277813 0 0.0086940360157070143 0.01254483605738616 0 -0.0090938050029655895 0.019575257675343391 0 -0.0046195324054877571 0.008234065852277813 0 -0.01481259633523708 0.013176088854304531 0 -0.0046195324054877571 0.008234065852277813 0 -0.01481259633523708 0.013176088854304531 0 -0.01357803753568306 0.0023392803976896841 0 -0.0040144348922586757 -0.0020453828929084031 0 -0.0046195324054877571 0.008234065852277813 0 -0.01357803753568306 0.0023392803976896841 0 -0.0040144348922586757 -0.0020453828929084031 0 -0.0046195324054877571 0.008234065852277813 0 0.0044529143093724691 0.001599530544337085 0 0.0086940360157070143 0.01254483605738616 0 0.017252722858604411 0.01928522833497473 0 0.018624474460967239 0.00024362624283911019 0 -0.0046195324054877571 0.008234065852277813 0 0.0044529143093724691 0.001599530544337085 0 0.0086940360157070143 0.01254483605738616 0 0.0044529143093724691 0.001599530544337085 0 0.0086940360157070143 0.01254483605738616 0 0.018624474460967239 0.00024362624283911019 0 0.00027439030587288887 0.02643035013913219 0 0.017252722858604411 0.01928522833497473 0 0.022929310778796581 0.036107298613747667 0 -0.0078738938578503774 0.029649697417473999 0 0.0086940360157070143 0.01254483605738616 0 0.0086940360157070143 0.01254483605738616 0 0.00027439030587288887 0.02643035013913219 0 0.017252722858604411 0.01928522833497473 0 -0.0078738938578503774 0.029649697417473999 0 0.0086940360157070143 0.01254483605738616 0 0.00027439030587288887 0.02643035013913219 0 0.017252722858604411 0.01928522833497473 0 0.022929310778796581 0.036107298613747667 0 0.035741402731678341 0.021100030621768521 0 0.018624474460967239 0.00024362624283911019 0 0.035741402731678341 0.021100030621768521 0 0.017252722858604411 0.01928522833497473 0 0.018624474460967239 0.00024362624283911019 0 0.035741402731678341 0.021100030621768521 0 0.018624474460967239 0.00024362624283911019 0 0.035741402731678341 0.021100030621768521 0 0.033112655901409799 -0.00063324611952645087 0 -0.006745958462948288 0.059681008307345101 0 0.0037714176971371722 0.049134561560809822 0 0.01068835749376784 0.065234271108784964 0 0.0037714176971371722 0.049134561560809822 0 0.017869154308202208 0.049814258280458851 0 0.01068835749376784 0.065234271108784964 0 0.00027439030587288887 0.02643035013913219 0 0.0089270239374396737 0.039904134976870773 0 0.022929310778796581 0.036107298613747667 0 0.00027439030587288887 0.02643035013913219 0 0.022929310778796581 0.036107298613747667 0 0.0037714176971371722 0.049134561560809822 0 0.0089270239374396737 0.039904134976870773 0 0.017869154308202208 0.049814258280458851 0 -0.00020915340281049059 0.038034206290205333 0 0.0037714176971371722 0.049134561560809822 0 0.0089270239374396737 0.039904134976870773 0 -0.00020915340281049059 0.038034206290205333 0 0.00027439030587288887 0.02643035013913219 0 0.0089270239374396737 0.039904134976870773 0 0.022929310778796581 0.036107298613747667 0 0.017869154308202208 0.049814258280458851 0 0.030996983847855462 0.050603275794973507 0 0.0089270239374396737 0.039904134976870773 0 0.022929310778796581 0.036107298613747667 0 0.017869154308202208 0.049814258280458851 0 0.017869154308202208 0.049814258280458851 0 0.026423784558326641 0.059907710384717337 0 0.01068835749376784 0.065234271108784964 0 0.017869154308202208 0.049814258280458851 0 0.030996983847855462 0.050603275794973507 0 0.026423784558326641 0.059907710384717337 0 0.030996983847855462 0.050603275794973507 0 0.041877493839118193 0.06202170552989613 0 0.045584231251720293 0.04578424708836315 0 0.030996983847855462 0.050603275794973507 0 0.026423784558326641 0.059907710384717337 0 0.041877493839118193 0.06202170552989613 0 0.045584231251720293 0.04578424708836315 0 0.036804801298174518 0.034980522175856503 0 0.052858331002389451 0.041956435000697942 0 0.052858331002389451 0.041956435000697942 0 0.035741402731678341 0.021100030621768521 0 0.022929310778796581 0.036107298613747667 0 0.045584231251720293 0.04578424708836315 0 0.036804801298174518 0.034980522175856503 0 0.036804801298174518 0.034980522175856503 0 0.052858331002389451 0.041956435000697942 0 0.035741402731678341 0.021100030621768521 0 0.022929310778796581 0.036107298613747667 0 0.030996983847855462 0.050603275794973507 0 0.045584231251720293 0.04578424708836315 0 0.022929310778796581 0.036107298613747667 0 0.045584231251720293 0.04578424708836315 0 0.062263485375540432 0.041106930452127183 0 0.052858331002389451 0.041956435000697942 0 0.05871003120718548 0.028207231095760059 0 0.062263485375540432 0.041106930452127183 0 0.052858331002389451 0.041956435000697942 0 0.068239151724643982 0.055461195562978641 0 0.041877493839118193 0.06202170552989613 0 0.045584231251720293 0.04578424708836315 0 0.053178911431128989 0.057842218993673089 0 0.045584231251720293 0.04578424708836315 0 0.068239151724643982 0.055461195562978641 0 0.045584231251720293 0.04578424708836315 0 0.052858331002389451 0.041956435000697942 0 0.068239151724643982 0.055461195562978641 0 0.045584231251720293 0.04578424708836315 0 0.053178911431128989 0.057842218993673089 0 0.068239151724643982 0.055461195562978641 0 0.053178911431128989 0.057842218993673089 0 0.068239151724643982 0.055461195562978641 0 0.056198514105751621 0.06825303501255113 0 0.035741402731678341 0.021100030621768521 0 0.049613624012298019 0.014599701492966169 0 0.033112655901409799 -0.00063324611952645087 0 0.049613624012298019 0.014599701492966169 0 0.047625854666841223 -0.00042499582266109989 0 0.033112655901409799 -0.00063324611952645087 0 0.022929310778796581 0.036107298613747667 0 0.036804801298174518 0.034980522175856503 0 0.035741402731678341 0.021100030621768521 0 0.05871003120718548 0.028207231095760059 0 0.049613624012298019 0.014599701492966169 0 0.065632266374308967 0.01496466096766909 0 0.035741402731678341 0.021100030621768521 0 0.05871003120718548 0.028207231095760059 0 0.049613624012298019 0.014599701492966169 0 0.052858331002389451 0.041956435000697942 0 0.035741402731678341 0.021100030621768521 0 0.05871003120718548 0.028207231095760059 0 0.065632266374308967 0.01496466096766909 0 0.047625854666841223 -0.00042499582266109989 0 0.067246202506794167 -0.00580706716318748 0 0.065632266374308967 0.01496466096766909 0 0.047625854666841223 -0.00042499582266109989 0 0.049613624012298019 0.014599701492966169 0 0.065632266374308967 0.01496466096766909 0 0.047625854666841223 -0.00042499582266109989 0 0.065632266374308967 0.01496466096766909 0 0.079410187260494813 0.010994656865862529 0 0.067246202506794167 -0.00580706716318748 0 0.079410187260494813 0.010994656865862529 0 0.086474162963314449 -0.0049404096715552834 0 0.067246202506794167 -0.00580706716318748 0 0.094059626376279667 0.020401782438387039 0 0.086474162963314449 -0.0049404096715552834 0 0.079410187260494813 0.010994656865862529 0 0.094059626376279667 0.020401782438387039 0 0.086474162963314449 -0.0049404096715552834 0 0.079410187260494813 0.010994656865862529 0 0.083638678081776732 0.030354317757999301 0 0.094059626376279667 0.020401782438387039 0 0.065632266374308967 0.01496466096766909 0 0.079410187260494813 0.010994656865862529 0 0.083638678081776732 0.030354317757999301 0 0.065632266374308967 0.01496466096766909 0 0.083638678081776732 0.030354317757999301 0 0.069246427567942762 0.038802860149072062 0 0.065632266374308967 0.01496466096766909 0 0.083638678081776732 0.030354317757999301 0 0.05871003120718548 0.028207231095760059 0 0.065632266374308967 0.01496466096766909 0 0.069246427567942762 0.038802860149072062 0 0.062263485375540432 0.041106930452127183 0 0.069246427567942762 0.038802860149072062 0 0.068239151724643982 0.055461195562978641 0 0.062263485375540432 0.041106930452127183 0 0.05871003120718548 0.028207231095760059 0 0.069246427567942762 0.038802860149072062 0 0.069246427567942762 0.038802860149072062 0 0.068239151724643982 0.055461195562978641 0 0.079088757286104164 0.041631379701085991 0 0.083638678081776732 0.030354317757999301 0 0.069246427567942762 0.038802860149072062 0 0.079088757286104164 0.041631379701085991 0 0.068239151724643982 0.055461195562978641 0 0.084773638182033095 0.050705543204256423 0 0.079088757286104164 0.041631379701085991 0 0.068239151724643982 0.055461195562978641 0 0.084773638182033095 0.050705543204256423 0 0.090894072197567677 0.065138144037594117 0 0.068239151724643982 0.055461195562978641 0 0.090894072197567677 0.065138144037594117 0 0.084773638182033095 0.050705543204256423 0 0.08900681997519784 0.044130337018207393 0 0.095775630099554171 0.054570085543341577 0 0.084773638182033095 0.050705543204256423 0 0.095775630099554171 0.054570085543341577 0 0.090894072197567677 0.065138144037594117 0 0.083638678081776732 0.030354317757999301 0 0.10164508978924471 0.045743974548329493 0 0.083638678081776732 0.030354317757999301 0 0.08900681997519784 0.044130337018207393 0 0.10164508978924471 0.045743974548329493 0 0.083638678081776732 0.030354317757999301 0 0.10164508978924471 0.045743974548329493 0 0.094059626376279667 0.020401782438387039 0 0.083638678081776732 0.030354317757999301 0 0.079088757286104164 0.041631379701085991 0 0.08900681997519784 0.044130337018207393 0 0.084773638182033095 0.050705543204256423 0 0.079088757286104164 0.041631379701085991 0 0.08900681997519784 0.044130337018207393 0 0.10164508978924471 0.045743974548329493 0 0.1131172876239257 0.036192844188860637 0 0.10561486686582081 0.027602173335020311 0 0.10164508978924471 0.045743974548329493 0 0.094059626376279667 0.020401782438387039 0 0.10164508978924471 0.045743974548329493 0 0.11022541268879441 0.053077374823716307 0 0.1131172876239257 0.036192844188860637 0 0.095775630099554171 0.054570085543341577 0 0.10077190274373091 0.063801515760893657 0 0.090894072197567677 0.065138144037594117 0 0.095775630099554171 0.054570085543341577 0 0.10493982769155159 0.056751328526129997 0 0.10077190274373091 0.063801515760893657 0 0.08900681997519784 0.044130337018207393 0 0.10164508978924471 0.045743974548329493 0 0.095775630099554171 0.054570085543341577 0 0.10164508978924471 0.045743974548329493 0 0.095775630099554171 0.054570085543341577 0 0.10493982769155159 0.056751328526129997 0 0.10164508978924471 0.045743974548329493 0 0.10493982769155159 0.056751328526129997 0 0.11022541268879441 0.053077374823716307 0 0.10164508978924471 0.045743974548329493 0 0.11022541268879441 0.053077374823716307 0 0.10164508978924471 0.045743974548329493 0 0.10493982769155159 0.056751328526129997 0 0.10493982769155159 0.056751328526129997 0 0.11022541268879441 0.053077374823716307 0 0.1077870968721064 0.067313750541153405 0 0.11022541268879441 0.053077374823716307 0 0.1077870968721064 0.067313750541153405 0 0.11963300847789519 0.061117825790215491 0 0.1180504621153383 0.042859463544297011 0 0.11963300847789519 0.061117825790215491 0 0.1180504621153383 0.042859463544297011 0 0.13045527104952351 0.056402318551776007 0 0.11282835839811491 0.055302051331237147 0 0.11963300847789519 0.061117825790215491 0 0.1180504621153383 0.042859463544297011 0 0.11282835839811491 0.055302051331237147 0 0.11022541268879441 0.053077374823716307 0 0.1077870968721064 0.067313750541153405 0 0.11282835839811491 0.055302051331237147 0 0.11963300847789519 0.061117825790215491 0 0.1077870968721064 0.067313750541153405 0 0.11282835839811491 0.055302051331237147 0 0.1077870968721064 0.067313750541153405 0 0.11282835839811491 0.055302051331237147 0 0.11963300847789519 0.061117825790215491 0 0.11282835839811491 0.055302051331237147 0 0.1180504621153383 0.042859463544297011 0 0.11282835839811491 0.055302051331237147 0 0.11022541268879441 0.053077374823716307 0 0.1180504621153383 0.042859463544297011 0 0.11282835839811491 0.055302051331237147 0 0.11022541268879441 0.053077374823716307 0 0.11963300847789519 0.061117825790215491 0 0.12161212966019599 0.062809334139398737 0 0.13045527104952351 0.056402318551776007 0 0.11963300847789519 0.061117825790215491 0 0.12161212966019599 0.062809334139398737 0 0.11022541268879441 0.053077374823716307 0 0.1131172876239257 0.036192844188860637 0 0.1180504621153383 0.042859463544297011 0 0.11022541268879441 0.053077374823716307 0 0.1131172876239257 0.036192844188860637 0 0.1131172876239257 0.036192844188860637 0 0.1180504621153383 0.042859463544297011 0 0.1160091625590562 0.019308313554004749 0 0.1180504621153383 0.042859463544297011 0 0.1232204744159258 0.030540992791317771 0 0.13013107959748271 0.045453772318554062 0 0.1180504621153383 0.042859463544297011 0 0.1232204744159258 0.030540992791317771 0 0.1180504621153383 0.042859463544297011 0 0.1232204744159258 0.030540992791317771 0 0.1160091625590562 0.019308313554004749 0 0.1131172876239257 0.036192844188860637 0 0.1160091625590562 0.019308313554004749 0 0.1180504621153383 0.042859463544297011 0 0.1160091625590562 0.019308313554004749 0 0.1131172876239257 0.036192844188860637 0 0.1160091625590562 0.019308313554004749 0 0.10561486686582081 0.027602173335020311 0 0.1232204744159258 0.030540992791317771 0 0.1160091625590562 0.019308313554004749 0 0.1272059714669049 0.01179698337579236 0 0.1160091625590562 0.019308313554004749 0 0.1136136107063144 -0.0083299626704685381 0 0.1160091625590562 0.019308313554004749 0 0.1272059714669049 0.01179698337579236 0 0.1195207288501979 -0.001194353383229735 0 0.1160091625590562 0.019308313554004749 0 0.10805409048844559 0.002891447746746191 0 0.1136136107063144 -0.0083299626704685381 0 0.1160091625590562 0.019308313554004749 0 0.1195207288501979 -0.001194353383229735 0 0.1136136107063144 -0.0083299626704685381 0 0.1160091625590562 0.019308313554004749 0 0.1195207288501979 -0.001194353383229735 0 0.1160091625590562 0.019308313554004749 0 0.10220168048510241 0.0069554238602353618 0 0.1044713340715647 0.018566923296911859 0 0.1160091625590562 0.019308313554004749 0 0.10805409048844559 0.002891447746746191 0 0.10220168048510241 0.0069554238602353618 0 0.10220168048510241 0.0069554238602353618 0 0.094059626376279667 0.020401782438387039 0 0.086474162963314449 -0.0049404096715552834 0 0.10805409048844559 0.002891447746746191 0 0.10220168048510241 0.0069554238602353618 0 0.10039190820330959 -0.0063679837567867754 0 0.10220168048510241 0.0069554238602353618 0 0.094059626376279667 0.020401782438387039 0 0.1044713340715647 0.018566923296911859 0 0.094059626376279667 0.020401782438387039 0 0.10561486686582081 0.027602173335020311 0 0.1044713340715647 0.018566923296911859 0 0.10164508978924471 0.045743974548329493 0 0.094059626376279667 0.020401782438387039 0 0.10561486686582081 0.027602173335020311 0 0.1160091625590562 0.019308313554004749 0 0.10561486686582081 0.027602173335020311 0 0.1044713340715647 0.018566923296911859 0 0.095781493117820471 0.095919229623321653 0 0.1006815892557022 0.1068076285191812 0 0.087100099377767221 0.1166041890903944 0 0.095781493117820471 0.095919229623321653 0 0.1006815892557022 0.1068076285191812 0 0.1104322434403307 0.099916118115240551 0 0.095781493117820471 0.095919229623321653 0 0.1104322434403307 0.099916118115240551 0 0.1046050569028235 0.085892441718287332 0 0.1006815892557022 0.1068076285191812 0 0.098964282691917371 0.1186236782331008 0 0.1244312862506923 0.11647714783315261 0 0.1006815892557022 0.1068076285191812 0 0.098964282691917371 0.1186236782331008 0 0.087100099377767221 0.1166041890903944 0 0.098964282691917371 0.1186236782331008 0 0.1244312862506923 0.11647714783315261 0 0.1114604271728054 0.12976334417550031 0 0.098964282691917371 0.1186236782331008 0 0.1244312862506923 0.11647714783315261 0 0.1244312862506923 0.11647714783315261 0 0.1104322434403307 0.099916118115240551 0 0.122159592140168 0.090267859458788985 0 0.1006815892557022 0.1068076285191812 0 0.1244312862506923 0.11647714783315261 0 0.1104322434403307 0.099916118115240551 0 0.1244312862506923 0.11647714783315261 0 0.122159592140168 0.090267859458788985 0 0.1104322434403307 0.099916118115240551 0 0.122159592140168 0.090267859458788985 0 0.1046050569028235 0.085892441718287332 0 0.122159592140168 0.090267859458788985 0 0.1067092771466928 0.073606719836438822 0 0.1046050569028235 0.085892441718287332 0 0.122159592140168 0.090267859458788985 0 0.1198878980296393 0.0640585710844256 0 0.122159592140168 0.090267859458788985 0 0.1198878980296393 0.0640585710844256 0 0.12862567505231701 0.06880364651110718 0 0.122159592140168 0.090267859458788985 0 0.1198878980296393 0.0640585710844256 0 0.1067092771466928 0.073606719836438822 0 0.1198878980296393 0.0640585710844256 0 0.12161212966019599 0.062809334139398737 0 0.12862567505231701 0.06880364651110718 0 0.11963300847789519 0.061117825790215491 0 0.1198878980296393 0.0640585710844256 0 0.12161212966019599 0.062809334139398737 0 0.11963300847789519 0.061117825790215491 0 0.1198878980296393 0.0640585710844256 0 0.1198878980296393 0.0640585710844256 0 0.12161212966019599 0.062809334139398737 0 0.11963300847789519 0.061117825790215491 0 0.1198878980296393 0.0640585710844256 0 0.1077870968721064 0.067313750541153405 0 0.1198878980296393 0.0640585710844256 0 0.1067092771466928 0.073606719836438822 0 0.1198878980296393 0.0640585710844256 0 0.1077870968721064 0.067313750541153405 0 0.1067092771466928 0.073606719836438822 0 0.1077870968721064 0.067313750541153405 0 0.1044628868578744 0.075234270156249144 0 0.10077190274373091 0.063801515760893657 0 0.10493982769155159 0.056751328526129997 0 0.1077870968721064 0.067313750541153405 0 0.10077190274373091 0.063801515760893657 0 0.1077870968721064 0.067313750541153405 0 0.1044628868578744 0.075234270156249144 0 0.1077870968721064 0.067313750541153405 0 0.1067092771466928 0.073606719836438822 0 0.1044628868578744 0.075234270156249144 0 0.1077870968721064 0.067313750541153405 0 0.1067092771466928 0.073606719836438822 0 0.1067092771466928 0.073606719836438822 0 0.1044628868578744 0.075234270156249144 0 0.1044628868578744 0.075234270156249144 0 0.10077190274373091 0.063801515760893657 0 0.090894072197567677 0.065138144037594117 0 0.095781493117820471 0.095919229623321653 0 0.1044628868578744 0.075234270156249144 0 0.1044628868578744 0.075234270156249144 0 0.086334961385394857 0.08836827943643491 0 0.095781493117820471 0.095919229623321653 0 0.1044628868578744 0.075234270156249144 0 0.1046050569028235 0.085892441718287332 0 0.095781493117820471 0.095919229623321653 0 0.1044628868578744 0.075234270156249144 0 0.086334961385394857 0.08836827943643491 0 0.1067092771466928 0.073606719836438822 0 0.1044628868578744 0.075234270156249144 0 0.1046050569028235 0.085892441718287332 0 0.1067092771466928 0.073606719836438822 0 0.1046050569028235 0.085892441718287332 0 0.086334961385394857 0.08836827943643491 0 0.080796714132482975 0.075218901754824263 0 0.069133953938819132 0.084717410066501547 0 0.1044628868578744 0.075234270156249144 0 0.086334961385394857 0.08836827943643491 0 0.080796714132482975 0.075218901754824263 0 0.1044628868578744 0.075234270156249144 0 0.090894072197567677 0.065138144037594117 0 0.080796714132482975 0.075218901754824263 0 0.068239151724643982 0.055461195562978641 0 0.090894072197567677 0.065138144037594117 0 0.080796714132482975 0.075218901754824263 0 0.068239151724643982 0.055461195562978641 0 0.080796714132482975 0.075218901754824263 0 0.066213950380320283 0.0745653801446855 0 0.068239151724643982 0.055461195562978641 0 0.066213950380320283 0.0745653801446855 0 0.056198514105751621 0.06825303501255113 0 0.086334961385394857 0.08836827943643491 0 0.069133953938819132 0.084717410066501547 0 0.066349986165636574 0.094738613716843112 0 0.080796714132482975 0.075218901754824263 0 0.066213950380320283 0.0745653801446855 0 0.069133953938819132 0.084717410066501547 0 0.066213950380320283 0.0745653801446855 0 0.069133953938819132 0.084717410066501547 0 0.056935141893923243 0.082467569827800291 0 0.069133953938819132 0.084717410066501547 0 0.066349986165636574 0.094738613716843112 0 0.058555221068033819 0.092046972997176957 0 0.086334961385394857 0.08836827943643491 0 0.068207035912914243 0.1015022887166192 0 0.066349986165636574 0.094738613716843112 0 0.068207035912914243 0.1015022887166192 0 0.058745685161963802 0.09990694600154687 0 0.086334961385394857 0.08836827943643491 0 0.066349986165636574 0.094738613716843112 0 0.068207035912914243 0.1015022887166192 0 0.066349986165636574 0.094738613716843112 0 0.068207035912914243 0.1015022887166192 0 0.068207035912914243 0.1015022887166192 0 0.082787819814826955 0.10263009018170011 0 0.077898058559662656 0.1103766941554407 0 0.095781493117820471 0.095919229623321653 0 0.087100099377767221 0.1166041890903944 0 0.086334961385394857 0.08836827943643491 0 0.068207035912914243 0.1015022887166192 0 0.082787819814826955 0.10263009018170011 0 0.095781493117820471 0.095919229623321653 0 0.082787819814826955 0.10263009018170011 0 0.087100099377767221 0.1166041890903944 0 0.095781493117820471 0.095919229623321653 0 0.086334961385394857 0.08836827943643491 0 0.082787819814826955 0.10263009018170011 0 0.098964282691917371 0.1186236782331008 0 0.073497279133142621 0.12077020863304989 0 0.075933100234520268 0.1296418623469133 0 0.098964282691917371 0.1186236782331008 0 0.087100099377767221 0.1166041890903944 0 0.073497279133142621 0.12077020863304989 0 0.098964282691917371 0.1186236782331008 0 0.073497279133142621 0.12077020863304989 0 0.082787819814826955 0.10263009018170011 0 0.087100099377767221 0.1166041890903944 0 0.077898058559662656 0.1103766941554407 0 0.087100099377767221 0.1166041890903944 0 0.073497279133142621 0.12077020863304989 0 0.077898058559662656 0.1103766941554407 0 0.068207035912914243 0.1015022887166192 0 0.073497279133142621 0.12077020863304989 0 0.068207035912914243 0.1015022887166192 0 0.073497279133142621 0.12077020863304989 0 0.063745132199279353 0.121592185188319 0 0.073497279133142621 0.12077020863304989 0 0.063745132199279353 0.121592185188319 0 0.075933100234520268 0.1296418623469133 0 0.068207035912914243 0.1015022887166192 0 0.073497279133142621 0.12077020863304989 0 0.077898058559662656 0.1103766941554407 0 0.073497279133142621 0.12077020863304989 0 0.063745132199279353 0.121592185188319 0 0.063745132199279353 0.121592185188319 0 0.051573708356894662 0.1135534348233567 0 0.037415326081001649 0.123811438392851 0 0.063745132199279353 0.121592185188319 0 0.037415326081001649 0.123811438392851 0 0.063745132199279353 0.121592185188319 0 0.051573708356894662 0.1135534348233567 0 0.068207035912914243 0.1015022887166192 0 0.063745132199279353 0.121592185188319 0 0.051573708356894662 0.1135534348233567 0 0.068207035912914243 0.1015022887166192 0 0.051573708356894662 0.1135534348233567 0 0.058745685161963802 0.09990694600154687 0 0.051573708356894662 0.1135534348233567 0 0.058745685161963802 0.09990694600154687 0 0.04904247430633283 0.09769341975372893 0 0.068207035912914243 0.1015022887166192 0 0.051573708356894662 0.1135534348233567 0 0.058745685161963802 0.09990694600154687 0 0.04904247430633283 0.09769341975372893 0 0.058555221068033819 0.092046972997176957 0 0.066349986165636574 0.094738613716843112 0 0.058745685161963802 0.09990694600154687 0 0.058555221068033819 0.092046972997176957 0 0.051573708356894662 0.1135534348233567 0 0.04904247430633283 0.09769341975372893 0 0.032317525749469257 0.1008354778309867 0 0.051573708356894662 0.1135534348233567 0 0.032317525749469257 0.1008354778309867 0 0.04904247430633283 0.09769341975372893 0 0.032317525749469257 0.1008354778309867 0 0.041632373557582952 0.088665689128461789 0 0.051573708356894662 0.1135534348233567 0 0.032317525749469257 0.1008354778309867 0 0.037415326081001649 0.123811438392851 0 0.051573708356894662 0.1135534348233567 0 0.037415326081001649 0.123811438392851 0 0.041877493839118193 0.06202170552989613 0 0.056198514105751621 0.06825303501255113 0 0.046044807698471482 0.078031669598269987 0 0.041877493839118193 0.06202170552989613 0 0.053178911431128989 0.057842218993673089 0 0.056198514105751621 0.06825303501255113 0 0.066213950380320283 0.0745653801446855 0 0.056198514105751621 0.06825303501255113 0 0.056935141893923243 0.082467569827800291 0 0.056198514105751621 0.06825303501255113 0 0.056935141893923243 0.082467569827800291 0 0.046044807698471482 0.078031669598269987 0 0.056935141893923243 0.082467569827800291 0 0.050271494311695489 0.08860007781132323 0 0.046044807698471482 0.078031669598269987 0 0.069133953938819132 0.084717410066501547 0 0.056935141893923243 0.082467569827800291 0 0.058555221068033819 0.092046972997176957 0 0.056935141893923243 0.082467569827800291 0 0.058555221068033819 0.092046972997176957 0 0.050271494311695489 0.08860007781132323 0 0.04904247430633283 0.09769341975372893 0 0.050271494311695489 0.08860007781132323 0 0.041632373557582952 0.088665689128461789 0 0.04904247430633283 0.09769341975372893 0 0.058555221068033819 0.092046972997176957 0 0.050271494311695489 0.08860007781132323 0 0.032317525749469257 0.1008354778309867 0 0.041632373557582952 0.088665689128461789 0 0.030100028013809049 0.077431234943731511 0 0.041632373557582952 0.088665689128461789 0 0.046044807698471482 0.078031669598269987 0 0.030100028013809049 0.077431234943731511 0 0.050271494311695489 0.08860007781132323 0 0.041632373557582952 0.088665689128461789 0 0.046044807698471482 0.078031669598269987 0 0.026423784558326641 0.059907710384717337 0 0.041877493839118193 0.06202170552989613 0 0.030100028013809049 0.077431234943731511 0 0.041877493839118193 0.06202170552989613 0 0.046044807698471482 0.078031669598269987 0 0.030100028013809049 0.077431234943731511 0 0.030100028013809049 0.077431234943731511 0 0.013061343142041781 0.088117520838619859 0 0.01068835749376784 0.065234271108784964 0 0.026423784558326641 0.059907710384717337 0 0.030100028013809049 0.077431234943731511 0 0.01068835749376784 0.065234271108784964 0 0.032317525749469257 0.1008354778309867 0 0.030100028013809049 0.077431234943731511 0 0.013061343142041781 0.088117520838619859 0 -0.0038174434113906479 0.097245822122756814 0 -0.0061948394653856256 0.07539956384625307 0 0.013061343142041781 0.088117520838619859 0 -0.0061948394653856256 0.07539956384625307 0 0.013061343142041781 0.088117520838619859 0 -0.0061948394653856256 0.07539956384625307 0 0.013061343142041781 0.088117520838619859 0 0.01068835749376784 0.065234271108784964 0 0.037415326081001649 0.123811438392851 0 0.013345320839888781 0.12584022037569101 0 0.037415326081001649 0.123811438392851 0 0.014398793310672659 0.1069698711358132 0 0.013345320839888781 0.12584022037569101 0 0.032317525749469257 0.1008354778309867 0 0.037415326081001649 0.123811438392851 0 0.014398793310672659 0.1069698711358132 0 0.032317525749469257 0.1008354778309867 0 0.013061343142041781 0.088117520838619859 0 0.032317525749469257 0.1008354778309867 0 0.013061343142041781 0.088117520838619859 0 0.014398793310672659 0.1069698711358132 0 -0.009622303651300089 0.1135135244299402 0 -0.0038174434113906479 0.097245822122756814 0 0.014398793310672659 0.1069698711358132 0 -0.0038174434113906479 0.097245822122756814 0 0.013061343142041781 0.088117520838619859 0 0.014398793310672659 0.1069698711358132 0 -0.009622303651300089 0.1135135244299402 0 0.014398793310672659 0.1069698711358132 0 0.013345320839888781 0.12584022037569101 0 0.013345320839888781 0.12584022037569101 0 0.002700318406108963 0.1356911531519954 0 0.020691116517431791 0.1359284301548232 0 -0.01072468440122405 0.12786900235853099 0 0.013345320839888781 0.12584022037569101 0 -0.01072468440122405 0.12786900235853099 0 0.013345320839888781 0.12584022037569101 0 0.002700318406108963 0.1356911531519954 0 0.002700318406108963 0.1356911531519954 0 0.020691116517431791 0.1359284301548232 0 0.0039669069538619244 0.14804542191679551 0 0.037415326081001649 0.123811438392851 0 0.020691116517431791 0.1359284301548232 0 0.037415326081001649 0.123811438392851 0 0.013345320839888781 0.12584022037569101 0 0.020691116517431791 0.1359284301548232 0 0.01891193672277261 0.14963330781687439 0 0.025819540964521961 0.16006392166911909 0 0.03236824497299725 0.15117702219083121 0 0.020691116517431791 0.1359284301548232 0 0.01891193672277261 0.14963330781687439 0 0.03236824497299725 0.15117702219083121 0 0.020691116517431791 0.1359284301548232 0 0.0039669069538619244 0.14804542191679551 0 0.01891193672277261 0.14963330781687439 0 0.0039669069538619244 0.14804542191679551 0 0.016814373287157371 0.16212145008882861 0 0.020691116517431791 0.1359284301548232 0 0.01891193672277261 0.14963330781687439 0 0.0039669069538619244 0.14804542191679551 0 -0.013396725236583969 0.1601200538134796 0 0.0070414061932690848 0.16614852550202611 0 0.016814373287157371 0.16212145008882861 0 -0.013396725236583969 0.1601200538134796 0 0.016814373287157371 0.16212145008882861 0 -0.013396725236583969 0.1601200538134796 0 0.0039669069538619244 0.14804542191679551 0 0.016814373287157371 0.16212145008882861 0 0.0070414061932690848 0.16614852550202611 0 0.017433599045734629 0.1774963258262571 0 0.016814373287157371 0.16212145008882861 0 -0.0052875140954570981 0.17119111425245789 0 0.0070414061932690848 0.16614852550202611 0 0.0011284886159709589 0.19553043523140759 0 0.0070414061932690848 0.16614852550202611 0 0.0011284886159709589 0.19553043523140759 0 0.0070414061932690848 0.16614852550202611 0 0.017433599045734629 0.1774963258262571 0 0.0011284886159709589 0.19553043523140759 0 0.028236819731680528 0.18390293469652369 0 0.0246461100186415 0.1695059331286366 0 0.036357039821041083 0.16788189512042459 0 0.017433599045734629 0.1774963258262571 0 0.028236819731680528 0.18390293469652369 0 0.018347233016829709 0.19878397343506679 0 0.017433599045734629 0.1774963258262571 0 0.028236819731680528 0.18390293469652369 0 0.0246461100186415 0.1695059331286366 0 0.01891193672277261 0.14963330781687439 0 0.016814373287157371 0.16212145008882861 0 0.025819540964521961 0.16006392166911909 0 0.016814373287157371 0.16212145008882861 0 0.0246461100186415 0.1695059331286366 0 0.025819540964521961 0.16006392166911909 0 0.017433599045734629 0.1774963258262571 0 0.016814373287157371 0.16212145008882861 0 0.0246461100186415 0.1695059331286366 0 0.0246461100186415 0.1695059331286366 0 0.025819540964521961 0.16006392166911909 0 0.036357039821041083 0.16788189512042459 0 0.036357039821041083 0.16788189512042459 0 0.048569977576966711 0.15520933359898409 0 0.03236824497299725 0.15117702219083121 0 0.025819540964521961 0.16006392166911909 0 0.036357039821041083 0.16788189512042459 0 0.03236824497299725 0.15117702219083121 0 0.036357039821041083 0.16788189512042459 0 0.042879779816506133 0.1841462994984939 0 0.056945358822985202 0.17216918742313581 0 0.028236819731680528 0.18390293469652369 0 0.036357039821041083 0.16788189512042459 0 0.042879779816506133 0.1841462994984939 0 0.056945358822985202 0.17216918742313581 0 0.057080976306810652 0.1896175174079468 0 0.07246408417576139 0.18132621282729591 0 0.042879779816506133 0.1841462994984939 0 0.056945358822985202 0.17216918742313581 0 0.057080976306810652 0.1896175174079468 0 0.036357039821041083 0.16788189512042459 0 0.056945358822985202 0.17216918742313581 0 0.048569977576966711 0.15520933359898409 0 0.056945358822985202 0.17216918742313581 0 0.048569977576966711 0.15520933359898409 0 0.064682328474581774 0.1574882940390997 0 0.048569977576966711 0.15520933359898409 0 0.060377427996140161 0.1399429093059022 0 0.064682328474581774 0.1574882940390997 0 0.048569977576966711 0.15520933359898409 0 0.060377427996140161 0.1399429093059022 0 0.04254720820641001 0.13914361199478681 0 0.063745132199279353 0.121592185188319 0 0.037415326081001649 0.123811438392851 0 0.051021273620707852 0.13112253622046471 0 0.060377427996140161 0.1399429093059022 0 0.051021273620707852 0.13112253622046471 0 0.04254720820641001 0.13914361199478681 0 0.063745132199279353 0.121592185188319 0 0.060377427996140161 0.1399429093059022 0 0.051021273620707852 0.13112253622046471 0 0.037415326081001649 0.123811438392851 0 0.020691116517431791 0.1359284301548232 0 0.04254720820641001 0.13914361199478681 0 0.037415326081001649 0.123811438392851 0 0.051021273620707852 0.13112253622046471 0 0.04254720820641001 0.13914361199478681 0 0.020691116517431791 0.1359284301548232 0 0.04254720820641001 0.13914361199478681 0 0.03236824497299725 0.15117702219083121 0 0.048569977576966711 0.15520933359898409 0 0.04254720820641001 0.13914361199478681 0 0.03236824497299725 0.15117702219083121 0 0.029648692022305429 0.24198572259538451 0 0.02276421990113224 0.24638130569216371 0 0.030532060240475941 0.25156469816248078 0 0.029648692022305429 0.24198572259538451 0 0.017486665963911539 0.23953998466507201 0 0.027967497283968919 0.23007333523936499 0 0.017486665963911539 0.23953998466507201 0 0.02276421990113224 0.24638130569216371 0 0.013389461377836059 0.25243481734571738 0 0.029648692022305429 0.24198572259538451 0 0.017486665963911539 0.23953998466507201 0 0.02276421990113224 0.24638130569216371 0 0.017486665963911539 0.23953998466507201 0 0.009312599233707905 0.24404109572130439 0 0.013389461377836059 0.25243481734571738 0 0.009312599233707905 0.24404109572130439 0 0.00069615477047229072 0.24213838121001291 0 0.0013968678610932379 0.25402272509214019 0 0.009312599233707905 0.24404109572130439 0 0.00069615477047229072 0.24213838121001291 0 0.0082530822575127474 0.23342148558566081 0 0.017486665963911539 0.23953998466507201 0 0.009312599233707905 0.24404109572130439 0 0.0082530822575127474 0.23342148558566081 0 0.017486665963911539 0.23953998466507201 0 0.0082530822575127474 0.23342148558566081 0 0.01651616648826203 0.2260447289783592 0 -0.0047844289613271406 0.22491234496078891 0 0.00069615477047229072 0.24213838121001291 0 0.0082530822575127474 0.23342148558566081 0 0.0082530822575127474 0.23342148558566081 0 0.0086592035719671202 0.22232765370738641 0 0.01651616648826203 0.2260447289783592 0 -0.0047844289613271406 0.22491234496078891 0 0.0082530822575127474 0.23342148558566081 0 0.0086592035719671202 0.22232765370738641 0 -0.0047844289613271406 0.22491234496078891 0 0.0086592035719671202 0.22232765370738641 0 0.0065869433289504299 0.21191483651988399 0 0.0086592035719671202 0.22232765370738641 0 0.01651616648826203 0.2260447289783592 0 0.017052535855677769 0.2143568071483121 0 0.01651616648826203 0.2260447289783592 0 0.026646971182136589 0.21897782932179979 0 0.017052535855677769 0.2143568071483121 0 0.017486665963911539 0.23953998466507201 0 0.01651616648826203 0.2260447289783592 0 0.027967497283968919 0.23007333523936499 0 0.01651616648826203 0.2260447289783592 0 0.027967497283968919 0.23007333523936499 0 0.026646971182136589 0.21897782932179979 0 0.027967497283968919 0.23007333523936499 0 0.026646971182136589 0.21897782932179979 0 0.037575619840745603 0.22265399387150231 0 0.026646971182136589 0.21897782932179979 0 0.025558697545920762 0.2080918209273763 0 0.036699535620720238 0.21115419488208551 0 0.025558697545920762 0.2080918209273763 0 0.017052535855677769 0.2143568071483121 0 0.018347233016829709 0.19878397343506679 0 0.026646971182136589 0.21897782932179979 0 0.025558697545920762 0.2080918209273763 0 0.017052535855677769 0.2143568071483121 0 -0.0047844289613271406 0.22491234496078891 0 0.0065869433289504299 0.21191483651988399 0 0.0011284886159709589 0.19553043523140759 0 0.0086592035719671202 0.22232765370738641 0 0.017052535855677769 0.2143568071483121 0 0.0065869433289504299 0.21191483651988399 0 0.017052535855677769 0.2143568071483121 0 0.0065869433289504299 0.21191483651988399 0 0.018347233016829709 0.19878397343506679 0 0.017433599045734629 0.1774963258262571 0 0.0011284886159709589 0.19553043523140759 0 0.018347233016829709 0.19878397343506679 0 0.0065869433289504299 0.21191483651988399 0 0.0011284886159709589 0.19553043523140759 0 0.018347233016829709 0.19878397343506679 0 0.025558697545920762 0.2080918209273763 0 0.018347233016829709 0.19878397343506679 0 0.033254561436169672 0.19836154288680791 0 0.028236819731680528 0.18390293469652369 0 0.018347233016829709 0.19878397343506679 0 0.033254561436169672 0.19836154288680791 0 0.042879779816506133 0.1841462994984939 0 0.033254561436169672 0.19836154288680791 0 0.048987862884696268 0.20206192476536769 0 0.028236819731680528 0.18390293469652369 0 0.042879779816506133 0.1841462994984939 0 0.033254561436169672 0.19836154288680791 0 0.057080976306810652 0.1896175174079468 0 0.048987862884696268 0.20206192476536769 0 0.067236255700123856 0.2001892824615619 0 0.042879779816506133 0.1841462994984939 0 0.057080976306810652 0.1896175174079468 0 0.048987862884696268 0.20206192476536769 0 0.048987862884696268 0.20206192476536769 0 0.06155913992065333 0.21453791206647629 0 0.048666234167709092 0.2159330120546871 0 0.048987862884696268 0.20206192476536769 0 0.06155913992065333 0.21453791206647629 0 0.067236255700123856 0.2001892824615619 0 0.048666234167709092 0.2159330120546871 0 0.036699535620720238 0.21115419488208551 0 0.037575619840745603 0.22265399387150231 0 0.033254561436169672 0.19836154288680791 0 0.048987862884696268 0.20206192476536769 0 0.036699535620720238 0.21115419488208551 0 0.048987862884696268 0.20206192476536769 0 0.048666234167709092 0.2159330120546871 0 0.036699535620720238 0.21115419488208551 0 0.025558697545920762 0.2080918209273763 0 0.033254561436169672 0.19836154288680791 0 0.036699535620720238 0.21115419488208551 0 0.026646971182136589 0.21897782932179979 0 0.036699535620720238 0.21115419488208551 0 0.037575619840745603 0.22265399387150231 0 0.027967497283968919 0.23007333523936499 0 0.037575619840745603 0.22265399387150231 0 0.041929859767213563 0.23624624544822029 0 0.037575619840745603 0.22265399387150231 0 0.046289963738743542 0.22603996225911571 0 0.041929859767213563 0.23624624544822029 0 0.048666234167709092 0.2159330120546871 0 0.037575619840745603 0.22265399387150231 0 0.046289963738743542 0.22603996225911571 0 0.048666234167709092 0.2159330120546871 0 0.046289963738743542 0.22603996225911571 0 0.056988141179305958 0.22932659766205329 0 0.06155913992065333 0.21453791206647629 0 0.048666234167709092 0.2159330120546871 0 0.056988141179305958 0.22932659766205329 0 0.046289963738743542 0.22603996225911571 0 0.056988141179305958 0.22932659766205329 0 0.041929859767213563 0.23624624544822029 0 0.056988141179305958 0.22932659766205329 0 0.05606680537807171 0.24357561070627001 0 0.041929859767213563 0.23624624544822029 0 0.05606680537807171 0.24357561070627001 0 0.044745023269543688 0.24943963109906189 0 0.041929859767213563 0.23624624544822029 0 0.044745023269543688 0.24943963109906189 0 0.041929859767213563 0.23624624544822029 0 0.03655137256399639 0.24660990211337741 0 0.044745023269543688 0.24943963109906189 0 0.03655137256399639 0.24660990211337741 0 0.038568233832345943 0.25334849326819803 0 0.029648692022305429 0.24198572259538451 0 0.027967497283968919 0.23007333523936499 0 0.041929859767213563 0.23624624544822029 0 0.029648692022305429 0.24198572259538451 0 0.041929859767213563 0.23624624544822029 0 0.03655137256399639 0.24660990211337741 0 0.029648692022305429 0.24198572259538451 0 0.03655137256399639 0.24660990211337741 0 0.030532060240475941 0.25156469816248078 0 0.074896778274164119 0.23605970154691161 0 0.1029152892405529 0.23835334100434241 0 0.085415694092067757 0.25758338042960732 0 0.074896778274164119 0.23605970154691161 0 0.068291763036194997 0.25330529894196557 0 0.085415694092067757 0.25758338042960732 0 0.056988141179305958 0.22932659766205329 0 0.05606680537807171 0.24357561070627001 0 0.074896778274164119 0.23605970154691161 0 0.05606680537807171 0.24357561070627001 0 0.074896778274164119 0.23605970154691161 0 0.068291763036194997 0.25330529894196557 0 0.06155913992065333 0.21453791206647629 0 0.056988141179305958 0.22932659766205329 0 0.076805662551178155 0.21715062689764711 0 0.056988141179305958 0.22932659766205329 0 0.074896778274164119 0.23605970154691161 0 0.076805662551178155 0.21715062689764711 0 0.074896778274164119 0.23605970154691161 0 0.091903776332751583 0.2205165875852951 0 0.076805662551178155 0.21715062689764711 0 0.074896778274164119 0.23605970154691161 0 0.091903776332751583 0.2205165875852951 0 0.074896778274164119 0.23605970154691161 0 0.091903776332751583 0.2205165875852951 0 0.1029152892405529 0.23835334100434241 0 0.091903776332751583 0.2205165875852951 0 0.07958882220803061 0.20280616570097831 0 0.094303610056845191 0.1993247035650155 0 0.091903776332751583 0.2205165875852951 0 0.076805662551178155 0.21715062689764711 0 0.07958882220803061 0.20280616570097831 0 0.076805662551178155 0.21715062689764711 0 0.067236255700123856 0.2001892824615619 0 0.07958882220803061 0.20280616570097831 0 0.06155913992065333 0.21453791206647629 0 0.076805662551178155 0.21715062689764711 0 0.067236255700123856 0.2001892824615619 0 0.067236255700123856 0.2001892824615619 0 0.080529113922146275 0.1913768729071228 0 0.07958882220803061 0.20280616570097831 0 0.057080976306810652 0.1896175174079468 0 0.067236255700123856 0.2001892824615619 0 0.07246408417576139 0.18132621282729591 0 0.067236255700123856 0.2001892824615619 0 0.080529113922146275 0.1913768729071228 0 0.07246408417576139 0.18132621282729591 0 0.080529113922146275 0.1913768729071228 0 0.07958882220803061 0.20280616570097831 0 0.094303610056845191 0.1993247035650155 0 0.080529113922146275 0.1913768729071228 0 0.094303610056845191 0.1993247035650155 0 0.090869979531989289 0.18404438830356451 0 0.094303610056845191 0.1993247035650155 0 0.090869979531989289 0.18404438830356451 0 0.10777154910842709 0.18710385138913491 0 0.094303610056845191 0.1993247035650155 0 0.1089107743913391 0.20497347362367849 0 0.10777154910842709 0.18710385138913491 0 0.1089107743913391 0.20497347362367849 0 0.13097690673322321 0.21014263605424299 0 0.12591777244992669 0.18943035966206179 0 0.1089107743913391 0.20497347362367849 0 0.12591777244992669 0.18943035966206179 0 0.1089107743913391 0.20497347362367849 0 0.10777154910842709 0.18710385138913491 0 0.12591777244992669 0.18943035966206179 0 0.1089107743913391 0.20497347362367849 0 0.11687544672478151 0.2188968222251223 0 0.13097690673322321 0.21014263605424299 0 0.091903776332751583 0.2205165875852951 0 0.1089107743913391 0.20497347362367849 0 0.091903776332751583 0.2205165875852951 0 0.1089107743913391 0.20497347362367849 0 0.11687544672478151 0.2188968222251223 0 0.091903776332751583 0.2205165875852951 0 0.094303610056845191 0.1993247035650155 0 0.1089107743913391 0.20497347362367849 0 0.091903776332751583 0.2205165875852951 0 0.11687544672478151 0.2188968222251223 0 0.1029152892405529 0.23835334100434241 0 0.1185584195863664 0.23342623733259349 0 0.11687544672478151 0.2188968222251223 0 0.13611094249440051 0.22254578296835781 0 0.1185584195863664 0.23342623733259349 0 0.11687544672478151 0.2188968222251223 0 0.1029152892405529 0.23835334100434241 0 0.1205808241545786 0.24661975241566669 0 0.1029152892405529 0.23835334100434241 0 0.1075912849283055 0.25701440988803942 0 0.1185584195863664 0.23342623733259349 0 0.1205808241545786 0.24661975241566669 0 0.1029152892405529 0.23835334100434241 0 0.1185584195863664 0.23342623733259349 0 0.1205808241545786 0.24661975241566669 0 0.13543311666859539 0.23696320948452271 0 0.081890146139608752 0.15133838529678079 0 0.075933100234520268 0.1296418623469133 0 0.096698723138760337 0.14335674573785931 0 0.081890146139608752 0.15133838529678079 0 0.096698723138760337 0.14335674573785931 0 0.093852490918247267 0.155804265030833 0 0.081890146139608752 0.15133838529678079 0 0.075933100234520268 0.1296418623469133 0 0.098964282691917371 0.1186236782331008 0 0.075933100234520268 0.1296418623469133 0 0.096698723138760337 0.14335674573785931 0 0.075933100234520268 0.1296418623469133 0 0.096698723138760337 0.14335674573785931 0 0.060377427996140161 0.1399429093059022 0 0.081890146139608752 0.15133838529678079 0 0.075933100234520268 0.1296418623469133 0 0.063745132199279353 0.121592185188319 0 0.060377427996140161 0.1399429093059022 0 0.075933100234520268 0.1296418623469133 0 0.073497279133142621 0.12077020863304989 0 0.075933100234520268 0.1296418623469133 0 0.063745132199279353 0.121592185188319 0 0.075933100234520268 0.1296418623469133 0 0.060377427996140161 0.1399429093059022 0 0.081890146139608752 0.15133838529678079 0 0.064682328474581774 0.1574882940390997 0 0.056945358822985202 0.17216918742313581 0 0.064682328474581774 0.1574882940390997 0 0.07358379619029505 0.16756004242490691 0 0.081890146139608752 0.15133838529678079 0 0.064682328474581774 0.1574882940390997 0 0.07358379619029505 0.16756004242490691 0 0.056945358822985202 0.17216918742313581 0 0.07358379619029505 0.16756004242490691 0 0.07246408417576139 0.18132621282729591 0 0.057080976306810652 0.1896175174079468 0 0.07246408417576139 0.18132621282729591 0 0.07358379619029505 0.16756004242490691 0 0.07246408417576139 0.18132621282729591 0 0.087847192044711753 0.17303490824664419 0 0.080529113922146275 0.1913768729071228 0 0.07246408417576139 0.18132621282729591 0 0.090869979531989289 0.18404438830356451 0 0.07246408417576139 0.18132621282729591 0 0.087847192044711753 0.17303490824664419 0 0.090869979531989289 0.18404438830356451 0 0.07246408417576139 0.18132621282729591 0 0.087847192044711753 0.17303490824664419 0 0.087847192044711753 0.17303490824664419 0 0.090869979531989289 0.18404438830356451 0 0.087847192044711753 0.17303490824664419 0 0.090869979531989289 0.18404438830356451 0 0.1003476728433059 0.17681184001939829 0 0.081890146139608752 0.15133838529678079 0 0.087847192044711753 0.17303490824664419 0 0.081890146139608752 0.15133838529678079 0 0.07358379619029505 0.16756004242490691 0 0.087847192044711753 0.17303490824664419 0 0.081890146139608752 0.15133838529678079 0 0.087847192044711753 0.17303490824664419 0 0.093852490918247267 0.155804265030833 0 0.1026557690438543 0.16505326868772749 0 0.1174643460429968 0.15707162912881101 0 0.093852490918247267 0.155804265030833 0 0.087847192044711753 0.17303490824664419 0 0.1026557690438543 0.16505326868772749 0 0.093852490918247267 0.155804265030833 0 0.087847192044711753 0.17303490824664419 0 0.1026557690438543 0.16505326868772749 0 0.087847192044711753 0.17303490824664419 0 0.1026557690438543 0.16505326868772749 0 0.1003476728433059 0.17681184001939829 0 0.090869979531989289 0.18404438830356451 0 0.1003476728433059 0.17681184001939829 0 0.10777154910842709 0.18710385138913491 0 0.1003476728433059 0.17681184001939829 0 0.10777154910842709 0.18710385138913491 0 0.11259387448754669 0.17482278346991939 0 0.1026557690438543 0.16505326868772749 0 0.1003476728433059 0.17681184001939829 0 0.11259387448754669 0.17482278346991939 0 0.10777154910842709 0.18710385138913491 0 0.12027365834531149 0.18049564038328961 0 0.12591777244992669 0.18943035966206179 0 0.10777154910842709 0.18710385138913491 0 0.11259387448754669 0.17482278346991939 0 0.12027365834531149 0.18049564038328961 0 0.11259387448754669 0.17482278346991939 0 0.12415141828989799 0.17327846795842361 0 0.12027365834531149 0.18049564038328961 0 0.1026557690438543 0.16505326868772749 0 0.1200822401273369 0.16659612616011801 0 0.1174643460429968 0.15707162912881101 0 0.1026557690438543 0.16505326868772749 0 0.11259387448754669 0.17482278346991939 0 0.1200822401273369 0.16659612616011801 0 0.1026557690438543 0.16505326868772749 0 0.1174643460429968 0.15707162912881101 0 0.1200822401273369 0.16659612616011801 0 0.1285865138577931 0.16441738684280291 0 0.1260147818577991 0.1693347209837564 0 0.11259387448754669 0.17482278346991939 0 0.12415141828989799 0.17327846795842361 0 0.1200822401273369 0.16659612616011801 0 0.12415141828989799 0.17327846795842361 0 0.1200822401273369 0.16659612616011801 0 0.1260147818577991 0.1693347209837564 0 0.1174643460429968 0.15707162912881101 0 0.1285865138577931 0.16441738684280291 0 0.1174643460429968 0.15707162912881101 0 0.1274818338562097 0.15167232729072441 0 0.1285865138577931 0.16441738684280291 0 0.1200822401273369 0.16659612616011801 0 0.1174643460429968 0.15707162912881101 0 0.1285865138577931 0.16441738684280291 0 0.1174643460429968 0.15707162912881101 0 0.1157101113639744 0.14303297325278899 0 0.096698723138760337 0.14335674573785931 0 0.1174643460429968 0.15707162912881101 0 0.1157101113639744 0.14303297325278899 0 0.1274818338562097 0.15167232729072441 0 0.1157101113639744 0.14303297325278899 0 0.12595656005345329 0.1340747375619383 0 0.1274818338562097 0.15167232729072441 0 0.1174643460429968 0.15707162912881101 0 0.1274818338562097 0.15167232729072441 0 0.1174643460429968 0.15707162912881101 0 0.096698723138760337 0.14335674573785931 0 0.093852490918247267 0.155804265030833 0 0.1174643460429968 0.15707162912881101 0 0.096698723138760337 0.14335674573785931 0 0.1157101113639744 0.14303297325278899 0 0.096698723138760337 0.14335674573785931 0 0.1114604271728054 0.12976334417550031 0 0.098964282691917371 0.1186236782331008 0 0.096698723138760337 0.14335674573785931 0 0.1114604271728054 0.12976334417550031 0 0.1244312862506923 0.11647714783315261 0 0.1114604271728054 0.12976334417550031 0 0.12595656005345329 0.1340747375619383 0 0.1157101113639744 0.14303297325278899 0 0.1114604271728054 0.12976334417550031 0 0.12595656005345329 0.1340747375619383 0 0.1244312862506923 0.11647714783315261 0 0.12595656005345329 0.1340747375619383 0 0.12595656005345329 0.1340747375619383 0 0.13477173722499289 0.13193047070550931 0 0.13565164914228919 0.12425239835068461 0 0.12595656005345329 0.1340747375619383 0 0.13391086251168069 0.1404010122489884 0 0.13477173722499289 0.13193047070550931 0 0.13391086251168069 0.1404010122489884 0 0.1417602372465126 0.1338573070831193 0 0.14376289471858611 0.1428970371701527 0 0.13391086251168069 0.1404010122489884 0 0.13477173722499289 0.13193047070550931 0 0.1417602372465126 0.1338573070831193 0 0.13477173722499289 0.13193047070550931 0 0.14063123489802909 0.12798468734324089 0 0.1417602372465126 0.1338573070831193 0 0.13477173722499289 0.13193047070550931 0 0.14063123489802909 0.12798468734324089 0 0.13565164914228919 0.12425239835068461 0 0.15006022659696999 0.13223231544558711 0 0.14376289471858611 0.1428970371701527 0 0.16004395558096279 0.13412174704958171 0 0.14376289471858611 0.1428970371701527 0 0.16004395558096279 0.13412174704958171 0 0.14376289471858611 0.1428970371701527 0 0.16004395558096279 0.13412174704958171 0 0.15874184105003911 0.14220940359041351 0 0.1466322538121323 0.12773822672939611 0 0.1417602372465126 0.1338573070831193 0 0.15006022659696999 0.13223231544558711 0 0.1466322538121323 0.12773822672939611 0 0.15151178436659599 0.12607672355801411 0 0.14670638086083351 0.1221253018907065 0 0.14063123489802909 0.12798468734324089 0 0.1466322538121323 0.12773822672939611 0 0.14670638086083351 0.1221253018907065 0 0.14063123489802909 0.12798468734324089 0 0.1466322538121323 0.12773822672939611 0 0.1417602372465126 0.1338573070831193 0 0.1417602372465126 0.1338573070831193 0 0.15006022659696999 0.13223231544558711 0 0.14376289471858611 0.1428970371701527 0 0.15495790408666441 0.1293347068488451 0 0.15006022659696999 0.13223231544558711 0 0.16004395558096279 0.13412174704958171 0 0.15495790408666441 0.1293347068488451 0 0.15151178436659599 0.12607672355801411 0 0.1573146585629808 0.1235612420306245 0 0.1466322538121323 0.12773822672939611 0 0.15151178436659599 0.12607672355801411 0 0.15006022659696999 0.13223231544558711 0 0.15495790408666441 0.1293347068488451 0 0.15151178436659599 0.12607672355801411 0 0.15006022659696999 0.13223231544558711 0 0.14937604888294981 0.16799126366842981 0 0.15874184105003911 0.14220940359041351 0 0.14824211527584991 0.1506681919922141 0 0.14937604888294981 0.16799126366842981 0 0.15874184105003911 0.14220940359041351 0 0.14937604888294981 0.16799126366842981 0 0.15636108765903159 0.15682059307031981 0 0.15874184105003911 0.14220940359041351 0 0.14376289471858611 0.1428970371701527 0 0.14824211527584991 0.1506681919922141 0 0.15874184105003911 0.14220940359041351 0 0.14376289471858611 0.1428970371701527 0 0.14170162512866899 0.15093921576581459 0 0.14824211527584991 0.1506681919922141 0 0.13391086251168069 0.1404010122489884 0 0.14376289471858611 0.1428970371701527 0 0.1274818338562097 0.15167232729072441 0 0.14376289471858611 0.1428970371701527 0 0.14170162512866899 0.15093921576581459 0 0.1274818338562097 0.15167232729072441 0 0.12595656005345329 0.1340747375619383 0 0.13391086251168069 0.1404010122489884 0 0.1274818338562097 0.15167232729072441 0 0.14376289471858611 0.1428970371701527 0 0.1274818338562097 0.15167232729072441 0 0.12595656005345329 0.1340747375619383 0 0.1274818338562097 0.15167232729072441 0 0.14170162512866899 0.15093921576581459 0 0.1274818338562097 0.15167232729072441 0 0.1355661518392085 0.15776046496953969 0 0.1274818338562097 0.15167232729072441 0 0.1285865138577931 0.16441738684280291 0 0.1274818338562097 0.15167232729072441 0 0.1285865138577931 0.16441738684280291 0 0.1355661518392085 0.15776046496953969 0 0.1285865138577931 0.16441738684280291 0 0.1294589728643156 0.17206336951644111 0 0.1339879055420749 0.17291748586318689 0 0.1285865138577931 0.16441738684280291 0 0.1260147818577991 0.1693347209837564 0 0.1294589728643156 0.17206336951644111 0 0.12415141828989799 0.17327846795842361 0 0.1260147818577991 0.1693347209837564 0 0.1294589728643156 0.17206336951644111 0 0.1285865138577931 0.16441738684280291 0 0.1339879055420749 0.17291748586318689 0 0.14292477050851449 0.17388724570044539 0 0.1285865138577931 0.16441738684280291 0 0.1383375666977735 0.16381085605466711 0 0.14292477050851449 0.17388724570044539 0 0.1285865138577931 0.16441738684280291 0 0.14292477050851449 0.17388724570044539 0 0.1383375666977735 0.16381085605466711 0 0.1355661518392085 0.15776046496953969 0 0.14159247088930549 0.16108922938678169 0 0.14170162512866899 0.15093921576581459 0 0.1355661518392085 0.15776046496953969 0 0.14159247088930549 0.16108922938678169 0 0.1285865138577931 0.16441738684280291 0 0.1383375666977735 0.16381085605466711 0 0.1355661518392085 0.15776046496953969 0 0.14292477050851449 0.17388724570044539 0 0.12591777244992669 0.18943035966206179 0 0.13808083466814311 0.19276125915982989 0 0.13093367739075901 0.1778427394369082 0 0.14292477050851449 0.17388724570044539 0 0.12591777244992669 0.18943035966206179 0 0.14292477050851449 0.17388724570044539 0 0.12591777244992669 0.18943035966206179 0 0.12027365834531149 0.18049564038328961 0 0.13093367739075901 0.1778427394369082 0 0.12591777244992669 0.18943035966206179 0 0.12415141828989799 0.17327846795842361 0 0.12027365834531149 0.18049564038328961 0 0.13093367739075901 0.1778427394369082 0 0.12415141828989799 0.17327846795842361 0 0.13093367739075901 0.1778427394369082 0 0.1294589728643156 0.17206336951644111 0 0.13093367739075901 0.1778427394369082 0 0.1294589728643156 0.17206336951644111 0 0.1339879055420749 0.17291748586318689 0 0.13093367739075901 0.1778427394369082 0 0.1339879055420749 0.17291748586318689 0 0.14292477050851449 0.17388724570044539 0 0.14292477050851449 0.17388724570044539 0 0.1451847626030657 0.1753798822654179 0 0.13808083466814311 0.19276125915982989 0 0.1451847626030657 0.1753798822654179 0 0.13808083466814311 0.19276125915982989 0 0.14683999364047229 0.1867333094990801 0 0.1451847626030657 0.1753798822654179 0 0.13808083466814311 0.19276125915982989 0 0.14292477050851449 0.17388724570044539 0 0.1451847626030657 0.1753798822654179 0 0.14292477050851449 0.17388724570044539 0 0.1451847626030657 0.1753798822654179 0 0.1475060647140056 0.1697002882090432 0 0.1451847626030657 0.1753798822654179 0 0.1475060647140056 0.1697002882090432 0 0.15588068407739331 0.1824441209090496 0 0.14937604888294981 0.16799126366842981 0 0.15588068407739331 0.1824441209090496 0 0.1475060647140056 0.1697002882090432 0 0.14937604888294981 0.16799126366842981 0 0.1451847626030657 0.1753798822654179 0 0.15588068407739331 0.1824441209090496 0 0.1451847626030657 0.1753798822654179 0 0.15588068407739331 0.1824441209090496 0 0.1475060647140056 0.1697002882090432 0 0.14683999364047229 0.1867333094990801 0 0.1451847626030657 0.1753798822654179 0 0.15588068407739331 0.1824441209090496 0 0.14170162512866899 0.15093921576581459 0 0.14159247088930549 0.16108922938678169 0 0.14937604888294981 0.16799126366842981 0 0.14170162512866899 0.15093921576581459 0 0.14824211527584991 0.1506681919922141 0 0.14937604888294981 0.16799126366842981 0 0.14170162512866899 0.15093921576581459 0 0.14937604888294981 0.16799126366842981 0 0.1383375666977735 0.16381085605466711 0 0.14159247088930549 0.16108922938678169 0 0.14359491057477081 0.16630849870141159 0 0.1383375666977735 0.16381085605466711 0 0.14292477050851449 0.17388724570044539 0 0.14359491057477081 0.16630849870141159 0 0.14359491057477081 0.16630849870141159 0 0.1475060647140056 0.1697002882090432 0 0.14937604888294981 0.16799126366842981 0 0.14292477050851449 0.17388724570044539 0 0.1475060647140056 0.1697002882090432 0 0.14292477050851449 0.17388724570044539 0 0.14359491057477081 0.16630849870141159 0 0.1475060647140056 0.1697002882090432 0 0.14159247088930549 0.16108922938678169 0 0.14359491057477081 0.16630849870141159 0 0.14937604888294981 0.16799126366842981 0 0.1475060647140056 0.1697002882090432 0 0.14937604888294981 0.16799126366842981 0 0.16355503131383339 0.17030005092194081 0 0.17773542717776991 0.17260014102871979 0 0.16856436049703061 0.15045459357996099 0 0.14937604888294981 0.16799126366842981 0 0.16856436049703061 0.15045459357996099 0 0.14937604888294981 0.16799126366842981 0 0.16355503131383339 0.17030005092194081 0 0.16856436049703061 0.15045459357996099 0 0.14937604888294981 0.16799126366842981 0 0.15636108765903159 0.15682059307031981 0 0.16856436049703061 0.15045459357996099 0 0.15588068407739331 0.1824441209090496 0 0.16355503131383339 0.17030005092194081 0 0.17773542717776991 0.17260014102871979 0 0.15588068407739331 0.1824441209090496 0 0.17773542717776991 0.17260014102871979 0 0.17726083410633331 0.19656487547924811 0 0.15588068407739331 0.1824441209090496 0 0.14937604888294981 0.16799126366842981 0 0.16355503131383339 0.17030005092194081 0 0.17773542717776991 0.17260014102871979 0 0.17726083410633331 0.19656487547924811 0 0.20175647890764661 0.1766611855385242 0 0.17773542717776991 0.17260014102871979 0 0.16856436049703061 0.15045459357996099 0 0.19328286706318201 0.15816101519244849 0 0.16856436049703061 0.15045459357996099 0 0.1877526721111118 0.1329179234914924 0 0.16856436049703061 0.15045459357996099 0 0.1877526721111118 0.1329179234914924 0 0.19328286706318201 0.15816101519244849 0 0.17201617943782321 0.13571247915432591 0 0.1877526721111118 0.1329179234914924 0 0.1687215818939726 0.1177916957383512 0 0.17201617943782321 0.13571247915432591 0 0.16856436049703061 0.15045459357996099 0 0.1877526721111118 0.1329179234914924 0 0.17201617943782321 0.13571247915432591 0 0.15874184105003911 0.14220940359041351 0 0.1687215818939726 0.1177916957383512 0 0.15874184105003911 0.14220940359041351 0 0.1687215818939726 0.1177916957383512 0 0.16004395558096279 0.13412174704958171 0 0.15874184105003911 0.14220940359041351 0 0.1687215818939726 0.1177916957383512 0 0.16004395558096279 0.13412174704958171 0 0.1573146585629808 0.1235612420306245 0 0.1687215818939726 0.1177916957383512 0 0.15495790408666441 0.1293347068488451 0 0.16004395558096279 0.13412174704958171 0 0.1573146585629808 0.1235612420306245 0 0.15636108765903159 0.15682059307031981 0 0.15874184105003911 0.14220940359041351 0 0.16856436049703061 0.15045459357996099 0 0.17201617943782321 0.13571247915432591 0 0.15874184105003911 0.14220940359041351 0 0.16856436049703061 0.15045459357996099 0 0.14941813094186671 0.24467380843777731 0 0.13543311666859539 0.23696320948452271 0 0.1532932452322591 0.2251635210564506 0 0.14941813094186671 0.24467380843777731 0 0.1532932452322591 0.2251635210564506 0 0.16453123836753941 0.2374922093660238 0 0.14941813094186671 0.24467380843777731 0 0.13543311666859539 0.23696320948452271 0 0.13554901525109189 0.2541709038296896 0 0.1205808241545786 0.24661975241566669 0 0.13543311666859539 0.23696320948452271 0 0.13554901525109189 0.2541709038296896 0 0.1185584195863664 0.23342623733259349 0 0.13543311666859539 0.23696320948452271 0 0.13611094249440051 0.22254578296835781 0 0.13611094249440051 0.22254578296835781 0 0.1532932452322591 0.2251635210564506 0 0.14556143608842231 0.20857867304448649 0 0.13543311666859539 0.23696320948452271 0 0.13611094249440051 0.22254578296835781 0 0.1532932452322591 0.2251635210564506 0 0.1532932452322591 0.2251635210564506 0 0.14556143608842231 0.20857867304448649 0 0.1657564863572038 0.20438748225368741 0 0.14556143608842231 0.20857867304448649 0 0.13097690673322321 0.21014263605424299 0 0.13808083466814311 0.19276125915982989 0 0.11687544672478151 0.2188968222251223 0 0.13611094249440051 0.22254578296835781 0 0.13097690673322321 0.21014263605424299 0 0.13611094249440051 0.22254578296835781 0 0.14556143608842231 0.20857867304448649 0 0.13097690673322321 0.21014263605424299 0 0.13097690673322321 0.21014263605424299 0 0.13808083466814311 0.19276125915982989 0 0.13097690673322321 0.21014263605424299 0 0.12591777244992669 0.18943035966206179 0 0.13808083466814311 0.19276125915982989 0 0.14683999364047229 0.1867333094990801 0 0.13808083466814311 0.19276125915982989 0 0.149341343087287 0.19565052326978019 0 0.14556143608842231 0.20857867304448649 0 0.13808083466814311 0.19276125915982989 0 0.149341343087287 0.19565052326978019 0 0.14556143608842231 0.20857867304448649 0 0.149341343087287 0.19565052326978019 0 0.1657564863572038 0.20438748225368741 0 0.14683999364047229 0.1867333094990801 0 0.15588068407739331 0.1824441209090496 0 0.149341343087287 0.19565052326978019 0 0.15588068407739331 0.1824441209090496 0 0.17726083410633331 0.19656487547924811 0 0.15588068407739331 0.1824441209090496 0 0.149341343087287 0.19565052326978019 0 0.1657564863572038 0.20438748225368741 0 0.15588068407739331 0.1824441209090496 0 0.1657564863572038 0.20438748225368741 0 0.15588068407739331 0.1824441209090496 0 0.17726083410633331 0.19656487547924811 0 0.1657564863572038 0.20438748225368741 0 0.17915987308887549 0.2108262629737421 0 0.17563228863701441 0.22633084359832509 0 0.19864098413527331 0.21068563004944671 0 0.17915987308887549 0.2108262629737421 0 0.1657564863572038 0.20438748225368741 0 0.17563228863701441 0.22633084359832509 0 0.17726083410633331 0.19656487547924811 0 0.17915987308887549 0.2108262629737421 0 0.1657564863572038 0.20438748225368741 0 0.17726083410633331 0.19656487547924811 0 0.17915987308887549 0.2108262629737421 0 0.19864098413527331 0.21068563004944671 0 0.1657564863572038 0.20438748225368741 0 0.17563228863701441 0.22633084359832509 0 0.1532932452322591 0.2251635210564506 0 0.1657564863572038 0.20438748225368741 0 0.17563228863701441 0.22633084359832509 0 0.1532932452322591 0.2251635210564506 0 0.17563228863701441 0.22633084359832509 0 0.16453123836753941 0.2374922093660238 0 0.17563228863701441 0.22633084359832509 0 0.18550809091682491 0.24827420494296279 0 0.19979884459851699 0.23217867636792569 0 0.17563228863701441 0.22633084359832509 0 0.18550809091682491 0.24827420494296279 0 0.17563228863701441 0.22633084359832509 0 0.18550809091682491 0.24827420494296279 0 0.16453123836753941 0.2374922093660238 0 0.18550809091682491 0.24827420494296279 0 0.16453123836753941 0.2374922093660238 0 0.1645791295241763 0.25255829741004221 0 0.14941813094186671 0.24467380843777731 0 0.16453123836753941 0.2374922093660238 0 0.1645791295241763 0.25255829741004221 0 0.18550809091682491 0.24827420494296279 0 0.19979884459851699 0.23217867636792569 0 0.21839258869488601 0.25457235273870971 0 0.19979884459851699 0.23217867636792569 0 0.22002113416421329 0.22480638461964519 0 0.21839258869488601 0.25457235273870971 0 0.17563228863701441 0.22633084359832509 0 0.19979884459851699 0.23217867636792569 0 0.19864098413527331 0.21068563004944671 0 0.19979884459851699 0.23217867636792569 0 0.19864098413527331 0.21068563004944671 0 0.22002113416421329 0.22480638461964519 0 0.19864098413527331 0.21068563004944671 0 0.22138046343611831 0.20514619924233471 0 0.22002113416421329 0.22480638461964519 0 0.19864098413527331 0.21068563004944671 0 0.22002113416421329 0.22480638461964519 0 0.19864098413527331 0.21068563004944671 0 0.20440171639186311 0.19478362629555659 0 0.22138046343611831 0.20514619924233471 0 0.17726083410633331 0.19656487547924811 0 0.19864098413527331 0.21068563004944671 0 0.17726083410633331 0.19656487547924811 0 0.19864098413527331 0.21068563004944671 0 0.20440171639186311 0.19478362629555659 0 0.17726083410633331 0.19656487547924811 0 0.20440171639186311 0.19478362629555659 0 0.20175647890764661 0.1766611855385242 0 0.20440171639186311 0.19478362629555659 0 0.22138046343611831 0.20514619924233471 0 0.222969821373944 0.18486024116822919 0 0.240700984391507 0.19891521551657099 0 0.22138046343611831 0.20514619924233471 0 0.222969821373944 0.18486024116822919 0 0.240700984391507 0.19891521551657099 0 0.24009935978751701 0.18268750516746349 0 0.25716385179167578 0.19213686191455909 0 0.240700984391507 0.19891521551657099 0 0.222969821373944 0.18486024116822919 0 0.24009935978751701 0.18268750516746349 0 0.240700984391507 0.19891521551657099 0 0.24055090568073731 0.21746015111279141 0 0.25803884317546311 0.20845380393523991 0 0.240700984391507 0.19891521551657099 0 0.24055090568073731 0.21746015111279141 0 0.22138046343611831 0.20514619924233471 0 0.24055090568073731 0.21746015111279141 0 0.22138046343611831 0.20514619924233471 0 0.22002113416421329 0.22480638461964519 0 0.24055090568073731 0.21746015111279141 0 0.22002113416421329 0.22480638461964519 0 0.24140128419315809 0.23892713918983621 0 0.22002113416421329 0.22480638461964519 0 0.24140128419315809 0.23892713918983621 0 0.24140128419315809 0.23892713918983621 0 0.25843244608827559 0.22734646679336329 0 0.24055090568073731 0.21746015111279141 0 0.24140128419315809 0.23892713918983621 0 0.25843244608827559 0.22734646679336329 0 0.24140128419315809 0.23892713918983621 0 0.24142358919607121 0.25808606837721387 0 0.26232043110115549 0.25274341919283649 0 0.22002113416421329 0.22480638461964519 0 0.24140128419315809 0.23892713918983621 0 0.21839258869488601 0.25457235273870971 0 0.24140128419315809 0.23892713918983621 0 0.21839258869488601 0.25457235273870971 0 0.20825100505065611 0.1479524506617145 0 0.21407297417592491 0.16463727265408601 0 0.22463003846732529 0.1524323418207105 0 0.20825100505065611 0.1479524506617145 0 0.2195549761252652 0.14107485639752901 0 0.22463003846732529 0.1524323418207105 0 0.20825100505065611 0.1479524506617145 0 0.21127903739442819 0.1341255823162455 0 0.2195549761252652 0.14107485639752901 0 0.21127903739442819 0.1341255823162455 0 0.1877526721111118 0.1329179234914924 0 0.21103310177239529 0.1220663832417814 0 0.21127903739442819 0.1341255823162455 0 0.2195549761252652 0.14107485639752901 0 0.2226371772083772 0.13123241011700679 0 0.21127903739442819 0.1341255823162455 0 0.21788586408594371 0.1239663949870692 0 0.21103310177239529 0.1220663832417814 0 0.21127903739442819 0.1341255823162455 0 0.2226371772083772 0.13123241011700679 0 0.21788586408594371 0.1239663949870692 0 0.20825100505065611 0.1479524506617145 0 0.21127903739442819 0.1341255823162455 0 0.1877526721111118 0.1329179234914924 0 0.20825100505065611 0.1479524506617145 0 0.1877526721111118 0.1329179234914924 0 0.19328286706318201 0.15816101519244849 0 0.19328286706318201 0.15816101519244849 0 0.20175647890764661 0.1766611855385242 0 0.21407297417592491 0.16463727265408601 0 0.17773542717776991 0.17260014102871979 0 0.19328286706318201 0.15816101519244849 0 0.20175647890764661 0.1766611855385242 0 0.20175647890764661 0.1766611855385242 0 0.21407297417592491 0.16463727265408601 0 0.222969821373944 0.18486024116822919 0 0.20440171639186311 0.19478362629555659 0 0.20175647890764661 0.1766611855385242 0 0.222969821373944 0.18486024116822919 0 0.20825100505065611 0.1479524506617145 0 0.19328286706318201 0.15816101519244849 0 0.21407297417592491 0.16463727265408601 0 0.21407297417592491 0.16463727265408601 0 0.2335476341927957 0.1677564015428894 0 0.22463003846732529 0.1524323418207105 0 0.2335476341927957 0.1677564015428894 0 0.23909001012971079 0.1508895210836331 0 0.22463003846732529 0.1524323418207105 0 0.2335476341927957 0.1677564015428894 0 0.222969821373944 0.18486024116822919 0 0.24009935978751701 0.18268750516746349 0 0.21407297417592491 0.16463727265408601 0 0.2335476341927957 0.1677564015428894 0 0.222969821373944 0.18486024116822919 0 0.2335476341927957 0.1677564015428894 0 0.24009935978751701 0.18268750516746349 0 0.25538089575682471 0.17709261206443511 0 0.2335476341927957 0.1677564015428894 0 0.25332258905290589 0.16087109394117829 0 0.25538089575682471 0.17709261206443511 0 0.2335476341927957 0.1677564015428894 0 0.23909001012971079 0.1508895210836331 0 0.25332258905290589 0.16087109394117829 0 0.23909001012971079 0.1508895210836331 0 0.25327884258801769 0.14441352075213529 0 0.25332258905290589 0.16087109394117829 0 0.23909001012971079 0.1508895210836331 0 0.24152698823064939 0.13901865988427059 0 0.25327884258801769 0.14441352075213529 0 0.23909001012971079 0.1508895210836331 0 0.23097762250553919 0.1396314970719677 0 0.24152698823064939 0.13901865988427059 0 0.23909001012971079 0.1508895210836331 0 0.22463003846732529 0.1524323418207105 0 0.23097762250553919 0.1396314970719677 0 0.2195549761252652 0.14107485639752901 0 0.22463003846732529 0.1524323418207105 0 0.23097762250553919 0.1396314970719677 0 0.2226371772083772 0.13123241011700679 0 0.23008978960411439 0.12761418914414049 0 0.2243903559616891 0.123823548445868 0 0.2226371772083772 0.13123241011700679 0 0.2243903559616891 0.123823548445868 0 0.21788586408594371 0.1239663949870692 0 0.2195549761252652 0.14107485639752901 0 0.2226371772083772 0.13123241011700679 0 0.23097762250553919 0.1396314970719677 0 0.2226371772083772 0.13123241011700679 0 0.23097762250553919 0.1396314970719677 0 0.23008978960411439 0.12761418914414049 0 0.23097762250553919 0.1396314970719677 0 0.23008978960411439 0.12761418914414049 0 0.2390469496264456 0.12849347173304401 0 0.23097762250553919 0.1396314970719677 0 0.2390469496264456 0.12849347173304401 0 0.24152698823064939 0.13901865988427059 0 0.2390469496264456 0.12849347173304401 0 0.24152698823064939 0.13901865988427059 0 0.24854473890169121 0.13271112874541779 0 0.24152698823064939 0.13901865988427059 0 0.24854473890169121 0.13271112874541779 0 0.25327884258801769 0.14441352075213529 0 0.2390469496264456 0.12849347173304401 0 0.24854473890169121 0.13271112874541779 0 0.25002981921467371 0.1210434623962709 0 0.2390469496264456 0.12849347173304401 0 0.2408325710780328 0.1148285184122987 0 0.25002981921467371 0.1210434623962709 0 0.2408325710780328 0.1148285184122987 0 0.25250081952329112 0.10730119291591329 0 0.25002981921467371 0.1210434623962709 0 0.2390469496264456 0.12849347173304401 0 0.2408325710780328 0.1148285184122987 0 0.23023817325090079 0.1184461375769522 0 0.23955905647520881 0.1026926303145706 0 0.24745047341450829 0.091852884101340918 0 0.25250081952329112 0.10730119291591329 0 0.2408325710780328 0.1148285184122987 0 0.23955905647520881 0.1026926303145706 0 0.25250081952329112 0.10730119291591329 0 0.2408325710780328 0.1148285184122987 0 0.23955905647520881 0.1026926303145706 0 0.2316232231040804 0.1092109524688582 0 0.23955905647520881 0.1026926303145706 0 0.23321715654444461 0.090267614264926965 0 0.24745047341450829 0.091852884101340918 0 0.23955905647520881 0.1026926303145706 0 0.22691819265520891 0.1009499519989937 0 0.23321715654444461 0.090267614264926965 0 0.23955905647520881 0.1026926303145706 0 0.22691819265520891 0.1009499519989937 0 0.2316232231040804 0.1092109524688582 0 0.22691819265520891 0.1009499519989937 0 0.22056812206105059 0.10913752404147591 0 0.21745955308316969 0.10194895660575561 0 0.22691819265520891 0.1009499519989937 0 0.2316232231040804 0.1092109524688582 0 0.22056812206105059 0.10913752404147591 0 0.22691819265520891 0.1009499519989937 0 0.21856468252686631 0.090438632887806972 0 0.23321715654444461 0.090267614264926965 0 0.22691819265520891 0.1009499519989937 0 0.21745955308316969 0.10194895660575561 0 0.21856468252686631 0.090438632887806972 0 0.23008978960411439 0.12761418914414049 0 0.2390469496264456 0.12849347173304401 0 0.23023817325090079 0.1184461375769522 0 0.23008978960411439 0.12761418914414049 0 0.23023817325090079 0.1184461375769522 0 0.2243903559616891 0.123823548445868 0 0.2408325710780328 0.1148285184122987 0 0.2316232231040804 0.1092109524688582 0 0.23023817325090079 0.1184461375769522 0 0.2316232231040804 0.1092109524688582 0 0.22056812206105059 0.10913752404147591 0 0.23023817325090079 0.1184461375769522 0 0.22056812206105059 0.10913752404147591 0 0.22110077565910941 0.1178586104041715 0 0.21469772218314029 0.1164436367004574 0 0.22056812206105059 0.10913752404147591 0 0.23023817325090079 0.1184461375769522 0 0.22110077565910941 0.1178586104041715 0 0.23023817325090079 0.1184461375769522 0 0.22110077565910941 0.1178586104041715 0 0.2243903559616891 0.123823548445868 0 0.22110077565910941 0.1178586104041715 0 0.2243903559616891 0.123823548445868 0 0.21788586408594371 0.1239663949870692 0 0.22110077565910941 0.1178586104041715 0 0.21788586408594371 0.1239663949870692 0 0.21469772218314029 0.1164436367004574 0 0.21788586408594371 0.1239663949870692 0 0.21103310177239529 0.1220663832417814 0 0.21469772218314029 0.1164436367004574 0 0.21103310177239529 0.1220663832417814 0 0.20694098372519321 0.1153812534030242 0 0.21469772218314029 0.1164436367004574 0 0.21103310177239529 0.1220663832417814 0 0.20694098372519321 0.1153812534030242 0 0.20694098372519321 0.1153812534030242 0 0.21253799658202149 0.1102660056456813 0 0.22056812206105059 0.10913752404147591 0 0.21253799658202149 0.1102660056456813 0 0.21469772218314029 0.1164436367004574 0 0.20694098372519321 0.1153812534030242 0 0.21253799658202149 0.1102660056456813 0 0.21469772218314029 0.1164436367004574 0 0.21253799658202149 0.1102660056456813 0 0.21745955308316969 0.10194895660575561 0 0.20870877159070109 0.098952668454819981 0 0.22056812206105059 0.10913752404147591 0 0.21253799658202149 0.1102660056456813 0 0.21745955308316969 0.10194895660575561 0 0.20694098372519321 0.1153812534030242 0 0.21253799658202149 0.1102660056456813 0 0.20870877159070109 0.098952668454819981 0 0.20694098372519321 0.1153812534030242 0 0.20870877159070109 0.098952668454819981 0 0.19506964624688039 0.095987523435594829 0 0.21745955308316969 0.10194895660575561 0 0.20870877159070109 0.098952668454819981 0 0.21856468252686631 0.090438632887806972 0 0.20694098372519321 0.1153812534030242 0 0.19506964624688039 0.095987523435594829 0 0.18309998045936091 0.1115502248759178 0 0.20694098372519321 0.1153812534030242 0 0.19506964624688039 0.095987523435594829 0 0.20870877159070109 0.098952668454819981 0 0.19506964624688039 0.095987523435594829 0 0.20247224473403291 0.091891368132039589 0 0.1877526721111118 0.1329179234914924 0 0.21103310177239529 0.1220663832417814 0 0.20694098372519321 0.1153812534030242 0 0.1877526721111118 0.1329179234914924 0 0.20694098372519321 0.1153812534030242 0 0.1877526721111118 0.1329179234914924 0 0.20694098372519321 0.1153812534030242 0 0.18309998045936091 0.1115502248759178 0 0.19595002674153861 0.074960292122904781 0 0.19538949274033521 0.062698826145331579 0 0.20945986126095889 0.076403896065047827 0 0.19595002674153861 0.074960292122904781 0 0.19538949274033521 0.062698826145331579 0 0.18319830876856519 0.076593793468166832 0 0.19595002674153861 0.074960292122904781 0 0.19801521823918999 0.085288403710576902 0 0.18319830876856519 0.076593793468166832 0 0.19506964624688039 0.095987523435594829 0 0.18319830876856519 0.076593793468166832 0 0.19506964624688039 0.095987523435594829 0 0.19801521823918999 0.085288403710576902 0 0.18319830876856519 0.076593793468166832 0 0.19801521823918999 0.085288403710576902 0 0.18319830876856519 0.076593793468166832 0 0.19506964624688039 0.095987523435594829 0 0.20247224473403291 0.091891368132039589 0 0.19801521823918999 0.085288403710576902 0 0.20247224473403291 0.091891368132039589 0 0.19801521823918999 0.085288403710576902 0 0.20809534285935999 0.087336876927166698 0 0.19595002674153861 0.074960292122904781 0 0.19801521823918999 0.085288403710576902 0 0.20945986126095889 0.076403896065047827 0 0.19801521823918999 0.085288403710576902 0 0.20809534285935999 0.087336876927166698 0 0.20945986126095889 0.076403896065047827 0 0.20870877159070109 0.098952668454819981 0 0.20247224473403291 0.091891368132039589 0 0.20809534285935999 0.087336876927166698 0 0.20870877159070109 0.098952668454819981 0 0.20809534285935999 0.087336876927166698 0 0.21856468252686631 0.090438632887806972 0 0.20809534285935999 0.087336876927166698 0 0.21856468252686631 0.090438632887806972 0 0.20945986126095889 0.076403896065047827 0 0.21856468252686631 0.090438632887806972 0 0.20945986126095889 0.076403896065047827 0 0.22500791656976871 0.076037650818766095 0 0.19538949274033521 0.062698826145331579 0 0.20945986126095889 0.076403896065047827 0 0.2160574880360806 0.060081403146667288 0 0.20945986126095889 0.076403896065047827 0 0.22500791656976871 0.076037650818766095 0 0.2160574880360806 0.060081403146667288 0 0.22500791656976871 0.076037650818766095 0 0.23912812821837001 0.07809484547742572 0 0.23362018283189209 0.060939513070721728 0 0.22500791656976871 0.076037650818766095 0 0.23362018283189209 0.060939513070721728 0 0.2160574880360806 0.060081403146667288 0 0.21856468252686631 0.090438632887806972 0 0.22500791656976871 0.076037650818766095 0 0.23321715654444461 0.090267614264926965 0 0.22500791656976871 0.076037650818766095 0 0.23321715654444461 0.090267614264926965 0 0.23912812821837001 0.07809484547742572 0 0.24745047341450829 0.091852884101340918 0 0.23912812821837001 0.07809484547742572 0 0.25711452023783993 0.077914187043372246 0 0.23321715654444461 0.090267614264926965 0 0.24745047341450829 0.091852884101340918 0 0.23912812821837001 0.07809484547742572 0 0.24561880858526181 0.065545558692949271 0 0.23912812821837001 0.07809484547742572 0 0.23362018283189209 0.060939513070721728 0 0.24561880858526181 0.065545558692949271 0 0.23912812821837001 0.07809484547742572 0 0.25711452023783993 0.077914187043372246 0 0.24561880858526181 0.065545558692949271 0 0.24603174092988009 0.048095312086837073 0 0.23362018283189209 0.060939513070721728 0 0.24603174092988009 0.048095312086837073 0 0.23079039641583141 0.037198624681381139 0 0.23362018283189209 0.060939513070721728 0 0.24561880858526181 0.065545558692949271 0 0.24603174092988009 0.048095312086837073 0 0.25707782727615391 0.060245437798373283 0 0.23079039641583141 0.037198624681381139 0 0.24241349775591731 0.0297215941444193 0 0.2586169358199919 0.035038103177067369 0 0.24603174092988009 0.048095312086837073 0 0.23079039641583141 0.037198624681381139 0 0.2586169358199919 0.035038103177067369 0 0.23079039641583141 0.037198624681381139 0 0.2586169358199919 0.035038103177067369 0 0.23079039641583141 0.037198624681381139 0 0.23362018283189209 0.060939513070721728 0 0.2160574880360806 0.060081403146667288 0 0.23740048780557829 0.0059290775085717564 0 0.26156360621507929 0.0096706653718756502 0 0.23740048780557829 0.0059290775085717564 0 0.25022560895119728 0.019460721921587279 0 0.26156360621507929 0.0096706653718756502 0 0.23740048780557829 0.0059290775085717564 0 0.2365205400837681 0.020453928375854729 0 0.25022560895119728 0.019460721921587279 0 0.23079039641583141 0.037198624681381139 0 0.2365205400837681 0.020453928375854729 0 0.24241349775591731 0.0297215941444193 0 0.2365205400837681 0.020453928375854729 0 0.24241349775591731 0.0297215941444193 0 0.25022560895119728 0.019460721921587279 0 0.24241349775591731 0.0297215941444193 0 0.2512444035911186 0.027069204809184171 0 0.25593033067929449 0.032602166680231963 0 0.24241349775591731 0.0297215941444193 0 0.2512444035911186 0.027069204809184171 0 0.25022560895119728 0.019460721921587279 0 0.23079039641583141 0.037198624681381139 0 0.22438554537692881 0.01860147867110281 0 0.21511010663429769 0.032060338073350472 0 0.23079039641583141 0.037198624681381139 0 0.2365205400837681 0.020453928375854729 0 0.22438554537692881 0.01860147867110281 0 0.23740048780557829 0.0059290775085717564 0 0.22438554537692881 0.01860147867110281 0 0.2132373693960779 0.002187489645264109 0 0.23740048780557829 0.0059290775085717564 0 0.2132373693960779 0.002187489645264109 0 0.23740048780557829 0.0059290775085717564 0 0.2365205400837681 0.020453928375854729 0 0.22438554537692881 0.01860147867110281 0 0.2132373693960779 0.002187489645264109 0 0.20449001243812309 0.018095686181560652 0 0.2124125193551073 0.018018126649035061 0 0.22438554537692881 0.01860147867110281 0 0.2132373693960779 0.002187489645264109 0 0.2124125193551073 0.018018126649035061 0 0.2132373693960779 0.002187489645264109 0 0.20449001243812309 0.018095686181560652 0 0.19843054512869701 -0.0001053035709871271 0 0.2132373693960779 0.002187489645264109 0 0.20449001243812309 0.018095686181560652 0 0.2132373693960779 0.002187489645264109 0 0.19843054512869701 -0.0001053035709871271 0 0.20449001243812309 0.018095686181560652 0 0.21511010663429769 0.032060338073350472 0 0.19097991622765839 0.042665538169259699 0 0.20449001243812309 0.018095686181560652 0 0.2124125193551073 0.018018126649035061 0 0.21511010663429769 0.032060338073350472 0 0.22438554537692881 0.01860147867110281 0 0.2124125193551073 0.018018126649035061 0 0.21511010663429769 0.032060338073350472 0 0.20449001243812309 0.018095686181560652 0 0.18981154703053199 0.015473458301380871 0 0.19097991622765839 0.042665538169259699 0 0.20449001243812309 0.018095686181560652 0 0.19097991622765839 0.042665538169259699 0 0.20449001243812309 0.018095686181560652 0 0.18981154703053199 0.015473458301380871 0 0.19843054512869701 -0.0001053035709871271 0 0.20449001243812309 0.018095686181560652 0 0.19843054512869701 -0.0001053035709871271 0 0.1900865585313167 0.003660253412649975 0 0.19843054512869701 -0.0001053035709871271 0 0.19481376673693221 -0.00066535107419350009 0 0.18981154703053199 0.015473458301380871 0 0.1900865585313167 0.003660253412649975 0 0.19843054512869701 -0.0001053035709871271 0 0.1900865585313167 0.003660253412649975 0 0.18615534909213211 -0.001758144403956826 0 0.19481376673693221 -0.00066535107419350009 0 0.23079039641583141 0.037198624681381139 0 0.2160574880360806 0.060081403146667288 0 0.20688009135622851 0.046088960071298209 0 0.19538949274033521 0.062698826145331579 0 0.2160574880360806 0.060081403146667288 0 0.20688009135622851 0.046088960071298209 0 0.23079039641583141 0.037198624681381139 0 0.20688009135622851 0.046088960071298209 0 0.21511010663429769 0.032060338073350472 0 0.20688009135622851 0.046088960071298209 0 0.21511010663429769 0.032060338073350472 0 0.19097991622765839 0.042665538169259699 0 0.19538949274033521 0.062698826145331579 0 0.20688009135622851 0.046088960071298209 0 0.19097991622765839 0.042665538169259699 0 0.19538949274033521 0.062698826145331579 0 0.19097991622765839 0.042665538169259699 0 0.1774698200171923 0.067235390156957967 0 0.19097991622765839 0.042665538169259699 0 0.1626901971665031 0.043090510516365012 0 0.1774698200171923 0.067235390156957967 0 0.19097991622765839 0.042665538169259699 0 0.1774698200171923 0.067235390156957967 0 0.19097991622765839 0.042665538169259699 0 0.1626901971665031 0.043090510516365012 0 0.17406448111176351 0.021687027734083208 0 0.1626901971665031 0.043090510516365012 0 0.1505368333110193 0.039956815857396237 0 0.15923977423396971 0.062534848168503188 0 0.1626901971665031 0.043090510516365012 0 0.1774698200171923 0.067235390156957967 0 0.15923977423396971 0.062534848168503188 0 0.1626901971665031 0.043090510516365012 0 0.1774698200171923 0.067235390156957967 0 0.18981154703053199 0.015473458301380871 0 0.18122158466829291 0.0053566078110054913 0 0.17406448111176351 0.021687027734083208 0 0.18122158466829291 0.0053566078110054913 0 0.17406448111176351 0.021687027734083208 0 0.16713804098071469 0.0077839740234780502 0 0.1900865585313167 0.003660253412649975 0 0.18122158466829291 0.0053566078110054913 0 0.18615534909213211 -0.001758144403956826 0 0.18981154703053199 0.015473458301380871 0 0.1900865585313167 0.003660253412649975 0 0.18122158466829291 0.0053566078110054913 0 0.18981154703053199 0.015473458301380871 0 0.19097991622765839 0.042665538169259699 0 0.17406448111176351 0.021687027734083208 0 0.1626901971665031 0.043090510516365012 0 0.17406448111176351 0.021687027734083208 0 0.14791057431581159 0.018945630875773448 0 0.17406448111176351 0.021687027734083208 0 0.16713804098071469 0.0077839740234780502 0 0.14791057431581159 0.018945630875773448 0 0.16713804098071469 0.0077839740234780502 0 0.15442804697685361 0.0026242170640909351 0 0.14791057431581159 0.018945630875773448 0 0.16713804098071469 0.0077839740234780502 0 0.15442804697685361 0.0026242170640909351 0 0.16596048227959651 -0.0062121719888348784 0 0.18122158466829291 0.0053566078110054913 0 0.16713804098071469 0.0077839740234780502 0 0.16596048227959651 -0.0062121719888348784 0 0.15442804697685361 0.0026242170640909351 0 0.14791057431581159 0.018945630875773448 0 0.13313095146512011 -0.0051992487648181377 0 0.1418338923880697 0.017378783546289078 0 0.14791057431581159 0.018945630875773448 0 0.13313095146512011 -0.0051992487648181377 0 0.1418338923880697 0.017378783546289078 0 0.1505368333110193 0.039956815857396237 0 0.1418338923880697 0.017378783546289078 0 0.14791057431581159 0.018945630875773448 0 0.1505368333110193 0.039956815857396237 0 0.1418338923880697 0.017378783546289078 0 0.1505368333110193 0.039956815857396237 0 0.13769070707741929 0.032893046862039421 0 0.1626901971665031 0.043090510516365012 0 0.14791057431581159 0.018945630875773448 0 0.1232204744159258 0.030540992791317771 0 0.1418338923880697 0.017378783546289078 0 0.1272059714669049 0.01179698337579236 0 0.1232204744159258 0.030540992791317771 0 0.1418338923880697 0.017378783546289078 0 0.13769070707741929 0.032893046862039421 0 0.1272059714669049 0.01179698337579236 0 0.1195207288501979 -0.001194353383229735 0 0.13313095146512011 -0.0051992487648181377 0 0.1418338923880697 0.017378783546289078 0 0.13313095146512011 -0.0051992487648181377 0 0.1418338923880697 0.017378783546289078 0 0.1272059714669049 0.01179698337579236 0 0.13313095146512011 -0.0051992487648181377 0 0.14791057431581159 0.018945630875773448 0 0.13313095146512011 -0.0051992487648181377 0 0.14468542691572639 0.053994310243528333 0 0.14350516151557521 0.068649909150297506 0 0.15923977423396971 0.062534848168503188 0 0.14468542691572639 0.053994310243528333 0 0.1505368333110193 0.039956815857396237 0 0.15923977423396971 0.062534848168503188 0 0.1505368333110193 0.039956815857396237 0 0.15923977423396971 0.062534848168503188 0 0.14468542691572639 0.053994310243528333 0 0.1366784634572461 0.062385790913364998 0 0.14350516151557521 0.068649909150297506 0 0.14468542691572639 0.053994310243528333 0 0.15923977423396971 0.062534848168503188 0 0.1626901971665031 0.043090510516365012 0 0.14791057431581159 0.018945630875773448 0 0.1505368333110193 0.039956815857396237 0 0.1505368333110193 0.039956815857396237 0 0.14076101172541189 0.043074486320379517 0 0.13769070707741929 0.032893046862039421 0 0.14468542691572639 0.053994310243528333 0 0.1505368333110193 0.039956815857396237 0 0.14076101172541189 0.043074486320379517 0 0.14076101172541189 0.043074486320379517 0 0.13769070707741929 0.032893046862039421 0 0.13013107959748271 0.045453772318554062 0 0.1232204744159258 0.030540992791317771 0 0.13769070707741929 0.032893046862039421 0 0.13013107959748271 0.045453772318554062 0 0.1180504621153383 0.042859463544297011 0 0.13013107959748271 0.045453772318554062 0 0.13045527104952351 0.056402318551776007 0 0.14468542691572639 0.053994310243528333 0 0.14076101172541189 0.043074486320379517 0 0.13013107959748271 0.045453772318554062 0 0.14468542691572639 0.053994310243528333 0 0.13013107959748271 0.045453772318554062 0 0.14468542691572639 0.053994310243528333 0 0.13013107959748271 0.045453772318554062 0 0.13045527104952351 0.056402318551776007 0 0.14468542691572639 0.053994310243528333 0 0.1366784634572461 0.062385790913364998 0 0.13045527104952351 0.056402318551776007 0 0.12161212966019599 0.062809334139398737 0 0.13045527104952351 0.056402318551776007 0 0.1366784634572461 0.062385790913364998 0 0.13045527104952351 0.056402318551776007 0 0.12934288480482059 0.062600272528911788 0 0.12161212966019599 0.062809334139398737 0 0.13045527104952351 0.056402318551776007 0 0.12934288480482059 0.062600272528911788 0 0.12161212966019599 0.062809334139398737 0 0.12862567505231701 0.06880364651110718 0 0.1366784634572461 0.062385790913364998 0 0.12862567505231701 0.06880364651110718 0 0.12934288480482059 0.062600272528911788 0 0.12161212966019599 0.062809334139398737 0 0.12862567505231701 0.06880364651110718 0 0.12934288480482059 0.062600272528911788 0 0.12862567505231701 0.06880364651110718 0 0.14350516151557521 0.068649909150297506 0 0.13511067195055429 0.079858402170115417 0 0.1366784634572461 0.062385790913364998 0 0.12862567505231701 0.06880364651110718 0 0.14350516151557521 0.068649909150297506 0 0.14350516151557521 0.068649909150297506 0 0.15444347298790739 0.077298423511939982 0 0.15923977423396971 0.062534848168503188 0 0.14350516151557521 0.068649909150297506 0 0.1452704140205319 0.08244640875036599 0 0.13511067195055429 0.079858402170115417 0 0.14350516151557521 0.068649909150297506 0 0.15444347298790739 0.077298423511939982 0 0.1452704140205319 0.08244640875036599 0 0.15573804463079399 0.088233236233412463 0 0.1452704140205319 0.08244640875036599 0 0.1422412817350619 0.099435892572317885 0 0.1452704140205319 0.08244640875036599 0 0.1360960746453016 0.088551714407507059 0 0.1422412817350619 0.099435892572317885 0 0.15444347298790739 0.077298423511939982 0 0.15573804463079399 0.088233236233412463 0 0.1452704140205319 0.08244640875036599 0 0.122159592140168 0.090267859458788985 0 0.12862567505231701 0.06880364651110718 0 0.13511067195055429 0.079858402170115417 0 0.122159592140168 0.090267859458788985 0 0.1360960746453016 0.088551714407507059 0 0.1422412817350619 0.099435892572317885 0 0.1452704140205319 0.08244640875036599 0 0.1360960746453016 0.088551714407507059 0 0.13511067195055429 0.079858402170115417 0 0.122159592140168 0.090267859458788985 0 0.1360960746453016 0.088551714407507059 0 0.13511067195055429 0.079858402170115417 0 0.1244312862506923 0.11647714783315261 0 0.122159592140168 0.090267859458788985 0 0.1422412817350619 0.099435892572317885 0 0.1244312862506923 0.11647714783315261 0 0.1516552415398581 0.11418252972073389 0 0.1244312862506923 0.11647714783315261 0 0.13565164914228919 0.12425239835068461 0 0.1516552415398581 0.11418252972073389 0 0.1244312862506923 0.11647714783315261 0 0.1516552415398581 0.11418252972073389 0 0.1422412817350619 0.099435892572317885 0 0.1244312862506923 0.11647714783315261 0 0.12595656005345329 0.1340747375619383 0 0.13565164914228919 0.12425239835068461 0 0.13565164914228919 0.12425239835068461 0 0.14670638086083351 0.1221253018907065 0 0.1516552415398581 0.11418252972073389 0 0.14063123489802909 0.12798468734324089 0 0.13565164914228919 0.12425239835068461 0 0.14670638086083351 0.1221253018907065 0 0.15403325864839779 0.11398209443971111 0 0.1516552415398581 0.11418252972073389 0 0.15403325864839779 0.11398209443971111 0 0.1516552415398581 0.11418252972073389 0 0.1526009090133581 0.11756595460350749 0 0.15403325864839779 0.11398209443971111 0 0.15557035677581391 0.1167162192514211 0 0.1526009090133581 0.11756595460350749 0 0.1516552415398581 0.11418252972073389 0 0.15061907539168551 0.1190531217267445 0 0.1526009090133581 0.11756595460350749 0 0.14670638086083351 0.1221253018907065 0 0.1516552415398581 0.11418252972073389 0 0.15061907539168551 0.1190531217267445 0 0.14670638086083351 0.1221253018907065 0 0.15061907539168551 0.1190531217267445 0 0.15231712002808551 0.1213737158485442 0 0.15061907539168551 0.1190531217267445 0 0.1526009090133581 0.11756595460350749 0 0.15231712002808551 0.1213737158485442 0 0.15557035677581391 0.1167162192514211 0 0.1526009090133581 0.11756595460350749 0 0.1556266787620115 0.11903695230980089 0 0.1526009090133581 0.11756595460350749 0 0.1556266787620115 0.11903695230980089 0 0.15231712002808551 0.1213737158485442 0 0.1556266787620115 0.11903695230980089 0 0.15231712002808551 0.1213737158485442 0 0.1573146585629808 0.1235612420306245 0 0.15151178436659599 0.12607672355801411 0 0.15231712002808551 0.1213737158485442 0 0.1573146585629808 0.1235612420306245 0 0.15151178436659599 0.12607672355801411 0 0.14670638086083351 0.1221253018907065 0 0.15231712002808551 0.1213737158485442 0 0.1516552415398581 0.11418252972073389 0 0.1422412817350619 0.099435892572317885 0 0.15973652302728081 0.099485677313195922 0 0.15573804463079399 0.088233236233412463 0 0.1422412817350619 0.099435892572317885 0 0.15973652302728081 0.099485677313195922 0 0.1516552415398581 0.11418252972073389 0 0.15973652302728081 0.099485677313195922 0 0.15403325864839779 0.11398209443971111 0 0.1516552415398581 0.11418252972073389 0 0.15973652302728081 0.099485677313195922 0 0.15403325864839779 0.11398209443971111 0 0.15973652302728081 0.099485677313195922 0 0.16649112065834401 0.1085587246120248 0 0.15973652302728081 0.099485677313195922 0 0.16649112065834401 0.1085587246120248 0 0.1736846089776172 0.1000090707856735 0 0.15973652302728081 0.099485677313195922 0 0.1736846089776172 0.1000090707856735 0 0.16781780451470421 0.084788824905658325 0 0.1573146585629808 0.1235612420306245 0 0.16002058067948791 0.1162798756526647 0 0.1687215818939726 0.1177916957383512 0 0.1556266787620115 0.11903695230980089 0 0.1573146585629808 0.1235612420306245 0 0.16002058067948791 0.1162798756526647 0 0.15557035677581391 0.1167162192514211 0 0.1556266787620115 0.11903695230980089 0 0.16002058067948791 0.1162798756526647 0 0.15403325864839779 0.11398209443971111 0 0.16649112065834401 0.1085587246120248 0 0.16002058067948791 0.1162798756526647 0 0.15403325864839779 0.11398209443971111 0 0.15557035677581391 0.1167162192514211 0 0.16002058067948791 0.1162798756526647 0 0.16649112065834401 0.1085587246120248 0 0.16002058067948791 0.1162798756526647 0 0.1687215818939726 0.1177916957383512 0 0.16649112065834401 0.1085587246120248 0 0.1687215818939726 0.1177916957383512 0 0.18309998045936091 0.1115502248759178 0 0.1877526721111118 0.1329179234914924 0 0.1687215818939726 0.1177916957383512 0 0.18309998045936091 0.1115502248759178 0 0.16649112065834401 0.1085587246120248 0 0.18309998045936091 0.1115502248759178 0 0.1736846089776172 0.1000090707856735 0 0.19506964624688039 0.095987523435594829 0 0.1736846089776172 0.1000090707856735 0 0.17992263093538829 0.089212848304623338 0 0.19506964624688039 0.095987523435594829 0 0.18309998045936091 0.1115502248759178 0 0.1736846089776172 0.1000090707856735 0 0.19506964624688039 0.095987523435594829 0 0.17992263093538829 0.089212848304623338 0 0.18319830876856519 0.076593793468166832 0 0.1736846089776172 0.1000090707856735 0 0.17992263093538829 0.089212848304623338 0 0.16781780451470421 0.084788824905658325 0 0.17992263093538829 0.089212848304623338 0 0.18319830876856519 0.076593793468166832 0 0.16781780451470421 0.084788824905658325 0 0.19538949274033521 0.062698826145331579 0 0.18319830876856519 0.076593793468166832 0 0.1774698200171923 0.067235390156957967 0 0.18319830876856519 0.076593793468166832 0 0.1774698200171923 0.067235390156957967 0 0.1774698200171923 0.067235390156957967 0 0.1749767513167973 0.071769357051758437 0 0.18319830876856519 0.076593793468166832 0 0.1749767513167973 0.071769357051758437 0 0.18319830876856519 0.076593793468166832 0 0.1774698200171923 0.067235390156957967 0 0.1749767513167973 0.071769357051758437 0 0.18319830876856519 0.076593793468166832 0 0.1749767513167973 0.071769357051758437 0 0.16781780451470421 0.084788824905658325 0 0.1774698200171923 0.067235390156957967 0 0.1749767513167973 0.071769357051758437 0 0.15923977423396971 0.062534848168503188 0 0.1749767513167973 0.071769357051758437 0 0.15923977423396971 0.062534848168503188 0 0.15444347298790739 0.077298423511939982 0 0.15923977423396971 0.062534848168503188 0 0.16781780451470421 0.084788824905658325 0 0.15923977423396971 0.062534848168503188 0 0.16781780451470421 0.084788824905658325 0 0.1749767513167973 0.071769357051758437 0 0.15923977423396971 0.062534848168503188 0 0.16781780451470421 0.084788824905658325 0 0.15444347298790739 0.077298423511939982 0 0.15573804463079399 0.088233236233412463 0 0.16781780451470421 0.084788824905658325 0 0.15573804463079399 0.088233236233412463 0 0.15973652302728081 0.099485677313195922 0 0.16781780451470421 0.084788824905658325 0 0.15973652302728081 0.099485677313195922 0 0.16781780451470421 0.084788824905658325 0 0.1736846089776172 0.1000090707856735 0 0.16781780451470421 0.084788824905658325 0 0.1749767513167973 0.071769357051758437 0 0.16781780451470421 0.084788824905658325 0 0.097338097424920736 0.47016191885545028 0 0.1011317950179524 0.4858461305506534 0 0.088767342802527696 0.48402524519887308 0 0.097338097424920736 0.47016191885545028 0 0.1011317950179524 0.4858461305506534 0 0.1168356570365645 0.48719688358687452 0 0.1011317950179524 0.4858461305506534 0 0.098423597097651708 0.49999999999999928 0 0.088767342802527696 0.48402524519887308 0 0.1011317950179524 0.4858461305506534 0 0.098423597097651708 0.49999999999999928 0 0.1168356570365645 0.48719688358687452 0 0.098423597097651708 0.49999999999999928 0 0.1168356570365645 0.48719688358687452 0 0.12537502216261889 0.5 0 0.097338097424920736 0.47016191885545028 0 0.1168356570365645 0.48719688358687452 0 0.12272986558341679 0.46755831466623321 0 0.097338097424920736 0.47016191885545028 0 0.12272986558341679 0.46755831466623321 0 0.12272986558341679 0.46755831466623321 0 0.1194139762985746 0.44746307811691582 0 0.1067726401865103 0.45533116624964681 0 0.1194139762985746 0.44746307811691582 0 0.1015043949829499 0.437764596234613 0 0.12637243707708509 0.42832167071525762 0 0.1015043949829499 0.437764596234613 0 0.1067726401865103 0.45533116624964681 0 0.092876866642689224 0.45370792337502158 0 0.1194139762985746 0.44746307811691582 0 0.1015043949829499 0.437764596234613 0 0.1067726401865103 0.45533116624964681 0 0.097338097424920736 0.47016191885545028 0 0.1067726401865103 0.45533116624964681 0 0.092876866642689224 0.45370792337502158 0 0.097338097424920736 0.47016191885545028 0 0.12272986558341679 0.46755831466623321 0 0.1067726401865103 0.45533116624964681 0 0.097338097424920736 0.47016191885545028 0 0.081643360692044267 0.46022000903202559 0 0.071946329266424636 0.47276552304466751 0 0.097338097424920736 0.47016191885545028 0 0.092876866642689224 0.45370792337502158 0 0.081643360692044267 0.46022000903202559 0 0.092876866642689224 0.45370792337502158 0 0.081643360692044267 0.46022000903202559 0 0.076636352888814735 0.44720752175396838 0 0.1015043949829499 0.437764596234613 0 0.089526282753180919 0.43920821772680441 0 0.076636352888814735 0.44720752175396838 0 0.1015043949829499 0.437764596234613 0 0.092876866642689224 0.45370792337502158 0 0.076636352888814735 0.44720752175396838 0 0.1015043949829499 0.437764596234613 0 0.076636352888814735 0.44720752175396838 0 0.089526282753180919 0.43920821772680441 0 0.076636352888814735 0.44720752175396838 0 0.074908825929397738 0.43581651760668277 0 0.076636352888814735 0.44720752175396838 0 0.062549935643749374 0.44114849749990931 0 0.069419157237372034 0.45725715813102041 0 0.062549935643749374 0.44114849749990931 0 0.069419157237372034 0.45725715813102041 0 0.058469031741131848 0.45243950670391508 0 0.076636352888814735 0.44720752175396838 0 0.062549935643749374 0.44114849749990931 0 0.074908825929397738 0.43581651760668277 0 0.081643360692044267 0.46022000903202559 0 0.069419157237372034 0.45725715813102041 0 0.071946329266424636 0.47276552304466751 0 0.081643360692044267 0.46022000903202559 0 0.076636352888814735 0.44720752175396838 0 0.069419157237372034 0.45725715813102041 0 0.069419157237372034 0.45725715813102041 0 0.060243854438493109 0.46086493671767431 0 0.058469031741131848 0.45243950670391508 0 0.069419157237372034 0.45725715813102041 0 0.071946329266424636 0.47276552304466751 0 0.060243854438493109 0.46086493671767431 0 0.071946329266424636 0.47276552304466751 0 0.088767342802527696 0.48402524519887308 0 0.073020341636848299 0.49010235694270998 0 0.071946329266424636 0.47276552304466751 0 0.073020341636848299 0.49010235694270998 0 0.047617086176044682 0.48020471388542141 0 0.097338097424920736 0.47016191885545028 0 0.071946329266424636 0.47276552304466751 0 0.097338097424920736 0.47016191885545028 0 0.071946329266424636 0.47276552304466751 0 0.088767342802527696 0.48402524519887308 0 0.098423597097651708 0.49999999999999928 0 0.073020341636848299 0.49010235694270998 0 0.098423597097651708 0.49999999999999928 0 0.088767342802527696 0.48402524519887308 0 0.073020341636848299 0.49010235694270998 0 0.098423597097651708 0.49999999999999928 0 0.08348635704797952 0.49999999999999822 0 0.073020341636848299 0.49010235694270998 0 0.08348635704797952 0.49999999999999822 0 0.073020341636848299 0.49010235694270998 0 0.058094764072453987 0.48797548059417861 0 0.08348635704797952 0.49999999999999822 0 0.056265589754729388 0.5 0 0.058094764072453987 0.48797548059417861 0 0.08348635704797952 0.49999999999999822 0 0.058094764072453987 0.48797548059417861 0 0.073020341636848299 0.49010235694270998 0 0.047617086176044682 0.48020471388542141 0 0.073020341636848299 0.49010235694270998 0 0.058094764072453987 0.48797548059417861 0 0.047617086176044682 0.48020471388542141 0 0.056265589754729388 0.5 0 0.058094764072453987 0.48797548059417861 0 0.042655206108104297 0.4917781963921381 0 0.071946329266424636 0.47276552304466751 0 0.046554561107928542 0.47536912723388453 0 0.071946329266424636 0.47276552304466751 0 0.047617086176044682 0.48020471388542141 0 0.046554561107928542 0.47536912723388453 0 0.071946329266424636 0.47276552304466751 0 0.046554561107928542 0.47536912723388453 0 0.052653267606100063 0.4657927124614914 0 0.046554561107928542 0.47536912723388453 0 0.041628013188480667 0.46846210300911451 0 0.052653267606100063 0.4657927124614914 0 0.058094764072453987 0.48797548059417861 0 0.032703171096927573 0.47595096118836022 0 0.058094764072453987 0.48797548059417861 0 0.047617086176044682 0.48020471388542141 0 0.032703171096927573 0.47595096118836022 0 0.046554561107928542 0.47536912723388453 0 0.032703171096927573 0.47595096118836022 0 0.041628013188480667 0.46846210300911451 0 0.047617086176044682 0.48020471388542141 0 0.046554561107928542 0.47536912723388453 0 0.032703171096927573 0.47595096118836022 0 0.032703171096927573 0.47595096118836022 0 0.032837812176921263 0.46414750013618239 0 0.041628013188480667 0.46846210300911451 0 0.058094764072453987 0.48797548059417861 0 0.032703171096927573 0.47595096118836022 0 0.042655206108104297 0.4917781963921381 0 0.032703171096927573 0.47595096118836022 0 0.042655206108104297 0.4917781963921381 0 0.02904482246147921 0.5 0 0.056265589754729388 0.5 0 0.042655206108104297 0.4917781963921381 0 0.02904482246147921 0.5 0 0.032703171096927573 0.47595096118836022 0 0.02904482246147921 0.5 0 0.01486539584239272 0.48725055925748922 0 0.032703171096927573 0.47595096118836022 0 0.0073115781214012554 0.46392644178254189 0 0.032703171096927573 0.47595096118836022 0 0.01016015936896277 0.47570058240850882 0 0.01486539584239272 0.48725055925748922 0 0.032703171096927573 0.47595096118836022 0 0.01016015936896277 0.47570058240850882 0 0.0073115781214012554 0.46392644178254189 0 0.01016015936896277 0.47570058240850882 0 0.00079915787713980067 0.48380178818253211 0 0.01486539584239272 0.48725055925748922 0 0.01016015936896277 0.47570058240850882 0 0.0073115781214012554 0.46392644178254189 0 0.0054114998955236034 0.46864804595923232 0 -0.002540330405828736 0.46770344598872898 0 -0.00012984661960833009 0.47462569808089689 0 0.0054114998955236034 0.46864804595923232 0 -0.00012984661960833009 0.47462569808089689 0 0.01016015936896277 0.47570058240850882 0 0.0054114998955236034 0.46864804595923232 0 -0.00012984661960833009 0.47462569808089689 0 0.01016015936896277 0.47570058240850882 0 0.00079915787713980067 0.48380178818253211 0 0.00079915787713980067 0.48380178818253211 0 0.0018240551682290329 0.5 0 0.01486539584239272 0.48725055925748922 0 0.02904482246147921 0.5 0 0.0018240551682290329 0.5 0 0.01486539584239272 0.48725055925748922 0 -0.0082520182386178285 0.44752539581358081 0 0.018463648595818491 0.43621407614749258 0 -0.0082520182386178285 0.44752539581358081 0 0.016015289320526069 0.43850686624797192 0 0.018463648595818491 0.43621407614749258 0 -0.0028292168140803208 0.44959852108272791 0 -0.0082520182386178285 0.44752539581358081 0 0.016015289320526069 0.43850686624797192 0 -0.0082520182386178285 0.44752539581358081 0 0.0053858341513508129 0.43968751691377422 0 0.018463648595818491 0.43621407614749258 0 -0.0028292168140803208 0.44959852108272791 0 0.016015289320526069 0.43850686624797192 0 -0.0028292168140803208 0.44959852108272791 0 0.003686567682114407 0.45348632369656539 0 0.016015289320526069 0.43850686624797192 0 0.0073115781214012554 0.46392644178254189 0 0.016015289320526069 0.43850686624797192 0 0.018463648595818491 0.43621407614749258 0 0.0073115781214012554 0.46392644178254189 0 0.018463648595818491 0.43621407614749258 0 0.003686567682114407 0.45348632369656539 0 0.0073115781214012554 0.46392644178254189 0 0.016015289320526069 0.43850686624797192 0 -0.0052704842108084043 0.45796804236960659 0 0.003686567682114407 0.45348632369656539 0 0.0073115781214012554 0.46392644178254189 0 -0.002540330405828736 0.46770344598872898 0 0.0073115781214012554 0.46392644178254189 0 0.0054114998955236034 0.46864804595923232 0 -0.0052704842108084043 0.45796804236960659 0 0.0073115781214012554 0.46392644178254189 0 0.0073115781214012554 0.46392644178254189 0 0.0054114998955236034 0.46864804595923232 0 0.0073115781214012554 0.46392644178254189 0 0.029231852816914719 0.45427383728422571 0 0.032837812176921263 0.46414750013618239 0 0.0073115781214012554 0.46392644178254189 0 0.029231852816914719 0.45427383728422571 0 0.0268013711671269 0.44379410395332819 0 0.032703171096927573 0.47595096118836022 0 0.0073115781214012554 0.46392644178254189 0 0.032837812176921263 0.46414750013618239 0 0.029231852816914719 0.45427383728422571 0 0.0268013711671269 0.44379410395332819 0 0.033186630963942872 0.44609904385553772 0 0.0073115781214012554 0.46392644178254189 0 0.0268013711671269 0.44379410395332819 0 0.018463648595818491 0.43621407614749258 0 0.0268013711671269 0.44379410395332819 0 0.023732967701774601 0.43398306491354383 0 0.018463648595818491 0.43621407614749258 0 0.0268013711671269 0.44379410395332819 0 0.029875993350003301 0.4374471742814286 0 0.023732967701774601 0.43398306491354383 0 0.0268013711671269 0.44379410395332819 0 0.033186630963942872 0.44609904385553772 0 0.029875993350003301 0.4374471742814286 0 0.036754504434223512 0.43941760096183219 0 0.033186630963942872 0.44609904385553772 0 0.029875993350003301 0.4374471742814286 0 0.036754504434223512 0.43941760096183219 0 0.033186630963942872 0.44609904385553772 0 0.040499760684755998 0.45015715915631899 0 0.029231852816914719 0.45427383728422571 0 0.033186630963942872 0.44609904385553772 0 0.040499760684755998 0.45015715915631899 0 0.040499760684755998 0.45015715915631899 0 0.044677625831814283 0.43996947973686978 0 0.049209307106565403 0.44689676236402831 0 0.036754504434223512 0.43941760096183219 0 0.040499760684755998 0.45015715915631899 0 0.044677625831814283 0.43996947973686978 0 0.029231852816914719 0.45427383728422571 0 0.032837812176921263 0.46414750013618239 0 0.036624006090581973 0.45752015621546122 0 0.029231852816914719 0.45427383728422571 0 0.040499760684755998 0.45015715915631899 0 0.036624006090581973 0.45752015621546122 0 0.032837812176921263 0.46414750013618239 0 0.036624006090581973 0.45752015621546122 0 0.0433912539545259 0.4610502140256536 0 0.040499760684755998 0.45015715915631899 0 0.0433912539545259 0.4610502140256536 0 0.050922904279479327 0.45603017880694358 0 0.040499760684755998 0.45015715915631899 0 0.036624006090581973 0.45752015621546122 0 0.0433912539545259 0.4610502140256536 0 0.032837812176921263 0.46414750013618239 0 0.0433912539545259 0.4610502140256536 0 0.041628013188480667 0.46846210300911451 0 0.0433912539545259 0.4610502140256536 0 0.041628013188480667 0.46846210300911451 0 0.052653267606100063 0.4657927124614914 0 0.071946329266424636 0.47276552304466751 0 0.052653267606100063 0.4657927124614914 0 0.060243854438493109 0.46086493671767431 0 0.0433912539545259 0.4610502140256536 0 0.052653267606100063 0.4657927124614914 0 0.050922904279479327 0.45603017880694358 0 0.052653267606100063 0.4657927124614914 0 0.050922904279479327 0.45603017880694358 0 0.060243854438493109 0.46086493671767431 0 0.050922904279479327 0.45603017880694358 0 0.060243854438493109 0.46086493671767431 0 0.058469031741131848 0.45243950670391508 0 0.062549935643749374 0.44114849749990931 0 0.049209307106565403 0.44689676236402831 0 0.05217764507713625 0.43556498405841121 0 0.044677625831814283 0.43996947973686978 0 0.049209307106565403 0.44689676236402831 0 0.05217764507713625 0.43556498405841121 0 0.040499760684755998 0.45015715915631899 0 0.050922904279479327 0.45603017880694358 0 0.049209307106565403 0.44689676236402831 0 0.050922904279479327 0.45603017880694358 0 0.049209307106565403 0.44689676236402831 0 0.058469031741131848 0.45243950670391508 0 0.062549935643749374 0.44114849749990931 0 0.049209307106565403 0.44689676236402831 0 0.058469031741131848 0.45243950670391508 0 0.062549935643749374 0.44114849749990931 0 0.05217764507713625 0.43556498405841121 0 0.062673167969352239 0.43220817619515589 0 0.055283811842125739 0.42331008397343273 0 0.05217764507713625 0.43556498405841121 0 0.062673167969352239 0.43220817619515589 0 0.055283811842125739 0.42331008397343273 0 0.062673167969352239 0.43220817619515589 0 0.068445621354352115 0.42520079783734421 0 0.055283811842125739 0.42331008397343273 0 0.05217764507713625 0.43556498405841121 0 0.042917567472382623 0.42834317995551963 0 0.054191675884896352 0.40966895180268631 0 0.068115331400254914 0.40533303765924561 0 0.063724457881659605 0.41574827176540519 0 0.055283811842125739 0.42331008397343273 0 0.054191675884896352 0.40966895180268631 0 0.063724457881659605 0.41574827176540519 0 0.055283811842125739 0.42331008397343273 0 0.063724457881659605 0.41574827176540519 0 0.068445621354352115 0.42520079783734421 0 0.055283811842125739 0.42331008397343273 0 0.054191675884896352 0.40966895180268631 0 0.040884036807953612 0.41433371364516169 0 0.054191675884896352 0.40966895180268631 0 0.040884036807953612 0.41433371364516169 0 0.045850949982409593 0.4049191013996189 0 0.040884036807953612 0.41433371364516169 0 0.038213886564479431 0.40576158179300631 0 0.045850949982409593 0.4049191013996189 0 0.040884036807953612 0.41433371364516169 0 0.042917567472382623 0.42834317995551963 0 0.03619576359543223 0.4219720449641165 0 0.040884036807953612 0.41433371364516169 0 0.03619576359543223 0.4219720449641165 0 0.026763802161845759 0.41558858862241632 0 0.040884036807953612 0.41433371364516169 0 0.026763802161845759 0.41558858862241632 0 0.038213886564479431 0.40576158179300631 0 0.036754504434223512 0.43941760096183219 0 0.044677625831814283 0.43996947973686978 0 0.042917567472382623 0.42834317995551963 0 0.044677625831814283 0.43996947973686978 0 0.05217764507713625 0.43556498405841121 0 0.042917567472382623 0.42834317995551963 0 0.055283811842125739 0.42331008397343273 0 0.040884036807953612 0.41433371364516169 0 0.042917567472382623 0.42834317995551963 0 0.042917567472382623 0.42834317995551963 0 0.03619576359543223 0.4219720449641165 0 0.032867398283708008 0.42973987798998159 0 0.03619576359543223 0.4219720449641165 0 0.032867398283708008 0.42973987798998159 0 0.026763802161845759 0.41558858862241632 0 0.036754504434223512 0.43941760096183219 0 0.042917567472382623 0.42834317995551963 0 0.032867398283708008 0.42973987798998159 0 0.036754504434223512 0.43941760096183219 0 0.032867398283708008 0.42973987798998159 0 0.029875993350003301 0.4374471742814286 0 0.032867398283708008 0.42973987798998159 0 0.023732967701774601 0.43398306491354383 0 0.026763802161845759 0.41558858862241632 0 0.018463648595818491 0.43621407614749258 0 0.026763802161845759 0.41558858862241632 0 0.023732967701774601 0.43398306491354383 0 0.018463648595818491 0.43621407614749258 0 0.026763802161845759 0.41558858862241632 0 0.018463648595818491 0.43621407614749258 0 0.026763802161845759 0.41558858862241632 0 0.01058193137125424 0.42098199403715592 0 0.032867398283708008 0.42973987798998159 0 0.029875993350003301 0.4374471742814286 0 0.023732967701774601 0.43398306491354383 0 0.023732967701774601 0.43398306491354383 0 0.018463648595818491 0.43621407614749258 0 0.026763802161845759 0.41558858862241632 0 0.01058193137125424 0.42098199403715592 0 0.013285443315123839 0.40979800641730191 0 0.026763802161845759 0.41558858862241632 0 0.013285443315123839 0.40979800641730191 0 0.021017066798357541 0.40340809801385591 0 0.01058193137125424 0.42098199403715592 0 0.013285443315123839 0.40979800641730191 0 0.0016941141115774749 0.40820952139338279 0 -0.0045322490052715951 0.42213904960798337 0 0.01058193137125424 0.42098199403715592 0 0.0016941141115774749 0.40820952139338279 0 -0.0045322490052715951 0.42213904960798337 0 0.01058193137125424 0.42098199403715592 0 0.0046778973195330479 0.43049481374472531 0 -0.0065096785154871162 0.4334514320172197 0 0.0053858341513508129 0.43968751691377422 0 0.0046778973195330479 0.43049481374472531 0 0.0053858341513508129 0.43968751691377422 0 0.018463648595818491 0.43621407614749258 0 0.0046778973195330479 0.43049481374472531 0 0.018463648595818491 0.43621407614749258 0 0.01058193137125424 0.42098199403715592 0 0.0046778973195330479 0.43049481374472531 0 -0.0046592386712307511 0.38406812442034161 0 0.004340173904461269 0.37532524476536749 0 0.0089550659885869084 0.39328269591836518 0 0.004340173904461269 0.37532524476536749 0 0.0089550659885869084 0.39328269591836518 0 0.023374897433661359 0.38377422417001239 0 0.013285443315123839 0.40979800641730191 0 0.0016941141115774749 0.40820952139338279 0 0.0089550659885869084 0.39328269591836518 0 0.013285443315123839 0.40979800641730191 0 0.0089550659885869084 0.39328269591836518 0 0.021017066798357541 0.40340809801385591 0 0.0089550659885869084 0.39328269591836518 0 0.038080583537526552 0.39179457752201918 0 0.0089550659885869084 0.39328269591836518 0 0.035063955727873672 0.39496310109734029 0 0.038080583537526552 0.39179457752201918 0 0.0089550659885869084 0.39328269591836518 0 0.021017066798357541 0.40340809801385591 0 0.035063955727873672 0.39496310109734029 0 0.026763802161845759 0.41558858862241632 0 0.035063955727873672 0.39496310109734029 0 0.026763802161845759 0.41558858862241632 0 0.021017066798357541 0.40340809801385591 0 0.035063955727873672 0.39496310109734029 0 0.0089550659885869084 0.39328269591836518 0 0.023374897433661359 0.38377422417001239 0 0.038080583537526552 0.39179457752201918 0 0.023374897433661359 0.38377422417001239 0 0.035918118198356587 0.37679040371782713 0 0.028420254264375042 0.36834400531876882 0 0.023374897433661359 0.38377422417001239 0 0.035918118198356587 0.37679040371782713 0 0.036265909408262458 0.38418816012978851 0 0.035918118198356587 0.37679040371782713 0 0.036265909408262458 0.38418816012978851 0 0.04354781886190285 0.38127875159629437 0 0.023374897433661359 0.38377422417001239 0 0.036265909408262458 0.38418816012978851 0 0.038080583537526552 0.39179457752201918 0 0.036265909408262458 0.38418816012978851 0 0.042396459633223242 0.38573357390595769 0 0.038080583537526552 0.39179457752201918 0 0.042396459633223242 0.38573357390595769 0 0.04354781886190285 0.38127875159629437 0 0.050439335638752733 0.38496726959755112 0 0.036265909408262458 0.38418816012978851 0 0.042396459633223242 0.38573357390595769 0 0.04354781886190285 0.38127875159629437 0 0.042396459633223242 0.38573357390595769 0 0.038080583537526552 0.39179457752201918 0 0.050439335638752733 0.38496726959755112 0 0.04354781886190285 0.38127875159629437 0 0.052484395042878329 0.37752982370530808 0 0.043987096155691068 0.37326810013556139 0 0.035918118198356587 0.37679040371782713 0 0.04354781886190285 0.38127875159629437 0 0.043987096155691068 0.37326810013556139 0 0.026763802161845759 0.41558858862241632 0 0.038213886564479431 0.40576158179300631 0 0.035063955727873672 0.39496310109734029 0 0.038080583537526552 0.39179457752201918 0 0.042506688142314508 0.39900340420049413 0 0.053876706529988598 0.39940440250349002 0 0.038213886564479431 0.40576158179300631 0 0.035063955727873672 0.39496310109734029 0 0.042506688142314508 0.39900340420049413 0 0.035063955727873672 0.39496310109734029 0 0.038080583537526552 0.39179457752201918 0 0.042506688142314508 0.39900340420049413 0 0.038213886564479431 0.40576158179300631 0 0.042506688142314508 0.39900340420049413 0 0.045850949982409593 0.4049191013996189 0 0.038080583537526552 0.39179457752201918 0 0.053876706529988598 0.39940440250349002 0 0.067206101086466102 0.3903064591256733 0 0.038080583537526552 0.39179457752201918 0 0.067206101086466102 0.3903064591256733 0 0.054191675884896352 0.40966895180268631 0 0.045850949982409593 0.4049191013996189 0 0.053876706529988598 0.39940440250349002 0 0.042506688142314508 0.39900340420049413 0 0.045850949982409593 0.4049191013996189 0 0.053876706529988598 0.39940440250349002 0 0.054191675884896352 0.40966895180268631 0 0.053876706529988598 0.39940440250349002 0 0.068115331400254914 0.40533303765924561 0 0.038080583537526552 0.39179457752201918 0 0.050439335638752733 0.38496726959755112 0 0.067206101086466102 0.3903064591256733 0 0.050439335638752733 0.38496726959755112 0 0.058920655670519378 0.38316043173005448 0 0.067206101086466102 0.3903064591256733 0 0.04354781886190285 0.38127875159629437 0 0.052484395042878329 0.37752982370530808 0 0.050439335638752733 0.38496726959755112 0 0.052484395042878329 0.37752982370530808 0 0.050439335638752733 0.38496726959755112 0 0.058920655670519378 0.38316043173005448 0 0.052484395042878329 0.37752982370530808 0 0.058920655670519378 0.38316043173005448 0 0.06430059982753196 0.3791326377135078 0 0.06430059982753196 0.3791326377135078 0 0.080920194528108225 0.38646523526278082 0 0.068803121197329162 0.36947598273629062 0 0.06430059982753196 0.3791326377135078 0 0.067206101086466102 0.3903064591256733 0 0.080920194528108225 0.38646523526278082 0 0.058920655670519378 0.38316043173005448 0 0.06430059982753196 0.3791326377135078 0 0.067206101086466102 0.3903064591256733 0 0.080920194528108225 0.38646523526278082 0 0.1004775448978564 0.38313386556750278 0 0.092850166915639923 0.37100513811108238 0 0.080920194528108225 0.38646523526278082 0 0.1004775448978564 0.38313386556750278 0 0.09447135578280276 0.39749342038524949 0 0.080920194528108225 0.38646523526278082 0 0.077142526451723495 0.4041269799346327 0 0.085223238640644572 0.41283672649479258 0 0.080920194528108225 0.38646523526278082 0 0.085223238640644572 0.41283672649479258 0 0.09447135578280276 0.39749342038524949 0 0.080920194528108225 0.38646523526278082 0 0.085223238640644572 0.41283672649479258 0 0.080920194528108225 0.38646523526278082 0 0.077142526451723495 0.4041269799346327 0 0.073824102076452541 0.39702918333743009 0 0.077142526451723495 0.4041269799346327 0 0.073824102076452541 0.39702918333743009 0 0.068115331400254914 0.40533303765924561 0 0.067206101086466102 0.3903064591256733 0 0.080920194528108225 0.38646523526278082 0 0.073824102076452541 0.39702918333743009 0 0.067206101086466102 0.3903064591256733 0 0.073824102076452541 0.39702918333743009 0 0.068115331400254914 0.40533303765924561 0 0.053876706529988598 0.39940440250349002 0 0.067206101086466102 0.3903064591256733 0 0.068115331400254914 0.40533303765924561 0 0.068115331400254914 0.40533303765924561 0 0.063724457881659605 0.41574827176540519 0 0.073805255934642322 0.41520067418413831 0 0.063724457881659605 0.41574827176540519 0 0.073805255934642322 0.41520067418413831 0 0.068445621354352115 0.42520079783734421 0 0.077142526451723495 0.4041269799346327 0 0.068115331400254914 0.40533303765924561 0 0.073805255934642322 0.41520067418413831 0 0.062549935643749374 0.44114849749990931 0 0.062673167969352239 0.43220817619515589 0 0.074908825929397738 0.43581651760668277 0 0.062673167969352239 0.43220817619515589 0 0.068445621354352115 0.42520079783734421 0 0.074908825929397738 0.43581651760668277 0 0.068445621354352115 0.42520079783734421 0 0.074908825929397738 0.43581651760668277 0 0.078522148166622938 0.42606741559390099 0 0.073805255934642322 0.41520067418413831 0 0.068445621354352115 0.42520079783734421 0 0.078522148166622938 0.42606741559390099 0 0.089526282753180919 0.43920821772680441 0 0.085223238640644572 0.41283672649479258 0 0.089526282753180919 0.43920821772680441 0 0.078522148166622938 0.42606741559390099 0 0.085223238640644572 0.41283672649479258 0 0.089526282753180919 0.43920821772680441 0 0.087901110467112437 0.42053231113652489 0 0.085223238640644572 0.41283672649479258 0 0.089526282753180919 0.43920821772680441 0 0.087901110467112437 0.42053231113652489 0 0.095599534635084485 0.42950721054937779 0 0.089526282753180919 0.43920821772680441 0 0.074908825929397738 0.43581651760668277 0 0.078522148166622938 0.42606741559390099 0 0.077142526451723495 0.4041269799346327 0 0.073805255934642322 0.41520067418413831 0 0.085223238640644572 0.41283672649479258 0 0.073805255934642322 0.41520067418413831 0 0.078522148166622938 0.42606741559390099 0 0.085223238640644572 0.41283672649479258 0 0.087901110467112437 0.42053231113652489 0 0.085223238640644572 0.41283672649479258 0 0.1109691610301229 0.40420478236467189 0 0.087901110467112437 0.42053231113652489 0 0.1053582592253111 0.42073692348173408 0 0.1109691610301229 0.40420478236467189 0 0.087901110467112437 0.42053231113652489 0 0.1109691610301229 0.40420478236467189 0 0.1015043949829499 0.437764596234613 0 0.1053582592253111 0.42073692348173408 0 0.095599534635084485 0.42950721054937779 0 0.087901110467112437 0.42053231113652489 0 0.1053582592253111 0.42073692348173408 0 0.095599534635084485 0.42950721054937779 0 0.1015043949829499 0.437764596234613 0 0.089526282753180919 0.43920821772680441 0 0.095599534635084485 0.42950721054937779 0 0.1015043949829499 0.437764596234613 0 0.1053582592253111 0.42073692348173408 0 0.12637243707708509 0.42832167071525762 0 0.1015043949829499 0.437764596234613 0 0.12637243707708509 0.42832167071525762 0 0.1109691610301229 0.40420478236467189 0 0.13313107468670221 0.40865402693005098 0 0.12637243707708509 0.42832167071525762 0 0.1053582592253111 0.42073692348173408 0 0.1109691610301229 0.40420478236467189 0 0.12637243707708509 0.42832167071525762 0 0.1109691610301229 0.40420478236467189 0 0.11686128871008319 0.38085285868847701 0 0.1340372115931335 0.38787725359281888 0 0.1109691610301229 0.40420478236467189 0 0.1340372115931335 0.38787725359281888 0 0.1109691610301229 0.40420478236467189 0 0.11686128871008319 0.38085285868847701 0 0.1004775448978564 0.38313386556750278 0 0.11686128871008319 0.38085285868847701 0 0.1004775448978564 0.38313386556750278 0 0.1075284327816998 0.36416898872765291 0 0.1109691610301229 0.40420478236467189 0 0.1004775448978564 0.38313386556750278 0 0.09447135578280276 0.39749342038524949 0 0.085223238640644572 0.41283672649479258 0 0.1109691610301229 0.40420478236467189 0 0.09447135578280276 0.39749342038524949 0 0.1093095874571313 0.35175375257417901 0 0.099448946948292052 0.35129971295651069 0 0.1075284327816998 0.36416898872765291 0 0.1093095874571313 0.35175375257417901 0 0.099448946948292052 0.35129971295651069 0 0.1061712292754603 0.33934589356559319 0 0.099448946948292052 0.35129971295651069 0 0.093516025515997414 0.34163569809186312 0 0.088593524397497903 0.34905899780179622 0 0.099448946948292052 0.35129971295651069 0 0.1061712292754603 0.33934589356559319 0 0.093516025515997414 0.34163569809186312 0 0.099448946948292052 0.35129971295651069 0 0.1075284327816998 0.36416898872765291 0 0.092615450545215944 0.35930163906108259 0 0.1004775448978564 0.38313386556750278 0 0.1075284327816998 0.36416898872765291 0 0.092850166915639923 0.37100513811108238 0 0.1075284327816998 0.36416898872765291 0 0.092615450545215944 0.35930163906108259 0 0.092850166915639923 0.37100513811108238 0 0.11686128871008319 0.38085285868847701 0 0.1075284327816998 0.36416898872765291 0 0.13129409324760349 0.36487940318973833 0 0.1075284327816998 0.36416898872765291 0 0.1206757332302552 0.35310459368013009 0 0.13129409324760349 0.36487940318973833 0 0.1093095874571313 0.35175375257417901 0 0.1075284327816998 0.36416898872765291 0 0.1206757332302552 0.35310459368013009 0 0.1093095874571313 0.35175375257417901 0 0.1206757332302552 0.35310459368013009 0 0.11968572573704819 0.34082259920106911 0 0.1093095874571313 0.35175375257417901 0 0.11968572573704819 0.34082259920106911 0 0.1061712292754603 0.33934589356559319 0 0.1206757332302552 0.35310459368013009 0 0.11968572573704819 0.34082259920106911 0 0.13301313875331891 0.34503603543703698 0 0.11968572573704819 0.34082259920106911 0 0.11853786748341399 0.32797800483923822 0 0.13095279113552891 0.3310564366932307 0 0.11853786748341399 0.32797800483923822 0 0.10668627298053129 0.32714240201028638 0 0.1061712292754603 0.33934589356559319 0 0.11968572573704819 0.34082259920106911 0 0.11853786748341399 0.32797800483923822 0 0.1061712292754603 0.33934589356559319 0 0.11853786748341399 0.32797800483923822 0 0.1160065679323484 0.31379325908782679 0 0.13327250895134671 0.31780571094325127 0 0.11853786748341399 0.32797800483923822 0 0.1160065679323484 0.31379325908782679 0 0.10668627298053129 0.32714240201028638 0 0.1160065679323484 0.31379325908782679 0 0.1004326694849827 0.31889892764789018 0 0.1021973816078494 0.30871092209096512 0 0.1160065679323484 0.31379325908782679 0 0.10668627298053129 0.32714240201028638 0 0.1004326694849827 0.31889892764789018 0 0.10668627298053129 0.32714240201028638 0 0.1004326694849827 0.31889892764789018 0 0.096877867774217252 0.33058525650857978 0 0.1004326694849827 0.31889892764789018 0 0.096877867774217252 0.33058525650857978 0 0.089544180242856528 0.31782795724637508 0 0.1004326694849827 0.31889892764789018 0 0.089544180242856528 0.31782795724637508 0 0.1021973816078494 0.30871092209096512 0 0.10668627298053129 0.32714240201028638 0 0.1061712292754603 0.33934589356559319 0 0.096877867774217252 0.33058525650857978 0 0.1061712292754603 0.33934589356559319 0 0.096877867774217252 0.33058525650857978 0 0.093516025515997414 0.34163569809186312 0 0.093516025515997414 0.34163569809186312 0 0.08035565020034037 0.33783442522309642 0 0.088593524397497903 0.34905899780179622 0 0.093516025515997414 0.34163569809186312 0 0.085949114386406705 0.331104779340545 0 0.08035565020034037 0.33783442522309642 0 0.096877867774217252 0.33058525650857978 0 0.093516025515997414 0.34163569809186312 0 0.085949114386406705 0.331104779340545 0 0.085949114386406705 0.331104779340545 0 0.08035565020034037 0.33783442522309642 0 0.07231410630303553 0.33372225279875728 0 0.085949114386406705 0.331104779340545 0 0.078991912474107792 0.31994178821270858 0 0.07231410630303553 0.33372225279875728 0 0.096877867774217252 0.33058525650857978 0 0.085949114386406705 0.331104779340545 0 0.089544180242856528 0.31782795724637508 0 0.085949114386406705 0.331104779340545 0 0.089544180242856528 0.31782795724637508 0 0.078991912474107792 0.31994178821270858 0 0.089544180242856528 0.31782795724637508 0 0.078991912474107792 0.31994178821270858 0 0.07835549809179071 0.30936759737677327 0 0.07231410630303553 0.33372225279875728 0 0.068011062190499183 0.30735076156674551 0 0.078991912474107792 0.31994178821270858 0 0.07231410630303553 0.33372225279875728 0 0.068011062190499183 0.30735076156674551 0 0.07231410630303553 0.33372225279875728 0 0.0553746910379289 0.32113956497626672 0 0.068011062190499183 0.30735076156674551 0 0.07231410630303553 0.33372225279875728 0 0.062714906162008616 0.34217314636719748 0 0.0553746910379289 0.32113956497626672 0 0.08035565020034037 0.33783442522309642 0 0.07231410630303553 0.33372225279875728 0 0.081189316113196783 0.34682783344498452 0 0.062714906162008616 0.34217314636719748 0 0.070055121286088332 0.36320672775812818 0 0.062567221349147203 0.35975377468517622 0 0.07231410630303553 0.33372225279875728 0 0.076617150415571877 0.36009374403076899 0 0.062714906162008616 0.34217314636719748 0 0.076617150415571877 0.36009374403076899 0 0.070055121286088332 0.36320672775812818 0 0.062714906162008616 0.34217314636719748 0 0.070055121286088332 0.36320672775812818 0 0.07231410630303553 0.33372225279875728 0 0.062714906162008616 0.34217314636719748 0 0.076617150415571877 0.36009374403076899 0 0.07231410630303553 0.33372225279875728 0 0.081189316113196783 0.34682783344498452 0 0.076617150415571877 0.36009374403076899 0 0.08035565020034037 0.33783442522309642 0 0.081189316113196783 0.34682783344498452 0 0.088593524397497903 0.34905899780179622 0 0.081189316113196783 0.34682783344498452 0 0.084869327179965856 0.35639913306786569 0 0.088593524397497903 0.34905899780179622 0 0.081189316113196783 0.34682783344498452 0 0.084869327179965856 0.35639913306786569 0 0.076617150415571877 0.36009374403076899 0 0.099448946948292052 0.35129971295651069 0 0.092615450545215944 0.35930163906108259 0 0.088593524397497903 0.34905899780179622 0 0.084869327179965856 0.35639913306786569 0 0.092615450545215944 0.35930163906108259 0 0.088593524397497903 0.34905899780179622 0 0.080920194528108225 0.38646523526278082 0 0.076617150415571877 0.36009374403076899 0 0.080920194528108225 0.38646523526278082 0 0.085165672466742573 0.36633566810531731 0 0.076617150415571877 0.36009374403076899 0 0.080920194528108225 0.38646523526278082 0 0.092850166915639923 0.37100513811108238 0 0.085165672466742573 0.36633566810531731 0 0.092615450545215944 0.35930163906108259 0 0.092850166915639923 0.37100513811108238 0 0.085165672466742573 0.36633566810531731 0 0.084869327179965856 0.35639913306786569 0 0.092615450545215944 0.35930163906108259 0 0.085165672466742573 0.36633566810531731 0 0.084869327179965856 0.35639913306786569 0 0.085165672466742573 0.36633566810531731 0 0.076617150415571877 0.36009374403076899 0 0.080920194528108225 0.38646523526278082 0 0.076617150415571877 0.36009374403076899 0 0.068803121197329162 0.36947598273629062 0 0.076617150415571877 0.36009374403076899 0 0.070055121286088332 0.36320672775812818 0 0.068803121197329162 0.36947598273629062 0 0.070055121286088332 0.36320672775812818 0 0.062567221349147203 0.35975377468517622 0 0.068803121197329162 0.36947598273629062 0 0.062567221349147203 0.35975377468517622 0 0.068803121197329162 0.36947598273629062 0 0.05835843977752745 0.36820377696738188 0 0.06430059982753196 0.3791326377135078 0 0.068803121197329162 0.36947598273629062 0 0.05835843977752745 0.36820377696738188 0 0.052484395042878329 0.37752982370530808 0 0.06430059982753196 0.3791326377135078 0 0.05835843977752745 0.36820377696738188 0 0.062567221349147203 0.35975377468517622 0 0.05835843977752745 0.36820377696738188 0 0.055449939982909993 0.35588804804502799 0 0.05835843977752745 0.36820377696738188 0 0.049033058710321507 0.36661053224480872 0 0.055449939982909993 0.35588804804502799 0 0.052484395042878329 0.37752982370530808 0 0.05835843977752745 0.36820377696738188 0 0.049033058710321507 0.36661053224480872 0 0.052484395042878329 0.37752982370530808 0 0.049033058710321507 0.36661053224480872 0 0.043987096155691068 0.37326810013556139 0 0.062714906162008616 0.34217314636719748 0 0.062567221349147203 0.35975377468517622 0 0.055449939982909993 0.35588804804502799 0 0.062714906162008616 0.34217314636719748 0 0.055449939982909993 0.35588804804502799 0 0.051571172517391857 0.34568844117578978 0 0.055449939982909993 0.35588804804502799 0 0.051571172517391857 0.34568844117578978 0 0.044730497875880119 0.3532976680339448 0 0.049033058710321507 0.36661053224480872 0 0.055449939982909993 0.35588804804502799 0 0.044730497875880119 0.3532976680339448 0 0.044730497875880119 0.3532976680339448 0 0.038952089964996051 0.36413098941356858 0 0.02853998983550567 0.35351467955004051 0 0.044730497875880119 0.3532976680339448 0 0.02853998983550567 0.35351467955004051 0 0.039915191372584008 0.34021933489219153 0 0.051571172517391857 0.34568844117578978 0 0.044730497875880119 0.3532976680339448 0 0.039915191372584008 0.34021933489219153 0 0.035918118198356587 0.37679040371782713 0 0.043987096155691068 0.37326810013556139 0 0.038952089964996051 0.36413098941356858 0 0.049033058710321507 0.36661053224480872 0 0.043987096155691068 0.37326810013556139 0 0.038952089964996051 0.36413098941356858 0 0.049033058710321507 0.36661053224480872 0 0.044730497875880119 0.3532976680339448 0 0.038952089964996051 0.36413098941356858 0 0.038952089964996051 0.36413098941356858 0 0.028420254264375042 0.36834400531876882 0 0.02853998983550567 0.35351467955004051 0 0.035918118198356587 0.37679040371782713 0 0.038952089964996051 0.36413098941356858 0 0.028420254264375042 0.36834400531876882 0 0.023374897433661359 0.38377422417001239 0 0.028420254264375042 0.36834400531876882 0 0.015316175889355519 0.36350972974239532 0 0.028420254264375042 0.36834400531876882 0 0.02853998983550567 0.35351467955004051 0 0.015316175889355519 0.36350972974239532 0 0.02853998983550567 0.35351467955004051 0 0.022689383087542599 0.33970973187949788 0 0.039915191372584008 0.34021933489219153 0 0.02853998983550567 0.35351467955004051 0 0.01211316254345729 0.34918974815322168 0 0.015316175889355519 0.36350972974239532 0 0.02853998983550567 0.35351467955004051 0 0.01211316254345729 0.34918974815322168 0 0.022689383087542599 0.33970973187949788 0 -0.003353034474883573 0.35101667105113399 0 0.01211316254345729 0.34918974815322168 0 0.015316175889355519 0.36350972974239532 0 -0.003353034474883573 0.35101667105113399 0 0.004340173904461269 0.37532524476536749 0 0.015316175889355519 0.36350972974239532 0 0.004340173904461269 0.37532524476536749 0 0.023374897433661359 0.38377422417001239 0 0.015316175889355519 0.36350972974239532 0 0.0050556740678513118 0.32913959941934551 0 0.022740013778092621 0.31517735778631012 0 0.0134643826105862 0.30726252778755708 0 0.0027817502058227121 0.31571106157761608 0 0.0050556740678513118 0.32913959941934551 0 0.0134643826105862 0.30726252778755708 0 0.0050556740678513118 0.32913959941934551 0 0.0134643826105862 0.30726252778755708 0 0.01211316254345729 0.34918974815322168 0 0.0050556740678513118 0.32913959941934551 0 0.022689383087542599 0.33970973187949788 0 -0.003353034474883573 0.35101667105113399 0 0.01211316254345729 0.34918974815322168 0 0.0050556740678513118 0.32913959941934551 0 -0.003353034474883573 0.35101667105113399 0 0.0050556740678513118 0.32913959941934551 0 0.022689383087542599 0.33970973187949788 0 0.02782289761831469 0.32648529738269078 0 0.039915191372584008 0.34021933489219153 0 0.0050556740678513118 0.32913959941934551 0 0.022689383087542599 0.33970973187949788 0 0.02782289761831469 0.32648529738269078 0 0.0050556740678513118 0.32913959941934551 0 0.02782289761831469 0.32648529738269078 0 0.022740013778092621 0.31517735778631012 0 0.02782289761831469 0.32648529738269078 0 0.022740013778092621 0.31517735778631012 0 0.035708474969673519 0.31289593786747788 0 0.035708474969673519 0.31289593786747788 0 0.041926348794794642 0.32714861858184929 0 0.0553746910379289 0.32113956497626672 0 0.02782289761831469 0.32648529738269078 0 0.035708474969673519 0.31289593786747788 0 0.041926348794794642 0.32714861858184929 0 0.02782289761831469 0.32648529738269078 0 0.041926348794794642 0.32714861858184929 0 0.039915191372584008 0.34021933489219153 0 0.041926348794794642 0.32714861858184929 0 0.039915191372584008 0.34021933489219153 0 0.050810488975472037 0.33500295779061962 0 0.062714906162008616 0.34217314636719748 0 0.050810488975472037 0.33500295779061962 0 0.0553746910379289 0.32113956497626672 0 0.062714906162008616 0.34217314636719748 0 0.0553746910379289 0.32113956497626672 0 0.051571172517391857 0.34568844117578978 0 0.039915191372584008 0.34021933489219153 0 0.050810488975472037 0.33500295779061962 0 0.062714906162008616 0.34217314636719748 0 0.051571172517391857 0.34568844117578978 0 0.050810488975472037 0.33500295779061962 0 0.041926348794794642 0.32714861858184929 0 0.050810488975472037 0.33500295779061962 0 0.0553746910379289 0.32113956497626672 0 0.048034475913848879 0.30010598358533608 0 0.073329377456643724 0.29727128403595532 0 0.0553746910379289 0.32113956497626672 0 0.048034475913848879 0.30010598358533608 0 0.0553746910379289 0.32113956497626672 0 0.048034475913848879 0.30010598358533608 0 0.068011062190499183 0.30735076156674551 0 0.048034475913848879 0.30010598358533608 0 0.057856309135681142 0.28463665954384848 0 0.073329377456643724 0.29727128403595532 0 0.048034475913848879 0.30010598358533608 0 0.057856309135681142 0.28463665954384848 0 0.042819229314837878 0.28516155594121673 0 0.048034475913848879 0.30010598358533608 0 0.042819229314837878 0.28516155594121673 0 0.032190272247397303 0.2930318050765412 0 0.048034475913848879 0.30010598358533608 0 0.042819229314837878 0.28516155594121673 0 0.042819229314837878 0.28516155594121673 0 0.032190272247397303 0.2930318050765412 0 0.029718620112660118 0.28363038720236811 0 0.042819229314837878 0.28516155594121673 0 0.029718620112660118 0.28363038720236811 0 0.033804386655137068 0.27636062595237743 0 0.035708474969673519 0.31289593786747788 0 0.048034475913848879 0.30010598358533608 0 0.020495919851050801 0.30319212062088952 0 0.048034475913848879 0.30010598358533608 0 0.020495919851050801 0.30319212062088952 0 0.035708474969673519 0.31289593786747788 0 0.0553746910379289 0.32113956497626672 0 0.048034475913848879 0.30010598358533608 0 0.048034475913848879 0.30010598358533608 0 0.032190272247397303 0.2930318050765412 0 0.020495919851050801 0.30319212062088952 0 0.022740013778092621 0.31517735778631012 0 0.035708474969673519 0.31289593786747788 0 0.020495919851050801 0.30319212062088952 0 0.022740013778092621 0.31517735778631012 0 0.020495919851050801 0.30319212062088952 0 0.0134643826105862 0.30726252778755708 0 0.020495919851050801 0.30319212062088952 0 0.020437749088471392 0.29190383236180117 0 0.0085398575381979199 0.29643002228602178 0 0.032190272247397303 0.2930318050765412 0 0.029718620112660118 0.28363038720236811 0 0.020437749088471392 0.29190383236180117 0 0.032190272247397303 0.2930318050765412 0 0.020495919851050801 0.30319212062088952 0 0.020437749088471392 0.29190383236180117 0 0.029718620112660118 0.28363038720236811 0 0.020437749088471392 0.29190383236180117 0 0.020609141881252221 0.28011518643373678 0 0.020437749088471392 0.29190383236180117 0 0.009339036332343259 0.28753891841412482 0 0.020609141881252221 0.28011518643373678 0 0.020437749088471392 0.29190383236180117 0 0.0085398575381979199 0.29643002228602178 0 0.009339036332343259 0.28753891841412482 0 0.009339036332343259 0.28753891841412482 0 0.0082258406708304622 0.27655853066215441 0 0.020609141881252221 0.28011518643373678 0 -0.0043755329488266211 0.28197219357938841 0 0.009339036332343259 0.28753891841412482 0 0.0082258406708304622 0.27655853066215441 0 -0.00053078136912822172 0.29323698237685231 0 -0.0043755329488266211 0.28197219357938841 0 0.009339036332343259 0.28753891841412482 0 -0.00053078136912822172 0.29323698237685231 0 0.0085398575381979199 0.29643002228602178 0 0.009339036332343259 0.28753891841412482 0 -0.0070426362117476243 0.30627825765644129 0 -0.00053078136912822172 0.29323698237685231 0 0.0085398575381979199 0.29643002228602178 0 -0.0070426362117476243 0.30627825765644129 0 0.020495919851050801 0.30319212062088952 0 0.0134643826105862 0.30726252778755708 0 -0.0070426362117476243 0.30627825765644129 0 0.020495919851050801 0.30319212062088952 0 -0.0070426362117476243 0.30627825765644129 0 0.0027817502058227121 0.31571106157761608 0 0.0134643826105862 0.30726252778755708 0 -0.0070426362117476243 0.30627825765644129 0 0.020495919851050801 0.30319212062088952 0 0.0085398575381979199 0.29643002228602178 0 0.009312599233707905 0.24404109572130439 0 0.013389461377836059 0.25243481734571738 0 0.0013968678610932379 0.25402272509214019 0 0.0091961128527961265 0.2632701857072689 0 0.013389461377836059 0.25243481734571738 0 0.0013968678610932379 0.25402272509214019 0 -0.0028270096312297622 0.27028594766949049 0 0.0091961128527961265 0.2632701857072689 0 0.0082258406708304622 0.27655853066215441 0 -0.0028270096312297622 0.27028594766949049 0 -0.0043755329488266211 0.28197219357938841 0 0.0082258406708304622 0.27655853066215441 0 0.0082258406708304622 0.27655853066215441 0 0.015410932395507679 0.27254801086809788 0 0.020609141881252221 0.28011518643373678 0 0.0091961128527961265 0.2632701857072689 0 0.0082258406708304622 0.27655853066215441 0 0.015410932395507679 0.27254801086809788 0 0.0091961128527961265 0.2632701857072689 0 0.015410932395507679 0.27254801086809788 0 0.023612634177151929 0.27024814066923147 0 0.0091961128527961265 0.2632701857072689 0 0.023612634177151929 0.27024814066923147 0 0.035387721514425562 0.26386195372005677 0 0.015410932395507679 0.27254801086809788 0 0.020609141881252221 0.28011518643373678 0 0.023612634177151929 0.27024814066923147 0 0.020609141881252221 0.28011518643373678 0 0.027969720175493259 0.276268771051489 0 0.023612634177151929 0.27024814066923147 0 0.029718620112660118 0.28363038720236811 0 0.020609141881252221 0.28011518643373678 0 0.027969720175493259 0.276268771051489 0 0.029718620112660118 0.28363038720236811 0 0.027969720175493259 0.276268771051489 0 0.033804386655137068 0.27636062595237743 0 0.027969720175493259 0.276268771051489 0 0.023612634177151929 0.27024814066923147 0 0.032103818051264991 0.2709895149997314 0 0.023612634177151929 0.27024814066923147 0 0.035387721514425562 0.26386195372005677 0 0.032103818051264991 0.2709895149997314 0 0.013389461377836059 0.25243481734571738 0 0.037788142842462319 0.26101833332846502 0 0.013389461377836059 0.25243481734571738 0 0.035387721514425562 0.26386195372005677 0 0.037788142842462319 0.26101833332846502 0 0.013389461377836059 0.25243481734571738 0 0.030532060240475941 0.25156469816248078 0 0.037788142842462319 0.26101833332846502 0 0.02276421990113224 0.24638130569216371 0 0.013389461377836059 0.25243481734571738 0 0.030532060240475941 0.25156469816248078 0 0.0091961128527961265 0.2632701857072689 0 0.035387721514425562 0.26386195372005677 0 0.0091961128527961265 0.2632701857072689 0 0.013389461377836059 0.25243481734571738 0 0.035387721514425562 0.26386195372005677 0 0.030532060240475941 0.25156469816248078 0 0.038568233832345943 0.25334849326819803 0 0.037788142842462319 0.26101833332846502 0 0.03655137256399639 0.24660990211337741 0 0.030532060240475941 0.25156469816248078 0 0.038568233832345943 0.25334849326819803 0 0.035387721514425562 0.26386195372005677 0 0.037788142842462319 0.26101833332846502 0 0.039489071040550737 0.27073113842246371 0 0.037788142842462319 0.26101833332846502 0 0.043269017456093427 0.25562876004231622 0 0.051974669880021758 0.25870858247353978 0 0.044745023269543688 0.24943963109906189 0 0.043269017456093427 0.25562876004231622 0 0.051974669880021758 0.25870858247353978 0 0.044745023269543688 0.24943963109906189 0 0.038568233832345943 0.25334849326819803 0 0.043269017456093427 0.25562876004231622 0 0.038568233832345943 0.25334849326819803 0 0.037788142842462319 0.26101833332846502 0 0.043269017456093427 0.25562876004231622 0 0.042819229314837878 0.28516155594121673 0 0.033804386655137068 0.27636062595237743 0 0.039489071040550737 0.27073113842246371 0 0.027969720175493259 0.276268771051489 0 0.033804386655137068 0.27636062595237743 0 0.032103818051264991 0.2709895149997314 0 0.033804386655137068 0.27636062595237743 0 0.032103818051264991 0.2709895149997314 0 0.039489071040550737 0.27073113842246371 0 0.035387721514425562 0.26386195372005677 0 0.032103818051264991 0.2709895149997314 0 0.039489071040550737 0.27073113842246371 0 0.037788142842462319 0.26101833332846502 0 0.039489071040550737 0.27073113842246371 0 0.04777197257136101 0.27278604744683349 0 0.042819229314837878 0.28516155594121673 0 0.039489071040550737 0.27073113842246371 0 0.04777197257136101 0.27278604744683349 0 0.037788142842462319 0.26101833332846502 0 0.04777197257136101 0.27278604744683349 0 0.062186824307088613 0.26960184931121273 0 0.057856309135681142 0.28463665954384848 0 0.042819229314837878 0.28516155594121673 0 0.04777197257136101 0.27278604744683349 0 0.057856309135681142 0.28463665954384848 0 0.04777197257136101 0.27278604744683349 0 0.062186824307088613 0.26960184931121273 0 0.037788142842462319 0.26101833332846502 0 0.062186824307088613 0.26960184931121273 0 0.05606680537807171 0.24357561070627001 0 0.051974669880021758 0.25870858247353978 0 0.068291763036194997 0.25330529894196557 0 0.062186824307088613 0.26960184931121273 0 0.051974669880021758 0.25870858247353978 0 0.068291763036194997 0.25330529894196557 0 0.037788142842462319 0.26101833332846502 0 0.062186824307088613 0.26960184931121273 0 0.051974669880021758 0.25870858247353978 0 0.05606680537807171 0.24357561070627001 0 0.044745023269543688 0.24943963109906189 0 0.051974669880021758 0.25870858247353978 0 0.062186824307088613 0.26960184931121273 0 0.068291763036194997 0.25330529894196557 0 0.085415694092067757 0.25758338042960732 0 0.085415694092067757 0.25758338042960732 0 0.086585505771714893 0.27818536529396032 0 0.10103780266583109 0.27012913035362052 0 0.062186824307088613 0.26960184931121273 0 0.086585505771714893 0.27818536529396032 0 0.072595118741502943 0.28390978009220702 0 0.062186824307088613 0.26960184931121273 0 0.086585505771714893 0.27818536529396032 0 0.062186824307088613 0.26960184931121273 0 0.085415694092067757 0.25758338042960732 0 0.086585505771714893 0.27818536529396032 0 0.057856309135681142 0.28463665954384848 0 0.062186824307088613 0.26960184931121273 0 0.072595118741502943 0.28390978009220702 0 0.057856309135681142 0.28463665954384848 0 0.072595118741502943 0.28390978009220702 0 0.073329377456643724 0.29727128403595532 0 0.072595118741502943 0.28390978009220702 0 0.073329377456643724 0.29727128403595532 0 0.082783570242324994 0.28845075347717392 0 0.048034475913848879 0.30010598358533608 0 0.068011062190499183 0.30735076156674551 0 0.073329377456643724 0.29727128403595532 0 0.068011062190499183 0.30735076156674551 0 0.073329377456643724 0.29727128403595532 0 0.07835549809179071 0.30936759737677327 0 0.078991912474107792 0.31994178821270858 0 0.068011062190499183 0.30735076156674551 0 0.07835549809179071 0.30936759737677327 0 0.073329377456643724 0.29727128403595532 0 0.088410143279715761 0.30552286904732839 0 0.098624278999438389 0.29443658448657289 0 0.089544180242856528 0.31782795724637508 0 0.07835549809179071 0.30936759737677327 0 0.088410143279715761 0.30552286904732839 0 0.073329377456643724 0.29727128403595532 0 0.07835549809179071 0.30936759737677327 0 0.088410143279715761 0.30552286904732839 0 0.089544180242856528 0.31782795724637508 0 0.088410143279715761 0.30552286904732839 0 0.1021973816078494 0.30871092209096512 0 0.073329377456643724 0.29727128403595532 0 0.098624278999438389 0.29443658448657289 0 0.086585505771714893 0.27818536529396032 0 0.082783570242324994 0.28845075347717392 0 0.098624278999438389 0.29443658448657289 0 0.073329377456643724 0.29727128403595532 0 0.082783570242324994 0.28845075347717392 0 0.098624278999438389 0.29443658448657289 0 0.086585505771714893 0.27818536529396032 0 0.072595118741502943 0.28390978009220702 0 0.082783570242324994 0.28845075347717392 0 0.086585505771714893 0.27818536529396032 0 0.11098418723634119 0.28676888127670802 0 0.086585505771714893 0.27818536529396032 0 0.098624278999438389 0.29443658448657289 0 0.11098418723634119 0.28676888127670802 0 0.098624278999438389 0.29443658448657289 0 0.108936911682014 0.29943953421276792 0 0.11098418723634119 0.28676888127670802 0 0.088410143279715761 0.30552286904732839 0 0.098624278999438389 0.29443658448657289 0 0.1021973816078494 0.30871092209096512 0 0.098624278999438389 0.29443658448657289 0 0.108936911682014 0.29943953421276792 0 0.1021973816078494 0.30871092209096512 0 0.1160065679323484 0.31379325908782679 0 0.108936911682014 0.29943953421276792 0 0.1021973816078494 0.30871092209096512 0 0.1160065679323484 0.31379325908782679 0 0.108936911682014 0.29943953421276792 0 0.1202380412649306 0.30014446082461371 0 0.1160065679323484 0.31379325908782679 0 0.1202380412649306 0.30014446082461371 0 0.13105151069117951 0.30602701441798208 0 0.1202380412649306 0.30014446082461371 0 0.11098418723634119 0.28676888127670802 0 0.1353828687009675 0.29535239725945561 0 0.11098418723634119 0.28676888127670802 0 0.1353828687009675 0.29535239725945561 0 0.11098418723634119 0.28676888127670802 0 0.12557397759394731 0.2809338209176937 0 0.1353828687009675 0.29535239725945561 0 0.108936911682014 0.29943953421276792 0 0.1202380412649306 0.30014446082461371 0 0.11098418723634119 0.28676888127670802 0 0.1146123413007263 0.27109361487978728 0 0.13005454618069401 0.26980034540649672 0 0.12557397759394731 0.2809338209176937 0 0.11098418723634119 0.28676888127670802 0 0.1146123413007263 0.27109361487978728 0 0.12557397759394731 0.2809338209176937 0 0.1146123413007263 0.27109361487978728 0 0.12343781925255951 0.2597904129548132 0 0.13005454618069401 0.26980034540649672 0 0.1146123413007263 0.27109361487978728 0 0.12343781925255951 0.2597904129548132 0 0.1075912849283055 0.25701440988803942 0 0.1205808241545786 0.24661975241566669 0 0.12343781925255951 0.2597904129548132 0 0.1075912849283055 0.25701440988803942 0 0.085415694092067757 0.25758338042960732 0 0.1075912849283055 0.25701440988803942 0 0.10103780266583109 0.27012913035362052 0 0.1029152892405529 0.23835334100434241 0 0.085415694092067757 0.25758338042960732 0 0.1075912849283055 0.25701440988803942 0 0.11098418723634119 0.28676888127670802 0 0.1146123413007263 0.27109361487978728 0 0.10103780266583109 0.27012913035362052 0 0.086585505771714893 0.27818536529396032 0 0.11098418723634119 0.28676888127670802 0 0.10103780266583109 0.27012913035362052 0 0.1146123413007263 0.27109361487978728 0 0.1075912849283055 0.25701440988803942 0 0.10103780266583109 0.27012913035362052 0 0.1505727630334667 0.26882422237984888 0 0.13683594455100739 0.28165386576602081 0 0.14854958083370809 0.28555456353699421 0 0.14941813094186671 0.24467380843777731 0 0.1505727630334667 0.26882422237984888 0 0.13554901525109189 0.2541709038296896 0 0.14941813094186671 0.24467380843777731 0 0.1505727630334667 0.26882422237984888 0 0.1645791295241763 0.25255829741004221 0 0.12343781925255951 0.2597904129548132 0 0.13554901525109189 0.2541709038296896 0 0.13005454618069401 0.26980034540649672 0 0.1505727630334667 0.26882422237984888 0 0.13554901525109189 0.2541709038296896 0 0.13005454618069401 0.26980034540649672 0 0.1205808241545786 0.24661975241566669 0 0.12343781925255951 0.2597904129548132 0 0.13554901525109189 0.2541709038296896 0 0.1505727630334667 0.26882422237984888 0 0.13005454618069401 0.26980034540649672 0 0.13683594455100739 0.28165386576602081 0 0.13005454618069401 0.26980034540649672 0 0.12557397759394731 0.2809338209176937 0 0.13683594455100739 0.28165386576602081 0 0.12557397759394731 0.2809338209176937 0 0.1353828687009675 0.29535239725945561 0 0.13683594455100739 0.28165386576602081 0 0.1353828687009675 0.29535239725945561 0 0.13683594455100739 0.28165386576602081 0 0.14854958083370809 0.28555456353699421 0 0.1353828687009675 0.29535239725945561 0 0.13105151069117951 0.30602701441798208 0 0.1486927487918954 0.30196612522304972 0 0.1202380412649306 0.30014446082461371 0 0.1353828687009675 0.29535239725945561 0 0.13105151069117951 0.30602701441798208 0 0.13105151069117951 0.30602701441798208 0 0.1486927487918954 0.30196612522304972 0 0.14497846140960691 0.31399362939551451 0 0.1486927487918954 0.30196612522304972 0 0.15772751530687651 0.31709970727918813 0 0.14497846140960691 0.31399362939551451 0 0.1353828687009675 0.29535239725945561 0 0.1486927487918954 0.30196612522304972 0 0.14854958083370809 0.28555456353699421 0 0.1486927487918954 0.30196612522304972 0 0.14854958083370809 0.28555456353699421 0 0.17203832099426131 0.28609184575532609 0 0.1486927487918954 0.30196612522304972 0 0.17203832099426131 0.28609184575532609 0 0.1486927487918954 0.30196612522304972 0 0.16717265092239239 0.30611485630411539 0 0.15772751530687651 0.31709970727918813 0 0.1486927487918954 0.30196612522304972 0 0.16717265092239239 0.30611485630411539 0 0.17203832099426131 0.28609184575532609 0 0.16717265092239239 0.30611485630411539 0 0.18295654400844691 0.3027425344733754 0 0.174448125510482 0.32267406878963778 0 0.16717265092239239 0.30611485630411539 0 0.18295654400844691 0.3027425344733754 0 0.17203832099426131 0.28609184575532609 0 0.18295654400844691 0.3027425344733754 0 0.17203832099426131 0.28609184575532609 0 0.18953798715903331 0.2867240303498883 0 0.17203832099426131 0.28609184575532609 0 0.17544452670183669 0.26599742670443011 0 0.19538389319662799 0.27021756628760379 0 0.17203832099426131 0.28609184575532609 0 0.19538389319662799 0.27021756628760379 0 0.18953798715903331 0.2867240303498883 0 0.17203832099426131 0.28609184575532609 0 0.19538389319662799 0.27021756628760379 0 0.1505727630334667 0.26882422237984888 0 0.14854958083370809 0.28555456353699421 0 0.17203832099426131 0.28609184575532609 0 0.1505727630334667 0.26882422237984888 0 0.17203832099426131 0.28609184575532609 0 0.17544452670183669 0.26599742670443011 0 0.1505727630334667 0.26882422237984888 0 0.17544452670183669 0.26599742670443011 0 0.1645791295241763 0.25255829741004221 0 0.18550809091682491 0.24827420494296279 0 0.17544452670183669 0.26599742670443011 0 0.19538389319662799 0.27021756628760379 0 0.18550809091682491 0.24827420494296279 0 0.17544452670183669 0.26599742670443011 0 0.1645791295241763 0.25255829741004221 0 0.18550809091682491 0.24827420494296279 0 0.19538389319662799 0.27021756628760379 0 0.18550809091682491 0.24827420494296279 0 0.19538389319662799 0.27021756628760379 0 0.21839258869488601 0.25457235273870971 0 0.2131271123110007 0.28109553153265682 0 0.20510077359108569 0.26522153081136629 0 0.23298377630904571 0.27542484427162728 0 0.19538389319662799 0.27021756628760379 0 0.2131271123110007 0.28109553153265682 0 0.20510077359108569 0.26522153081136629 0 0.19538389319662799 0.27021756628760379 0 0.20510077359108569 0.26522153081136629 0 0.21839258869488601 0.25457235273870971 0 0.19538389319662799 0.27021756628760379 0 0.21839258869488601 0.25457235273870971 0 0.21839258869488601 0.25457235273870971 0 0.23298377630904571 0.27542484427162728 0 0.24142358919607121 0.25808606837721387 0 0.20510077359108569 0.26522153081136629 0 0.21839258869488601 0.25457235273870971 0 0.23298377630904571 0.27542484427162728 0 0.24140128419315809 0.23892713918983621 0 0.21839258869488601 0.25457235273870971 0 0.24142358919607121 0.25808606837721387 0 0.20510077359108569 0.26522153081136629 0 0.23298377630904571 0.27542484427162728 0 0.23298377630904571 0.27542484427162728 0 0.26086677902700561 0.28562815773188821 0 0.25353115032000612 0.26837113287090469 0 0.23298377630904571 0.27542484427162728 0 0.24142358919607121 0.25808606837721387 0 0.25353115032000612 0.26837113287090469 0 0.23298377630904571 0.27542484427162728 0 0.26086677902700561 0.28562815773188821 0 0.24405904503509121 0.29841073786922728 0 0.2263973640658074 0.30131947242108681 0 0.2416292303626397 0.31699761252133579 0 0.24405904503509121 0.29841073786922728 0 0.2416292303626397 0.31699761252133579 0 0.25841807541095752 0.31268360240019838 0 0.23298377630904571 0.27542484427162728 0 0.24405904503509121 0.29841073786922728 0 0.2263973640658074 0.30131947242108681 0 0.23298377630904571 0.27542484427162728 0 0.24405904503509121 0.29841073786922728 0 0.26086677902700561 0.28562815773188821 0 0.2131271123110007 0.28109553153265682 0 0.23298377630904571 0.27542484427162728 0 0.2263973640658074 0.30131947242108681 0 0.2263973640658074 0.30131947242108681 0 0.20576975439242901 0.29329424387160341 0 0.21615561558822249 0.3163709214556063 0 0.20576975439242901 0.29329424387160341 0 0.1952780154296026 0.3193646474447025 0 0.21615561558822249 0.3163709214556063 0 0.20576975439242901 0.29329424387160341 0 0.21615561558822249 0.3163709214556063 0 0.2131271123110007 0.28109553153265682 0 0.2263973640658074 0.30131947242108681 0 0.20576975439242901 0.29329424387160341 0 0.19538389319662799 0.27021756628760379 0 0.2131271123110007 0.28109553153265682 0 0.20576975439242901 0.29329424387160341 0 0.18295654400844691 0.3027425344733754 0 0.20576975439242901 0.29329424387160341 0 0.18953798715903331 0.2867240303498883 0 0.19538389319662799 0.27021756628760379 0 0.20576975439242901 0.29329424387160341 0 0.18953798715903331 0.2867240303498883 0 0.19538389319662799 0.27021756628760379 0 0.20576975439242901 0.29329424387160341 0 0.18295654400844691 0.3027425344733754 0 0.20576975439242901 0.29329424387160341 0 0.1952780154296026 0.3193646474447025 0 0.1952780154296026 0.3193646474447025 0 0.19746726829410521 0.33025876631807177 0 0.18694913192248491 0.33414927597589322 0 0.1952780154296026 0.3193646474447025 0 0.19746726829410521 0.33025876631807177 0 0.20541830329350441 0.32814124000019462 0 0.20324136328216491 0.33889466727725992 0 0.18017331271915449 0.35522219604911293 0 0.18694913192248491 0.33414927597589322 0 0.19746726829410521 0.33025876631807177 0 0.20324136328216491 0.33889466727725992 0 0.18694913192248491 0.33414927597589322 0 0.19746726829410521 0.33025876631807177 0 0.20324136328216491 0.33889466727725992 0 0.20541830329350441 0.32814124000019462 0 0.20324136328216491 0.33889466727725992 0 0.21558534184301201 0.33551392589643381 0 0.21183214904226241 0.34603596056963221 0 0.20324136328216491 0.33889466727725992 0 0.20541830329350441 0.32814124000019462 0 0.21558534184301201 0.33551392589643381 0 0.1952780154296026 0.3193646474447025 0 0.20541830329350441 0.32814124000019462 0 0.21615561558822249 0.3163709214556063 0 0.20541830329350441 0.32814124000019462 0 0.21558534184301201 0.33551392589643381 0 0.21615561558822249 0.3163709214556063 0 0.21615561558822249 0.3163709214556063 0 0.22654147678401609 0.33944759903960919 0 0.21615561558822249 0.3163709214556063 0 0.229888930618388 0.32136777667412131 0 0.22654147678401609 0.33944759903960919 0 0.2263973640658074 0.30131947242108681 0 0.229888930618388 0.32136777667412131 0 0.2416292303626397 0.31699761252133579 0 0.2263973640658074 0.30131947242108681 0 0.21615561558822249 0.3163709214556063 0 0.229888930618388 0.32136777667412131 0 0.21558534184301201 0.33551392589643381 0 0.22654147678401609 0.33944759903960919 0 0.22472862567523449 0.35513914061482821 0 0.229888930618388 0.32136777667412131 0 0.22654147678401609 0.33944759903960919 0 0.23872096629125411 0.33270327793296828 0 0.21558534184301201 0.33551392589643381 0 0.21615561558822249 0.3163709214556063 0 0.22654147678401609 0.33944759903960919 0 0.22654147678401609 0.33944759903960919 0 0.23872096629125411 0.33270327793296828 0 0.2370905778847307 0.34304832858591322 0 0.23872096629125411 0.33270327793296828 0 0.2370905778847307 0.34304832858591322 0 0.24326591777100909 0.34576404307860092 0 0.23872096629125411 0.33270327793296828 0 0.24326591777100909 0.34576404307860092 0 0.25419885645550211 0.33858598021416342 0 0.23872096629125411 0.33270327793296828 0 0.25182475824432737 0.32576052868738448 0 0.25419885645550211 0.33858598021416342 0 0.229888930618388 0.32136777667412131 0 0.23872096629125411 0.33270327793296828 0 0.2416292303626397 0.31699761252133579 0 0.23872096629125411 0.33270327793296828 0 0.2416292303626397 0.31699761252133579 0 0.25182475824432737 0.32576052868738448 0 0.23692733797980969 0.3625242766236122 0 0.2482470132318087 0.37185134434554379 0 0.23387190950745701 0.3747643553332225 0 0.23692733797980969 0.3625242766236122 0 0.2482470132318087 0.37185134434554379 0 0.2482561328248489 0.35658198081574849 0 0.2482561328248489 0.35658198081574849 0 0.24326591777100909 0.34576404307860092 0 0.2388213349471002 0.35084614524691887 0 0.24326591777100909 0.34576404307860092 0 0.25164428255554228 0.34700345054066112 0 0.25419885645550211 0.33858598021416342 0 0.2482561328248489 0.35658198081574849 0 0.24326591777100909 0.34576404307860092 0 0.25164428255554228 0.34700345054066112 0 0.2370905778847307 0.34304832858591322 0 0.24326591777100909 0.34576404307860092 0 0.2388213349471002 0.35084614524691887 0 0.23692733797980969 0.3625242766236122 0 0.2482561328248489 0.35658198081574849 0 0.2388213349471002 0.35084614524691887 0 0.22654147678401609 0.33944759903960919 0 0.23692733797980969 0.3625242766236122 0 0.22654147678401609 0.33944759903960919 0 0.23692733797980969 0.3625242766236122 0 0.2388213349471002 0.35084614524691887 0 0.21558534184301201 0.33551392589643381 0 0.22472862567523449 0.35513914061482821 0 0.22654147678401609 0.33944759903960919 0 0.23692733797980969 0.3625242766236122 0 0.22472862567523449 0.35513914061482821 0 0.22654147678401609 0.33944759903960919 0 0.2370905778847307 0.34304832858591322 0 0.2388213349471002 0.35084614524691887 0 0.22472862567523449 0.35513914061482821 0 0.23387190950745701 0.3747643553332225 0 0.21965270063378639 0.36853145408395788 0 0.22472862567523449 0.35513914061482821 0 0.23387190950745701 0.3747643553332225 0 0.23692733797980969 0.3625242766236122 0 0.22472862567523449 0.35513914061482821 0 0.23387190950745701 0.3747643553332225 0 0.23387190950745701 0.3747643553332225 0 0.21965270063378639 0.36853145408395788 0 0.22215246186082571 0.3777774423746903 0 0.22472862567523449 0.35513914061482821 0 0.21965270063378639 0.36853145408395788 0 0.20708236865272731 0.35614730351282059 0 0.21965270063378639 0.36853145408395788 0 0.2092406318484332 0.37726399144374478 0 0.22215246186082571 0.3777774423746903 0 0.20708236865272731 0.35614730351282059 0 0.19561082712762309 0.36716575011448771 0 0.2092406318484332 0.37726399144374478 0 0.21965270063378639 0.36853145408395788 0 0.20708236865272731 0.35614730351282059 0 0.2092406318484332 0.37726399144374478 0 0.21558534184301201 0.33551392589643381 0 0.22472862567523449 0.35513914061482821 0 0.21183214904226241 0.34603596056963221 0 0.22472862567523449 0.35513914061482821 0 0.20708236865272731 0.35614730351282059 0 0.21183214904226241 0.34603596056963221 0 0.20324136328216491 0.33889466727725992 0 0.20708236865272731 0.35614730351282059 0 0.21183214904226241 0.34603596056963221 0 0.20324136328216491 0.33889466727725992 0 0.20708236865272731 0.35614730351282059 0 0.18017331271915449 0.35522219604911293 0 0.20324136328216491 0.33889466727725992 0 0.18017331271915449 0.35522219604911293 0 0.20708236865272731 0.35614730351282059 0 0.19561082712762309 0.36716575011448771 0 0.18017331271915449 0.35522219604911293 0 0.19561082712762309 0.36716575011448771 0 0.18594699529017761 0.38002950945227232 0 0.2092406318484332 0.37726399144374478 0 0.15710526215614401 0.37154972482096582 0 0.18017331271915449 0.35522219604911293 0 0.18594699529017761 0.38002950945227232 0 0.19561082712762309 0.36716575011448771 0 0.18017331271915449 0.35522219604911293 0 0.18594699529017761 0.38002950945227232 0 0.15710526215614401 0.37154972482096582 0 0.18017331271915449 0.35522219604911293 0 0.15710526215614401 0.37154972482096582 0 0.18017331271915449 0.35522219604911293 0 0.1647971084504056 0.3411492656255673 0 0.18694913192248491 0.33414927597589322 0 0.174448125510482 0.32267406878963778 0 0.1647971084504056 0.3411492656255673 0 0.18017331271915449 0.35522219604911293 0 0.18694913192248491 0.33414927597589322 0 0.1647971084504056 0.3411492656255673 0 0.18295654400844691 0.3027425344733754 0 0.1952780154296026 0.3193646474447025 0 0.174448125510482 0.32267406878963778 0 0.1952780154296026 0.3193646474447025 0 0.18694913192248491 0.33414927597589322 0 0.174448125510482 0.32267406878963778 0 0.16717265092239239 0.30611485630411539 0 0.174448125510482 0.32267406878963778 0 0.15772751530687651 0.31709970727918813 0 0.174448125510482 0.32267406878963778 0 0.16170174810580709 0.32801195385816673 0 0.15772751530687651 0.31709970727918813 0 0.174448125510482 0.32267406878963778 0 0.16170174810580709 0.32801195385816673 0 0.1647971084504056 0.3411492656255673 0 0.16170174810580709 0.32801195385816673 0 0.1647971084504056 0.3411492656255673 0 0.14744048036426999 0.33025507283982453 0 0.14744048036426999 0.33025507283982453 0 0.13301313875331891 0.34503603543703698 0 0.14675616471797029 0.35066701238274223 0 0.1647971084504056 0.3411492656255673 0 0.14744048036426999 0.33025507283982453 0 0.14675616471797029 0.35066701238274223 0 0.15772751530687651 0.31709970727918813 0 0.14744048036426999 0.33025507283982453 0 0.14497846140960691 0.31399362939551451 0 0.14744048036426999 0.33025507283982453 0 0.14497846140960691 0.31399362939551451 0 0.13327250895134671 0.31780571094325127 0 0.16170174810580709 0.32801195385816673 0 0.15772751530687651 0.31709970727918813 0 0.14744048036426999 0.33025507283982453 0 0.14744048036426999 0.33025507283982453 0 0.13327250895134671 0.31780571094325127 0 0.13095279113552891 0.3310564366932307 0 0.1160065679323484 0.31379325908782679 0 0.13105151069117951 0.30602701441798208 0 0.13327250895134671 0.31780571094325127 0 0.13105151069117951 0.30602701441798208 0 0.14497846140960691 0.31399362939551451 0 0.13327250895134671 0.31780571094325127 0 0.11853786748341399 0.32797800483923822 0 0.13327250895134671 0.31780571094325127 0 0.13095279113552891 0.3310564366932307 0 0.14744048036426999 0.33025507283982453 0 0.13095279113552891 0.3310564366932307 0 0.13301313875331891 0.34503603543703698 0 0.11968572573704819 0.34082259920106911 0 0.13095279113552891 0.3310564366932307 0 0.13301313875331891 0.34503603543703698 0 0.13301313875331891 0.34503603543703698 0 0.13129409324760349 0.36487940318973833 0 0.14675616471797029 0.35066701238274223 0 0.1206757332302552 0.35310459368013009 0 0.13301313875331891 0.34503603543703698 0 0.13129409324760349 0.36487940318973833 0 0.15710526215614401 0.37154972482096582 0 0.13129409324760349 0.36487940318973833 0 0.1340372115931335 0.38787725359281888 0 0.15710526215614401 0.37154972482096582 0 0.13129409324760349 0.36487940318973833 0 0.14675616471797029 0.35066701238274223 0 0.15710526215614401 0.37154972482096582 0 0.1647971084504056 0.3411492656255673 0 0.14675616471797029 0.35066701238274223 0 0.1340372115931335 0.38787725359281888 0 0.13313107468670221 0.40865402693005098 0 0.15663268026934421 0.39561257671438982 0 0.15710526215614401 0.37154972482096582 0 0.1340372115931335 0.38787725359281888 0 0.15710526215614401 0.37154972482096582 0 0.1340372115931335 0.38787725359281888 0 0.15663268026934421 0.39561257671438982 0 0.11686128871008319 0.38085285868847701 0 0.13129409324760349 0.36487940318973833 0 0.1340372115931335 0.38787725359281888 0 0.1109691610301229 0.40420478236467189 0 0.1340372115931335 0.38787725359281888 0 0.13313107468670221 0.40865402693005098 0 0.13313107468670221 0.40865402693005098 0 0.12637243707708509 0.42832167071525762 0 0.15124047917122041 0.41887874519590218 0 0.12637243707708509 0.42832167071525762 0 0.15124047917122041 0.41887874519590218 0 0.13947782664218689 0.44565412562262252 0 0.12637243707708509 0.42832167071525762 0 0.15124047917122041 0.41887874519590218 0 0.15124047917122041 0.41887874519590218 0 0.16171350023688111 0.43754920490161803 0 0.13947782664218689 0.44565412562262252 0 0.13313107468670221 0.40865402693005098 0 0.15124047917122041 0.41887874519590218 0 0.15663268026934421 0.39561257671438982 0 0.17610852126535559 0.4094358196765468 0 0.18298173459538139 0.44100411494292502 0 0.16171350023688111 0.43754920490161803 0 0.15124047917122041 0.41887874519590218 0 0.17610852126535559 0.4094358196765468 0 0.15663268026934421 0.39561257671438982 0 0.17610852126535559 0.4094358196765468 0 0.20299288751014929 0.42546593331249061 0 0.18298173459538139 0.44100411494292502 0 0.15124047917122041 0.41887874519590218 0 0.17610852126535559 0.4094358196765468 0 0.15124047917122041 0.41887874519590218 0 0.17610852126535559 0.4094358196765468 0 0.16171350023688111 0.43754920490161803 0 0.17610852126535559 0.4094358196765468 0 0.15663268026934421 0.39561257671438982 0 0.18594699529017761 0.38002950945227232 0 0.15710526215614401 0.37154972482096582 0 0.15663268026934421 0.39561257671438982 0 0.18594699529017761 0.38002950945227232 0 0.18594699529017761 0.38002950945227232 0 0.2009765633594908 0.39999289415719141 0 0.2092406318484332 0.37726399144374478 0 0.17610852126535559 0.4094358196765468 0 0.2009765633594908 0.39999289415719141 0 0.17610852126535559 0.4094358196765468 0 0.18594699529017761 0.38002950945227232 0 0.2009765633594908 0.39999289415719141 0 0.2009765633594908 0.39999289415719141 0 0.22584460545362611 0.39054996863783598 0 0.2009765633594908 0.39999289415719141 0 0.22584460545362611 0.39054996863783598 0 0.22300404042491709 0.40992775168205609 0 0.2009765633594908 0.39999289415719141 0 0.2092406318484332 0.37726399144374478 0 0.22584460545362611 0.39054996863783598 0 0.23387190950745701 0.3747643553332225 0 0.22215246186082571 0.3777774423746903 0 0.22584460545362611 0.39054996863783598 0 0.2092406318484332 0.37726399144374478 0 0.22215246186082571 0.3777774423746903 0 0.22584460545362611 0.39054996863783598 0 0.23387190950745701 0.3747643553332225 0 0.22584460545362611 0.39054996863783598 0 0.24301519333968091 0.39438957005161618 0 0.22584460545362611 0.39054996863783598 0 0.24301519333968091 0.39438957005161618 0 0.22300404042491709 0.40992775168205609 0 0.24301519333968091 0.39438957005161618 0 0.22300404042491709 0.40992775168205609 0 0.24301519333968091 0.39438957005161618 0 0.25264943008263391 0.41506856987244672 0 0.24301519333968091 0.39438957005161618 0 0.23893549619817811 0.41057321440238032 0 0.22300404042491709 0.40992775168205609 0 0.23387190950745701 0.3747643553332225 0 0.24301519333968091 0.39438957005161618 0 0.2482470132318087 0.37185134434554379 0 0.23387190950745701 0.3747643553332225 0 0.24301519333968091 0.39438957005161618 0 0.2370733209454807 0.42290696600340211 0 0.23325979991323309 0.44156550593014648 0 0.26228366682558829 0.43574756969327649 0 0.2370733209454807 0.42290696600340211 0 0.23893549619817811 0.41057321440238032 0 0.25264943008263391 0.41506856987244672 0 0.24301519333968091 0.39438957005161618 0 0.23893549619817811 0.41057321440238032 0 0.25264943008263391 0.41506856987244672 0 0.2370733209454807 0.42290696600340211 0 0.23893549619817811 0.41057321440238032 0 0.22300404042491709 0.40992775168205609 0 0.2370733209454807 0.42290696600340211 0 0.22300404042491709 0.40992775168205609 0 0.22064444272656189 0.42911060091509112 0 0.2370733209454807 0.42290696600340211 0 0.22064444272656189 0.42911060091509112 0 0.23325979991323309 0.44156550593014648 0 0.22064444272656189 0.42911060091509112 0 0.20299288751014929 0.42546593331249061 0 0.20888363040968511 0.45138506425137898 0 0.22300404042491709 0.40992775168205609 0 0.22064444272656189 0.42911060091509112 0 0.20299288751014929 0.42546593331249061 0 0.22300404042491709 0.40992775168205609 0 0.20299288751014929 0.42546593331249061 0 0.2009765633594908 0.39999289415719141 0 0.22300404042491709 0.40992775168205609 0 0.20299288751014929 0.42546593331249061 0 0.17610852126535559 0.4094358196765468 0 0.2009765633594908 0.39999289415719141 0 0.20299288751014929 0.42546593331249061 0 0.20299288751014929 0.42546593331249061 0 0.18298173459538139 0.44100411494292502 0 0.20299288751014929 0.42546593331249061 0 0.20888363040968511 0.45138506425137898 0 0.18298173459538139 0.44100411494292502 0 0.20888363040968511 0.45138506425137898 0 0.1867450842524892 0.46155570800788409 0 0.18298173459538139 0.44100411494292502 0 0.20888363040968511 0.45138506425137898 0 0.19517148689675351 0.47810825339448398 0 0.1867450842524892 0.46155570800788409 0 0.20888363040968511 0.45138506425137898 0 0.22128343018348309 0.47507870999702051 0 0.19517148689675351 0.47810825339448398 0 0.20888363040968511 0.45138506425137898 0 0.23325979991323309 0.44156550593014648 0 0.23138503815418221 0.4597113486619786 0 0.22064444272656189 0.42911060091509112 0 0.20888363040968511 0.45138506425137898 0 0.23325979991323309 0.44156550593014648 0 0.20888363040968511 0.45138506425137898 0 0.23138503815418221 0.4597113486619786 0 0.22128343018348309 0.47507870999702051 0 0.23138503815418221 0.4597113486619786 0 0.24283357568523611 0.47462858947463488 0 0.25106567462320878 0.45666187649755641 0 0.23325979991323309 0.44156550593014648 0 0.25106567462320878 0.45666187649755641 0 0.26228366682558829 0.43574756969327649 0 0.23325979991323309 0.44156550593014648 0 0.23138503815418221 0.4597113486619786 0 0.25106567462320878 0.45666187649755641 0 0.2331807224224875 0.5 0 0.25438062262181849 0.48709091025474449 0 0.26013214748745461 0.50000000000000178 0 0.24283357568523611 0.47462858947463488 0 0.2331807224224875 0.5 0 0.25438062262181849 0.48709091025474449 0 0.23138503815418221 0.4597113486619786 0 0.24283357568523611 0.47462858947463488 0 0.22128343018348309 0.47507870999702051 0 0.24283357568523611 0.47462858947463488 0 0.22128343018348309 0.47507870999702051 0 0.2331807224224875 0.5 0 0.22128343018348309 0.47507870999702051 0 0.2331807224224875 0.5 0 0.20622929735752041 0.5 0 0.22128343018348309 0.47507870999702051 0 0.20622929735752041 0.5 0 0.19517148689675351 0.47810825339448398 0 0.22128343018348309 0.47507870999702051 0 0.19517148689675351 0.47810825339448398 0 0.20622929735752041 0.5 0 0.19517148689675351 0.47810825339448398 0 0.17927787229255329 0.5 0 0.19517148689675351 0.47810825339448398 0 0.17927787229255329 0.5 0 0.16905954361002379 0.48113779679194751 0 0.17927787229255329 0.5 0 0.16905954361002379 0.48113779679194751 0 0.15232644722758609 0.5 0 0.16905954361002379 0.48113779679194751 0 0.16996709046264041 0.45831063257558791 0 0.15536975250481769 0.46868472706387548 0 0.19517148689675351 0.47810825339448398 0 0.16905954361002379 0.48113779679194751 0 0.19517148689675351 0.47810825339448398 0 0.16905954361002379 0.48113779679194751 0 0.1867450842524892 0.46155570800788409 0 0.1867450842524892 0.46155570800788409 0 0.18298173459538139 0.44100411494292502 0 0.16996709046264041 0.45831063257558791 0 0.16905954361002379 0.48113779679194751 0 0.1867450842524892 0.46155570800788409 0 0.16996709046264041 0.45831063257558791 0 0.16171350023688111 0.43754920490161803 0 0.16996709046264041 0.45831063257558791 0 0.15317206460667299 0.45471397767778787 0 0.18298173459538139 0.44100411494292502 0 0.16171350023688111 0.43754920490161803 0 0.16996709046264041 0.45831063257558791 0 0.16996709046264041 0.45831063257558791 0 0.15536975250481769 0.46868472706387548 0 0.15317206460667299 0.45471397767778787 0 0.15536975250481769 0.46868472706387548 0 0.15317206460667299 0.45471397767778787 0 0.14170246352145721 0.46509388808464358 0 0.15317206460667299 0.45471397767778787 0 0.14170246352145721 0.46509388808464358 0 0.13947782664218689 0.44565412562262252 0 0.16171350023688111 0.43754920490161803 0 0.15317206460667299 0.45471397767778787 0 0.13947782664218689 0.44565412562262252 0 0.1194139762985746 0.44746307811691582 0 0.12637243707708509 0.42832167071525762 0 0.13947782664218689 0.44565412562262252 0 0.12272986558341679 0.46755831466623321 0 0.1194139762985746 0.44746307811691582 0 0.13947782664218689 0.44565412562262252 0 0.12272986558341679 0.46755831466623321 0 0.14170246352145721 0.46509388808464358 0 0.13947782664218689 0.44565412562262252 0 0.12272986558341679 0.46755831466623321 0 0.14170246352145721 0.46509388808464358 0 0.1429476003232942 0.48416734018941088 0 0.1168356570365645 0.48719688358687452 0 0.12272986558341679 0.46755831466623321 0 0.1429476003232942 0.48416734018941088 0 0.12537502216261889 0.5 0 0.15232644722758609 0.5 0 0.1429476003232942 0.48416734018941088 0 0.1168356570365645 0.48719688358687452 0 0.12537502216261889 0.5 0 0.1429476003232942 0.48416734018941088 0 0.1168356570365645 0.48719688358687452 0 0.1429476003232942 0.48416734018941088 0 0.16905954361002379 0.48113779679194751 0 0.15232644722758609 0.5 0 0.1429476003232942 0.48416734018941088 0 0.16905954361002379 0.48113779679194751 0 0.15536975250481769 0.46868472706387548 0 0.1429476003232942 0.48416734018941088 0 0.15536975250481769 0.46868472706387548 0 0.14170246352145721 0.46509388808464358 0 0.1429476003232942 0.48416734018941088 0 0.16905954361002379 0.48113779679194751 0 0.1429476003232942 0.48416734018941088 0 0.3511016530837805 0.49999999999999839 0 0.38550110992932601 0.5 0 0.37613613637947579 0.48480528121087041 0 0.35581865244119271 0.47583168627037942 0 0.3511016530837805 0.49999999999999839 0 0.36243308016116488 0.47692806207637861 0 0.35581865244119271 0.47583168627037942 0 0.34978288295024001 0.4619987697214934 0 0.34039446680399782 0.47176083590416418 0 0.35581865244119271 0.47583168627037942 0 0.34519210044690829 0.48306038496562181 0 0.34039446680399782 0.47176083590416418 0 0.35581865244119271 0.47583168627037942 0 0.34519210044690829 0.48306038496562181 0 0.3511016530837805 0.49999999999999839 0 0.35581865244119271 0.47583168627037942 0 0.3511016530837805 0.49999999999999839 0 0.3511016530837805 0.49999999999999839 0 0.36243308016116488 0.47692806207637861 0 0.37613613637947579 0.48480528121087041 0 0.36243308016116488 0.47692806207637861 0 0.36676587126593713 0.46483578193954822 0 0.38311814693722518 0.46702494097506209 0 0.36243308016116488 0.47692806207637861 0 0.38311814693722518 0.46702494097506209 0 0.36243308016116488 0.47692806207637861 0 0.38311814693722518 0.46702494097506209 0 0.37613613637947579 0.48480528121087041 0 0.35581865244119271 0.47583168627037942 0 0.36243308016116488 0.47692806207637861 0 0.36676587126593713 0.46483578193954822 0 0.36676587126593713 0.46483578193954822 0 0.37192382499149762 0.45273084783515988 0 0.38311814693722518 0.46702494097506209 0 0.35581865244119271 0.47583168627037942 0 0.36676587126593713 0.46483578193954822 0 0.36053565179860497 0.45166337254076061 0 0.36676587126593713 0.46483578193954822 0 0.37192382499149762 0.45273084783515988 0 0.36053565179860497 0.45166337254076061 0 0.36053565179860497 0.45166337254076061 0 0.36525265115601752 0.42749505881114169 0 0.37092296091976951 0.43938961692773432 0 0.36053565179860497 0.45166337254076061 0 0.36525265115601752 0.42749505881114169 0 0.36053565179860497 0.45166337254076061 0 0.35434762303447198 0.44296181384603073 0 0.36525265115601752 0.42749505881114169 0 0.37092296091976951 0.43938961692773432 0 0.37192382499149762 0.45273084783515988 0 0.36053565179860497 0.45166337254076061 0 0.35434762303447198 0.44296181384603073 0 0.33849126055697981 0.44166186027466547 0 0.34773480452384659 0.42884195973254779 0 0.35434762303447198 0.44296181384603073 0 0.34830668824395961 0.45131843995551901 0 0.33849126055697981 0.44166186027466547 0 0.36053565179860497 0.45166337254076061 0 0.35434762303447198 0.44296181384603073 0 0.34830668824395961 0.45131843995551901 0 0.35581865244119271 0.47583168627037942 0 0.36053565179860497 0.45166337254076061 0 0.35581865244119271 0.47583168627037942 0 0.36053565179860497 0.45166337254076061 0 0.34978288295024001 0.4619987697214934 0 0.36053565179860497 0.45166337254076061 0 0.34830668824395961 0.45131843995551901 0 0.34978288295024001 0.4619987697214934 0 0.34830668824395961 0.45131843995551901 0 0.34978288295024001 0.4619987697214934 0 0.3383760228795013 0.4583063833946448 0 0.3383760228795013 0.4583063833946448 0 0.32048792167951867 0.46705978310409069 0 0.34039446680399782 0.47176083590416418 0 0.34978288295024001 0.4619987697214934 0 0.3383760228795013 0.4583063833946448 0 0.34039446680399782 0.47176083590416418 0 0.34830668824395961 0.45131843995551901 0 0.3383760228795013 0.4583063833946448 0 0.33849126055697981 0.44166186027466547 0 0.3383760228795013 0.4583063833946448 0 0.33849126055697981 0.44166186027466547 0 0.32479706928022251 0.452673238229999 0 0.32479706928022251 0.452673238229999 0 0.30049212884419718 0.45686185320388439 0 0.31943211737689731 0.43661813707283298 0 0.33849126055697981 0.44166186027466547 0 0.32479706928022251 0.452673238229999 0 0.31943211737689731 0.43661813707283298 0 0.32479706928022251 0.452673238229999 0 0.32048792167951867 0.46705978310409069 0 0.30049212884419718 0.45686185320388439 0 0.3383760228795013 0.4583063833946448 0 0.32479706928022251 0.452673238229999 0 0.32048792167951867 0.46705978310409069 0 0.32048792167951867 0.46705978310409069 0 0.33146853870656628 0.48373965843677552 0 0.30713907131343388 0.48059491611224409 0 0.32048792167951867 0.46705978310409069 0 0.33146853870656628 0.48373965843677552 0 0.34039446680399782 0.47176083590416418 0 0.34519210044690829 0.48306038496562181 0 0.33146853870656628 0.48373965843677552 0 0.34039446680399782 0.47176083590416418 0 0.3511016530837805 0.49999999999999839 0 0.33146853870656628 0.48373965843677552 0 0.32166009383080651 0.5 0 0.34519210044690829 0.48306038496562181 0 0.3511016530837805 0.49999999999999839 0 0.33146853870656628 0.48373965843677552 0 0.33146853870656628 0.48373965843677552 0 0.32166009383080651 0.5 0 0.30713907131343388 0.48059491611224409 0 0.32166009383080651 0.5 0 0.30713907131343388 0.48059491611224409 0 0.29221853457783242 0.50000000000000344 0 0.30713907131343388 0.48059491611224409 0 0.28155214031149711 0.47710556933493597 0 0.30049212884419718 0.45686185320388439 0 0.28155214031149711 0.47710556933493597 0 0.29221853457783242 0.50000000000000344 0 0.27617534103264352 0.5 0 0.30713907131343388 0.48059491611224409 0 0.28155214031149711 0.47710556933493597 0 0.29221853457783242 0.50000000000000344 0 0.28155214031149711 0.47710556933493597 0 0.29221853457783242 0.50000000000000344 0 0.27617534103264352 0.5 0 0.27084214389947631 0.48855278466746932 0 0.26013214748745461 0.50000000000000178 0 0.28155214031149711 0.47710556933493597 0 0.27617534103264352 0.5 0 0.27084214389947631 0.48855278466746932 0 0.28155214031149711 0.47710556933493597 0 0.27084214389947631 0.48855278466746932 0 0.28155214031149711 0.47710556933493597 0 0.27084214389947631 0.48855278466746932 0 0.26491452361443818 0.47227317713161798 0 0.24283357568523611 0.47462858947463488 0 0.26491452361443818 0.47227317713161798 0 0.25438062262181849 0.48709091025474449 0 0.27084214389947631 0.48855278466746932 0 0.26491452361443818 0.47227317713161798 0 0.25438062262181849 0.48709091025474449 0 0.27084214389947631 0.48855278466746932 0 0.25438062262181849 0.48709091025474449 0 0.26013214748745461 0.50000000000000178 0 0.27084214389947631 0.48855278466746932 0 0.26013214748745461 0.50000000000000178 0 0.25106567462320878 0.45666187649755641 0 0.27191790356854267 0.45642656951410632 0 0.26228366682558829 0.43574756969327649 0 0.24283357568523611 0.47462858947463488 0 0.26491452361443818 0.47227317713161798 0 0.25106567462320878 0.45666187649755641 0 0.26491452361443818 0.47227317713161798 0 0.25106567462320878 0.45666187649755641 0 0.27191790356854267 0.45642656951410632 0 0.28155214031149711 0.47710556933493597 0 0.26491452361443818 0.47227317713161798 0 0.27191790356854267 0.45642656951410632 0 0.28155214031149711 0.47710556933493597 0 0.27191790356854267 0.45642656951410632 0 0.27191790356854267 0.45642656951410632 0 0.28907876219969098 0.43361846572781287 0 0.26228366682558829 0.43574756969327649 0 0.27191790356854267 0.45642656951410632 0 0.26228366682558829 0.43574756969327649 0 0.27191790356854267 0.45642656951410632 0 0.30049212884419718 0.45686185320388439 0 0.28907876219969098 0.43361846572781287 0 0.28155214031149711 0.47710556933493597 0 0.27191790356854267 0.45642656951410632 0 0.30049212884419718 0.45686185320388439 0 0.28155214031149711 0.47710556933493597 0 0.30049212884419718 0.45686185320388439 0 0.32048792167951867 0.46705978310409069 0 0.30713907131343388 0.48059491611224409 0 0.30049212884419718 0.45686185320388439 0 0.30049212884419718 0.45686185320388439 0 0.28907876219969098 0.43361846572781287 0 0.31943211737689731 0.43661813707283298 0 0.30049212884419718 0.45686185320388439 0 0.31943211737689731 0.43661813707283298 0 0.30545679836761058 0.420840095570714 0 0.28907876219969098 0.43361846572781287 0 0.31943211737689731 0.43661813707283298 0 0.31247555448823211 0.4065088815410185 0 0.30545679836761058 0.420840095570714 0 0.29125046891670858 0.40768114277763012 0 0.29125046891670858 0.40768114277763012 0 0.28907876219969098 0.43361846572781287 0 0.27267448064090122 0.41854485133793778 0 0.30545679836761058 0.420840095570714 0 0.29125046891670858 0.40768114277763012 0 0.28907876219969098 0.43361846572781287 0 0.28907876219969098 0.43361846572781287 0 0.27267448064090122 0.41854485133793778 0 0.26228366682558829 0.43574756969327649 0 0.29125046891670858 0.40768114277763012 0 0.27267448064090122 0.41854485133793778 0 0.26811007517988439 0.40060850861852321 0 0.27267448064090122 0.41854485133793778 0 0.25264943008263391 0.41506856987244672 0 0.26811007517988439 0.40060850861852321 0 0.2370733209454807 0.42290696600340211 0 0.25264943008263391 0.41506856987244672 0 0.26228366682558829 0.43574756969327649 0 0.25264943008263391 0.41506856987244672 0 0.26228366682558829 0.43574756969327649 0 0.27267448064090122 0.41854485133793778 0 0.25264943008263391 0.41506856987244672 0 0.26228366682558829 0.43574756969327649 0 0.2482470132318087 0.37185134434554379 0 0.24301519333968091 0.39438957005161618 0 0.262551241611166 0.37922029581359462 0 0.24301519333968091 0.39438957005161618 0 0.262551241611166 0.37922029581359462 0 0.24301519333968091 0.39438957005161618 0 0.262551241611166 0.37922029581359462 0 0.26811007517988439 0.40060850861852321 0 0.24301519333968091 0.39438957005161618 0 0.25264943008263391 0.41506856987244672 0 0.26811007517988439 0.40060850861852321 0 0.262551241611166 0.37922029581359462 0 0.26811007517988439 0.40060850861852321 0 0.28506361575177691 0.38611634656403232 0 0.262551241611166 0.37922029581359462 0 0.28506361575177691 0.38611634656403232 0 0.28208728988264697 0.36405102157556768 0 0.28506361575177691 0.38611634656403232 0 0.30648708493035193 0.38888072016703151 0 0.29797501254949682 0.37401719358627528 0 0.29125046891670858 0.40768114277763012 0 0.26811007517988439 0.40060850861852321 0 0.28506361575177691 0.38611634656403232 0 0.29125046891670858 0.40768114277763012 0 0.28506361575177691 0.38611634656403232 0 0.30648708493035193 0.38888072016703151 0 0.31247555448823211 0.4065088815410185 0 0.29125046891670858 0.40768114277763012 0 0.30648708493035193 0.38888072016703151 0 0.30648708493035193 0.38888072016703151 0 0.31251379536477009 0.3724997386909259 0 0.29797501254949682 0.37401719358627528 0 0.30648708493035193 0.38888072016703151 0 0.32162719290256969 0.38174086122502232 0 0.32378301979800972 0.394833180348309 0 0.30648708493035193 0.38888072016703151 0 0.32162719290256969 0.38174086122502232 0 0.31251379536477009 0.3724997386909259 0 0.32162719290256969 0.38174086122502232 0 0.33345447044449672 0.38403188038934249 0 0.32378301979800972 0.394833180348309 0 0.32162719290256969 0.38174086122502232 0 0.33345447044449672 0.38403188038934249 0 0.33039309091580871 0.36794480391142259 0 0.33345447044449672 0.38403188038934249 0 0.34374358360496687 0.37606236151767841 0 0.33039309091580871 0.36794480391142259 0 0.33345447044449672 0.38403188038934249 0 0.3421078330918178 0.38705711139373389 0 0.33589173762137808 0.39718515365406992 0 0.33345447044449672 0.38403188038934249 0 0.3421078330918178 0.38705711139373389 0 0.34374358360496687 0.37606236151767841 0 0.33589173762137808 0.39718515365406992 0 0.33837210590959732 0.41637442094178162 0 0.34666156158943101 0.39507948910554103 0 0.3421078330918178 0.38705711139373389 0 0.33589173762137808 0.39718515365406992 0 0.34666156158943101 0.39507948910554103 0 0.33345447044449672 0.38403188038934249 0 0.33589173762137808 0.39718515365406992 0 0.32378301979800972 0.394833180348309 0 0.33589173762137808 0.39718515365406992 0 0.32378301979800972 0.394833180348309 0 0.32630590440469859 0.40646632441635627 0 0.31247555448823211 0.4065088815410185 0 0.32378301979800972 0.394833180348309 0 0.32630590440469859 0.40646632441635627 0 0.31247555448823211 0.4065088815410185 0 0.30648708493035193 0.38888072016703151 0 0.32378301979800972 0.394833180348309 0 0.31247555448823211 0.4065088815410185 0 0.32100710420627598 0.41742998559660233 0 0.32630590440469859 0.40646632441635627 0 0.31247555448823211 0.4065088815410185 0 0.30545679836761058 0.420840095570714 0 0.32100710420627598 0.41742998559660233 0 0.30545679836761058 0.420840095570714 0 0.32100710420627598 0.41742998559660233 0 0.31943211737689731 0.43661813707283298 0 0.32100710420627598 0.41742998559660233 0 0.31943211737689731 0.43661813707283298 0 0.33837210590959732 0.41637442094178162 0 0.33849126055697981 0.44166186027466547 0 0.33837210590959732 0.41637442094178162 0 0.34773480452384659 0.42884195973254779 0 0.31943211737689731 0.43661813707283298 0 0.33837210590959732 0.41637442094178162 0 0.33849126055697981 0.44166186027466547 0 0.31943211737689731 0.43661813707283298 0 0.33837210590959732 0.41637442094178162 0 0.32100710420627598 0.41742998559660233 0 0.32630590440469859 0.40646632441635627 0 0.33837210590959732 0.41637442094178162 0 0.33589173762137808 0.39718515365406992 0 0.32630590440469859 0.40646632441635627 0 0.33837210590959732 0.41637442094178162 0 0.33837210590959732 0.41637442094178162 0 0.35824146863996281 0.41732199193781699 0 0.35731209444229728 0.39613070481073032 0 0.33837210590959732 0.41637442094178162 0 0.35731209444229728 0.39613070481073032 0 0.33837210590959732 0.41637442094178162 0 0.35824146863996281 0.41732199193781699 0 0.34773480452384659 0.42884195973254779 0 0.35434762303447198 0.44296181384603073 0 0.35824146863996281 0.41732199193781699 0 0.34773480452384659 0.42884195973254779 0 0.35434762303447198 0.44296181384603073 0 0.35824146863996281 0.41732199193781699 0 0.36525265115601752 0.42749505881114169 0 0.35434762303447198 0.44296181384603073 0 0.35824146863996281 0.41732199193781699 0 0.36525265115601752 0.42749505881114169 0 0.37000071319738959 0.42433193034315791 0 0.36591017698604922 0.41964294997626772 0 0.37092296091976951 0.43938961692773432 0 0.36525265115601752 0.42749505881114169 0 0.37000071319738959 0.42433193034315791 0 0.35824146863996281 0.41732199193781699 0 0.36877817186693618 0.41301465943001903 0 0.36779192784015718 0.40390700260872359 0 0.35824146863996281 0.41732199193781699 0 0.36591017698604922 0.41964294997626772 0 0.36877817186693618 0.41301465943001903 0 0.35824146863996281 0.41732199193781699 0 0.36525265115601752 0.42749505881114169 0 0.36591017698604922 0.41964294997626772 0 0.36591017698604922 0.41964294997626772 0 0.37101451892863269 0.41887673631329497 0 0.36877817186693618 0.41301465943001903 0 0.37101451892863269 0.41887673631329497 0 0.36877817186693618 0.41301465943001903 0 0.37936901366415587 0.41851740550373551 0 0.37000071319738959 0.42433193034315791 0 0.37101451892863269 0.41887673631329497 0 0.37936901366415587 0.41851740550373551 0 0.37000071319738959 0.42433193034315791 0 0.36591017698604922 0.41964294997626772 0 0.37101451892863269 0.41887673631329497 0 0.36877817186693618 0.41301465943001903 0 0.37680910359599418 0.40611571608601987 0 0.37936901366415587 0.41851740550373551 0 0.36877817186693618 0.41301465943001903 0 0.36779192784015718 0.40390700260872359 0 0.37680910359599418 0.40611571608601987 0 0.36779192784015718 0.40390700260872359 0 0.37422473952013219 0.39927691022152861 0 0.36936991119550061 0.39530981435076179 0 0.36779192784015718 0.40390700260872359 0 0.37422473952013219 0.39927691022152861 0 0.37680910359599418 0.40611571608601987 0 0.35824146863996281 0.41732199193781699 0 0.36213531424545359 0.39168217002960348 0 0.35824146863996281 0.41732199193781699 0 0.36779192784015718 0.40390700260872359 0 0.36213531424545359 0.39168217002960348 0 0.36779192784015718 0.40390700260872359 0 0.36213531424545359 0.39168217002960348 0 0.36936991119550061 0.39530981435076179 0 0.36936991119550061 0.39530981435076179 0 0.37111164107540201 0.38604060083203973 0 0.37546942330986471 0.392876571140854 0 0.36213531424545359 0.39168217002960348 0 0.36936991119550061 0.39530981435076179 0 0.37111164107540201 0.38604060083203973 0 0.37422473952013219 0.39927691022152861 0 0.36936991119550061 0.39530981435076179 0 0.37546942330986471 0.392876571140854 0 0.36213531424545359 0.39168217002960348 0 0.37111164107540201 0.38604060083203973 0 0.36602915985094442 0.36604234812139003 0 0.36213531424545359 0.39168217002960348 0 0.35400465702555273 0.37790391522905858 0 0.36602915985094442 0.36604234812139003 0 0.37111164107540201 0.38604060083203973 0 0.36602915985094442 0.36604234812139003 0 0.38255439677524639 0.38429210051758922 0 0.36213531424545359 0.39168217002960348 0 0.36602915985094442 0.36604234812139003 0 0.36213531424545359 0.39168217002960348 0 0.35433818630773262 0.38820630135081169 0 0.35400465702555273 0.37790391522905858 0 0.35433818630773262 0.38820630135081169 0 0.35400465702555273 0.37790391522905858 0 0.34926752988030502 0.38423491565594919 0 0.3421078330918178 0.38705711139373389 0 0.34374358360496687 0.37606236151767841 0 0.34926752988030502 0.38423491565594919 0 0.34374358360496687 0.37606236151767841 0 0.35400465702555273 0.37790391522905858 0 0.34926752988030502 0.38423491565594919 0 0.35433818630773262 0.38820630135081169 0 0.34926752988030502 0.38423491565594919 0 0.34666156158943101 0.39507948910554103 0 0.3421078330918178 0.38705711139373389 0 0.34926752988030502 0.38423491565594919 0 0.34666156158943101 0.39507948910554103 0 0.33837210590959732 0.41637442094178162 0 0.34666156158943101 0.39507948910554103 0 0.35731209444229728 0.39613070481073032 0 0.35824146863996281 0.41732199193781699 0 0.36213531424545359 0.39168217002960348 0 0.35731209444229728 0.39613070481073032 0 0.35433818630773262 0.38820630135081169 0 0.34666156158943101 0.39507948910554103 0 0.35731209444229728 0.39613070481073032 0 0.36213531424545359 0.39168217002960348 0 0.35433818630773262 0.38820630135081169 0 0.35731209444229728 0.39613070481073032 0 0.34851416826391379 0.36119539469891909 0 0.36602915985094442 0.36604234812139003 0 0.36140765715172651 0.35020023343297102 0 0.34851416826391379 0.36119539469891909 0 0.36140765715172651 0.35020023343297102 0 0.34807737579371151 0.34047220773830722 0 0.34374358360496687 0.37606236151767841 0 0.35400465702555273 0.37790391522905858 0 0.34851416826391379 0.36119539469891909 0 0.35400465702555273 0.37790391522905858 0 0.34851416826391379 0.36119539469891909 0 0.36602915985094442 0.36604234812139003 0 0.36140765715172651 0.35020023343297102 0 0.37205635918113023 0.33759325004721019 0 0.38427987039732642 0.35147038732672498 0 0.36602915985094442 0.36604234812139003 0 0.36140765715172651 0.35020023343297102 0 0.38427987039732642 0.35147038732672498 0 0.36140765715172651 0.35020023343297102 0 0.37205635918113023 0.33759325004721019 0 0.34807737579371151 0.34047220773830722 0 0.37205635918113023 0.33759325004721019 0 0.35902668895714579 0.3228008946260108 0 0.34807737579371151 0.34047220773830722 0 0.37205635918113023 0.33759325004721019 0 0.34807737579371151 0.34047220773830722 0 0.37205635918113023 0.33759325004721019 0 0.35902668895714579 0.3228008946260108 0 0.37205635918113023 0.33759325004721019 0 0.36695312981490319 0.32184923260174331 0 0.35902668895714579 0.3228008946260108 0 0.36695312981490319 0.32184923260174331 0 0.35902668895714579 0.3228008946260108 0 0.3459970187331638 0.3080085392048092 0 0.36695312981490319 0.32184923260174331 0 0.3459970187331638 0.3080085392048092 0 0.34589442069071041 0.32483309613317157 0 0.35902668895714579 0.3228008946260108 0 0.3459970187331638 0.3080085392048092 0 0.35902668895714579 0.3228008946260108 0 0.3459970187331638 0.3080085392048092 0 0.34589442069071041 0.32483309613317157 0 0.35902668895714579 0.3228008946260108 0 0.34807737579371151 0.34047220773830722 0 0.34589442069071041 0.32483309613317157 0 0.34807737579371151 0.34047220773830722 0 0.33192832923092419 0.32565628662346818 0 0.34807737579371151 0.34047220773830722 0 0.32409839240629279 0.34335116542940491 0 0.34807737579371151 0.34047220773830722 0 0.33192832923092419 0.32565628662346818 0 0.32409839240629279 0.34335116542940491 0 0.33192832923092419 0.32565628662346818 0 0.32381310833864219 0.31259224492313092 0 0.3459970187331638 0.3080085392048092 0 0.34589442069071041 0.32483309613317157 0 0.33192832923092419 0.32565628662346818 0 0.3459970187331638 0.3080085392048092 0 0.33192832923092419 0.32565628662346818 0 0.32381310833864219 0.31259224492313092 0 0.31282521849436151 0.32633725833519561 0 0.32381310833864219 0.31259224492313092 0 0.31282521849436151 0.32633725833519561 0 0.30323710340959747 0.30876688125036822 0 0.33192832923092419 0.32565628662346818 0 0.31282521849436151 0.32633725833519561 0 0.32409839240629279 0.34335116542940491 0 0.31282521849436151 0.32633725833519561 0 0.32409839240629279 0.34335116542940491 0 0.30533622863161608 0.33726250974068339 0 0.32409839240629279 0.34335116542940491 0 0.31602561090547371 0.35897727840971588 0 0.30162333815412801 0.34888174733754068 0 0.32409839240629279 0.34335116542940491 0 0.31602561090547371 0.35897727840971588 0 0.33342172765704009 0.35438817003755402 0 0.34851416826391379 0.36119539469891909 0 0.34807737579371151 0.34047220773830722 0 0.33342172765704009 0.35438817003755402 0 0.34807737579371151 0.34047220773830722 0 0.32409839240629279 0.34335116542940491 0 0.33342172765704009 0.35438817003755402 0 0.34851416826391379 0.36119539469891909 0 0.33342172765704009 0.35438817003755402 0 0.33039309091580871 0.36794480391142259 0 0.34374358360496687 0.37606236151767841 0 0.34851416826391379 0.36119539469891909 0 0.33039309091580871 0.36794480391142259 0 0.31602561090547371 0.35897727840971588 0 0.33039309091580871 0.36794480391142259 0 0.31251379536477009 0.3724997386909259 0 0.32162719290256969 0.38174086122502232 0 0.33039309091580871 0.36794480391142259 0 0.31251379536477009 0.3724997386909259 0 0.31602561090547371 0.35897727840971588 0 0.33342172765704009 0.35438817003755402 0 0.33039309091580871 0.36794480391142259 0 0.31602561090547371 0.35897727840971588 0 0.31251379536477009 0.3724997386909259 0 0.30257477998491977 0.36343757484608791 0 0.31251379536477009 0.3724997386909259 0 0.30257477998491977 0.36343757484608791 0 0.29797501254949682 0.37401719358627528 0 0.32409839240629279 0.34335116542940491 0 0.30011940901887407 0.34623012312050261 0 0.32409839240629279 0.34335116542940491 0 0.30162333815412801 0.34888174733754068 0 0.30011940901887407 0.34623012312050261 0 0.31602561090547371 0.35897727840971588 0 0.30257477998491977 0.36343757484608791 0 0.30162333815412801 0.34888174733754068 0 0.30162333815412801 0.34888174733754068 0 0.30011940901887407 0.34623012312050261 0 0.28904688353175551 0.34730127986378773 0 0.30257477998491977 0.36343757484608791 0 0.30162333815412801 0.34888174733754068 0 0.28208728988264697 0.36405102157556768 0 0.28904688353175551 0.34730127986378773 0 0.28208728988264697 0.36405102157556768 0 0.274620461552328 0.35161834833244948 0 0.30162333815412801 0.34888174733754068 0 0.28208728988264697 0.36405102157556768 0 0.30162333815412801 0.34888174733754068 0 0.28904688353175551 0.34730127986378773 0 0.28208728988264697 0.36405102157556768 0 0.30011940901887407 0.34623012312050261 0 0.28904688353175551 0.34730127986378773 0 0.29454030114667179 0.34138227919706599 0 0.28904688353175551 0.34730127986378773 0 0.274620461552328 0.35161834833244948 0 0.28062743818193903 0.34010135513438039 0 0.28506361575177691 0.38611634656403232 0 0.29797501254949682 0.37401719358627528 0 0.28208728988264697 0.36405102157556768 0 0.30257477998491977 0.36343757484608791 0 0.29797501254949682 0.37401719358627528 0 0.28208728988264697 0.36405102157556768 0 0.262551241611166 0.37922029581359462 0 0.28208728988264697 0.36405102157556768 0 0.26269968828449841 0.36242142278643741 0 0.262551241611166 0.37922029581359462 0 0.28208728988264697 0.36405102157556768 0 0.28208728988264697 0.36405102157556768 0 0.274620461552328 0.35161834833244948 0 0.26269968828449841 0.36242142278643741 0 0.274620461552328 0.35161834833244948 0 0.26767082147146698 0.34153969773249138 0 0.28062743818193903 0.34010135513438039 0 0.274620461552328 0.35161834833244948 0 0.25935307939463931 0.35055643510750328 0 0.26767082147146698 0.34153969773249138 0 0.274620461552328 0.35161834833244948 0 0.25935307939463931 0.35055643510750328 0 0.26269968828449841 0.36242142278643741 0 0.25935307939463931 0.35055643510750328 0 0.25164428255554228 0.34700345054066112 0 0.25419885645550211 0.33858598021416342 0 0.2482561328248489 0.35658198081574849 0 0.25935307939463931 0.35055643510750328 0 0.25164428255554228 0.34700345054066112 0 0.2482561328248489 0.35658198081574849 0 0.25935307939463931 0.35055643510750328 0 0.26269968828449841 0.36242142278643741 0 0.2482470132318087 0.37185134434554379 0 0.2482561328248489 0.35658198081574849 0 0.26269968828449841 0.36242142278643741 0 0.2482470132318087 0.37185134434554379 0 0.262551241611166 0.37922029581359462 0 0.26269968828449841 0.36242142278643741 0 0.2416292303626397 0.31699761252133579 0 0.25841807541095752 0.31268360240019838 0 0.25182475824432737 0.32576052868738448 0 0.25841807541095752 0.31268360240019838 0 0.25182475824432737 0.32576052868738448 0 0.26485805580638438 0.32841472294978552 0 0.25841807541095752 0.31268360240019838 0 0.26485805580638438 0.32841472294978552 0 0.27116237113678832 0.31880421584815111 0 0.25182475824432737 0.32576052868738448 0 0.25419885645550211 0.33858598021416342 0 0.26485805580638438 0.32841472294978552 0 0.25935307939463931 0.35055643510750328 0 0.25419885645550211 0.33858598021416342 0 0.26767082147146698 0.34153969773249138 0 0.25419885645550211 0.33858598021416342 0 0.26485805580638438 0.32841472294978552 0 0.26767082147146698 0.34153969773249138 0 0.26485805580638438 0.32841472294978552 0 0.26767082147146698 0.34153969773249138 0 0.27396388419427398 0.3344791338864343 0 0.26485805580638438 0.32841472294978552 0 0.27396388419427398 0.3344791338864343 0 0.27767549028317318 0.32607085260148611 0 0.26767082147146698 0.34153969773249138 0 0.28062743818193903 0.34010135513438039 0 0.27396388419427398 0.3344791338864343 0 0.27396388419427398 0.3344791338864343 0 0.27767549028317318 0.32607085260148611 0 0.28492006205853387 0.33219970384943442 0 0.28062743818193903 0.34010135513438039 0 0.27396388419427398 0.3344791338864343 0 0.28492006205853387 0.33219970384943442 0 0.25841807541095752 0.31268360240019838 0 0.27116237113678832 0.31880421584815111 0 0.27422342284277129 0.3081602550294737 0 0.27767549028317318 0.32607085260148611 0 0.27116237113678832 0.31880421584815111 0 0.2811734231683044 0.31722071917878247 0 0.26485805580638438 0.32841472294978552 0 0.27767549028317318 0.32607085260148611 0 0.27116237113678832 0.31880421584815111 0 0.27116237113678832 0.31880421584815111 0 0.2811734231683044 0.31722071917878247 0 0.27422342284277129 0.3081602550294737 0 0.28995275297095541 0.32213700337920831 0 0.30323710340959747 0.30876688125036822 0 0.28737655236090298 0.30939032499735492 0 0.2811734231683044 0.31722071917878247 0 0.28995275297095541 0.32213700337920831 0 0.28737655236090298 0.30939032499735492 0 0.27767549028317318 0.32607085260148611 0 0.2811734231683044 0.31722071917878247 0 0.28995275297095541 0.32213700337920831 0 0.27767549028317318 0.32607085260148611 0 0.28995275297095541 0.32213700337920831 0 0.28492006205853387 0.33219970384943442 0 0.28995275297095541 0.32213700337920831 0 0.29489244403222359 0.3340969279933752 0 0.30080028272917858 0.32598562086990579 0 0.28904688353175551 0.34730127986378773 0 0.28062743818193903 0.34010135513438039 0 0.28841849187633589 0.33884891273014223 0 0.28062743818193903 0.34010135513438039 0 0.28841849187633589 0.33884891273014223 0 0.28492006205853387 0.33219970384943442 0 0.28995275297095541 0.32213700337920831 0 0.28492006205853387 0.33219970384943442 0 0.29489244403222359 0.3340969279933752 0 0.28841849187633589 0.33884891273014223 0 0.28492006205853387 0.33219970384943442 0 0.29489244403222359 0.3340969279933752 0 0.28904688353175551 0.34730127986378773 0 0.28841849187633589 0.33884891273014223 0 0.29454030114667179 0.34138227919706599 0 0.28841849187633589 0.33884891273014223 0 0.29489244403222359 0.3340969279933752 0 0.29454030114667179 0.34138227919706599 0 0.29489244403222359 0.3340969279933752 0 0.29454030114667179 0.34138227919706599 0 0.29872209570734642 0.33974296001290683 0 0.32409839240629279 0.34335116542940491 0 0.30011940901887407 0.34623012312050261 0 0.30533622863161608 0.33726250974068339 0 0.29489244403222359 0.3340969279933752 0 0.29872209570734642 0.33974296001290683 0 0.30533622863161608 0.33726250974068339 0 0.30011940901887407 0.34623012312050261 0 0.29872209570734642 0.33974296001290683 0 0.30533622863161608 0.33726250974068339 0 0.30011940901887407 0.34623012312050261 0 0.29454030114667179 0.34138227919706599 0 0.29872209570734642 0.33974296001290683 0 0.29489244403222359 0.3340969279933752 0 0.30533622863161608 0.33726250974068339 0 0.30080028272917858 0.32598562086990579 0 0.31282521849436151 0.32633725833519561 0 0.30533622863161608 0.33726250974068339 0 0.30080028272917858 0.32598562086990579 0 0.31282521849436151 0.32633725833519561 0 0.30080028272917858 0.32598562086990579 0 0.30323710340959747 0.30876688125036822 0 0.28995275297095541 0.32213700337920831 0 0.30080028272917858 0.32598562086990579 0 0.30323710340959747 0.30876688125036822 0 0.30323710340959747 0.30876688125036822 0 0.28874978174496557 0.29583147119214898 0 0.30415872491716028 0.28037597919882212 0 0.30323710340959747 0.30876688125036822 0 0.30415872491716028 0.28037597919882212 0 0.32507787182516262 0.2941922592018148 0 0.30323710340959747 0.30876688125036822 0 0.28874978174496557 0.29583147119214898 0 0.28737655236090298 0.30939032499735492 0 0.28874978174496557 0.29583147119214898 0 0.28737655236090298 0.30939032499735492 0 0.27422342284277129 0.3081602550294737 0 0.2811734231683044 0.31722071917878247 0 0.28737655236090298 0.30939032499735492 0 0.27422342284277129 0.3081602550294737 0 0.28874978174496557 0.29583147119214898 0 0.27422342284277129 0.3081602550294737 0 0.26086677902700561 0.28562815773188821 0 0.28874978174496557 0.29583147119214898 0 0.26086677902700561 0.28562815773188821 0 0.28323957800915789 0.26655969919582928 0 0.28874978174496557 0.29583147119214898 0 0.26086677902700561 0.28562815773188821 0 0.24405904503509121 0.29841073786922728 0 0.25841807541095752 0.31268360240019838 0 0.26086677902700561 0.28562815773188821 0 0.25841807541095752 0.31268360240019838 0 0.27422342284277129 0.3081602550294737 0 0.26086677902700561 0.28562815773188821 0 0.24142358919607121 0.25808606837721387 0 0.26232043110115549 0.25274341919283649 0 0.25353115032000612 0.26837113287090469 0 0.26086677902700561 0.28562815773188821 0 0.25353115032000612 0.26837113287090469 0 0.28323957800915789 0.26655969919582928 0 0.26232043110115549 0.25274341919283649 0 0.25353115032000612 0.26837113287090469 0 0.28323957800915789 0.26655969919582928 0 0.26232043110115549 0.25274341919283649 0 0.28323957800915789 0.26655969919582928 0 0.28675163135586812 0.24142749753939799 0 0.26232043110115549 0.25274341919283649 0 0.28323957800915789 0.26655969919582928 0 0.28323957800915789 0.26655969919582928 0 0.29819223908463671 0.25511476016800011 0 0.28675163135586812 0.24142749753939799 0 0.28323957800915789 0.26655969919582928 0 0.30415872491716028 0.28037597919882212 0 0.28323957800915789 0.26655969919582928 0 0.30415872491716028 0.28037597919882212 0 0.29819223908463671 0.25511476016800011 0 0.28874978174496557 0.29583147119214898 0 0.28323957800915789 0.26655969919582928 0 0.30415872491716028 0.28037597919882212 0 0.30415872491716028 0.28037597919882212 0 0.29819223908463671 0.25511476016800011 0 0.31283947485178998 0.26380570477876758 0 0.29819223908463671 0.25511476016800011 0 0.31283947485178998 0.26380570477876758 0 0.31286308011063851 0.24532202083054641 0 0.31283947485178998 0.26380570477876758 0 0.32244059046442008 0.25768147012080322 0 0.31286308011063851 0.24532202083054641 0 0.32244059046442008 0.25768147012080322 0 0.3358039582351468 0.25396688748271312 0 0.31286308011063851 0.24532202083054641 0 0.31283947485178998 0.26380570477876758 0 0.32244059046442008 0.25768147012080322 0 0.32825584866010538 0.26763126739118592 0 0.3358039582351468 0.25396688748271312 0 0.3380309722238683 0.26947649535286872 0 0.32825584866010538 0.26763126739118592 0 0.32244059046442008 0.25768147012080322 0 0.3358039582351468 0.25396688748271312 0 0.32825584866010538 0.26763126739118592 0 0.3358039582351468 0.25396688748271312 0 0.3380309722238683 0.26947649535286872 0 0.34687145320678059 0.26728896608698871 0 0.3380309722238683 0.26947649535286872 0 0.33478966458886988 0.27951413886364879 0 0.34443393642843861 0.27898121693980682 0 0.33478966458886988 0.27951413886364879 0 0.33795345456224068 0.28495418964563862 0 0.34443393642843861 0.27898121693980682 0 0.3380309722238683 0.26947649535286872 0 0.34687145320678059 0.26728896608698871 0 0.34443393642843861 0.27898121693980682 0 0.3380309722238683 0.26947649535286872 0 0.32825584866010538 0.26763126739118592 0 0.33478966458886988 0.27951413886364879 0 0.32825584866010538 0.26763126739118592 0 0.33478966458886988 0.27951413886364879 0 0.32214703615001922 0.27898814474487249 0 0.30415872491716028 0.28037597919882212 0 0.31283947485178998 0.26380570477876758 0 0.32214703615001922 0.27898814474487249 0 0.31283947485178998 0.26380570477876758 0 0.32825584866010538 0.26763126739118592 0 0.32214703615001922 0.27898814474487249 0 0.30415872491716028 0.28037597919882212 0 0.32507787182516262 0.2941922592018148 0 0.30415872491716028 0.28037597919882212 0 0.32214703615001922 0.27898814474487249 0 0.32507787182516262 0.2941922592018148 0 0.32214703615001922 0.27898814474487249 0 0.32507787182516262 0.2941922592018148 0 0.32887261255641748 0.28856750208039111 0 0.32381310833864219 0.31259224492313092 0 0.30323710340959747 0.30876688125036822 0 0.32507787182516262 0.2941922592018148 0 0.32507787182516262 0.2941922592018148 0 0.32887261255641748 0.28856750208039111 0 0.3459970187331638 0.3080085392048092 0 0.32507787182516262 0.2941922592018148 0 0.3459970187331638 0.3080085392048092 0 0.32887261255641748 0.28856750208039111 0 0.3459970187331638 0.3080085392048092 0 0.32381310833864219 0.31259224492313092 0 0.32507787182516262 0.2941922592018148 0 0.3459970187331638 0.3080085392048092 0 0.32887261255641748 0.28856750208039111 0 0.34371760467523699 0.29275390069870771 0 0.3459970187331638 0.3080085392048092 0 0.33478966458886988 0.27951413886364879 0 0.32887261255641748 0.28856750208039111 0 0.33795345456224068 0.28495418964563862 0 0.33478966458886988 0.27951413886364879 0 0.32214703615001922 0.27898814474487249 0 0.32887261255641748 0.28856750208039111 0 0.32887261255641748 0.28856750208039111 0 0.34371760467523699 0.29275390069870771 0 0.33795345456224068 0.28495418964563862 0 0.34371760467523699 0.29275390069870771 0 0.33795345456224068 0.28495418964563862 0 0.34443393642843861 0.27898121693980682 0 0.34371760467523699 0.29275390069870771 0 0.3459970187331638 0.3080085392048092 0 0.36177524203261618 0.28882504046470647 0 0.34371760467523699 0.29275390069870771 0 0.35347430859236112 0.28280072447855642 0 0.36177524203261618 0.28882504046470647 0 0.34371760467523699 0.29275390069870771 0 0.35347430859236112 0.28280072447855642 0 0.34443393642843861 0.27898121693980682 0 0.35347430859236112 0.28280072447855642 0 0.36177524203261618 0.28882504046470647 0 0.36135560326841859 0.27980791790000559 0 0.36695312981490319 0.32184923260174331 0 0.3459970187331638 0.3080085392048092 0 0.37216202243157648 0.30391182465333921 0 0.3459970187331638 0.3080085392048092 0 0.37216202243157648 0.30391182465333921 0 0.36177524203261618 0.28882504046470647 0 0.37216202243157648 0.30391182465333921 0 0.36177524203261618 0.28882504046470647 0 0.37744021378696457 0.28599468586905191 0 0.36177524203261618 0.28882504046470647 0 0.36836647040724319 0.2815265389760902 0 0.37744021378696457 0.28599468586905191 0 0.36177524203261618 0.28882504046470647 0 0.36836647040724319 0.2815265389760902 0 0.36135560326841859 0.27980791790000559 0 0.36836647040724319 0.2815265389760902 0 0.37385863836621852 0.27860701273030081 0 0.37744021378696457 0.28599468586905191 0 0.36740265458199778 0.27439803791638639 0 0.35874483635965521 0.26261175413487992 0 0.381685714484163 0.27125662078704799 0 0.35874483635965521 0.26261175413487992 0 0.381685714484163 0.27125662078704799 0 0.37385863836621852 0.27860701273030081 0 0.36740265458199778 0.27439803791638639 0 0.381685714484163 0.27125662078704799 0 0.36836647040724319 0.2815265389760902 0 0.37385863836621852 0.27860701273030081 0 0.36740265458199778 0.27439803791638639 0 0.36836647040724319 0.2815265389760902 0 0.36740265458199778 0.27439803791638639 0 0.36135560326841859 0.27980791790000559 0 0.36740265458199778 0.27439803791638639 0 0.36135560326841859 0.27980791790000559 0 0.35608915655709489 0.27363554638955562 0 0.36740265458199778 0.27439803791638639 0 0.35874483635965521 0.26261175413487992 0 0.35608915655709489 0.27363554638955562 0 0.37216520196338382 0.26250538526113232 0 0.35874483635965521 0.26261175413487992 0 0.381685714484163 0.27125662078704799 0 0.37216520196338382 0.26250538526113232 0 0.37312360809717432 0.25657133323275721 0 0.35224759394217242 0.2479253194459636 0 0.37216520196338382 0.26250538526113232 0 0.35874483635965521 0.26261175413487992 0 0.35224759394217242 0.2479253194459636 0 0.37216520196338382 0.26250538526113232 0 0.35224759394217242 0.2479253194459636 0 0.3358039582351468 0.25396688748271312 0 0.35874483635965521 0.26261175413487992 0 0.34687145320678059 0.26728896608698871 0 0.3358039582351468 0.25396688748271312 0 0.35874483635965521 0.26261175413487992 0 0.35224759394217242 0.2479253194459636 0 0.3358039582351468 0.25396688748271312 0 0.35874483635965521 0.26261175413487992 0 0.34687145320678059 0.26728896608698871 0 0.34443393642843861 0.27898121693980682 0 0.35608915655709489 0.27363554638955562 0 0.35347430859236112 0.28280072447855642 0 0.34443393642843861 0.27898121693980682 0 0.35608915655709489 0.27363554638955562 0 0.35347430859236112 0.28280072447855642 0 0.36135560326841859 0.27980791790000559 0 0.35608915655709489 0.27363554638955562 0 0.35874483635965521 0.26261175413487992 0 0.34687145320678059 0.26728896608698871 0 0.35608915655709489 0.27363554638955562 0 0.39344306779005223 0.27230033237831303 0 0.38470396208546659 0.27239399433896022 0 0.39452283612847561 0.29327419615876571 0 0.39344306779005223 0.27230033237831303 0 0.39644535449312418 0.26191393482814967 0 0.38828600676639702 0.26432884528874978 0 0.39344306779005223 0.27230033237831303 0 0.40274807823316289 0.26831192179080571 0 0.39644535449312418 0.26191393482814967 0 0.39344306779005223 0.27230033237831303 0 0.40274807823316289 0.26831192179080571 0 0.40485173876458941 0.28267613629829041 0 0.40274807823316289 0.26831192179080571 0 0.39644535449312418 0.26191393482814967 0 0.40767330916685562 0.25609664483624212 0 0.39644535449312418 0.26191393482814967 0 0.40767330916685562 0.25609664483624212 0 0.39469495487488282 0.24788321047481071 0 0.39644535449312418 0.26191393482814967 0 0.38864587099104703 0.25735990491446231 0 0.39469495487488282 0.24788321047481071 0 0.39644535449312418 0.26191393482814967 0 0.38828600676639702 0.26432884528874978 0 0.38864587099104703 0.25735990491446231 0 0.38828600676639702 0.26432884528874978 0 0.38864587099104703 0.25735990491446231 0 0.38273844128199053 0.26019715847994412 0 0.38828600676639702 0.26432884528874978 0 0.38273844128199053 0.26019715847994412 0 0.38504487116062958 0.26767977667965592 0 0.3853334202703782 0.25144975246871659 0 0.38864587099104703 0.25735990491446231 0 0.38273844128199053 0.26019715847994412 0 0.3853334202703782 0.25144975246871659 0 0.38864587099104703 0.25735990491446231 0 0.39469495487488282 0.24788321047481071 0 0.37312360809717432 0.25657133323275721 0 0.37893046416378739 0.25005134563455528 0 0.38273844128199053 0.26019715847994412 0 0.3853334202703782 0.25144975246871659 0 0.37893046416378739 0.25005134563455528 0 0.38273844128199053 0.26019715847994412 0 0.37312360809717432 0.25657133323275721 0 0.381685714484163 0.27125662078704799 0 0.37216520196338382 0.26250538526113232 0 0.37312360809717432 0.25657133323275721 0 0.381685714484163 0.27125662078704799 0 0.37312360809717432 0.25657133323275721 0 0.38273844128199053 0.26019715847994412 0 0.381685714484163 0.27125662078704799 0 0.381685714484163 0.27125662078704799 0 0.38470396208546659 0.27239399433896022 0 0.39452283612847561 0.29327419615876571 0 0.39344306779005223 0.27230033237831303 0 0.38470396208546659 0.27239399433896022 0 0.38786947695063628 0.26917573717141968 0 0.38273844128199053 0.26019715847994412 0 0.381685714484163 0.27125662078704799 0 0.38504487116062958 0.26767977667965592 0 0.39344306779005223 0.27230033237831303 0 0.38828600676639702 0.26432884528874978 0 0.38786947695063628 0.26917573717141968 0 0.381685714484163 0.27125662078704799 0 0.38504487116062958 0.26767977667965592 0 0.38470396208546659 0.27239399433896022 0 0.38504487116062958 0.26767977667965592 0 0.38470396208546659 0.27239399433896022 0 0.38786947695063628 0.26917573717141968 0 0.381685714484163 0.27125662078704799 0 0.38470396208546659 0.27239399433896022 0 0.38828600676639702 0.26432884528874978 0 0.38504487116062958 0.26767977667965592 0 0.38786947695063628 0.26917573717141968 0 0.37385863836621852 0.27860701273030081 0 0.381685714484163 0.27125662078704799 0 0.37744021378696457 0.28599468586905191 0 0.381685714484163 0.27125662078704799 0 0.37744021378696457 0.28599468586905191 0 0.39452283612847561 0.29327419615876571 0 0.381685714484163 0.27125662078704799 0 0.39452283612847561 0.29327419615876571 0 0.37216202243157648 0.30391182465333921 0 0.37744021378696457 0.28599468586905191 0 0.39452283612847561 0.29327419615876571 0 0.37216202243157648 0.30391182465333921 0 0.39452283612847561 0.29327419615876571 0 0.38699433063728061 0.31527742834082251 0 0.39452283612847561 0.29327419615876571 0 0.40735995777278922 0.31529177153048282 0 0.39452283612847561 0.29327419615876571 0 0.40735995777278922 0.31529177153048282 0 0.38699433063728061 0.31527742834082251 0 0.39344306779005223 0.27230033237831303 0 0.39452283612847561 0.29327419615876571 0 0.40485173876458941 0.28267613629829041 0 0.39452283612847561 0.29327419615876571 0 0.40485173876458941 0.28267613629829041 0 0.41754629488840023 0.29524454689303942 0 0.41754629488840023 0.29524454689303942 0 0.4311872754373709 0.27809903511566009 0 0.41468339262694692 0.27218437615878938 0 0.40485173876458941 0.28267613629829041 0 0.41754629488840023 0.29524454689303942 0 0.41468339262694692 0.27218437615878938 0 0.39452283612847561 0.29327419615876571 0 0.41754629488840023 0.29524454689303942 0 0.40735995777278922 0.31529177153048282 0 0.41754629488840023 0.29524454689303942 0 0.43070121468300132 0.32102849156772251 0 0.40735995777278922 0.31529177153048282 0 0.41754629488840023 0.29524454689303942 0 0.43942509361447452 0.30330863025379029 0 0.43070121468300132 0.32102849156772251 0 0.41754629488840023 0.29524454689303942 0 0.4311872754373709 0.27809903511566009 0 0.43942509361447452 0.30330863025379029 0 0.4311872754373709 0.27809903511566009 0 0.41468339262694692 0.27218437615878938 0 0.42548962472733798 0.25271719739518789 0 0.40274807823316289 0.26831192179080571 0 0.40485173876458941 0.28267613629829041 0 0.41468339262694692 0.27218437615878938 0 0.40274807823316289 0.26831192179080571 0 0.41468339262694692 0.27218437615878938 0 0.40767330916685562 0.25609664483624212 0 0.41468339262694692 0.27218437615878938 0 0.40767330916685562 0.25609664483624212 0 0.42548962472733798 0.25271719739518789 0 0.4311872754373709 0.27809903511566009 0 0.42548962472733798 0.25271719739518789 0 0.44077755232383792 0.26053687963790823 0 0.42548962472733798 0.25271719739518789 0 0.44077755232383792 0.26053687963790823 0 0.44359590638341029 0.2449215294474314 0 0.44077755232383792 0.26053687963790823 0 0.45924072944994132 0.26799093352283149 0 0.45874486442221207 0.25191056812173451 0 0.44077755232383792 0.26053687963790823 0 0.45874486442221207 0.25191056812173451 0 0.44359590638341029 0.2449215294474314 0 0.4311872754373709 0.27809903511566009 0 0.44077755232383792 0.26053687963790823 0 0.44833244727853849 0.28668173117932277 0 0.44077755232383792 0.26053687963790823 0 0.45924072944994132 0.26799093352283149 0 0.44833244727853849 0.28668173117932277 0 0.44077755232383792 0.26053687963790823 0 0.44833244727853849 0.28668173117932277 0 0.45924072944994132 0.26799093352283149 0 0.47195365473071521 0.27933001153174541 0 0.44833244727853849 0.28668173117932277 0 0.45924072944994132 0.26799093352283149 0 0.45874486442221207 0.25191056812173451 0 0.47824650100279109 0.25602441365766121 0 0.45874486442221207 0.25191056812173451 0 0.47824650100279109 0.25602441365766121 0 0.46933416233355002 0.24299103372249159 0 0.47824650100279109 0.25602441365766121 0 0.47195365473071521 0.27933001153174541 0 0.48475267675913208 0.27158269047631622 0 0.45924072944994132 0.26799093352283149 0 0.47824650100279109 0.25602441365766121 0 0.47195365473071521 0.27933001153174541 0 0.47195365473071521 0.27933001153174541 0 0.48475267675913208 0.27158269047631622 0 0.48269678510424502 0.28418641294855579 0 0.48475267675913208 0.27158269047631622 0 0.49755105694838597 0.27201467455136352 0 0.4912552980326218 0.26306195551398881 0 0.49755105694838597 0.27201467455136352 0 0.5 0.26847991866884852 0 0.5 0.29339092869122307 0 0.48475267675913208 0.27158269047631622 0 0.49755105694838597 0.27201467455136352 0 0.48269678510424502 0.28418641294855579 0 0.49755105694838597 0.27201467455136352 0 0.5 0.26847991866884852 0 0.4912552980326218 0.26306195551398881 0 0.47824650100279109 0.25602441365766121 0 0.4912552980326218 0.26306195551398881 0 0.5 0.24356890864647379 0 0.5 0.26847991866884852 0 0.4912552980326218 0.26306195551398881 0 0.5 0.24356890864647379 0 0.47824650100279109 0.25602441365766121 0 0.48475267675913208 0.27158269047631622 0 0.4912552980326218 0.26306195551398881 0 0.48911143983256161 0.29926170407256603 0 0.5 0.29339092869122307 0 0.5 0.31830193871359769 0 0.49755105694838597 0.27201467455136352 0 0.48911143983256161 0.29926170407256603 0 0.48269678510424502 0.28418641294855579 0 0.49755105694838597 0.27201467455136352 0 0.48911143983256161 0.29926170407256603 0 0.5 0.29339092869122307 0 0.49755105694838597 0.27201467455136352 0 0.48911143983256161 0.29926170407256603 0 0.47195365473071521 0.27933001153174541 0 0.48269678510424502 0.28418641294855579 0 0.47011509725042949 0.29874298411078831 0 0.48911143983256161 0.29926170407256603 0 0.48269678510424502 0.28418641294855579 0 0.47011509725042949 0.29874298411078831 0 0.48911143983256161 0.29926170407256603 0 0.47011509725042949 0.29874298411078831 0 0.48067182271673708 0.32650873359376842 0 0.47011509725042949 0.29874298411078831 0 0.44833244727853849 0.28668173117932277 0 0.45588734223323918 0.31282658272073732 0 0.47195365473071521 0.27933001153174541 0 0.47011509725042949 0.29874298411078831 0 0.44833244727853849 0.28668173117932277 0 0.4311872754373709 0.27809903511566009 0 0.44833244727853849 0.28668173117932277 0 0.43942509361447452 0.30330863025379029 0 0.43942509361447452 0.30330863025379029 0 0.45588734223323918 0.31282658272073732 0 0.43070121468300132 0.32102849156772251 0 0.44833244727853849 0.28668173117932277 0 0.43942509361447452 0.30330863025379029 0 0.45588734223323918 0.31282658272073732 0 0.44833244727853849 0.28668173117932277 0 0.45588734223323918 0.31282658272073732 0 0.448070902395172 0.33067503636224849 0 0.45588734223323918 0.31282658272073732 0 0.43070121468300132 0.32102849156772251 0 0.448070902395172 0.33067503636224849 0 0.43668897460385991 0.33802409466628291 0 0.43070121468300132 0.32102849156772251 0 0.448070902395172 0.33067503636224849 0 0.4509596724681984 0.34597130660985181 0 0.43668897460385991 0.33802409466628291 0 0.448070902395172 0.33067503636224849 0 0.46344223718793992 0.33897143426215193 0 0.4509596724681984 0.34597130660985181 0 0.448070902395172 0.33067503636224849 0 0.46344223718793992 0.33897143426215193 0 0.45588734223323918 0.31282658272073732 0 0.46344223718793992 0.33897143426215193 0 0.45588734223323918 0.31282658272073732 0 0.48067182271673708 0.32650873359376842 0 0.46344223718793992 0.33897143426215193 0 0.45588734223323918 0.31282658272073732 0 0.47011509725042949 0.29874298411078831 0 0.45588734223323918 0.31282658272073732 0 0.48067182271673708 0.32650873359376842 0 0.46344223718793992 0.33897143426215193 0 0.48067182271673708 0.32650873359376842 0 0.47223220560091311 0.3537557631149707 0 0.48067182271673708 0.32650873359376842 0 0.47223220560091311 0.3537557631149707 0 0.48067182271673708 0.32650873359376842 0 0.49999999999999739 0.3432129487359723 0 0.47223220560091311 0.3537557631149707 0 0.48067182271673708 0.32650873359376842 0 0.49999999999999739 0.3432129487359723 0 0.5 0.31830193871359769 0 0.48911143983256161 0.29926170407256603 0 0.48067182271673708 0.32650873359376842 0 0.48911143983256161 0.29926170407256603 0 0.48067182271673708 0.32650873359376842 0 0.5 0.31830193871359769 0 0.48462506131484462 0.36210889275229752 0 0.5 0.36538246488633103 0 0.48349849911015469 0.37881947749249129 0 0.49999999999999739 0.3432129487359723 0 0.47223220560091311 0.3537557631149707 0 0.49999999999999739 0.3432129487359723 0 0.48462506131484462 0.36210889275229752 0 0.5 0.36538246488633103 0 0.49999999999999739 0.3432129487359723 0 0.48462506131484462 0.36210889275229752 0 0.47223220560091311 0.3537557631149707 0 0.48462506131484462 0.36210889275229752 0 0.47223220560091311 0.3537557631149707 0 0.46739460186315518 0.36937380953172211 0 0.48462506131484462 0.36210889275229752 0 0.46739460186315518 0.36937380953172211 0 0.48349849911015469 0.37881947749249129 0 0.47223220560091311 0.3537557631149707 0 0.46739460186315518 0.36937380953172211 0 0.46739460186315518 0.36937380953172211 0 0.45414510423174043 0.36062303350918079 0 0.44930750049397739 0.37624107992593242 0 0.47223220560091311 0.3537557631149707 0 0.46739460186315518 0.36937380953172211 0 0.45414510423174043 0.36062303350918079 0 0.47223220560091311 0.3537557631149707 0 0.45414510423174043 0.36062303350918079 0 0.47223220560091311 0.3537557631149707 0 0.45414510423174043 0.36062303350918079 0 0.4509596724681984 0.34597130660985181 0 0.46344223718793992 0.33897143426215193 0 0.47223220560091311 0.3537557631149707 0 0.4509596724681984 0.34597130660985181 0 0.45414510423174043 0.36062303350918079 0 0.4509596724681984 0.34597130660985181 0 0.43562604991909898 0.35064535888233211 0 0.4509596724681984 0.34597130660985181 0 0.43562604991909898 0.35064535888233211 0 0.43668897460385991 0.33802409466628291 0 0.45414510423174043 0.36062303350918079 0 0.43605800286256768 0.36749030390339121 0 0.45414510423174043 0.36062303350918079 0 0.43605800286256768 0.36749030390339121 0 0.43562604991909898 0.35064535888233211 0 0.45414510423174043 0.36062303350918079 0 0.43605800286256768 0.36749030390339121 0 0.44930750049397739 0.37624107992593242 0 0.43605800286256768 0.36749030390339121 0 0.44930750049397739 0.37624107992593242 0 0.43605800286256768 0.36749030390339121 0 0.42042272087576299 0.37342667297113469 0 0.43588641146379892 0.38340597586918751 0 0.43605800286256768 0.36749030390339121 0 0.42042272087576299 0.37342667297113469 0 0.43605800286256768 0.36749030390339121 0 0.42042272087576299 0.37342667297113469 0 0.41198362187960452 0.35159011495103543 0 0.43605800286256768 0.36749030390339121 0 0.41198362187960452 0.35159011495103543 0 0.42042272087576299 0.37342667297113469 0 0.39845317715951378 0.35931083761804239 0 0.40007287044761719 0.37605628743184349 0 0.42042272087576299 0.37342667297113469 0 0.41198362187960452 0.35159011495103543 0 0.39845317715951378 0.35931083761804239 0 0.43605800286256768 0.36749030390339121 0 0.41198362187960452 0.35159011495103543 0 0.43562604991909898 0.35064535888233211 0 0.41198362187960452 0.35159011495103543 0 0.43562604991909898 0.35064535888233211 0 0.42392092346862348 0.34017329965425108 0 0.43668897460385991 0.33802409466628291 0 0.42392092346862348 0.34017329965425108 0 0.43070121468300132 0.32102849156772251 0 0.42392092346862348 0.34017329965425108 0 0.43070121468300132 0.32102849156772251 0 0.41155345216491362 0.33285116161983591 0 0.43562604991909898 0.35064535888233211 0 0.43668897460385991 0.33802409466628291 0 0.42392092346862348 0.34017329965425108 0 0.43070121468300132 0.32102849156772251 0 0.40735995777278922 0.31529177153048282 0 0.41155345216491362 0.33285116161983591 0 0.41198362187960452 0.35159011495103543 0 0.42392092346862348 0.34017329965425108 0 0.41155345216491362 0.33285116161983591 0 0.41155345216491362 0.33285116161983591 0 0.38790924089664541 0.3356899259986732 0 0.41198362187960452 0.35159011495103543 0 0.38790924089664541 0.3356899259986732 0 0.41198362187960452 0.35159011495103543 0 0.41155345216491362 0.33285116161983591 0 0.38790924089664541 0.3356899259986732 0 0.40735995777278922 0.31529177153048282 0 0.41155345216491362 0.33285116161983591 0 0.38790924089664541 0.3356899259986732 0 0.40735995777278922 0.31529177153048282 0 0.38699433063728061 0.31527742834082251 0 0.38790924089664541 0.3356899259986732 0 0.36695312981490319 0.32184923260174331 0 0.37216202243157648 0.30391182465333921 0 0.38699433063728061 0.31527742834082251 0 0.36695312981490319 0.32184923260174331 0 0.38699433063728061 0.31527742834082251 0 0.38790924089664541 0.3356899259986732 0 0.37205635918113023 0.33759325004721019 0 0.38790924089664541 0.3356899259986732 0 0.37205635918113023 0.33759325004721019 0 0.38790924089664541 0.3356899259986732 0 0.38427987039732642 0.35147038732672498 0 0.37205635918113023 0.33759325004721019 0 0.36695312981490319 0.32184923260174331 0 0.38790924089664541 0.3356899259986732 0 0.36695312981490319 0.32184923260174331 0 0.38790924089664541 0.3356899259986732 0 0.37205635918113023 0.33759325004721019 0 0.38427987039732642 0.35147038732672498 0 0.38790924089664541 0.3356899259986732 0 0.38427987039732642 0.35147038732672498 0 0.39845317715951378 0.35931083761804239 0 0.36602915985094442 0.36604234812139003 0 0.38605073846013049 0.36763163702883689 0 0.38255439677524639 0.38429210051758922 0 0.38427987039732642 0.35147038732672498 0 0.38605073846013049 0.36763163702883689 0 0.39845317715951378 0.35931083761804239 0 0.36602915985094442 0.36604234812139003 0 0.38427987039732642 0.35147038732672498 0 0.38605073846013049 0.36763163702883689 0 0.38605073846013049 0.36763163702883689 0 0.39845317715951378 0.35931083761804239 0 0.40007287044761719 0.37605628743184349 0 0.41198362187960452 0.35159011495103543 0 0.38790924089664541 0.3356899259986732 0 0.39845317715951378 0.35931083761804239 0 0.3984325666905677 0.39979605835387461 0 0.39496920901563881 0.38932481931790908 0 0.38419135016881789 0.39689882966673729 0 0.3984325666905677 0.39979605835387461 0 0.39991217951303037 0.41124407223877207 0 0.41159178245276712 0.40359082712682559 0 0.3984325666905677 0.39979605835387461 0 0.39496920901563881 0.38932481931790908 0 0.40959486099594472 0.38958082061950122 0 0.40007287044761719 0.37605628743184349 0 0.39496920901563881 0.38932481931790908 0 0.38255439677524639 0.38429210051758922 0 0.40007287044761719 0.37605628743184349 0 0.39496920901563881 0.38932481931790908 0 0.40959486099594472 0.38958082061950122 0 0.39496920901563881 0.38932481931790908 0 0.38255439677524639 0.38429210051758922 0 0.38419135016881789 0.39689882966673729 0 0.38605073846013049 0.36763163702883689 0 0.40007287044761719 0.37605628743184349 0 0.38255439677524639 0.38429210051758922 0 0.37111164107540201 0.38604060083203973 0 0.38255439677524639 0.38429210051758922 0 0.37546942330986471 0.392876571140854 0 0.37422473952013219 0.39927691022152861 0 0.37546942330986471 0.392876571140854 0 0.38419135016881789 0.39689882966673729 0 0.38255439677524639 0.38429210051758922 0 0.37546942330986471 0.392876571140854 0 0.38419135016881789 0.39689882966673729 0 0.3984325666905677 0.39979605835387461 0 0.38419135016881789 0.39689882966673729 0 0.38879181847559119 0.40924441288895469 0 0.38419135016881789 0.39689882966673729 0 0.37680910359599418 0.40611571608601987 0 0.38879181847559119 0.40924441288895469 0 0.37422473952013219 0.39927691022152861 0 0.38419135016881789 0.39689882966673729 0 0.37680910359599418 0.40611571608601987 0 0.37680910359599418 0.40611571608601987 0 0.37936901366415587 0.41851740550373551 0 0.38879181847559119 0.40924441288895469 0 0.37936901366415587 0.41851740550373551 0 0.38879181847559119 0.40924441288895469 0 0.39498789325749872 0.42192920918746502 0 0.37000071319738959 0.42433193034315791 0 0.38690196345533739 0.4407268751084511 0 0.37092296091976951 0.43938961692773432 0 0.37000071319738959 0.42433193034315791 0 0.38690196345533739 0.4407268751084511 0 0.37000071319738959 0.42433193034315791 0 0.37936901366415587 0.41851740550373551 0 0.38690196345533739 0.4407268751084511 0 0.37936901366415587 0.41851740550373551 0 0.39498789325749872 0.42192920918746502 0 0.38690196345533739 0.4407268751084511 0 0.39498789325749872 0.42192920918746502 0 0.4082467852056359 0.43528795840466328 0 0.38690196345533739 0.4407268751084511 0 0.39498789325749872 0.42192920918746502 0 0.41032257766401131 0.41702695941054319 0 0.4082467852056359 0.43528795840466328 0 0.3984325666905677 0.39979605835387461 0 0.38879181847559119 0.40924441288895469 0 0.39991217951303037 0.41124407223877207 0 0.38879181847559119 0.40924441288895469 0 0.39498789325749872 0.42192920918746502 0 0.39991217951303037 0.41124407223877207 0 0.39498789325749872 0.42192920918746502 0 0.39991217951303037 0.41124407223877207 0 0.41032257766401131 0.41702695941054319 0 0.39991217951303037 0.41124407223877207 0 0.41032257766401131 0.41702695941054319 0 0.41159178245276712 0.40359082712682559 0 0.41032257766401131 0.41702695941054319 0 0.42780099953173562 0.40940817876423491 0 0.41159178245276712 0.40359082712682559 0 0.41032257766401131 0.41702695941054319 0 0.4082467852056359 0.43528795840466328 0 0.42820737041775758 0.42561773626264537 0 0.4082467852056359 0.43528795840466328 0 0.42820737041775758 0.42561773626264537 0 0.42820851480147359 0.44543761044831931 0 0.42820737041775758 0.42561773626264537 0 0.44026018455567828 0.42932162905856569 0 0.42820851480147359 0.44543761044831931 0 0.42820737041775758 0.42561773626264537 0 0.43792109463115969 0.41911043248575131 0 0.44026018455567828 0.42932162905856569 0 0.42820737041775758 0.42561773626264537 0 0.42780099953173562 0.40940817876423491 0 0.43792109463115969 0.41911043248575131 0 0.41032257766401131 0.41702695941054319 0 0.42820737041775758 0.42561773626264537 0 0.42780099953173562 0.40940817876423491 0 0.42780099953173562 0.40940817876423491 0 0.43792109463115969 0.41911043248575131 0 0.44235869614123552 0.40883106169692829 0 0.42780099953173562 0.40940817876423491 0 0.43595366972413302 0.3978139097759098 0 0.42443870635783087 0.39352368707690349 0 0.42780099953173562 0.40940817876423491 0 0.43595366972413302 0.3978139097759098 0 0.44235869614123552 0.40883106169692829 0 0.43595366972413302 0.3978139097759098 0 0.42443870635783087 0.39352368707690349 0 0.43588641146379892 0.38340597586918751 0 0.42780099953173562 0.40940817876423491 0 0.42443870635783087 0.39352368707690349 0 0.41159178245276712 0.40359082712682559 0 0.42443870635783087 0.39352368707690349 0 0.41159178245276712 0.40359082712682559 0 0.40959486099594472 0.38958082061950122 0 0.3984325666905677 0.39979605835387461 0 0.41159178245276712 0.40359082712682559 0 0.40959486099594472 0.38958082061950122 0 0.42042272087576299 0.37342667297113469 0 0.40007287044761719 0.37605628743184349 0 0.40959486099594472 0.38958082061950122 0 0.42042272087576299 0.37342667297113469 0 0.42443870635783087 0.39352368707690349 0 0.40959486099594472 0.38958082061950122 0 0.42042272087576299 0.37342667297113469 0 0.42443870635783087 0.39352368707690349 0 0.43588641146379892 0.38340597586918751 0 0.43605800286256768 0.36749030390339121 0 0.43588641146379892 0.38340597586918751 0 0.44930750049397739 0.37624107992593242 0 0.44930750049397739 0.37624107992593242 0 0.44730348520445518 0.39260260188461632 0 0.46255699812538892 0.38499185594847091 0 0.43588641146379892 0.38340597586918751 0 0.44930750049397739 0.37624107992593242 0 0.44730348520445518 0.39260260188461632 0 0.43595366972413302 0.3978139097759098 0 0.44730348520445518 0.39260260188461632 0 0.44235869614123552 0.40883106169692829 0 0.44730348520445518 0.39260260188461632 0 0.45676761031739471 0.4036827062974277 0 0.44235869614123552 0.40883106169692829 0 0.43595366972413302 0.3978139097759098 0 0.43588641146379892 0.38340597586918751 0 0.44730348520445518 0.39260260188461632 0 0.45676761031739471 0.4036827062974277 0 0.46255699812538892 0.38499185594847091 0 0.48127849906268699 0.39735667656776291 0 0.45676761031739471 0.4036827062974277 0 0.46255699812538892 0.38499185594847091 0 0.44730348520445518 0.39260260188461632 0 0.45676761031739471 0.4036827062974277 0 0.46255699812538892 0.38499185594847091 0 0.46739460186315518 0.36937380953172211 0 0.44930750049397739 0.37624107992593242 0 0.46255699812538892 0.38499185594847091 0 0.44930750049397739 0.37624107992593242 0 0.46255699812538892 0.38499185594847091 0 0.46739460186315518 0.36937380953172211 0 0.46255699812538892 0.38499185594847091 0 0.46739460186315518 0.36937380953172211 0 0.46255699812538892 0.38499185594847091 0 0.48349849911015469 0.37881947749249129 0 0.46255699812538892 0.38499185594847091 0 0.48349849911015469 0.37881947749249129 0 0.48127849906268699 0.39735667656776291 0 0.45676761031739471 0.4036827062974277 0 0.48127849906268699 0.39735667656776291 0 0.46909732254772729 0.41463806893859673 0 0.46255699812538892 0.38499185594847091 0 0.48127849906268699 0.39735667656776291 0 0.48127849906268699 0.39735667656776291 0 0.49999999999998979 0.4097214971870482 0 0.48127849906268699 0.39735667656776291 0 0.5 0.38755198103668947 0 0.49999999999998979 0.4097214971870482 0 0.5 0.36538246488633103 0 0.48349849911015469 0.37881947749249129 0 0.5 0.38755198103668947 0 0.48349849911015469 0.37881947749249129 0 0.48127849906268699 0.39735667656776291 0 0.5 0.38755198103668947 0 0.5 0.43455808130897799 0 0.47704908776503102 0.42600382154527611 0 0.48395226638135841 0.4402431311965519 0 0.5 0.43455808130897799 0 0.4851508451460832 0.41317987188907818 0 0.47704908776503102 0.42600382154527611 0 0.5 0.43455808130897799 0 0.4851508451460832 0.41317987188907818 0 0.49999999999998979 0.4097214971870482 0 0.48127849906268699 0.39735667656776291 0 0.4851508451460832 0.41317987188907818 0 0.49999999999998979 0.4097214971870482 0 0.48127849906268699 0.39735667656776291 0 0.4851508451460832 0.41317987188907818 0 0.46909732254772729 0.41463806893859673 0 0.4851508451460832 0.41317987188907818 0 0.46909732254772729 0.41463806893859673 0 0.47704908776503102 0.42600382154527611 0 0.46909732254772729 0.41463806893859673 0 0.47704908776503102 0.42600382154527611 0 0.46347725801709883 0.42638456686965331 0 0.47704908776503102 0.42600382154527611 0 0.46714765225578081 0.43813895467358083 0 0.48395226638135841 0.4402431311965519 0 0.47704908776503102 0.42600382154527611 0 0.46347725801709883 0.42638456686965331 0 0.46714765225578081 0.43813895467358083 0 0.46347725801709883 0.42638456686965331 0 0.45261381588966187 0.43375340102289278 0 0.46714765225578081 0.43813895467358083 0 0.46347725801709883 0.42638456686965331 0 0.45261381588966187 0.43375340102289278 0 0.45097822250939168 0.42237355664638188 0 0.45676761031739471 0.4036827062974277 0 0.46909732254772729 0.41463806893859673 0 0.45097822250939168 0.42237355664638188 0 0.45676761031739471 0.4036827062974277 0 0.45097822250939168 0.42237355664638188 0 0.46909732254772729 0.41463806893859673 0 0.46347725801709883 0.42638456686965331 0 0.45097822250939168 0.42237355664638188 0 0.45676761031739471 0.4036827062974277 0 0.44235869614123552 0.40883106169692829 0 0.45097822250939168 0.42237355664638188 0 0.43792109463115969 0.41911043248575131 0 0.44235869614123552 0.40883106169692829 0 0.45097822250939168 0.42237355664638188 0 0.45261381588966187 0.43375340102289278 0 0.44026018455567828 0.42932162905856569 0 0.42820851480147359 0.44543761044831931 0 0.45261381588966187 0.43375340102289278 0 0.45097822250939168 0.42237355664638188 0 0.44026018455567828 0.42932162905856569 0 0.43792109463115969 0.41911043248575131 0 0.45097822250939168 0.42237355664638188 0 0.44026018455567828 0.42932162905856569 0 0.45261381588966187 0.43375340102289278 0 0.45154280142377212 0.44981988954537772 0 0.42820851480147359 0.44543761044831931 0 0.5 0.5 0 0.4455277151939559 0.49759639345230572 0 0.4333737662261169 0.5 0 0.45261381588966187 0.43375340102289278 0 0.42820851480147359 0.44543761044831931 0 0.45568734046478659 0.46568900595178581 0 0.44127686650438008 0.47585374608906988 0 0.43228405471362819 0.46167599055316821 0 0.45154280142377212 0.44981988954537772 0 0.45568734046478659 0.46568900595178581 0 0.43228405471362819 0.46167599055316821 0 0.45154280142377212 0.44981988954537772 0 0.45568734046478659 0.46568900595178581 0 0.47331543041730201 0.45422437462251941 0 0.45261381588966187 0.43375340102289278 0 0.45154280142377212 0.44981988954537772 0 0.46714765225578081 0.43813895467358083 0 0.45154280142377212 0.44981988954537772 0 0.46714765225578081 0.43813895467358083 0 0.47331543041730201 0.45422437462251941 0 0.46714765225578081 0.43813895467358083 0 0.48395226638135841 0.4402431311965519 0 0.47331543041730201 0.45422437462251941 0 0.45568734046478659 0.46568900595178581 0 0.47331543041730201 0.45422437462251941 0 0.47928597457077848 0.47221272887046462 0 0.47331543041730201 0.45422437462251941 0 0.5 0.45939466543090779 0 0.47928597457077848 0.47221272887046462 0 0.48395226638135841 0.4402431311965519 0 0.47331543041730201 0.45422437462251941 0 0.5 0.45939466543090779 0 0.5 0.43455808130897799 0 0.48395226638135841 0.4402431311965519 0 0.5 0.45939466543090779 0 0.5 0.5 0 0.47061049731443488 0.48882496876367892 0 0.4455277151939559 0.49759639345230572 0 0.5 0.5 0 0.49999999999999828 0.48423124955283769 0 0.47061049731443488 0.48882496876367892 0 0.49999999999999828 0.48423124955283769 0 0.47061049731443488 0.48882496876367892 0 0.5 0.45939466543090779 0 0.49999999999999828 0.48423124955283769 0 0.47928597457077848 0.47221272887046462 0 0.49999999999999828 0.48423124955283769 0 0.47928597457077848 0.47221272887046462 0 0.47061049731443488 0.48882496876367892 0 0.47928597457077848 0.47221272887046462 0 0.47061049731443488 0.48882496876367892 0 0.45761633469665031 0.47919982752990359 0 0.47061049731443488 0.48882496876367892 0 0.45761633469665031 0.47919982752990359 0 0.44122099462887149 0.49341868797451932 0 0.47061049731443488 0.48882496876367892 0 0.44122099462887149 0.49341868797451932 0 0.45568734046478659 0.46568900595178581 0 0.47928597457077848 0.47221272887046462 0 0.45761633469665031 0.47919982752990359 0 0.45568734046478659 0.46568900595178581 0 0.45761633469665031 0.47919982752990359 0 0.44127686650438008 0.47585374608906988 0 0.45761633469665031 0.47919982752990359 0 0.44127686650438008 0.47585374608906988 0 0.44122099462887149 0.49341868797451932 0 0.47061049731443488 0.48882496876367892 0 0.4455277151939559 0.49759639345230572 0 0.44122099462887149 0.49341868797451932 0 0.4455277151939559 0.49759639345230572 0 0.44122099462887149 0.49341868797451932 0 0.4333737662261169 0.5 0 0.4455277151939559 0.49759639345230572 0 0.44122099462887149 0.49341868797451932 0 0.4333737662261169 0.5 0 0.4177260211727345 0.4970910641994058 0 0.38550110992932601 0.5 0 0.44122099462887149 0.49341868797451932 0 0.4177260211727345 0.4970910641994058 0 0.44122099462887149 0.49341868797451932 0 0.4177260211727345 0.4970910641994058 0 0.42251210417107898 0.47527025392413108 0 0.44122099462887149 0.49341868797451932 0 0.4333737662261169 0.5 0 0.4177260211727345 0.4970910641994058 0 0.4177260211727345 0.4970910641994058 0 0.42251210417107898 0.47527025392413108 0 0.39852669178588251 0.48007340300291151 0 0.42251210417107898 0.47527025392413108 0 0.40380321371328498 0.45712181987374462 0 0.39852669178588251 0.48007340300291151 0 0.44127686650438008 0.47585374608906988 0 0.42251210417107898 0.47527025392413108 0 0.43228405471362819 0.46167599055316821 0 0.44127686650438008 0.47585374608906988 0 0.44122099462887149 0.49341868797451932 0 0.42251210417107898 0.47527025392413108 0 0.44122099462887149 0.49341868797451932 0 0.42251210417107898 0.47527025392413108 0 0.45154280142377212 0.44981988954537772 0 0.43228405471362819 0.46167599055316821 0 0.42820851480147359 0.44543761044831931 0 0.42820851480147359 0.44543761044831931 0 0.40380321371328498 0.45712181987374462 0 0.4082467852056359 0.43528795840466328 0 0.42820851480147359 0.44543761044831931 0 0.40380321371328498 0.45712181987374462 0 0.42251210417107898 0.47527025392413108 0 0.40380321371328498 0.45712181987374462 0 0.43228405471362819 0.46167599055316821 0 0.42820851480147359 0.44543761044831931 0 0.40380321371328498 0.45712181987374462 0 0.42251210417107898 0.47527025392413108 0 0.43228405471362819 0.46167599055316821 0 0.40380321371328498 0.45712181987374462 0 0.40380321371328498 0.45712181987374462 0 0.38311814693722518 0.46702494097506209 0 0.40380321371328498 0.45712181987374462 0 0.38311814693722518 0.46702494097506209 0 0.39852669178588251 0.48007340300291151 0 0.40380321371328498 0.45712181987374462 0 0.38690196345533739 0.4407268751084511 0 0.38311814693722518 0.46702494097506209 0 0.40380321371328498 0.45712181987374462 0 0.38690196345533739 0.4407268751084511 0 0.4082467852056359 0.43528795840466328 0 0.40380321371328498 0.45712181987374462 0 0.38690196345533739 0.4407268751084511 0 0.37092296091976951 0.43938961692773432 0 0.37192382499149762 0.45273084783515988 0 0.38690196345533739 0.4407268751084511 0 0.37192382499149762 0.45273084783515988 0 0.38690196345533739 0.4407268751084511 0 0.38311814693722518 0.46702494097506209 0 0.38311814693722518 0.46702494097506209 0 0.37613613637947579 0.48480528121087041 0 0.39852669178588251 0.48007340300291151 0 0.4177260211727345 0.4970910641994058 0 0.38550110992932601 0.5 0 0.39852669178588251 0.48007340300291151 0 0.38550110992932601 0.5 0 0.37613613637947579 0.48480528121087041 0 0.39852669178588251 0.48007340300291151 0 0.34259539096436398 0.09118829322831902 0 0.32633281564015992 0.072668432215551165 0 0.34567260853765808 0.071329901325467543 0 0.34259539096436398 0.09118829322831902 0 0.32633281564015992 0.072668432215551165 0 0.32351134297334733 0.093877659623467502 0 0.32633281564015992 0.072668432215551165 0 0.34567260853765808 0.071329901325467543 0 0.33250164792649162 0.052151241473614073 0 0.32633281564015992 0.072668432215551165 0 0.31223709232351993 0.056058648764058069 0 0.30317902354651988 0.075442409051350412 0 0.32633281564015992 0.072668432215551165 0 0.32351134297334733 0.093877659623467502 0 0.30317902354651988 0.075442409051350412 0 0.32351134297334733 0.093877659623467502 0 0.30317902354651988 0.075442409051350412 0 0.32351134297334733 0.093877659623467502 0 0.33291570853134211 0.11141330338696261 0 0.31040793943754952 0.1125417237173037 0 0.33291570853134211 0.11141330338696261 0 0.31040793943754952 0.1125417237173037 0 0.32435478528943018 0.13693357267951059 0 0.33291570853134211 0.11141330338696261 0 0.35247160992972693 0.1077380327513143 0 0.34394273747561172 0.12797668246282889 0 0.34259539096436398 0.09118829322831902 0 0.32351134297334733 0.093877659623467502 0 0.33291570853134211 0.11141330338696261 0 0.34259539096436398 0.09118829322831902 0 0.33291570853134211 0.11141330338696261 0 0.35247160992972693 0.1077380327513143 0 0.34259539096436398 0.09118829322831902 0 0.35247160992972693 0.1077380327513143 0 0.35942853527027108 0.08819232105907529 0 0.35247160992972693 0.1077380327513143 0 0.36744753186943618 0.1199087634939994 0 0.34394273747561172 0.12797668246282889 0 0.35247160992972693 0.1077380327513143 0 0.36744753186943618 0.1199087634939994 0 0.37390898500207681 0.1041512651792777 0 0.35247160992972693 0.1077380327513143 0 0.37390898500207681 0.1041512651792777 0 0.35942853527027108 0.08819232105907529 0 0.37390898500207681 0.1041512651792777 0 0.374244235244309 0.089538525487199636 0 0.35942853527027108 0.08819232105907529 0 0.374244235244309 0.089538525487199636 0 0.35942853527027108 0.08819232105907529 0 0.36767838194349212 0.065207908382873617 0 0.34259539096436398 0.09118829322831902 0 0.35942853527027108 0.08819232105907529 0 0.34567260853765808 0.071329901325467543 0 0.35942853527027108 0.08819232105907529 0 0.34567260853765808 0.071329901325467543 0 0.36767838194349212 0.065207908382873617 0 0.36767838194349212 0.065207908382873617 0 0.36720056452803479 0.046410068451118613 0 0.35138213141341362 0.049213522568778881 0 0.36767838194349212 0.065207908382873617 0 0.35138213141341362 0.049213522568778881 0 0.36767838194349212 0.065207908382873617 0 0.36720056452803479 0.046410068451118613 0 0.38078446969602209 0.058068329676514208 0 0.36720056452803479 0.046410068451118613 0 0.35919888701021169 0.031352287885643051 0 0.38436572452315998 0.019848123384192388 0 0.35919888701021169 0.031352287885643051 0 0.34684176264918221 0.033267158878167939 0 0.35138213141341362 0.049213522568778881 0 0.36720056452803479 0.046410068451118613 0 0.35919888701021169 0.031352287885643051 0 0.35138213141341362 0.049213522568778881 0 0.34684176264918221 0.033267158878167939 0 0.35138213141341362 0.049213522568778881 0 0.33508588088333502 0.033219136754684131 0 0.34567260853765808 0.071329901325467543 0 0.36767838194349212 0.065207908382873617 0 0.35138213141341362 0.049213522568778881 0 0.37189854200638939 0.0052554674511347751 0 0.35787163828763818 0.014978793070746141 0 0.38436572452315998 0.019848123384192388 0 0.37189854200638939 0.0052554674511347751 0 0.35787163828763818 0.014978793070746141 0 0.35235534956952219 0.001626809587882895 0 0.35919888701021169 0.031352287885643051 0 0.35787163828763818 0.014978793070746141 0 0.38436572452315998 0.019848123384192388 0 0.35787163828763818 0.014978793070746141 0 0.38436572452315998 0.019848123384192388 0 0.34753150065984162 0.024396060960854352 0 0.35787163828763818 0.014978793070746141 0 0.34062235347350173 0.018212489844603091 0 0.35919888701021169 0.031352287885643051 0 0.34753150065984162 0.024396060960854352 0 0.35787163828763818 0.014978793070746141 0 0.35919888701021169 0.031352287885643051 0 0.34684176264918221 0.033267158878167939 0 0.34753150065984162 0.024396060960854352 0 0.35787163828763818 0.014978793070746141 0 0.34230059718848171 0.0025810500958884639 0 0.3313775520521165 0.010109462757299891 0 0.35787163828763818 0.014978793070746141 0 0.3313775520521165 0.010109462757299891 0 0.35787163828763818 0.014978793070746141 0 0.35235534956952219 0.001626809587882895 0 0.34230059718848171 0.0025810500958884639 0 0.35787163828763818 0.014978793070746141 0 0.3313775520521165 0.010109462757299891 0 0.34062235347350173 0.018212489844603091 0 0.34230059718848171 0.0025810500958884639 0 0.3313775520521165 0.010109462757299891 0 0.33122203488715368 -0.001204029555422461 0 0.3313775520521165 0.010109462757299891 0 0.33035322987751881 0.017291128189472881 0 0.34062235347350173 0.018212489844603091 0 0.3313775520521165 0.010109462757299891 0 0.33035322987751881 0.017291128189472881 0 0.32406770797834378 0.016600379937713929 0 0.33035322987751881 0.017291128189472881 0 0.33597784649039358 0.02428700424464221 0 0.32129516110051931 0.036674888476765477 0 0.33035322987751881 0.017291128189472881 0 0.34062235347350173 0.018212489844603091 0 0.33597784649039358 0.02428700424464221 0 0.34753150065984162 0.024396060960854352 0 0.34062235347350173 0.018212489844603091 0 0.33597784649039358 0.02428700424464221 0 0.34684176264918221 0.033267158878167939 0 0.33597784649039358 0.02428700424464221 0 0.33508588088333502 0.033219136754684131 0 0.34684176264918221 0.033267158878167939 0 0.34753150065984162 0.024396060960854352 0 0.33597784649039358 0.02428700424464221 0 0.33035322987751881 0.017291128189472881 0 0.32129516110051931 0.036674888476765477 0 0.33035322987751881 0.017291128189472881 0 0.31904689536315423 0.023243705327429611 0 0.32129516110051931 0.036674888476765477 0 0.31476601529599157 0.03067854944696723 0 0.31904689536315423 0.023243705327429611 0 0.32129516110051931 0.036674888476765477 0 0.31476601529599157 0.03067854944696723 0 0.31904689536315423 0.023243705327429611 0 0.30978138035003572 0.022038709433883811 0 0.31904689536315423 0.023243705327429611 0 0.31549315462058558 0.015757223476653349 0 0.32406770797834378 0.016600379937713929 0 0.31904689536315423 0.023243705327429611 0 0.31549315462058558 0.015757223476653349 0 0.30978138035003572 0.022038709433883811 0 0.33035322987751881 0.017291128189472881 0 0.31904689536315423 0.023243705327429611 0 0.32406770797834378 0.016600379937713929 0 0.3313775520521165 0.010109462757299891 0 0.3048834658165947 0.0052401324438536376 0 0.32067872675594261 -0.0026339777492341539 0 0.3313775520521165 0.010109462757299891 0 0.31549315462058558 0.015757223476653349 0 0.32406770797834378 0.016600379937713929 0 0.3313775520521165 0.010109462757299891 0 0.3048834658165947 0.0052401324438536376 0 0.3313775520521165 0.010109462757299891 0 0.31549315462058558 0.015757223476653349 0 0.3048834658165947 0.0052401324438536376 0 0.3313775520521165 0.010109462757299891 0 0.33122203488715368 -0.001204029555422461 0 0.32067872675594261 -0.0026339777492341539 0 0.34567260853765808 0.071329901325467543 0 0.35138213141341362 0.049213522568778881 0 0.33250164792649162 0.052151241473614073 0 0.35138213141341362 0.049213522568778881 0 0.33250164792649162 0.052151241473614073 0 0.33508588088333502 0.033219136754684131 0 0.35138213141341362 0.049213522568778881 0 0.33508588088333502 0.033219136754684131 0 0.33250164792649162 0.052151241473614073 0 0.33508588088333502 0.033219136754684131 0 0.32129516110051931 0.036674888476765477 0 0.33597784649039358 0.02428700424464221 0 0.33508588088333502 0.033219136754684131 0 0.32129516110051931 0.036674888476765477 0 0.32129516110051931 0.036674888476765477 0 0.31223709232351993 0.056058648764058069 0 0.3117265394023061 0.040540916190054309 0 0.32129516110051931 0.036674888476765477 0 0.31223709232351993 0.056058648764058069 0 0.31476601529599157 0.03067854944696723 0 0.32129516110051931 0.036674888476765477 0 0.3117265394023061 0.040540916190054309 0 0.32633281564015992 0.072668432215551165 0 0.33250164792649162 0.052151241473614073 0 0.31223709232351993 0.056058648764058069 0 0.33250164792649162 0.052151241473614073 0 0.32129516110051931 0.036674888476765477 0 0.31223709232351993 0.056058648764058069 0 0.31223709232351993 0.056058648764058069 0 0.29946273547611862 0.057229431517782037 0 0.30153684635117828 0.042176412141511119 0 0.31476601529599157 0.03067854944696723 0 0.28669147555799179 0.032858326312018099 0 0.31476601529599157 0.03067854944696723 0 0.30153684635117828 0.042176412141511119 0 0.28669147555799179 0.032858326312018099 0 0.31223709232351993 0.056058648764058069 0 0.3117265394023061 0.040540916190054309 0 0.30153684635117828 0.042176412141511119 0 0.31476601529599157 0.03067854944696723 0 0.3117265394023061 0.040540916190054309 0 0.30153684635117828 0.042176412141511119 0 0.30153684635117828 0.042176412141511119 0 0.28669147555799179 0.032858326312018099 0 0.28089797968325619 0.055240256114208561 0 0.29946273547611862 0.057229431517782037 0 0.30153684635117828 0.042176412141511119 0 0.28089797968325619 0.055240256114208561 0 0.31549315462058558 0.015757223476653349 0 0.3048834658165947 0.0052401324438536376 0 0.30978138035003572 0.022038709433883811 0 0.31476601529599157 0.03067854944696723 0 0.28669147555799179 0.032858326312018099 0 0.30000764346078768 0.022480970831864091 0 0.3048834658165947 0.0052401324438536376 0 0.30000764346078768 0.022480970831864091 0 0.30978138035003572 0.022038709433883811 0 0.31476601529599157 0.03067854944696723 0 0.30000764346078768 0.022480970831864091 0 0.30978138035003572 0.022038709433883811 0 0.28669147555799179 0.032858326312018099 0 0.28572672462458037 0.013412253235179561 0 0.2773735374221849 0.022837657734229279 0 0.28669147555799179 0.032858326312018099 0 0.30000764346078768 0.022480970831864091 0 0.28572672462458037 0.013412253235179561 0 0.3048834658165947 0.0052401324438536376 0 0.30000764346078768 0.022480970831864091 0 0.28572672462458037 0.013412253235179561 0 0.3048834658165947 0.0052401324438536376 0 0.28572672462458037 0.013412253235179561 0 0.27838937958107302 0.000370802130407388 0 0.3048834658165947 0.0052401324438536376 0 0.27838937958107302 0.000370802130407388 0 0.28572672462458037 0.013412253235179561 0 0.27838937958107302 0.000370802130407388 0 0.26156360621507929 0.0096706653718756502 0 0.28572672462458037 0.013412253235179561 0 0.2773735374221849 0.022837657734229279 0 0.26156360621507929 0.0096706653718756502 0 0.28572672462458037 0.013412253235179561 0 0.26156360621507929 0.0096706653718756502 0 0.26603355150264207 0.02087200762138142 0 0.2773735374221849 0.022837657734229279 0 0.26156360621507929 0.0096706653718756502 0 0.28669147555799179 0.032858326312018099 0 0.2773735374221849 0.022837657734229279 0 0.263195217642398 0.028091920903539621 0 0.26603355150264207 0.02087200762138142 0 0.2773735374221849 0.022837657734229279 0 0.263195217642398 0.028091920903539621 0 0.263195217642398 0.028091920903539621 0 0.25640817697806528 0.026492336490498151 0 0.2594852322578764 0.02091753046177643 0 0.263195217642398 0.028091920903539621 0 0.25853766527993738 0.030556131812834269 0 0.2586169358199919 0.035038103177067369 0 0.263195217642398 0.028091920903539621 0 0.25853766527993738 0.030556131812834269 0 0.25640817697806528 0.026492336490498151 0 0.25853766527993738 0.030556131812834269 0 0.25640817697806528 0.026492336490498151 0 0.25593033067929449 0.032602166680231963 0 0.2512444035911186 0.027069204809184171 0 0.25640817697806528 0.026492336490498151 0 0.25593033067929449 0.032602166680231963 0 0.2512444035911186 0.027069204809184171 0 0.25640817697806528 0.026492336490498151 0 0.25022560895119728 0.019460721921587279 0 0.25640817697806528 0.026492336490498151 0 0.25022560895119728 0.019460721921587279 0 0.2594852322578764 0.02091753046177643 0 0.25022560895119728 0.019460721921587279 0 0.2594852322578764 0.02091753046177643 0 0.26156360621507929 0.0096706653718756502 0 0.26603355150264207 0.02087200762138142 0 0.2594852322578764 0.02091753046177643 0 0.26156360621507929 0.0096706653718756502 0 0.26603355150264207 0.02087200762138142 0 0.263195217642398 0.028091920903539621 0 0.2594852322578764 0.02091753046177643 0 0.27838937958107302 0.000370802130407388 0 0.26156360621507929 0.0096706653718756502 0 0.25189529334555122 -0.0044985281830388643 0 0.23740048780557829 0.0059290775085717564 0 0.26156360621507929 0.0096706653718756502 0 0.25189529334555122 -0.0044985281830388643 0 0.26633805219587242 0.054283561609040229 0 0.28089797968325619 0.055240256114208561 0 0.2586169358199919 0.035038103177067369 0 0.26633805219587242 0.054283561609040229 0 0.28089797968325619 0.055240256114208561 0 0.26890466667340862 0.066924162636445475 0 0.28669147555799179 0.032858326312018099 0 0.2586169358199919 0.035038103177067369 0 0.28669147555799179 0.032858326312018099 0 0.263195217642398 0.028091920903539621 0 0.2586169358199919 0.035038103177067369 0 0.28089797968325619 0.055240256114208561 0 0.2586169358199919 0.035038103177067369 0 0.28669147555799179 0.032858326312018099 0 0.28089797968325619 0.055240256114208561 0 0.2586169358199919 0.035038103177067369 0 0.26633805219587242 0.054283561609040229 0 0.2586169358199919 0.035038103177067369 0 0.25747043175206252 0.049641061323833287 0 0.24241349775591731 0.0297215941444193 0 0.2586169358199919 0.035038103177067369 0 0.25593033067929449 0.032602166680231963 0 0.25853766527993738 0.030556131812834269 0 0.2586169358199919 0.035038103177067369 0 0.25593033067929449 0.032602166680231963 0 0.2586169358199919 0.035038103177067369 0 0.25593033067929449 0.032602166680231963 0 0.24603174092988009 0.048095312086837073 0 0.2586169358199919 0.035038103177067369 0 0.25747043175206252 0.049641061323833287 0 0.24603174092988009 0.048095312086837073 0 0.25747043175206252 0.049641061323833287 0 0.25707782727615391 0.060245437798373283 0 0.26633805219587242 0.054283561609040229 0 0.25747043175206252 0.049641061323833287 0 0.25707782727615391 0.060245437798373283 0 0.26633805219587242 0.054283561609040229 0 0.25707782727615391 0.060245437798373283 0 0.26890466667340862 0.066924162636445475 0 0.25707782727615391 0.060245437798373283 0 0.25711452023783993 0.077914187043372246 0 0.26890466667340862 0.066924162636445475 0 0.24561880858526181 0.065545558692949271 0 0.25707782727615391 0.060245437798373283 0 0.25711452023783993 0.077914187043372246 0 0.24745047341450829 0.091852884101340918 0 0.25711452023783993 0.077914187043372246 0 0.26318315948789578 0.094846834591836821 0 0.25711452023783993 0.077914187043372246 0 0.28019903511195587 0.07899808981781152 0 0.26318315948789578 0.094846834591836821 0 0.28019903511195587 0.07899808981781152 0 0.27704698579063403 0.10153588731093929 0 0.26318315948789578 0.094846834591836821 0 0.25711452023783993 0.077914187043372246 0 0.28019903511195587 0.07899808981781152 0 0.26890466667340862 0.066924162636445475 0 0.28089797968325619 0.055240256114208561 0 0.28019903511195587 0.07899808981781152 0 0.26890466667340862 0.066924162636445475 0 0.28089797968325619 0.055240256114208561 0 0.28019903511195587 0.07899808981781152 0 0.30317902354651988 0.075442409051350412 0 0.32351134297334733 0.093877659623467502 0 0.30317902354651988 0.075442409051350412 0 0.29221398683915389 0.098906973994449143 0 0.29946273547611862 0.057229431517782037 0 0.28089797968325619 0.055240256114208561 0 0.30317902354651988 0.075442409051350412 0 0.28089797968325619 0.055240256114208561 0 0.30317902354651988 0.075442409051350412 0 0.28019903511195587 0.07899808981781152 0 0.29221398683915389 0.098906973994449143 0 0.27704698579063403 0.10153588731093929 0 0.28019903511195587 0.07899808981781152 0 0.30317902354651988 0.075442409051350412 0 0.29221398683915389 0.098906973994449143 0 0.30317902354651988 0.075442409051350412 0 0.29221398683915389 0.098906973994449143 0 0.31223709232351993 0.056058648764058069 0 0.30317902354651988 0.075442409051350412 0 0.31223709232351993 0.056058648764058069 0 0.29946273547611862 0.057229431517782037 0 0.30317902354651988 0.075442409051350412 0 0.32351134297334733 0.093877659623467502 0 0.31040793943754952 0.1125417237173037 0 0.29221398683915389 0.098906973994449143 0 0.31040793943754952 0.1125417237173037 0 0.28866889485897668 0.1156757653404643 0 0.30282219884211542 0.13642222730628251 0 0.31040793943754952 0.1125417237173037 0 0.29221398683915389 0.098906973994449143 0 0.28866889485897668 0.1156757653404643 0 0.29221398683915389 0.098906973994449143 0 0.28866889485897668 0.1156757653404643 0 0.27704698579063403 0.10153588731093929 0 0.28866889485897668 0.1156757653404643 0 0.27709180723285132 0.1203128863991703 0 0.28624829377365052 0.13060062157279681 0 0.27709180723285132 0.1203128863991703 0 0.26561505684139219 0.1142869411873305 0 0.27148399324395578 0.1310274720955284 0 0.28866889485897668 0.1156757653404643 0 0.27709180723285132 0.1203128863991703 0 0.27704698579063403 0.10153588731093929 0 0.27709180723285132 0.1203128863991703 0 0.27704698579063403 0.10153588731093929 0 0.26561505684139219 0.1142869411873305 0 0.27704698579063403 0.10153588731093929 0 0.26318315948789578 0.094846834591836821 0 0.26561505684139219 0.1142869411873305 0 0.26318315948789578 0.094846834591836821 0 0.25250081952329112 0.10730119291591329 0 0.26561505684139219 0.1142869411873305 0 0.24745047341450829 0.091852884101340918 0 0.26318315948789578 0.094846834591836821 0 0.25250081952329112 0.10730119291591329 0 0.26561505684139219 0.1142869411873305 0 0.25002981921467371 0.1210434623962709 0 0.25884109484866957 0.13058652896136841 0 0.25250081952329112 0.10730119291591329 0 0.26561505684139219 0.1142869411873305 0 0.25002981921467371 0.1210434623962709 0 0.26561505684139219 0.1142869411873305 0 0.25884109484866957 0.13058652896136841 0 0.27148399324395578 0.1310274720955284 0 0.24854473890169121 0.13271112874541779 0 0.25002981921467371 0.1210434623962709 0 0.25884109484866957 0.13058652896136841 0 0.24854473890169121 0.13271112874541779 0 0.25884109484866957 0.13058652896136841 0 0.25327884258801769 0.14441352075213529 0 0.25884109484866957 0.13058652896136841 0 0.26465378394273881 0.1418230663694672 0 0.25327884258801769 0.14441352075213529 0 0.25884109484866957 0.13058652896136841 0 0.27148399324395578 0.1310274720955284 0 0.26465378394273881 0.1418230663694672 0 0.27148399324395578 0.1310274720955284 0 0.26465378394273881 0.1418230663694672 0 0.28209763100893509 0.14513962572657849 0 0.27148399324395578 0.1310274720955284 0 0.28624829377365052 0.13060062157279681 0 0.28209763100893509 0.14513962572657849 0 0.27709180723285132 0.1203128863991703 0 0.27148399324395578 0.1310274720955284 0 0.28624829377365052 0.13060062157279681 0 0.26703114100141451 0.15437259890063601 0 0.26465378394273881 0.1418230663694672 0 0.28209763100893509 0.14513962572657849 0 0.26703114100141451 0.15437259890063601 0 0.29213529537934751 0.15872272448906069 0 0.28209763100893509 0.14513962572657849 0 0.26703114100141451 0.15437259890063601 0 0.25327884258801769 0.14441352075213529 0 0.25332258905290589 0.16087109394117829 0 0.26703114100141451 0.15437259890063601 0 0.26465378394273881 0.1418230663694672 0 0.25327884258801769 0.14441352075213529 0 0.26703114100141451 0.15437259890063601 0 0.25332258905290589 0.16087109394117829 0 0.27404389162640092 0.17040468342170731 0 0.25332258905290589 0.16087109394117829 0 0.25538089575682471 0.17709261206443511 0 0.27404389162640092 0.17040468342170731 0 0.25538089575682471 0.17709261206443511 0 0.25716385179167578 0.19213686191455909 0 0.27452334747510893 0.19102970086981011 0 0.24009935978751701 0.18268750516746349 0 0.25538089575682471 0.17709261206443511 0 0.25716385179167578 0.19213686191455909 0 0.25538089575682471 0.17709261206443511 0 0.27404389162640092 0.17040468342170731 0 0.27452334747510893 0.19102970086981011 0 0.27404389162640092 0.17040468342170731 0 0.28970466867587419 0.1734438744848176 0 0.27452334747510893 0.19102970086981011 0 0.26703114100141451 0.15437259890063601 0 0.27404389162640092 0.17040468342170731 0 0.29213529537934751 0.15872272448906069 0 0.27404389162640092 0.17040468342170731 0 0.29213529537934751 0.15872272448906069 0 0.28970466867587419 0.1734438744848176 0 0.28970466867587419 0.1734438744848176 0 0.2976079140601352 0.184601825371146 0 0.27452334747510893 0.19102970086981011 0 0.2976079140601352 0.184601825371146 0 0.30843725204150318 0.19334471872953241 0 0.32437973420446808 0.18250431545860721 0 0.2976079140601352 0.184601825371146 0 0.32437973420446808 0.18250431545860721 0 0.28970466867587419 0.1734438744848176 0 0.31015998290861108 0.17291023762722141 0 0.2976079140601352 0.184601825371146 0 0.31015998290861108 0.17291023762722141 0 0.2976079140601352 0.184601825371146 0 0.32437973420446808 0.18250431545860721 0 0.29213529537934751 0.15872272448906069 0 0.28970466867587419 0.1734438744848176 0 0.31015998290861108 0.17291023762722141 0 0.29213529537934751 0.15872272448906069 0 0.31015998290861108 0.17291023762722141 0 0.316975502825254 0.15716868927210059 0 0.30282219884211542 0.13642222730628251 0 0.316975502825254 0.15716868927210059 0 0.29213529537934751 0.15872272448906069 0 0.30282219884211542 0.13642222730628251 0 0.316975502825254 0.15716868927210059 0 0.30282219884211542 0.13642222730628251 0 0.28624829377365052 0.13060062157279681 0 0.28209763100893509 0.14513962572657849 0 0.28866889485897668 0.1156757653404643 0 0.30282219884211542 0.13642222730628251 0 0.28866889485897668 0.1156757653404643 0 0.30282219884211542 0.13642222730628251 0 0.28624829377365052 0.13060062157279681 0 0.29213529537934751 0.15872272448906069 0 0.30282219884211542 0.13642222730628251 0 0.28209763100893509 0.14513962572657849 0 0.26232043110115549 0.25274341919283649 0 0.2736024596837548 0.2313424984213755 0 0.28675163135586812 0.24142749753939799 0 0.24140128419315809 0.23892713918983621 0 0.26232043110115549 0.25274341919283649 0 0.24140128419315809 0.23892713918983621 0 0.26232043110115549 0.25274341919283649 0 0.25843244608827559 0.22734646679336329 0 0.26232043110115549 0.25274341919283649 0 0.25843244608827559 0.22734646679336329 0 0.2736024596837548 0.2313424984213755 0 0.25843244608827559 0.22734646679336329 0 0.2736024596837548 0.2313424984213755 0 0.27546360798340652 0.21576579439690979 0 0.25843244608827559 0.22734646679336329 0 0.27546360798340652 0.21576579439690979 0 0.2736024596837548 0.2313424984213755 0 0.27546360798340652 0.21576579439690979 0 0.29256470925852091 0.22260178779740319 0 0.27546360798340652 0.21576579439690979 0 0.27452334747510893 0.19102970086981011 0 0.29249476987853767 0.20418512200045691 0 0.27546360798340652 0.21576579439690979 0 0.25803884317546311 0.20845380393523991 0 0.27452334747510893 0.19102970086981011 0 0.24055090568073731 0.21746015111279141 0 0.25843244608827559 0.22734646679336329 0 0.25803884317546311 0.20845380393523991 0 0.25843244608827559 0.22734646679336329 0 0.27546360798340652 0.21576579439690979 0 0.25803884317546311 0.20845380393523991 0 0.25803884317546311 0.20845380393523991 0 0.25716385179167578 0.19213686191455909 0 0.27452334747510893 0.19102970086981011 0 0.240700984391507 0.19891521551657099 0 0.25803884317546311 0.20845380393523991 0 0.25716385179167578 0.19213686191455909 0 0.2976079140601352 0.184601825371146 0 0.27452334747510893 0.19102970086981011 0 0.29249476987853767 0.20418512200045691 0 0.27452334747510893 0.19102970086981011 0 0.29249476987853767 0.20418512200045691 0 0.2976079140601352 0.184601825371146 0 0.30843725204150318 0.19334471872953241 0 0.29249476987853767 0.20418512200045691 0 0.30843725204150318 0.19334471872953241 0 0.29249476987853767 0.20418512200045691 0 0.29249476987853767 0.20418512200045691 0 0.29256470925852091 0.22260178779740319 0 0.31241237789974918 0.2187651878156259 0 0.29249476987853767 0.20418512200045691 0 0.31241237789974918 0.2187651878156259 0 0.30843725204150318 0.19334471872953241 0 0.29249476987853767 0.20418512200045691 0 0.31241237789974918 0.2187651878156259 0 0.27546360798340652 0.21576579439690979 0 0.29249476987853767 0.20418512200045691 0 0.29256470925852091 0.22260178779740319 0 0.27546360798340652 0.21576579439690979 0 0.29249476987853767 0.20418512200045691 0 0.2736024596837548 0.2313424984213755 0 0.29256470925852091 0.22260178779740319 0 0.28675163135586812 0.24142749753939799 0 0.29256470925852091 0.22260178779740319 0 0.31241237789974918 0.2187651878156259 0 0.31286308011063851 0.24532202083054641 0 0.29256470925852091 0.22260178779740319 0 0.28675163135586812 0.24142749753939799 0 0.31286308011063851 0.24532202083054641 0 0.29819223908463671 0.25511476016800011 0 0.28675163135586812 0.24142749753939799 0 0.31286308011063851 0.24532202083054641 0 0.3358039582351468 0.25396688748271312 0 0.3323299859209608 0.23334525363079481 0 0.35224759394217242 0.2479253194459636 0 0.3323299859209608 0.23334525363079481 0 0.35224759394217242 0.2479253194459636 0 0.3358039582351468 0.25396688748271312 0 0.31286308011063851 0.24532202083054641 0 0.3358039582351468 0.25396688748271312 0 0.31286308011063851 0.24532202083054641 0 0.3323299859209608 0.23334525363079481 0 0.31241237789974918 0.2187651878156259 0 0.3323299859209608 0.23334525363079481 0 0.31241237789974918 0.2187651878156259 0 0.3323299859209608 0.23334525363079481 0 0.32963091309803738 0.2152204782214161 0 0.31241237789974918 0.2187651878156259 0 0.31286308011063851 0.24532202083054641 0 0.3323299859209608 0.23334525363079481 0 0.3323299859209608 0.23334525363079481 0 0.34170718973733838 0.2208131148458419 0 0.32963091309803738 0.2152204782214161 0 0.3323299859209608 0.23334525363079481 0 0.34170718973733838 0.2208131148458419 0 0.35400656134782982 0.2313434350846246 0 0.34170718973733838 0.2208131148458419 0 0.32963091309803738 0.2152204782214161 0 0.34239945439986358 0.2049428002932987 0 0.32963091309803738 0.2152204782214161 0 0.34239945439986358 0.2049428002932987 0 0.32451458068399969 0.19981069392070519 0 0.31241237789974918 0.2187651878156259 0 0.32963091309803738 0.2152204782214161 0 0.32451458068399969 0.19981069392070519 0 0.30843725204150318 0.19334471872953241 0 0.31241237789974918 0.2187651878156259 0 0.32451458068399969 0.19981069392070519 0 0.30843725204150318 0.19334471872953241 0 0.32451458068399969 0.19981069392070519 0 0.32437973420446808 0.18250431545860721 0 0.30843725204150318 0.19334471872953241 0 0.32437973420446808 0.18250431545860721 0 0.34239945439986358 0.2049428002932987 0 0.32451458068399969 0.19981069392070519 0 0.3379203776828722 0.19164131236475909 0 0.32451458068399969 0.19981069392070519 0 0.3379203776828722 0.19164131236475909 0 0.32437973420446808 0.18250431545860721 0 0.34239945439986358 0.2049428002932987 0 0.3379203776828722 0.19164131236475909 0 0.34801167198016358 0.1928341459637897 0 0.34801167198016358 0.1928341459637897 0 0.3578648190243266 0.19877347572753601 0 0.35137424527767741 0.18038935822913971 0 0.3379203776828722 0.19164131236475909 0 0.34801167198016358 0.1928341459637897 0 0.35137424527767741 0.18038935822913971 0 0.34239945439986358 0.2049428002932987 0 0.34801167198016358 0.1928341459637897 0 0.3578648190243266 0.19877347572753601 0 0.3578648190243266 0.19877347572753601 0 0.37489042857522359 0.1952991860309323 0 0.35137424527767741 0.18038935822913971 0 0.36074649690446903 0.2154327334524013 0 0.37300775917707468 0.228336620140213 0 0.3836555967594848 0.21030298208983511 0 0.37489042857522359 0.1952991860309323 0 0.36074649690446903 0.2154327334524013 0 0.3836555967594848 0.21030298208983511 0 0.3578648190243266 0.19877347572753601 0 0.37489042857522359 0.1952991860309323 0 0.36074649690446903 0.2154327334524013 0 0.34239945439986358 0.2049428002932987 0 0.3578648190243266 0.19877347572753601 0 0.36074649690446903 0.2154327334524013 0 0.34170718973733838 0.2208131148458419 0 0.34239945439986358 0.2049428002932987 0 0.36074649690446903 0.2154327334524013 0 0.34170718973733838 0.2208131148458419 0 0.36074649690446903 0.2154327334524013 0 0.35400656134782982 0.2313434350846246 0 0.36074649690446903 0.2154327334524013 0 0.35400656134782982 0.2313434350846246 0 0.37300775917707468 0.228336620140213 0 0.35400656134782982 0.2313434350846246 0 0.37300775917707468 0.228336620140213 0 0.36456150171018648 0.24188604567846581 0 0.37312360809717432 0.25657133323275721 0 0.36456150171018648 0.24188604567846581 0 0.35224759394217242 0.2479253194459636 0 0.37300775917707468 0.228336620140213 0 0.36456150171018648 0.24188604567846581 0 0.38165737004018352 0.2417571428398109 0 0.37312360809717432 0.25657133323275721 0 0.36456150171018648 0.24188604567846581 0 0.37312360809717432 0.25657133323275721 0 0.37893046416378739 0.25005134563455528 0 0.36456150171018648 0.24188604567846581 0 0.3323299859209608 0.23334525363079481 0 0.35400656134782982 0.2313434350846246 0 0.35224759394217242 0.2479253194459636 0 0.35400656134782982 0.2313434350846246 0 0.36456150171018648 0.24188604567846581 0 0.35224759394217242 0.2479253194459636 0 0.32435478528943018 0.13693357267951059 0 0.33386365745378982 0.15677622306846431 0 0.3473455710551801 0.1464496659239416 0 0.33386365745378982 0.15677622306846431 0 0.34951362129069241 0.16541403622885009 0 0.3473455710551801 0.1464496659239416 0 0.33291570853134211 0.11141330338696261 0 0.32435478528943018 0.13693357267951059 0 0.34394273747561172 0.12797668246282889 0 0.32435478528943018 0.13693357267951059 0 0.3473455710551801 0.1464496659239416 0 0.34394273747561172 0.12797668246282889 0 0.31040793943754952 0.1125417237173037 0 0.30282219884211542 0.13642222730628251 0 0.32435478528943018 0.13693357267951059 0 0.32435478528943018 0.13693357267951059 0 0.316975502825254 0.15716868927210059 0 0.33386365745378982 0.15677622306846431 0 0.30282219884211542 0.13642222730628251 0 0.32435478528943018 0.13693357267951059 0 0.316975502825254 0.15716868927210059 0 0.316975502825254 0.15716868927210059 0 0.33112880680839257 0.17791515123791879 0 0.316975502825254 0.15716868927210059 0 0.33112880680839257 0.17791515123791879 0 0.33386365745378982 0.15677622306846431 0 0.31015998290861108 0.17291023762722141 0 0.316975502825254 0.15716868927210059 0 0.33112880680839257 0.17791515123791879 0 0.31015998290861108 0.17291023762722141 0 0.32437973420446808 0.18250431545860721 0 0.33112880680839257 0.17791515123791879 0 0.32437973420446808 0.18250431545860721 0 0.33112880680839257 0.17791515123791879 0 0.33252282589414778 0.17995855848591541 0 0.33112880680839257 0.17791515123791879 0 0.34951362129069241 0.16541403622885009 0 0.32437973420446808 0.18250431545860721 0 0.35137424527767741 0.18038935822913971 0 0.3379203776828722 0.19164131236475909 0 0.32437973420446808 0.18250431545860721 0 0.35137424527767741 0.18038935822913971 0 0.32437973420446808 0.18250431545860721 0 0.33252282589414778 0.17995855848591541 0 0.35137424527767741 0.18038935822913971 0 0.32437973420446808 0.18250431545860721 0 0.33252282589414778 0.17995855848591541 0 0.33112880680839257 0.17791515123791879 0 0.33252282589414778 0.17995855848591541 0 0.33112880680839257 0.17791515123791879 0 0.33112880680839257 0.17791515123791879 0 0.33386365745378982 0.15677622306846431 0 0.34951362129069241 0.16541403622885009 0 0.33112880680839257 0.17791515123791879 0 0.34951362129069241 0.16541403622885009 0 0.34951362129069241 0.16541403622885009 0 0.36789843577299253 0.15291292121978189 0 0.34951362129069241 0.16541403622885009 0 0.35137424527767741 0.18038935822913971 0 0.36555059039737531 0.1669083722141991 0 0.33252282589414778 0.17995855848591541 0 0.34951362129069241 0.16541403622885009 0 0.35137424527767741 0.18038935822913971 0 0.35137424527767741 0.18038935822913971 0 0.36555059039737531 0.1669083722141991 0 0.37836875635088668 0.1782744009996734 0 0.37489042857522359 0.1952991860309323 0 0.35137424527767741 0.18038935822913971 0 0.37836875635088668 0.1782744009996734 0 0.35137424527767741 0.18038935822913971 0 0.37836875635088668 0.1782744009996734 0 0.36555059039737531 0.1669083722141991 0 0.38059789329462751 0.15755114439355061 0 0.37836875635088668 0.1782744009996734 0 0.34951362129069241 0.16541403622885009 0 0.36555059039737531 0.1669083722141991 0 0.36789843577299253 0.15291292121978189 0 0.36555059039737531 0.1669083722141991 0 0.36789843577299253 0.15291292121978189 0 0.38059789329462751 0.15755114439355061 0 0.36789843577299253 0.15291292121978189 0 0.3473455710551801 0.1464496659239416 0 0.36511299386545187 0.13419424433677041 0 0.36789843577299253 0.15291292121978189 0 0.36511299386545187 0.13419424433677041 0 0.38628325025529198 0.14041180621071259 0 0.34951362129069241 0.16541403622885009 0 0.36789843577299253 0.15291292121978189 0 0.3473455710551801 0.1464496659239416 0 0.36744753186943618 0.1199087634939994 0 0.34394273747561172 0.12797668246282889 0 0.36511299386545187 0.13419424433677041 0 0.3473455710551801 0.1464496659239416 0 0.34394273747561172 0.12797668246282889 0 0.36511299386545187 0.13419424433677041 0 0.34394273747561172 0.12797668246282889 0 0.36511299386545187 0.13419424433677041 0 0.36744753186943618 0.1199087634939994 0 0.36511299386545187 0.13419424433677041 0 0.37909921731021112 0.1300962966962215 0 0.37909921731021112 0.1300962966962215 0 0.39145856108966609 0.1368927521560612 0 0.38519374947121399 0.1190739172835709 0 0.36511299386545187 0.13419424433677041 0 0.37909921731021112 0.1300962966962215 0 0.38628325025529198 0.14041180621071259 0 0.36511299386545187 0.13419424433677041 0 0.38628325025529198 0.14041180621071259 0 0.37909921731021112 0.1300962966962215 0 0.38628325025529198 0.14041180621071259 0 0.39145856108966609 0.1368927521560612 0 0.38628325025529198 0.14041180621071259 0 0.39145856108966609 0.1368927521560612 0 0.38964643730127629 0.14139955161950529 0 0.39145856108966609 0.1368927521560612 0 0.38964643730127629 0.14139955161950529 0 0.38628325025529198 0.14041180621071259 0 0.39145856108966609 0.1368927521560612 0 0.39145856108966609 0.1368927521560612 0 0.40623940060255631 0.1462727933081254 0 0.41246723839188909 0.122607490186377 0 0.39145856108966609 0.1368927521560612 0 0.41246723839188909 0.122607490186377 0 0.39145856108966609 0.1368927521560612 0 0.40623940060255631 0.1462727933081254 0 0.38964643730127629 0.14139955161950529 0 0.40623940060255631 0.1462727933081254 0 0.39553825133011611 0.1499562085146281 0 0.38964643730127629 0.14139955161950529 0 0.40623940060255631 0.1462727933081254 0 0.38964643730127629 0.14139955161950529 0 0.40623940060255631 0.1462727933081254 0 0.39553825133011611 0.1499562085146281 0 0.406836084568029 0.1584260995851289 0 0.39553825133011611 0.1499562085146281 0 0.38856341076481282 0.15070131085222499 0 0.38964643730127629 0.14139955161950529 0 0.39553825133011611 0.1499562085146281 0 0.38856341076481282 0.15070131085222499 0 0.39436397027131481 0.16088082991720409 0 0.36789843577299253 0.15291292121978189 0 0.38628325025529198 0.14041180621071259 0 0.38059789329462751 0.15755114439355061 0 0.38628325025529198 0.14041180621071259 0 0.38856341076481282 0.15070131085222499 0 0.38059789329462751 0.15755114439355061 0 0.36789843577299253 0.15291292121978189 0 0.38628325025529198 0.14041180621071259 0 0.38628325025529198 0.14041180621071259 0 0.38856341076481282 0.15070131085222499 0 0.38964643730127629 0.14139955161950529 0 0.38628325025529198 0.14041180621071259 0 0.38964643730127629 0.14139955161950529 0 0.38059789329462751 0.15755114439355061 0 0.37836875635088668 0.1782744009996734 0 0.39436397027131481 0.16088082991720409 0 0.38856341076481282 0.15070131085222499 0 0.38059789329462751 0.15755114439355061 0 0.39436397027131481 0.16088082991720409 0 0.37836875635088668 0.1782744009996734 0 0.40536326742409601 0.17615944377020709 0 0.39479507665921759 0.1934128191285 0 0.37836875635088668 0.1782744009996734 0 0.40536326742409601 0.17615944377020709 0 0.37836875635088668 0.1782744009996734 0 0.40536326742409601 0.17615944377020709 0 0.39436397027131481 0.16088082991720409 0 0.40536326742409601 0.17615944377020709 0 0.39436397027131481 0.16088082991720409 0 0.406836084568029 0.1584260995851289 0 0.39553825133011611 0.1499562085146281 0 0.39436397027131481 0.16088082991720409 0 0.406836084568029 0.1584260995851289 0 0.406836084568029 0.1584260995851289 0 0.43235777849730522 0.17404448654074081 0 0.42283236390383622 0.15114603499674559 0 0.40536326742409601 0.17615944377020709 0 0.406836084568029 0.1584260995851289 0 0.43235777849730522 0.17404448654074081 0 0.40536326742409601 0.17615944377020709 0 0.39479507665921759 0.1934128191285 0 0.4203867305338031 0.19054336393098631 0 0.40536326742409601 0.17615944377020709 0 0.43235777849730522 0.17404448654074081 0 0.40536326742409601 0.17615944377020709 0 0.43235777849730522 0.17404448654074081 0 0.4203867305338031 0.19054336393098631 0 0.43235777849730522 0.17404448654074081 0 0.4203867305338031 0.19054336393098631 0 0.44352731484436708 0.18833529990568251 0 0.43235777849730522 0.17404448654074081 0 0.42283236390383622 0.15114603499674559 0 0.44844602494690189 0.15245775464525829 0 0.42283236390383622 0.15114603499674559 0 0.43531720459405038 0.13172356040665159 0 0.44844602494690189 0.15245775464525829 0 0.42283236390383622 0.15114603499674559 0 0.43531720459405038 0.13172356040665159 0 0.41888266213218361 0.13759244706457899 0 0.43531720459405038 0.13172356040665159 0 0.41888266213218361 0.13759244706457899 0 0.41246723839188909 0.122607490186377 0 0.40623940060255631 0.1462727933081254 0 0.41888266213218361 0.13759244706457899 0 0.41246723839188909 0.122607490186377 0 0.40623940060255631 0.1462727933081254 0 0.42283236390383622 0.15114603499674559 0 0.40623940060255631 0.1462727933081254 0 0.42283236390383622 0.15114603499674559 0 0.41888266213218361 0.13759244706457899 0 0.40623940060255631 0.1462727933081254 0 0.406836084568029 0.1584260995851289 0 0.42283236390383622 0.15114603499674559 0 0.39469495487488282 0.24788321047481071 0 0.39621327666181322 0.227921413292452 0 0.41205245791107148 0.2380027719803719 0 0.39469495487488282 0.24788321047481071 0 0.38165737004018352 0.2417571428398109 0 0.39621327666181322 0.227921413292452 0 0.40767330916685562 0.25609664483624212 0 0.39469495487488282 0.24788321047481071 0 0.41205245791107148 0.2380027719803719 0 0.37893046416378739 0.25005134563455528 0 0.36456150171018648 0.24188604567846581 0 0.38165737004018352 0.2417571428398109 0 0.3853334202703782 0.25144975246871659 0 0.39469495487488282 0.24788321047481071 0 0.38165737004018352 0.2417571428398109 0 0.3853334202703782 0.25144975246871659 0 0.37893046416378739 0.25005134563455528 0 0.38165737004018352 0.2417571428398109 0 0.37300775917707468 0.228336620140213 0 0.39621327666181322 0.227921413292452 0 0.3836555967594848 0.21030298208983511 0 0.37300775917707468 0.228336620140213 0 0.38165737004018352 0.2417571428398109 0 0.39621327666181322 0.227921413292452 0 0.39621327666181322 0.227921413292452 0 0.3836555967594848 0.21030298208983511 0 0.40949301232321461 0.207317361714073 0 0.3836555967594848 0.21030298208983511 0 0.39479507665921759 0.1934128191285 0 0.40949301232321461 0.207317361714073 0 0.3836555967594848 0.21030298208983511 0 0.40949301232321461 0.207317361714073 0 0.37489042857522359 0.1952991860309323 0 0.37836875635088668 0.1782744009996734 0 0.39479507665921759 0.1934128191285 0 0.37489042857522359 0.1952991860309323 0 0.3836555967594848 0.21030298208983511 0 0.39479507665921759 0.1934128191285 0 0.4203867305338031 0.19054336393098631 0 0.43533042788694448 0.20433174133831089 0 0.40949301232321461 0.207317361714073 0 0.39479507665921759 0.1934128191285 0 0.4203867305338031 0.19054336393098631 0 0.40949301232321461 0.207317361714073 0 0.4203867305338031 0.19054336393098631 0 0.43533042788694448 0.20433174133831089 0 0.44352731484436708 0.18833529990568251 0 0.43533042788694448 0.20433174133831089 0 0.41893178554678112 0.22184980380804939 0 0.43475839699800628 0.22890676371672339 0 0.43533042788694448 0.20433174133831089 0 0.40949301232321461 0.207317361714073 0 0.43533042788694448 0.20433174133831089 0 0.40949301232321461 0.207317361714073 0 0.41893178554678112 0.22184980380804939 0 0.39621327666181322 0.227921413292452 0 0.40949301232321461 0.207317361714073 0 0.41893178554678112 0.22184980380804939 0 0.39621327666181322 0.227921413292452 0 0.41893178554678112 0.22184980380804939 0 0.41205245791107148 0.2380027719803719 0 0.41893178554678112 0.22184980380804939 0 0.43475839699800628 0.22890676371672339 0 0.41205245791107148 0.2380027719803719 0 0.42548962472733798 0.25271719739518789 0 0.43475839699800628 0.22890676371672339 0 0.44359590638341029 0.2449215294474314 0 0.42548962472733798 0.25271719739518789 0 0.43475839699800628 0.22890676371672339 0 0.41205245791107148 0.2380027719803719 0 0.40767330916685562 0.25609664483624212 0 0.42548962472733798 0.25271719739518789 0 0.41205245791107148 0.2380027719803719 0 0.45874486442221207 0.25191056812173451 0 0.44359590638341029 0.2449215294474314 0 0.45914673001651041 0.2319838007356638 0 0.45874486442221207 0.25191056812173451 0 0.45914673001651041 0.2319838007356638 0 0.46933416233355002 0.24299103372249159 0 0.43475839699800628 0.22890676371672339 0 0.44359590638341029 0.2449215294474314 0 0.45914673001651041 0.2319838007356638 0 0.43475839699800628 0.22890676371672339 0 0.45914673001651041 0.2319838007356638 0 0.44976759103061442 0.21597957103768231 0 0.45914673001651041 0.2319838007356638 0 0.46608188451988769 0.21733738850545281 0 0.44976759103061442 0.21597957103768231 0 0.46608188451988769 0.21733738850545281 0 0.44976759103061442 0.21597957103768231 0 0.4611678434506743 0.20134612096254861 0 0.43533042788694448 0.20433174133831089 0 0.44976759103061442 0.21597957103768231 0 0.4611678434506743 0.20134612096254861 0 0.43533042788694448 0.20433174133831089 0 0.43475839699800628 0.22890676371672339 0 0.44976759103061442 0.21597957103768231 0 0.43533042788694448 0.20433174133831089 0 0.45819784856003898 0.2000220664733954 0 0.4611678434506743 0.20134612096254861 0 0.43533042788694448 0.20433174133831089 0 0.4611678434506743 0.20134612096254861 0 0.43533042788694448 0.20433174133831089 0 0.44352731484436708 0.18833529990568251 0 0.45819784856003898 0.2000220664733954 0 0.44352731484436708 0.18833529990568251 0 0.45610127326511901 0.18841361570514059 0 0.45819784856003898 0.2000220664733954 0 0.45610127326511901 0.18841361570514059 0 0.45819784856003898 0.2000220664733954 0 0.46645648730782308 0.1903485894336383 0 0.45819784856003898 0.2000220664733954 0 0.4611678434506743 0.20134612096254861 0 0.45819784856003898 0.2000220664733954 0 0.4611678434506743 0.20134612096254861 0 0.46645648730782308 0.1903485894336383 0 0.46645648730782308 0.1903485894336383 0 0.48058392172533732 0.19910251270493329 0 0.48059287944484669 0.180448804349605 0 0.4611678434506743 0.20134612096254861 0 0.48058392172533732 0.19910251270493329 0 0.4611678434506743 0.20134612096254861 0 0.46645648730782308 0.1903485894336383 0 0.48058392172533732 0.19910251270493329 0 0.48058392172533732 0.19910251270493329 0 0.50000000000000022 0.19685890444731791 0 0.49105133099055642 0.20455226124912951 0 0.48058392172533732 0.19910251270493329 0 0.50000000000000022 0.19685890444731791 0 0.48059287944484669 0.180448804349605 0 0.48058392172533732 0.19910251270493329 0 0.50000000000000022 0.19685890444731791 0 0.49105133099055642 0.20455226124912951 0 0.49999999999999889 0.21865789862409921 0 0.48058392172533659 0.21000200979332401 0 0.49999999999999889 0.21865789862409921 0 0.48058392172533659 0.21000200979332401 0 0.50000000000000022 0.19685890444731791 0 0.49105133099055642 0.20455226124912951 0 0.49999999999999889 0.21865789862409921 0 0.4611678434506743 0.20134612096254861 0 0.48058392172533659 0.21000200979332401 0 0.46608188451988769 0.21733738850545281 0 0.4611678434506743 0.20134612096254861 0 0.48058392172533659 0.21000200979332401 0 0.4611678434506743 0.20134612096254861 0 0.48058392172533732 0.19910251270493329 0 0.48058392172533659 0.21000200979332401 0 0.48058392172533732 0.19910251270493329 0 0.49105133099055642 0.20455226124912951 0 0.48058392172533659 0.21000200979332401 0 0.46608188451988769 0.21733738850545281 0 0.48058392172533659 0.21000200979332401 0 0.4811985538926864 0.2320453523749072 0 0.45914673001651041 0.2319838007356638 0 0.46608188451988769 0.21733738850545281 0 0.4811985538926864 0.2320453523749072 0 0.49999999999999889 0.21865789862409921 0 0.48058392172533659 0.21000200979332401 0 0.4811985538926864 0.2320453523749072 0 0.49999999999999889 0.21865789862409921 0 0.4811985538926864 0.2320453523749072 0 0.5 0.24356890864647379 0 0.47824650100279109 0.25602441365766121 0 0.4811985538926864 0.2320453523749072 0 0.5 0.24356890864647379 0 0.45914673001651041 0.2319838007356638 0 0.4811985538926864 0.2320453523749072 0 0.46933416233355002 0.24299103372249159 0 0.47824650100279109 0.25602441365766121 0 0.4811985538926864 0.2320453523749072 0 0.46933416233355002 0.24299103372249159 0 0.46386124328525669 0.13213278224152611 0 0.44844602494690189 0.15245775464525829 0 0.47716457806540602 0.15434859204147061 0 0.43531720459405038 0.13172356040665159 0 0.46386124328525669 0.13213278224152611 0 0.45237608692537518 0.11522524120842879 0 0.43531720459405038 0.13172356040665159 0 0.46386124328525669 0.13213278224152611 0 0.44844602494690189 0.15245775464525829 0 0.43235777849730522 0.17404448654074081 0 0.44844602494690189 0.15245775464525829 0 0.45935228957051449 0.1719295293112745 0 0.43235777849730522 0.17404448654074081 0 0.44352731484436708 0.18833529990568251 0 0.45935228957051449 0.1719295293112745 0 0.43235777849730522 0.17404448654074081 0 0.45935228957051449 0.1719295293112745 0 0.44352731484436708 0.18833529990568251 0 0.45610127326511901 0.18841361570514059 0 0.45935228957051449 0.1719295293112745 0 0.45610127326511901 0.18841361570514059 0 0.46645648730782308 0.1903485894336383 0 0.45935228957051449 0.1719295293112745 0 0.44844602494690189 0.15245775464525829 0 0.45935228957051449 0.1719295293112745 0 0.47716457806540602 0.15434859204147061 0 0.45935228957051449 0.1719295293112745 0 0.48059287944484669 0.180448804349605 0 0.47716457806540602 0.15434859204147061 0 0.46645648730782308 0.1903485894336383 0 0.45935228957051449 0.1719295293112745 0 0.48059287944484669 0.180448804349605 0 0.50000000000000022 0.19685890444731791 0 0.48059287944484669 0.180448804349605 0 0.5 0.1701046981589954 0 0.48059287944484669 0.180448804349605 0 0.5 0.1701046981589954 0 0.47716457806540602 0.15434859204147061 0 0.5 0.14335049187067289 0 0.47716457806540602 0.15434859204147061 0 0.48434193741578191 0.12997338872651171 0 0.5 0.1701046981589954 0 0.5 0.14335049187067289 0 0.47716457806540602 0.15434859204147061 0 0.46386124328525669 0.13213278224152611 0 0.47716457806540602 0.15434859204147061 0 0.48434193741578191 0.12997338872651171 0 0.5 0.14335049187067289 0 0.48434193741578191 0.12997338872651171 0 0.5 0.1165962855823504 0 0.5 0.1165962855823504 0 0.49064601299021759 0.1032191824381892 0 0.47474147805710581 0.1099106689302415 0 0.48434193741578191 0.12997338872651171 0 0.5 0.1165962855823504 0 0.47474147805710581 0.1099106689302415 0 0.5 0.1165962855823504 0 0.49064601299021759 0.1032191824381892 0 0.5 0.089842079294027988 0 0.4719132331114228 0.094751314883328774 0 0.47474147805710581 0.1099106689302415 0 0.48562171282895478 0.087688555618957054 0 0.49064601299021759 0.1032191824381892 0 0.47474147805710581 0.1099106689302415 0 0.48562171282895478 0.087688555618957054 0 0.47474147805710581 0.1099106689302415 0 0.48562171282895478 0.087688555618957054 0 0.46386124328525669 0.13213278224152611 0 0.48434193741578191 0.12997338872651171 0 0.47474147805710581 0.1099106689302415 0 0.46386124328525669 0.13213278224152611 0 0.47474147805710581 0.1099106689302415 0 0.49650194760080302 0.065466442307672235 0 0.49999999999999278 0.063087873005705591 0 0.5 0.089842079294027988 0 0.49650194760080302 0.065466442307672235 0 0.47549327029857408 0.07975170427734779 0 0.49650194760080302 0.065466442307672235 0 0.48562171282895478 0.087688555618957054 0 0.49650194760080302 0.065466442307672235 0 0.47549327029857408 0.07975170427734779 0 0.48781477910702442 0.05864953202960186 0 0.49650194760080302 0.065466442307672235 0 0.48562171282895478 0.087688555618957054 0 0.47549327029857408 0.07975170427734779 0 0.49763479404338379 0.063152683226257028 0 0.49650194760080302 0.065466442307672235 0 0.49763479404338379 0.063152683226257028 0 0.49650194760080302 0.065466442307672235 0 0.49999999999999278 0.063087873005705591 0 0.49650194760080302 0.065466442307672235 0 0.49999999999999278 0.063087873005705591 0 0.49650194760080302 0.065466442307672235 0 0.5 0.089842079294027988 0 0.48562171282895478 0.087688555618957054 0 0.49064601299021759 0.1032191824381892 0 0.5 0.089842079294027988 0 0.48562171282895478 0.087688555618957054 0 0.4719132331114228 0.094751314883328774 0 0.48562171282895478 0.087688555618957054 0 0.47549327029857408 0.07975170427734779 0 0.47549327029857408 0.07975170427734779 0 0.46944388359236122 0.051538144439365011 0 0.48781477910702442 0.05864953202960186 0 0.47549327029857408 0.07975170427734779 0 0.45647467020029342 0.072028715007201746 0 0.46944388359236122 0.051538144439365011 0 0.47549327029857408 0.07975170427734779 0 0.45647467020029342 0.072028715007201746 0 0.4544845929963458 0.094036966247024206 0 0.4719132331114228 0.094751314883328774 0 0.47549327029857408 0.07975170427734779 0 0.4544845929963458 0.094036966247024206 0 0.47549327029857408 0.07975170427734779 0 0.4544845929963458 0.094036966247024206 0 0.45647467020029342 0.072028715007201746 0 0.4544845929963458 0.094036966247024206 0 0.4360595792168539 0.077488508873908873 0 0.4544845929963458 0.094036966247024206 0 0.42934935268669999 0.092471932304215798 0 0.4360595792168539 0.077488508873908873 0 0.45647467020029342 0.072028715007201746 0 0.4360595792168539 0.077488508873908873 0 0.44689202489733187 0.057328251198362823 0 0.46386124328525669 0.13213278224152611 0 0.47474147805710581 0.1099106689302415 0 0.45237608692537518 0.11522524120842879 0 0.4719132331114228 0.094751314883328774 0 0.47474147805710581 0.1099106689302415 0 0.4544845929963458 0.094036966247024206 0 0.47474147805710581 0.1099106689302415 0 0.4544845929963458 0.094036966247024206 0 0.45237608692537518 0.11522524120842879 0 0.4544845929963458 0.094036966247024206 0 0.43347591569411748 0.10832222821670059 0 0.42934935268669999 0.092471932304215798 0 0.4544845929963458 0.094036966247024206 0 0.45237608692537518 0.11522524120842879 0 0.43347591569411748 0.10832222821670059 0 0.4544845929963458 0.094036966247024206 0 0.43347591569411748 0.10832222821670059 0 0.43531720459405038 0.13172356040665159 0 0.45237608692537518 0.11522524120842879 0 0.43347591569411748 0.10832222821670059 0 0.41246723839188909 0.122607490186377 0 0.43347591569411748 0.10832222821670059 0 0.43531720459405038 0.13172356040665159 0 0.41246723839188909 0.122607490186377 0 0.43347591569411748 0.10832222821670059 0 0.41246723839188909 0.122607490186377 0 0.41705688273558489 0.10192262033625241 0 0.43347591569411748 0.10832222821670059 0 0.41246723839188909 0.122607490186377 0 0.41705688273558489 0.10192262033625241 0 0.40190302997476568 0.1109170836787922 0 0.41705688273558489 0.10192262033625241 0 0.41234749885985489 0.084941415201518794 0 0.40190302997476568 0.1109170836787922 0 0.41234749885985489 0.084941415201518794 0 0.40190302997476568 0.1109170836787922 0 0.41705688273558489 0.10192262033625241 0 0.43347591569411748 0.10832222821670059 0 0.42934935268669999 0.092471932304215798 0 0.42934935268669999 0.092471932304215798 0 0.4360595792168539 0.077488508873908873 0 0.41234749885985489 0.084941415201518794 0 0.4360595792168539 0.077488508873908873 0 0.4227919677449441 0.058965746724245378 0 0.44689202489733187 0.057328251198362823 0 0.4360595792168539 0.077488508873908873 0 0.41234749885985489 0.084941415201518794 0 0.4227919677449441 0.058965746724245378 0 0.41234749885985489 0.084941415201518794 0 0.4060087449383169 0.068066034231038949 0 0.4227919677449441 0.058965746724245378 0 0.41234749885985489 0.084941415201518794 0 0.4227919677449441 0.058965746724245378 0 0.41705688273558489 0.10192262033625241 0 0.42934935268669999 0.092471932304215798 0 0.41234749885985489 0.084941415201518794 0 0.38397463247357078 0.081202294196968422 0 0.40027088300364949 0.097196680011063297 0 0.39836668605476661 0.080295217766921848 0 0.38397463247357078 0.081202294196968422 0 0.40027088300364949 0.097196680011063297 0 0.41234749885985489 0.084941415201518794 0 0.39836668605476661 0.080295217766921848 0 0.40027088300364949 0.097196680011063297 0 0.39836668605476661 0.080295217766921848 0 0.4060087449383169 0.068066034231038949 0 0.38810462910482257 0.070163871307044823 0 0.41234749885985489 0.084941415201518794 0 0.39836668605476661 0.080295217766921848 0 0.4060087449383169 0.068066034231038949 0 0.4060087449383169 0.068066034231038949 0 0.38810462910482257 0.070163871307044823 0 0.40785758903118818 0.050134496101338563 0 0.36767838194349212 0.065207908382873617 0 0.38810462910482257 0.070163871307044823 0 0.38397463247357078 0.081202294196968422 0 0.36767838194349212 0.065207908382873617 0 0.38397463247357078 0.081202294196968422 0 0.36767838194349212 0.065207908382873617 0 0.38810462910482257 0.070163871307044823 0 0.38078446969602209 0.058068329676514208 0 0.39836668605476661 0.080295217766921848 0 0.38810462910482257 0.070163871307044823 0 0.38397463247357078 0.081202294196968422 0 0.374244235244309 0.089538525487199636 0 0.36767838194349212 0.065207908382873617 0 0.38397463247357078 0.081202294196968422 0 0.38397463247357078 0.081202294196968422 0 0.38508257681170932 0.096372538541899561 0 0.40027088300364949 0.097196680011063297 0 0.374244235244309 0.089538525487199636 0 0.38397463247357078 0.081202294196968422 0 0.38508257681170932 0.096372538541899561 0 0.37390898500207681 0.1041512651792777 0 0.374244235244309 0.089538525487199636 0 0.38508257681170932 0.096372538541899561 0 0.37390898500207681 0.1041512651792777 0 0.38508257681170932 0.096372538541899561 0 0.38955359841603632 0.1066779873243149 0 0.36744753186943618 0.1199087634939994 0 0.37390898500207681 0.1041512651792777 0 0.38519374947121399 0.1190739172835709 0 0.36744753186943618 0.1199087634939994 0 0.37909921731021112 0.1300962966962215 0 0.38519374947121399 0.1190739172835709 0 0.37390898500207681 0.1041512651792777 0 0.38955359841603632 0.1066779873243149 0 0.38519374947121399 0.1190739172835709 0 0.38955359841603632 0.1066779873243149 0 0.38519374947121399 0.1190739172835709 0 0.40190302997476568 0.1109170836787922 0 0.39145856108966609 0.1368927521560612 0 0.40190302997476568 0.1109170836787922 0 0.39145856108966609 0.1368927521560612 0 0.41246723839188909 0.122607490186377 0 0.40190302997476568 0.1109170836787922 0 0.39145856108966609 0.1368927521560612 0 0.38519374947121399 0.1190739172835709 0 0.40190302997476568 0.1109170836787922 0 0.41234749885985489 0.084941415201518794 0 0.40190302997476568 0.1109170836787922 0 0.40027088300364949 0.097196680011063297 0 0.38508257681170932 0.096372538541899561 0 0.38955359841603632 0.1066779873243149 0 0.40027088300364949 0.097196680011063297 0 0.38955359841603632 0.1066779873243149 0 0.40190302997476568 0.1109170836787922 0 0.40027088300364949 0.097196680011063297 0 0.38436572452315998 0.019848123384192388 0 0.40632041938666752 0.027411640025524701 0 0.40666232653245149 0.0055596494295298672 0 0.38436572452315998 0.019848123384192388 0 0.39570927372323861 0.03559268580225234 0 0.40632041938666752 0.027411640025524701 0 0.38819295041751273 0.0012759751335580101 0 0.38436572452315998 0.019848123384192388 0 0.40666232653245149 0.0055596494295298672 0 0.37189854200638939 0.0052554674511347751 0 0.38819295041751273 0.0012759751335580101 0 0.38436572452315998 0.019848123384192388 0 0.38436572452315998 0.019848123384192388 0 0.38429336195193858 0.04497648369795372 0 0.39570927372323861 0.03559268580225234 0 0.36720056452803479 0.046410068451118613 0 0.38436572452315998 0.019848123384192388 0 0.38429336195193858 0.04497648369795372 0 0.36720056452803479 0.046410068451118613 0 0.38429336195193858 0.04497648369795372 0 0.38078446969602209 0.058068329676514208 0 0.38810462910482257 0.070163871307044823 0 0.40785758903118818 0.050134496101338563 0 0.38810462910482257 0.070163871307044823 0 0.38078446969602209 0.058068329676514208 0 0.40785758903118818 0.050134496101338563 0 0.38429336195193858 0.04497648369795372 0 0.38078446969602209 0.058068329676514208 0 0.40785758903118818 0.050134496101338563 0 0.39570927372323861 0.03559268580225234 0 0.40785758903118818 0.050134496101338563 0 0.40632041938666752 0.027411640025524701 0 0.38429336195193858 0.04497648369795372 0 0.39570927372323861 0.03559268580225234 0 0.40785758903118818 0.050134496101338563 0 0.40785758903118818 0.050134496101338563 0 0.42761054895755368 0.0301051208956323 0 0.40632041938666752 0.027411640025524701 0 0.40785758903118818 0.050134496101338563 0 0.42761054895755368 0.0301051208956323 0 0.4060087449383169 0.068066034231038949 0 0.40785758903118818 0.050134496101338563 0 0.4227919677449441 0.058965746724245378 0 0.40785758903118818 0.050134496101338563 0 0.4227919677449441 0.058965746724245378 0 0.43446293537432412 0.046081766975604309 0 0.4227919677449441 0.058965746724245378 0 0.43446293537432412 0.046081766975604309 0 0.44689202489733187 0.057328251198362823 0 0.43446293537432412 0.046081766975604309 0 0.42761054895755368 0.0301051208956323 0 0.45019847161015569 0.034881564480640753 0 0.40785758903118818 0.050134496101338563 0 0.43446293537432412 0.046081766975604309 0 0.42761054895755368 0.0301051208956323 0 0.42761054895755368 0.0301051208956323 0 0.42523805051198149 0.0099657241553064158 0 0.44736350888391929 0.010075745689925969 0 0.42761054895755368 0.0301051208956323 0 0.44736350888391929 0.010075745689925969 0 0.42761054895755368 0.0301051208956323 0 0.40632041938666752 0.027411640025524701 0 0.42523805051198149 0.0099657241553064158 0 0.40666232653245149 0.0055596494295298672 0 0.42523805051198149 0.0099657241553064158 0 0.42311386344738339 -0.0077353998708953207 0 0.40632041938666752 0.027411640025524701 0 0.40666232653245149 0.0055596494295298672 0 0.42523805051198149 0.0099657241553064158 0 0.44736350888391929 0.010075745689925969 0 0.44035763586391391 -0.0056224112378790107 0 0.46129729026147248 -0.0023581389534472561 0 0.42523805051198149 0.0099657241553064158 0 0.44736350888391929 0.010075745689925969 0 0.44035763586391391 -0.0056224112378790107 0 0.42761054895755368 0.0301051208956323 0 0.44736350888391929 0.010075745689925969 0 0.45019847161015569 0.034881564480640753 0 0.44736350888391929 0.010075745689925969 0 0.45019847161015569 0.034881564480640753 0 0.47278586389113347 0.016976887865358892 0 0.44736350888391929 0.010075745689925969 0 0.47278586389113347 0.016976887865358892 0 0.46129729026147248 -0.0023581389534472561 0 0.45019847161015569 0.034881564480640753 0 0.46944388359236122 0.051538144439365011 0 0.47278586389113347 0.016976887865358892 0 0.43446293537432412 0.046081766975604309 0 0.44689202489733187 0.057328251198362823 0 0.45019847161015569 0.034881564480640753 0 0.45647467020029342 0.072028715007201746 0 0.44689202489733187 0.057328251198362823 0 0.46944388359236122 0.051538144439365011 0 0.44689202489733187 0.057328251198362823 0 0.45019847161015569 0.034881564480640753 0 0.46944388359236122 0.051538144439365011 0 0.46944388359236122 0.051538144439365011 0 0.5 0.033338685897368103 0 0.47278586389113347 0.016976887865358892 0 0.49763479404338379 0.063152683226257028 0 0.5 0.033338685897368103 0 0.48781477910702442 0.05864953202960186 0 0.46944388359236122 0.051538144439365011 0 0.5 0.033338685897368103 0 0.48781477910702442 0.05864953202960186 0 0.49763479404338379 0.063152683226257028 0 0.49999999999999278 0.063087873005705591 0 0.5 0.033338685897368103 0 0.49763479404338379 0.063152683226257028 0 0.49650194760080302 0.065466442307672235 0 0.48781477910702442 0.05864953202960186 0 0.47278586389113347 0.016976887865358892 0 0.5 0.0035894987890304759 0 0.47936316500174009 -0.010952567808100409 0 0.47278586389113347 0.016976887865358892 0 0.47936316500174009 -0.010952567808100409 0 0.46129729026147248 -0.0023581389534472561 0 0.5 0.033338685897368103 0 0.47278586389113347 0.016976887865358892 0 0.5 0.0035894987890304759 0 0.5 0.0035894987890304759 0 0.47936316500174009 -0.010952567808100409 0 0.5 -0.02615968831930704 0 0.47936316500174009 -0.010952567808100409 0 0.47634265772156642 -0.039761765699935468 0 0.45613028309061232 -0.020831022027479992 0 0.47936316500174009 -0.010952567808100409 0 0.5 -0.02615968831930704 0 0.47634265772156642 -0.039761765699935468 0 0.5 -0.02615968831930704 0 0.5 -0.055908875427644611 0 0.47634265772156642 -0.039761765699935468 0 0.5 -0.055908875427644611 0 0.48073760695757689 -0.061403441828900437 0 0.47634265772156642 -0.039761765699935468 0 0.48073760695757689 -0.061403441828900437 0 0.47634265772156642 -0.039761765699935468 0 0.46470933413469728 -0.05845417016512984 0 0.45274006974299552 -0.044614602145661257 0 0.45613028309061232 -0.020831022027479992 0 0.47634265772156642 -0.039761765699935468 0 0.45274006974299552 -0.044614602145661257 0 0.45613028309061232 -0.020831022027479992 0 0.46470933413469728 -0.05845417016512984 0 0.45274006974299552 -0.044614602145661257 0 0.44934985639537878 -0.068398182263842533 0 0.47634265772156642 -0.039761765699935468 0 0.46470933413469728 -0.05845417016512984 0 0.45274006974299552 -0.044614602145661257 0 0.45274006974299552 -0.044614602145661257 0 0.44934985639537878 -0.068398182263842533 0 0.44199352079435861 -0.060133890873057358 0 0.45274006974299552 -0.044614602145661257 0 0.44934985639537878 -0.068398182263842533 0 0.44199352079435861 -0.060133890873057358 0 0.45274006974299552 -0.044614602145661257 0 0.43602152466242422 -0.049892311053965459 0 0.45274006974299552 -0.044614602145661257 0 0.44482649212135789 -0.031259867834383059 0 0.43373967405561431 -0.037582640221919802 0 0.45274006974299552 -0.044614602145661257 0 0.43373967405561431 -0.037582640221919802 0 0.43602152466242422 -0.049892311053965459 0 0.45274006974299552 -0.044614602145661257 0 0.44482649212135789 -0.031259867834383059 0 0.45613028309061232 -0.020831022027479992 0 0.44482649212135789 -0.031259867834383059 0 0.43669594159620961 -0.0220112069424712 0 0.43373967405561431 -0.037582640221919802 0 0.44035763586391391 -0.0056224112378790107 0 0.45613028309061232 -0.020831022027479992 0 0.43669594159620961 -0.0220112069424712 0 0.44482649212135789 -0.031259867834383059 0 0.45613028309061232 -0.020831022027479992 0 0.43669594159620961 -0.0220112069424712 0 0.44035763586391391 -0.0056224112378790107 0 0.46129729026147248 -0.0023581389534472561 0 0.45613028309061232 -0.020831022027479992 0 0.47936316500174009 -0.010952567808100409 0 0.46129729026147248 -0.0023581389534472561 0 0.45613028309061232 -0.020831022027479992 0 0.47113031965393848 -0.12094760686799939 0 0.48298448903035118 -0.11412201014314891 0 0.48143876179773099 -0.13590062899659289 0 0.47113031965393848 -0.12094760686799939 0 0.48298448903035118 -0.11412201014314891 0 0.47537974029847019 -0.1091270893411744 0 0.48298448903035118 -0.11412201014314891 0 0.5 -0.1154072496443197 0 0.49054131932718148 -0.1021389026776212 0 0.48298448903035118 -0.11412201014314891 0 0.5 -0.1154072496443197 0 0.48143876179773099 -0.13590062899659289 0 0.5 -0.1154072496443197 0 0.49054131932718148 -0.1021389026776212 0 0.5 -0.085658062535982182 0 0.49054131932718148 -0.1021389026776212 0 0.47941679310478619 -0.10121058333118579 0 0.48741383487072337 -0.092750052071663772 0 0.47941679310478619 -0.10121058333118579 0 0.47650192041653622 -0.10042396930258569 0 0.48741383487072337 -0.092750052071663772 0 0.47650192041653622 -0.10042396930258569 0 0.48741383487072337 -0.092750052071663772 0 0.47650192041653622 -0.10042396930258569 0 0.47929574547506232 -0.092860658684433953 0 0.48741383487072337 -0.092750052071663772 0 0.47537974029847019 -0.1091270893411744 0 0.47650192041653622 -0.10042396930258569 0 0.45744595206783267 -0.113825277063651 0 0.47511546125589188 -0.094406224936893185 0 0.47650192041653622 -0.10042396930258569 0 0.47929574547506232 -0.092860658684433953 0 0.47941679310478619 -0.10121058333118579 0 0.47650192041653622 -0.10042396930258569 0 0.48298448903035118 -0.11412201014314891 0 0.49054131932718148 -0.1021389026776212 0 0.47941679310478619 -0.10121058333118579 0 0.47941679310478619 -0.10121058333118579 0 0.47537974029847019 -0.1091270893411744 0 0.47650192041653622 -0.10042396930258569 0 0.48298448903035118 -0.11412201014314891 0 0.47941679310478619 -0.10121058333118579 0 0.47537974029847019 -0.1091270893411744 0 0.470129572023613 -0.094113903770107948 0 0.47650192041653622 -0.10042396930258569 0 0.46123078173214871 -0.096302865842305033 0 0.47650192041653622 -0.10042396930258569 0 0.46123078173214871 -0.096302865842305033 0 0.470129572023613 -0.094113903770107948 0 0.47511546125589188 -0.094406224936893185 0 0.47650192041653622 -0.10042396930258569 0 0.470129572023613 -0.094113903770107948 0 0.47466174425146013 -0.088588509539032467 0 0.46642755437635042 -0.08462896515794785 0 0.47511546125589188 -0.094406224936893185 0 0.47466174425146013 -0.088588509539032467 0 0.47929574547506232 -0.092860658684433953 0 0.470129572023613 -0.094113903770107948 0 0.47511546125589188 -0.094406224936893185 0 0.47466174425146013 -0.088588509539032467 0 0.47466174425146013 -0.088588509539032467 0 0.47411188535304322 -0.075419194958673594 0 0.46642755437635042 -0.08462896515794785 0 0.48166573145906638 -0.086245697835062141 0 0.48708786733189191 -0.077457218538469208 0 0.47411188535304322 -0.075419194958673594 0 0.47466174425146013 -0.088588509539032467 0 0.48166573145906638 -0.086245697835062141 0 0.47411188535304322 -0.075419194958673594 0 0.48166573145906638 -0.086245697835062141 0 0.47929574547506232 -0.092860658684433953 0 0.48741383487072337 -0.092750052071663772 0 0.47466174425146013 -0.088588509539032467 0 0.48166573145906638 -0.086245697835062141 0 0.47929574547506232 -0.092860658684433953 0 0.49054131932718148 -0.1021389026776212 0 0.48741383487072337 -0.092750052071663772 0 0.5 -0.085658062535982182 0 0.48166573145906638 -0.086245697835062141 0 0.48741383487072337 -0.092750052071663772 0 0.48708786733189191 -0.077457218538469208 0 0.48741383487072337 -0.092750052071663772 0 0.5 -0.085658062535982182 0 0.48708786733189191 -0.077457218538469208 0 0.5 -0.055908875427644611 0 0.5 -0.085658062535982182 0 0.48708786733189191 -0.077457218538469208 0 0.5 -0.055908875427644611 0 0.48073760695757689 -0.061403441828900437 0 0.48708786733189191 -0.077457218538469208 0 0.48073760695757689 -0.061403441828900437 0 0.48708786733189191 -0.077457218538469208 0 0.47411188535304322 -0.075419194958673594 0 0.48073760695757689 -0.061403441828900437 0 0.46470933413469728 -0.05845417016512984 0 0.47411188535304322 -0.075419194958673594 0 0.46470933413469728 -0.05845417016512984 0 0.47411188535304322 -0.075419194958673594 0 0.46143044187678789 -0.071727104089648594 0 0.47411188535304322 -0.075419194958673594 0 0.46143044187678789 -0.071727104089648594 0 0.46642755437635042 -0.08462896515794785 0 0.46143044187678789 -0.071727104089648594 0 0.44934985639537878 -0.068398182263842533 0 0.45700090102104968 -0.081622212747919573 0 0.46470933413469728 -0.05845417016512984 0 0.46143044187678789 -0.071727104089648594 0 0.44934985639537878 -0.068398182263842533 0 0.44199352079435861 -0.060133890873057358 0 0.44934985639537878 -0.068398182263842533 0 0.43525076802964729 -0.089291841544752504 0 0.44199352079435861 -0.060133890873057358 0 0.43525076802964729 -0.089291841544752504 0 0.44934985639537878 -0.068398182263842533 0 0.44595964304776148 -0.092181762382023691 0 0.44934985639537878 -0.068398182263842533 0 0.44595964304776148 -0.092181762382023691 0 0.43525076802964729 -0.089291841544752504 0 0.44934985639537878 -0.068398182263842533 0 0.44595964304776148 -0.092181762382023691 0 0.45700090102104968 -0.081622212747919573 0 0.44595964304776148 -0.092181762382023691 0 0.43889668990180902 -0.099163075252228311 0 0.43525076802964729 -0.089291841544752504 0 0.44595964304776148 -0.092181762382023691 0 0.43525076802964729 -0.089291841544752504 0 0.44595964304776148 -0.092181762382023691 0 0.45700090102104968 -0.081622212747919573 0 0.46123078173214871 -0.096302865842305033 0 0.46143044187678789 -0.071727104089648594 0 0.45700090102104968 -0.081622212747919573 0 0.46642755437635042 -0.08462896515794785 0 0.45700090102104968 -0.081622212747919573 0 0.46642755437635042 -0.08462896515794785 0 0.46123078173214871 -0.096302865842305033 0 0.470129572023613 -0.094113903770107948 0 0.46642755437635042 -0.08462896515794785 0 0.46123078173214871 -0.096302865842305033 0 0.47650192041653622 -0.10042396930258569 0 0.45744595206783267 -0.113825277063651 0 0.46123078173214871 -0.096302865842305033 0 0.44441662925397951 -0.10300656555073499 0 0.45744595206783267 -0.113825277063651 0 0.47650192041653622 -0.10042396930258569 0 0.46123078173214871 -0.096302865842305033 0 0.45744595206783267 -0.113825277063651 0 0.44595964304776148 -0.092181762382023691 0 0.46123078173214871 -0.096302865842305033 0 0.44595964304776148 -0.092181762382023691 0 0.46123078173214871 -0.096302865842305033 0 0.44441662925397951 -0.10300656555073499 0 0.44595964304776148 -0.092181762382023691 0 0.43889668990180902 -0.099163075252228311 0 0.44441662925397951 -0.10300656555073499 0 0.44595964304776148 -0.092181762382023691 0 0.44441662925397951 -0.10300656555073499 0 0.43889668990180902 -0.099163075252228311 0 0.44441662925397951 -0.10300656555073499 0 0.42995971927584758 -0.112172131531402 0 0.44441662925397951 -0.10300656555073499 0 0.44255307107919739 -0.1140576397426263 0 0.45744595206783267 -0.113825277063651 0 0.45744595206783267 -0.113825277063651 0 0.45834574360343289 -0.13191037978366241 0 0.43838998371912979 -0.12722658482471719 0 0.45744595206783267 -0.113825277063651 0 0.43838998371912979 -0.12722658482471719 0 0.44255307107919739 -0.1140576397426263 0 0.45744595206783267 -0.113825277063651 0 0.43838998371912979 -0.12722658482471719 0 0.44441662925397951 -0.10300656555073499 0 0.44255307107919739 -0.1140576397426263 0 0.42995971927584758 -0.112172131531402 0 0.47113031965393848 -0.12094760686799939 0 0.45744595206783267 -0.113825277063651 0 0.45834574360343289 -0.13191037978366241 0 0.47113031965393848 -0.12094760686799939 0 0.47537974029847019 -0.1091270893411744 0 0.45744595206783267 -0.113825277063651 0 0.41934698305463791 -0.1221939738031026 0 0.42995971927584758 -0.112172131531402 0 0.40615091590116348 -0.1087325683531611 0 0.41934698305463791 -0.1221939738031026 0 0.40615091590116348 -0.1087325683531611 0 0.40960050740841558 -0.12702113758470751 0 0.41934698305463791 -0.1221939738031026 0 0.42995971927584758 -0.112172131531402 0 0.42466867052204699 -0.13505242151805119 0 0.42995971927584758 -0.112172131531402 0 0.42466867052204699 -0.13505242151805119 0 0.43838998371912979 -0.12722658482471719 0 0.42995971927584758 -0.112172131531402 0 0.42466867052204699 -0.13505242151805119 0 0.44255307107919739 -0.1140576397426263 0 0.42995971927584758 -0.112172131531402 0 0.43838998371912979 -0.12722658482471719 0 0.42995971927584758 -0.112172131531402 0 0.42317383048071577 -0.098550979787744686 0 0.43525076802964729 -0.089291841544752504 0 0.42995971927584758 -0.112172131531402 0 0.43525076802964729 -0.089291841544752504 0 0.43889668990180902 -0.099163075252228311 0 0.42995971927584758 -0.112172131531402 0 0.43525076802964729 -0.089291841544752504 0 0.42995971927584758 -0.112172131531402 0 0.42317383048071577 -0.098550979787744686 0 0.40615091590116348 -0.1087325683531611 0 0.41739465847868412 -0.084473152095427759 0 0.40615091590116348 -0.1087325683531611 0 0.39828807175479169 -0.094106078289467002 0 0.41739465847868412 -0.084473152095427759 0 0.40615091590116348 -0.1087325683531611 0 0.42317383048071577 -0.098550979787744686 0 0.41739465847868412 -0.084473152095427759 0 0.40615091590116348 -0.1087325683531611 0 0.41739465847868412 -0.084473152095427759 0 0.42236939103416288 -0.07373970573607147 0 0.40225396571793531 -0.080387251062312745 0 0.41739465847868412 -0.084473152095427759 0 0.40225396571793531 -0.080387251062312745 0 0.41739465847868412 -0.084473152095427759 0 0.42236939103416288 -0.07373970573607147 0 0.41739465847868412 -0.084473152095427759 0 0.42466980641140217 -0.080844347224306362 0 0.42236939103416288 -0.07373970573607147 0 0.42317383048071577 -0.098550979787744686 0 0.41739465847868412 -0.084473152095427759 0 0.43525076802964729 -0.089291841544752504 0 0.41739465847868412 -0.084473152095427759 0 0.43525076802964729 -0.089291841544752504 0 0.42466980641140217 -0.080844347224306362 0 0.41739465847868412 -0.084473152095427759 0 0.43525076802964729 -0.089291841544752504 0 0.43525076802964729 -0.089291841544752504 0 0.42466980641140217 -0.080844347224306362 0 0.42712514382717082 -0.074120373531304531 0 0.42236939103416288 -0.07373970573607147 0 0.42992588653341512 -0.057435866644938903 0 0.42466980641140217 -0.080844347224306362 0 0.42236939103416288 -0.07373970573607147 0 0.42712514382717082 -0.074120373531304531 0 0.43525076802964729 -0.089291841544752504 0 0.42712514382717082 -0.074120373531304531 0 0.43214748120209512 -0.069739654693250552 0 0.42236939103416288 -0.07373970573607147 0 0.43214748120209512 -0.069739654693250552 0 0.42992588653341512 -0.057435866644938903 0 0.42236939103416288 -0.07373970573607147 0 0.42712514382717082 -0.074120373531304531 0 0.43214748120209512 -0.069739654693250552 0 0.42236939103416288 -0.07373970573607147 0 0.42992588653341512 -0.057435866644938903 0 0.418098347427724 -0.061434186487311318 0 0.44199352079435861 -0.060133890873057358 0 0.43525076802964729 -0.089291841544752504 0 0.43214748120209512 -0.069739654693250552 0 0.42236939103416288 -0.07373970573607147 0 0.42712514382717082 -0.074120373531304531 0 0.42236939103416288 -0.07373970573607147 0 0.39353981758802659 -0.071432081551434046 0 0.42236939103416288 -0.07373970573607147 0 0.40856567099190633 -0.065532569500933044 0 0.418098347427724 -0.061434186487311318 0 0.42236939103416288 -0.07373970573607147 0 0.40856567099190633 -0.065532569500933044 0 0.39353981758802659 -0.071432081551434046 0 0.42236939103416288 -0.07373970573607147 0 0.39353981758802659 -0.071432081551434046 0 0.40225396571793531 -0.080387251062312745 0 0.40856567099190633 -0.065532569500933044 0 0.40093801840853299 -0.063628486842732646 0 0.39353981758802659 -0.071432081551434046 0 0.40093801840853299 -0.063628486842732646 0 0.39353981758802659 -0.071432081551434046 0 0.39376691503868111 -0.055955676327846877 0 0.39353981758802659 -0.071432081551434046 0 0.37841272088533728 -0.079177289070131676 0 0.36471024414189002 -0.069124457366798092 0 0.39353981758802659 -0.071432081551434046 0 0.38053336184469938 -0.058312837178131918 0 0.36471024414189002 -0.069124457366798092 0 0.39353981758802659 -0.071432081551434046 0 0.36471024414189002 -0.069124457366798092 0 0.39353981758802659 -0.071432081551434046 0 0.38943527586495652 -0.084598673559406354 0 0.37841272088533728 -0.079177289070131676 0 0.38943527586495652 -0.084598673559406354 0 0.37841272088533728 -0.079177289070131676 0 0.37801525568825861 -0.090149969173203642 0 0.38943527586495652 -0.084598673559406354 0 0.37801525568825861 -0.090149969173203642 0 0.38550732495312467 -0.095650381711385651 0 0.41739465847868412 -0.084473152095427759 0 0.40225396571793531 -0.080387251062312745 0 0.39828807175479169 -0.094106078289467002 0 0.38943527586495652 -0.084598673559406354 0 0.39828807175479169 -0.094106078289467002 0 0.38550732495312467 -0.095650381711385651 0 0.38943527586495652 -0.084598673559406354 0 0.40225396571793531 -0.080387251062312745 0 0.39828807175479169 -0.094106078289467002 0 0.39353981758802659 -0.071432081551434046 0 0.38943527586495652 -0.084598673559406354 0 0.40225396571793531 -0.080387251062312745 0 0.39828807175479169 -0.094106078289467002 0 0.38550732495312467 -0.095650381711385651 0 0.38898628961288623 -0.1107944429551084 0 0.40615091590116348 -0.1087325683531611 0 0.39828807175479169 -0.094106078289467002 0 0.38898628961288623 -0.1107944429551084 0 0.38898628961288623 -0.1107944429551084 0 0.37268472884612719 -0.11328737858187519 0 0.37349775888664349 -0.1006861224672385 0 0.37801525568825861 -0.090149969173203642 0 0.38550732495312467 -0.095650381711385651 0 0.37349775888664349 -0.1006861224672385 0 0.38550732495312467 -0.095650381711385651 0 0.38898628961288623 -0.1107944429551084 0 0.37349775888664349 -0.1006861224672385 0 0.38898628961288623 -0.1107944429551084 0 0.38200606603978482 -0.1247417562322093 0 0.37268472884612719 -0.11328737858187519 0 0.38898628961288623 -0.1107944429551084 0 0.38200606603978482 -0.1247417562322093 0 0.39490717332364189 -0.13299198461089401 0 0.38200606603978482 -0.1247417562322093 0 0.37268472884612719 -0.11328737858187519 0 0.37082404598795438 -0.12601947394668861 0 0.40615091590116348 -0.1087325683531611 0 0.38898628961288623 -0.1107944429551084 0 0.39490717332364189 -0.13299198461089401 0 0.40615091590116348 -0.1087325683531611 0 0.39490717332364189 -0.13299198461089401 0 0.40960050740841558 -0.12702113758470751 0 0.40615091590116348 -0.1087325683531611 0 0.39490717332364189 -0.13299198461089401 0 0.41290158888218909 -0.022493473237322259 0 0.41968299781645091 -0.037530984465498997 0 0.40401099069029273 -0.02841613724555006 0 0.41290158888218909 -0.022493473237322259 0 0.42311386344738339 -0.0077353998708953207 0 0.42455538216242378 -0.026024466680199521 0 0.41290158888218909 -0.022493473237322259 0 0.42455538216242378 -0.026024466680199521 0 0.41968299781645091 -0.037530984465498997 0 0.41290158888218909 -0.022493473237322259 0 0.40401099069029273 -0.02841613724555006 0 0.40666232653245149 0.0055596494295298672 0 0.41065502961737199 -0.009805854768911151 0 0.42311386344738339 -0.0077353998708953207 0 0.41290158888218909 -0.022493473237322259 0 0.41065502961737199 -0.009805854768911151 0 0.39985498889565518 -0.01088870076823352 0 0.41290158888218909 -0.022493473237322259 0 0.41065502961737199 -0.009805854768911151 0 0.42311386344738339 -0.0077353998708953207 0 0.44035763586391391 -0.0056224112378790107 0 0.42311386344738339 -0.0077353998708953207 0 0.43669594159620961 -0.0220112069424712 0 0.42523805051198149 0.0099657241553064158 0 0.44035763586391391 -0.0056224112378790107 0 0.42311386344738339 -0.0077353998708953207 0 0.42311386344738339 -0.0077353998708953207 0 0.43669594159620961 -0.0220112069424712 0 0.42455538216242378 -0.026024466680199521 0 0.43669594159620961 -0.0220112069424712 0 0.42455538216242378 -0.026024466680199521 0 0.43373967405561431 -0.037582640221919802 0 0.43373967405561431 -0.037582640221919802 0 0.43602152466242422 -0.049892311053965459 0 0.4217084721857377 -0.04969455538424998 0 0.43373967405561431 -0.037582640221919802 0 0.4217084721857377 -0.04969455538424998 0 0.41968299781645091 -0.037530984465498997 0 0.42455538216242378 -0.026024466680199521 0 0.43373967405561431 -0.037582640221919802 0 0.41968299781645091 -0.037530984465498997 0 0.44199352079435861 -0.060133890873057358 0 0.42992588653341512 -0.057435866644938903 0 0.43602152466242422 -0.049892311053965459 0 0.44199352079435861 -0.060133890873057358 0 0.43214748120209512 -0.069739654693250552 0 0.42992588653341512 -0.057435866644938903 0 0.42992588653341512 -0.057435866644938903 0 0.43602152466242422 -0.049892311053965459 0 0.4217084721857377 -0.04969455538424998 0 0.42992588653341512 -0.057435866644938903 0 0.418098347427724 -0.061434186487311318 0 0.4217084721857377 -0.04969455538424998 0 0.4217084721857377 -0.04969455538424998 0 0.40788278050108451 -0.057428386887115712 0 0.40501022647003809 -0.045088345986714191 0 0.418098347427724 -0.061434186487311318 0 0.4217084721857377 -0.04969455538424998 0 0.40788278050108451 -0.057428386887115712 0 0.40856567099190633 -0.065532569500933044 0 0.418098347427724 -0.061434186487311318 0 0.40788278050108451 -0.057428386887115712 0 0.4217084721857377 -0.04969455538424998 0 0.41968299781645091 -0.037530984465498997 0 0.40501022647003809 -0.045088345986714191 0 0.41968299781645091 -0.037530984465498997 0 0.40501022647003809 -0.045088345986714191 0 0.40401099069029273 -0.02841613724555006 0 0.41968299781645091 -0.037530984465498997 0 0.40401099069029273 -0.02841613724555006 0 0.38488694104839538 -0.041156035963375942 0 0.40401099069029273 -0.02841613724555006 0 0.40501022647003809 -0.045088345986714191 0 0.38488694104839538 -0.041156035963375942 0 0.40401099069029273 -0.02841613724555006 0 0.38488694104839538 -0.041156035963375942 0 0.38619928917695928 -0.027981469624754559 0 0.40401099069029273 -0.02841613724555006 0 0.40501022647003809 -0.045088345986714191 0 0.39376691503868111 -0.055955676327846877 0 0.38488694104839538 -0.041156035963375942 0 0.40093801840853299 -0.063628486842732646 0 0.40788278050108451 -0.057428386887115712 0 0.39376691503868111 -0.055955676327846877 0 0.40856567099190633 -0.065532569500933044 0 0.40093801840853299 -0.063628486842732646 0 0.40788278050108451 -0.057428386887115712 0 0.40788278050108451 -0.057428386887115712 0 0.40501022647003809 -0.045088345986714191 0 0.39376691503868111 -0.055955676327846877 0 0.38053336184469938 -0.058312837178131918 0 0.38488694104839538 -0.041156035963375942 0 0.36576289140649981 -0.053895934681204342 0 0.38488694104839538 -0.041156035963375942 0 0.36576289140649981 -0.053895934681204342 0 0.39376691503868111 -0.055955676327846877 0 0.38053336184469938 -0.058312837178131918 0 0.38488694104839538 -0.041156035963375942 0 0.39353981758802659 -0.071432081551434046 0 0.39376691503868111 -0.055955676327846877 0 0.38053336184469938 -0.058312837178131918 0 0.38488694104839538 -0.041156035963375942 0 0.37771605483924198 -0.02895904146125881 0 0.36688356962536561 -0.037683216277819613 0 0.38488694104839538 -0.041156035963375942 0 0.37771605483924198 -0.02895904146125881 0 0.38619928917695928 -0.027981469624754559 0 0.37771605483924198 -0.02895904146125881 0 0.38619928917695928 -0.027981469624754559 0 0.37818317012990738 -0.01339466382883346 0 0.38619928917695928 -0.027981469624754559 0 0.40401099069029273 -0.02841613724555006 0 0.37818317012990738 -0.01339466382883346 0 0.41290158888218909 -0.022493473237322259 0 0.40401099069029273 -0.02841613724555006 0 0.39985498889565518 -0.01088870076823352 0 0.40401099069029273 -0.02841613724555006 0 0.37818317012990738 -0.01339466382883346 0 0.40401099069029273 -0.02841613724555006 0 0.39985498889565518 -0.01088870076823352 0 0.37818317012990738 -0.01339466382883346 0 0.38819295041751273 0.0012759751335580101 0 0.40666232653245149 0.0055596494295298672 0 0.39985498889565518 -0.01088870076823352 0 0.40666232653245149 0.0055596494295298672 0 0.41065502961737199 -0.009805854768911151 0 0.39985498889565518 -0.01088870076823352 0 0.38819295041751273 0.0012759751335580101 0 0.39985498889565518 -0.01088870076823352 0 0.37818317012990738 -0.01339466382883346 0 0.37189854200638939 0.0052554674511347751 0 0.38819295041751273 0.0012759751335580101 0 0.37818317012990738 -0.01339466382883346 0 0.37189854200638939 0.0052554674511347751 0 0.35235534956952219 0.001626809587882895 0 0.37818317012990738 -0.01339466382883346 0 0.35235534956952219 0.001626809587882895 0 0.37818317012990738 -0.01339466382883346 0 0.34791544004596892 -0.0087409646321380888 0 0.35235534956952219 0.001626809587882895 0 0.37818317012990738 -0.01339466382883346 0 0.37818317012990738 -0.01339466382883346 0 0.35248901618792361 -0.02066347637437713 0 0.34791544004596892 -0.0087409646321380888 0 0.37818317012990738 -0.01339466382883346 0 0.36592293883325477 -0.026979751383335429 0 0.35248901618792361 -0.02066347637437713 0 0.37771605483924198 -0.02895904146125881 0 0.36592293883325477 -0.026979751383335429 0 0.36688356962536561 -0.037683216277819613 0 0.37771605483924198 -0.02895904146125881 0 0.37818317012990738 -0.01339466382883346 0 0.36592293883325477 -0.026979751383335429 0 0.36592293883325477 -0.026979751383335429 0 0.35248901618792361 -0.02066347637437713 0 0.35399265055418222 -0.035044418112942649 0 0.35248901618792361 -0.02066347637437713 0 0.33974036955512948 -0.01700819072599568 0 0.34242133186625118 -0.029444011099203211 0 0.35248901618792361 -0.02066347637437713 0 0.34242133186625118 -0.029444011099203211 0 0.35399265055418222 -0.035044418112942649 0 0.35248901618792361 -0.02066347637437713 0 0.34791544004596892 -0.0087409646321380888 0 0.33974036955512948 -0.01700819072599568 0 0.35235534956952219 0.001626809587882895 0 0.34230059718848171 0.0025810500958884639 0 0.34791544004596892 -0.0087409646321380888 0 0.34230059718848171 0.0025810500958884639 0 0.33705517668666962 -0.0066037565585118068 0 0.33122203488715368 -0.001204029555422461 0 0.34230059718848171 0.0025810500958884639 0 0.34791544004596892 -0.0087409646321380888 0 0.33705517668666962 -0.0066037565585118068 0 0.33705517668666962 -0.0066037565585118068 0 0.33122203488715368 -0.001204029555422461 0 0.32720329215068322 -0.01273857315610168 0 0.33705517668666962 -0.0066037565585118068 0 0.33974036955512948 -0.01700819072599568 0 0.32720329215068322 -0.01273857315610168 0 0.34791544004596892 -0.0087409646321380888 0 0.33705517668666962 -0.0066037565585118068 0 0.33974036955512948 -0.01700819072599568 0 0.33974036955512948 -0.01700819072599568 0 0.34242133186625118 -0.029444011099203211 0 0.33135796039328058 -0.023858362535642191 0 0.34242133186625118 -0.029444011099203211 0 0.33135796039328058 -0.023858362535642191 0 0.33045227905870989 -0.036720636823360547 0 0.33974036955512948 -0.01700819072599568 0 0.33135796039328058 -0.023858362535642191 0 0.32720329215068322 -0.01273857315610168 0 0.33135796039328058 -0.023858362535642191 0 0.31995897383240962 -0.025338741962470341 0 0.32720329215068322 -0.01273857315610168 0 0.33135796039328058 -0.023858362535642191 0 0.31995897383240962 -0.025338741962470341 0 0.33045227905870989 -0.036720636823360547 0 0.31995897383240962 -0.025338741962470341 0 0.31616406974173472 -0.03669084524448115 0 0.30788125712644387 -0.027279664490000011 0 0.31995897383240962 -0.025338741962470341 0 0.32720329215068322 -0.01273857315610168 0 0.31194660848509109 -0.015904634262812418 0 0.31995897383240962 -0.025338741962470341 0 0.31194660848509109 -0.015904634262812418 0 0.30788125712644387 -0.027279664490000011 0 0.32067872675594261 -0.0026339777492341539 0 0.32720329215068322 -0.01273857315610168 0 0.31194660848509109 -0.015904634262812418 0 0.32067872675594261 -0.0026339777492341539 0 0.30877892227945342 -0.0067445652512463632 0 0.31194660848509109 -0.015904634262812418 0 0.33122203488715368 -0.001204029555422461 0 0.32067872675594261 -0.0026339777492341539 0 0.32720329215068322 -0.01273857315610168 0 0.32248539930457543 -0.054678417657523938 0 0.31345868695534818 -0.0481535092615493 0 0.31322898380551317 -0.065003709564903783 0 0.32248539930457543 -0.054678417657523938 0 0.3292356403817937 -0.066284940724967809 0 0.31322898380551317 -0.065003709564903783 0 0.32248539930457543 -0.054678417657523938 0 0.323172300588357 -0.044989683890407257 0 0.33531570197319721 -0.052490103954831398 0 0.32248539930457543 -0.054678417657523938 0 0.31322898380551317 -0.065003709564903783 0 0.32248539930457543 -0.054678417657523938 0 0.31345868695534818 -0.0481535092615493 0 0.323172300588357 -0.044989683890407257 0 0.31345868695534818 -0.0481535092615493 0 0.31616406974173472 -0.03669084524448115 0 0.323172300588357 -0.044989683890407257 0 0.31995897383240962 -0.025338741962470341 0 0.31616406974173472 -0.03669084524448115 0 0.33045227905870989 -0.036720636823360547 0 0.31616406974173472 -0.03669084524448115 0 0.323172300588357 -0.044989683890407257 0 0.33045227905870989 -0.036720636823360547 0 0.33045227905870989 -0.036720636823360547 0 0.33531570197319721 -0.052490103954831398 0 0.34528278983281369 -0.042763098313031031 0 0.323172300588357 -0.044989683890407257 0 0.33045227905870989 -0.036720636823360547 0 0.33531570197319721 -0.052490103954831398 0 0.34242133186625118 -0.029444011099203211 0 0.33045227905870989 -0.036720636823360547 0 0.34528278983281369 -0.042763098313031031 0 0.33531570197319721 -0.052490103954831398 0 0.34524229695807418 -0.067566171885031001 0 0.3292356403817937 -0.066284940724967809 0 0.33531570197319721 -0.052490103954831398 0 0.34994747104614482 -0.052454887789763732 0 0.34528278983281369 -0.042763098313031031 0 0.32248539930457543 -0.054678417657523938 0 0.33531570197319721 -0.052490103954831398 0 0.3292356403817937 -0.066284940724967809 0 0.33531570197319721 -0.052490103954831398 0 0.34994747104614482 -0.052454887789763732 0 0.34524229695807418 -0.067566171885031001 0 0.34994747104614482 -0.052454887789763732 0 0.36576289140649981 -0.053895934681204342 0 0.34524229695807418 -0.067566171885031001 0 0.34994747104614482 -0.052454887789763732 0 0.35813367506013882 -0.045559130114723193 0 0.36576289140649981 -0.053895934681204342 0 0.36576289140649981 -0.053895934681204342 0 0.34524229695807418 -0.067566171885031001 0 0.34994747104614482 -0.052454887789763732 0 0.34528278983281369 -0.042763098313031031 0 0.35813367506013882 -0.045559130114723193 0 0.34242133186625118 -0.029444011099203211 0 0.34528278983281369 -0.042763098313031031 0 0.35399265055418222 -0.035044418112942649 0 0.34528278983281369 -0.042763098313031031 0 0.35813367506013882 -0.045559130114723193 0 0.35399265055418222 -0.035044418112942649 0 0.35813367506013882 -0.045559130114723193 0 0.36688356962536561 -0.037683216277819613 0 0.36576289140649981 -0.053895934681204342 0 0.38488694104839538 -0.041156035963375942 0 0.36688356962536561 -0.037683216277819613 0 0.36576289140649981 -0.053895934681204342 0 0.36688356962536561 -0.037683216277819613 0 0.36576289140649981 -0.053895934681204342 0 0.36592293883325477 -0.026979751383335429 0 0.35399265055418222 -0.035044418112942649 0 0.36688356962536561 -0.037683216277819613 0 0.35813367506013882 -0.045559130114723193 0 0.35399265055418222 -0.035044418112942649 0 0.36688356962536561 -0.037683216277819613 0 0.38053336184469938 -0.058312837178131918 0 0.36576289140649981 -0.053895934681204342 0 0.36471024414189002 -0.069124457366798092 0 0.36576289140649981 -0.053895934681204342 0 0.36471024414189002 -0.069124457366798092 0 0.36471024414189002 -0.069124457366798092 0 0.36322319785123069 -0.090637379057856071 0 0.36471024414189002 -0.069124457366798092 0 0.36322319785123069 -0.090637379057856071 0 0.35254732811248352 -0.082408518146349419 0 0.37841272088533728 -0.079177289070131676 0 0.36471024414189002 -0.069124457366798092 0 0.36322319785123069 -0.090637379057856071 0 0.37841272088533728 -0.079177289070131676 0 0.37801525568825861 -0.090149969173203642 0 0.36322319785123069 -0.090637379057856071 0 0.36322319785123069 -0.090637379057856071 0 0.35254732811248352 -0.082408518146349419 0 0.34705806711365761 -0.094781202143161963 0 0.35254732811248352 -0.082408518146349419 0 0.34705806711365761 -0.094781202143161963 0 0.34107276089472099 -0.080751830986731693 0 0.35254732811248352 -0.082408518146349419 0 0.34797640049882222 -0.074524889591633864 0 0.34107276089472099 -0.080751830986731693 0 0.34797640049882222 -0.074524889591633864 0 0.34260811377227601 -0.069320989908389363 0 0.34107276089472099 -0.080751830986731693 0 0.36471024414189002 -0.069124457366798092 0 0.35254732811248352 -0.082408518146349419 0 0.34797640049882222 -0.074524889591633864 0 0.36576289140649981 -0.053895934681204342 0 0.36471024414189002 -0.069124457366798092 0 0.34524229695807418 -0.067566171885031001 0 0.36471024414189002 -0.069124457366798092 0 0.34524229695807418 -0.067566171885031001 0 0.36471024414189002 -0.069124457366798092 0 0.34797640049882222 -0.074524889591633864 0 0.34524229695807418 -0.067566171885031001 0 0.34797640049882222 -0.074524889591633864 0 0.34524229695807418 -0.067566171885031001 0 0.34260811377227601 -0.069320989908389363 0 0.34524229695807418 -0.067566171885031001 0 0.34260811377227601 -0.069320989908389363 0 0.3617361515605676 -0.1121503007489138 0 0.36000391278264809 -0.1372103929690886 0 0.37268472884612719 -0.11328737858187519 0 0.3617361515605676 -0.1121503007489138 0 0.37268472884612719 -0.11328737858187519 0 0.3617361515605676 -0.1121503007489138 0 0.37082404598795438 -0.12601947394668861 0 0.36322319785123069 -0.090637379057856071 0 0.3617361515605676 -0.1121503007489138 0 0.36322319785123069 -0.090637379057856071 0 0.3617361515605676 -0.1121503007489138 0 0.37349775888664349 -0.1006861224672385 0 0.37268472884612719 -0.11328737858187519 0 0.3617361515605676 -0.1121503007489138 0 0.37349775888664349 -0.1006861224672385 0 0.37801525568825861 -0.090149969173203642 0 0.36322319785123069 -0.090637379057856071 0 0.37349775888664349 -0.1006861224672385 0 0.3617361515605676 -0.1121503007489138 0 0.34705806711365761 -0.094781202143161963 0 0.33405563481500061 -0.1092755069583258 0 0.36322319785123069 -0.090637379057856071 0 0.3617361515605676 -0.1121503007489138 0 0.34705806711365761 -0.094781202143161963 0 0.3617361515605676 -0.1121503007489138 0 0.33405563481500061 -0.1092755069583258 0 0.3617361515605676 -0.1121503007489138 0 0.33405563481500061 -0.1092755069583258 0 0.34441915943734291 -0.12516449305795291 0 0.3617361515605676 -0.1121503007489138 0 0.34441915943734291 -0.12516449305795291 0 0.36000391278264809 -0.1372103929690886 0 0.33405563481500061 -0.1092755069583258 0 0.31851132082055472 -0.12898106585611799 0 0.34441915943734291 -0.12516449305795291 0 0.34705806711365761 -0.094781202143161963 0 0.33405563481500061 -0.1092755069583258 0 0.3315597908036465 -0.088047676716452666 0 0.33405563481500061 -0.1092755069583258 0 0.31672291085253218 -0.093494865501335733 0 0.30637511806943352 -0.10640071316773771 0 0.33405563481500061 -0.1092755069583258 0 0.30637511806943352 -0.10640071316773771 0 0.33405563481500061 -0.1092755069583258 0 0.3315597908036465 -0.088047676716452666 0 0.31672291085253218 -0.093494865501335733 0 0.33405563481500061 -0.1092755069583258 0 0.30637511806943352 -0.10640071316773771 0 0.31851132082055472 -0.12898106585611799 0 0.34524229695807418 -0.067566171885031001 0 0.3292356403817937 -0.066284940724967809 0 0.34524229695807418 -0.067566171885031001 0 0.3292356403817937 -0.066284940724967809 0 0.34260811377227601 -0.069320989908389363 0 0.33304290801457581 -0.076481207326468847 0 0.3292356403817937 -0.066284940724967809 0 0.34260811377227601 -0.069320989908389363 0 0.33304290801457581 -0.076481207326468847 0 0.34260811377227601 -0.069320989908389363 0 0.34107276089472099 -0.080751830986731693 0 0.34705806711365761 -0.094781202143161963 0 0.34107276089472099 -0.080751830986731693 0 0.3315597908036465 -0.088047676716452666 0 0.33304290801457581 -0.076481207326468847 0 0.3315597908036465 -0.088047676716452666 0 0.31987809243091297 -0.078939964833722578 0 0.33304290801457581 -0.076481207326468847 0 0.34107276089472099 -0.080751830986731693 0 0.3315597908036465 -0.088047676716452666 0 0.3315597908036465 -0.088047676716452666 0 0.31672291085253218 -0.093494865501335733 0 0.31987809243091297 -0.078939964833722578 0 0.3292356403817937 -0.066284940724967809 0 0.31987809243091297 -0.078939964833722578 0 0.31322898380551317 -0.065003709564903783 0 0.3292356403817937 -0.066284940724967809 0 0.31322898380551317 -0.065003709564903783 0 0.33304290801457581 -0.076481207326468847 0 0.3292356403817937 -0.066284940724967809 0 0.31987809243091297 -0.078939964833722578 0 0.31322898380551317 -0.065003709564903783 0 0.29596179256468969 -0.084264814471025587 0 0.31322898380551317 -0.065003709564903783 0 0.28859204033710528 -0.063031678771958893 0 0.31322898380551317 -0.065003709564903783 0 0.29596179256468969 -0.084264814471025587 0 0.28859204033710528 -0.063031678771958893 0 0.31987809243091297 -0.078939964833722578 0 0.31322898380551317 -0.065003709564903783 0 0.29596179256468969 -0.084264814471025587 0 0.31672291085253218 -0.093494865501335733 0 0.31987809243091297 -0.078939964833722578 0 0.29596179256468969 -0.084264814471025587 0 0.29596179256468969 -0.084264814471025587 0 0.27869460132386648 -0.1035259193771476 0 0.28087210374383792 -0.081868957298829176 0 0.29596179256468969 -0.084264814471025587 0 0.28859204033710528 -0.063031678771958893 0 0.28087210374383792 -0.081868957298829176 0 0.30637511806943352 -0.10640071316773771 0 0.29270900147572521 -0.1234359066667719 0 0.31851132082055472 -0.12898106585611799 0 0.31672291085253218 -0.093494865501335733 0 0.29596179256468969 -0.084264814471025587 0 0.30637511806943352 -0.10640071316773771 0 0.29596179256468969 -0.084264814471025587 0 0.30637511806943352 -0.10640071316773771 0 0.27869460132386648 -0.1035259193771476 0 0.29596179256468969 -0.084264814471025587 0 0.27869460132386648 -0.1035259193771476 0 0.30637511806943352 -0.10640071316773771 0 0.27869460132386648 -0.1035259193771476 0 0.29270900147572521 -0.1234359066667719 0 0.27668706403578408 -0.12473346773348599 0 0.27869460132386648 -0.1035259193771476 0 0.30637511806943352 -0.10640071316773771 0 0.29270900147572521 -0.1234359066667719 0 0.27869460132386648 -0.1035259193771476 0 0.27869460132386648 -0.1035259193771476 0 0.26019782775570188 -0.124158591544399 0 0.27869460132386648 -0.1035259193771476 0 0.25901598602891862 -0.11228364164809471 0 0.26019782775570188 -0.124158591544399 0 0.27668706403578408 -0.12473346773348599 0 0.27869460132386648 -0.1035259193771476 0 0.26019782775570188 -0.124158591544399 0 0.27869460132386648 -0.1035259193771476 0 0.25495894843157302 -0.10106082422818551 0 0.26708017724436961 -0.087617593155419407 0 0.27869460132386648 -0.1035259193771476 0 0.25495894843157302 -0.10106082422818551 0 0.27869460132386648 -0.1035259193771476 0 0.25495894843157302 -0.10106082422818551 0 0.25901598602891862 -0.11228364164809471 0 0.26019782775570188 -0.124158591544399 0 0.24901380175728391 -0.118792673427335 0 0.2428020050379375 -0.12952994944547999 0 0.25495894843157302 -0.10106082422818551 0 0.25901598602891862 -0.11228364164809471 0 0.24901380175728391 -0.118792673427335 0 0.25901598602891862 -0.11228364164809471 0 0.26019782775570188 -0.124158591544399 0 0.24901380175728391 -0.118792673427335 0 0.28859204033710528 -0.063031678771958893 0 0.27403190724915938 -0.070904780718595142 0 0.28087210374383792 -0.081868957298829176 0 0.28859204033710528 -0.063031678771958893 0 0.27403190724915938 -0.070904780718595142 0 0.26395509686869723 -0.061059647979015447 0 0.27403190724915938 -0.070904780718595142 0 0.26708017724436961 -0.087617593155419407 0 0.28087210374383792 -0.081868957298829176 0 0.27869460132386648 -0.1035259193771476 0 0.26708017724436961 -0.087617593155419407 0 0.28087210374383792 -0.081868957298829176 0 0.25495894843157302 -0.10106082422818551 0 0.26708017724436961 -0.087617593155419407 0 0.25118834862834771 -0.078951888749720561 0 0.27403190724915938 -0.070904780718595142 0 0.26708017724436961 -0.087617593155419407 0 0.25118834862834771 -0.078951888749720561 0 0.27403190724915938 -0.070904780718595142 0 0.25118834862834771 -0.078951888749720561 0 0.25118834862834771 -0.078951888749720561 0 0.26395509686869723 -0.061059647979015447 0 0.23931815340028911 -0.059087617186071993 0 0.27403190724915938 -0.070904780718595142 0 0.25118834862834771 -0.078951888749720561 0 0.26395509686869723 -0.061059647979015447 0 0.26395509686869723 -0.061059647979015447 0 0.26703719873081561 -0.046182951628910819 0 0.25250520716786889 -0.041593981443998583 0 0.26395509686869723 -0.061059647979015447 0 0.25250520716786889 -0.041593981443998583 0 0.23931815340028911 -0.059087617186071993 0 0.26395509686869723 -0.061059647979015447 0 0.23931815340028911 -0.059087617186071993 0 0.28859204033710528 -0.063031678771958893 0 0.26395509686869723 -0.061059647979015447 0 0.28859204033710528 -0.063031678771958893 0 0.26395509686869723 -0.061059647979015447 0 0.27801436768960069 -0.052834900151591729 0 0.26395509686869723 -0.061059647979015447 0 0.27801436768960069 -0.052834900151591729 0 0.26703719873081561 -0.046182951628910819 0 0.27801436768960069 -0.052834900151591729 0 0.27976156395234603 -0.042676060984409722 0 0.26703719873081561 -0.046182951628910819 0 0.27976156395234603 -0.042676060984409722 0 0.26831530768885897 -0.031821971136116609 0 0.2834568679801357 -0.031706168770765007 0 0.27976156395234603 -0.042676060984409722 0 0.26703719873081561 -0.046182951628910819 0 0.26831530768885897 -0.031821971136116609 0 0.26703719873081561 -0.046182951628910819 0 0.26831530768885897 -0.031821971136116609 0 0.25250520716786889 -0.041593981443998583 0 0.26831530768885897 -0.031821971136116609 0 0.25250520716786889 -0.041593981443998583 0 0.25528276100525488 -0.02749201401586461 0 0.25250520716786889 -0.041593981443998583 0 0.25528276100525488 -0.02749201401586461 0 0.242664754692583 -0.02754164054495338 0 0.25528276100525488 -0.02749201401586461 0 0.26301284078521242 -0.017928633617661768 0 0.24991569469175129 -0.018573843336592691 0 0.26831530768885897 -0.031821971136116609 0 0.25528276100525488 -0.02749201401586461 0 0.26301284078521242 -0.017928633617661768 0 0.27838937958107302 0.000370802130407388 0 0.25189529334555122 -0.0044985281830388643 0 0.26301284078521242 -0.017928633617661768 0 0.25189529334555122 -0.0044985281830388643 0 0.27220440147121189 -0.0095694742262052365 0 0.26301284078521242 -0.017928633617661768 0 0.25189529334555122 -0.0044985281830388643 0 0.24991569469175129 -0.018573843336592691 0 0.26301284078521242 -0.017928633617661768 0 0.27220440147121189 -0.0095694742262052365 0 0.2805765027963798 -0.018533861791569871 0 0.27838937958107302 0.000370802130407388 0 0.25189529334555122 -0.0044985281830388643 0 0.27220440147121189 -0.0095694742262052365 0 0.27220440147121189 -0.0095694742262052365 0 0.2805765027963798 -0.018533861791569871 0 0.28714799084784343 -0.0072571496691630627 0 0.27838937958107302 0.000370802130407388 0 0.27220440147121189 -0.0095694742262052365 0 0.28714799084784343 -0.0072571496691630627 0 0.26831530768885897 -0.031821971136116609 0 0.26301284078521242 -0.017928633617661768 0 0.2805765027963798 -0.018533861791569871 0 0.26831530768885897 -0.031821971136116609 0 0.2805765027963798 -0.018533861791569871 0 0.2834568679801357 -0.031706168770765007 0 0.2805765027963798 -0.018533861791569871 0 0.29546636779618729 -0.02881756441971026 0 0.2834568679801357 -0.031706168770765007 0 0.2805765027963798 -0.018533861791569871 0 0.29546636779618729 -0.02881756441971026 0 0.29760688806018498 -0.013679781436792521 0 0.2805765027963798 -0.018533861791569871 0 0.28714799084784343 -0.0072571496691630627 0 0.29760688806018498 -0.013679781436792521 0 0.3048834658165947 0.0052401324438536376 0 0.27838937958107302 0.000370802130407388 0 0.28714799084784343 -0.0072571496691630627 0 0.3048834658165947 0.0052401324438536376 0 0.28714799084784343 -0.0072571496691630627 0 0.29760688806018498 -0.013679781436792521 0 0.3048834658165947 0.0052401324438536376 0 0.29760688806018498 -0.013679781436792521 0 0.30877892227945342 -0.0067445652512463632 0 0.3048834658165947 0.0052401324438536376 0 0.32067872675594261 -0.0026339777492341539 0 0.30877892227945342 -0.0067445652512463632 0 0.29760688806018498 -0.013679781436792521 0 0.30877892227945342 -0.0067445652512463632 0 0.31194660848509109 -0.015904634262812418 0 0.29546636779618729 -0.02881756441971026 0 0.29760688806018498 -0.013679781436792521 0 0.30788125712644387 -0.027279664490000011 0 0.29760688806018498 -0.013679781436792521 0 0.31194660848509109 -0.015904634262812418 0 0.30788125712644387 -0.027279664490000011 0 0.31616406974173472 -0.03669084524448115 0 0.30788125712644387 -0.027279664490000011 0 0.30420660876093802 -0.038296335177327202 0 0.29546636779618729 -0.02881756441971026 0 0.30420660876093802 -0.038296335177327202 0 0.2926462050213941 -0.03994575740704475 0 0.29546636779618729 -0.02881756441971026 0 0.30788125712644387 -0.027279664490000011 0 0.30420660876093802 -0.038296335177327202 0 0.30420660876093802 -0.038296335177327202 0 0.30205955725306521 -0.04966246133594758 0 0.2926462050213941 -0.03994575740704475 0 0.31345868695534818 -0.0481535092615493 0 0.30420660876093802 -0.038296335177327202 0 0.30205955725306521 -0.04966246133594758 0 0.31345868695534818 -0.0481535092615493 0 0.31616406974173472 -0.03669084524448115 0 0.30420660876093802 -0.038296335177327202 0 0.31322898380551317 -0.065003709564903783 0 0.28859204033710528 -0.063031678771958893 0 0.30205955725306521 -0.04966246133594758 0 0.31345868695534818 -0.0481535092615493 0 0.31322898380551317 -0.065003709564903783 0 0.30205955725306521 -0.04966246133594758 0 0.28859204033710528 -0.063031678771958893 0 0.30205955725306521 -0.04966246133594758 0 0.28821474685070231 -0.049630171730190541 0 0.28859204033710528 -0.063031678771958893 0 0.27801436768960069 -0.052834900151591729 0 0.28821474685070231 -0.049630171730190541 0 0.27801436768960069 -0.052834900151591729 0 0.27976156395234603 -0.042676060984409722 0 0.28821474685070231 -0.049630171730190541 0 0.27976156395234603 -0.042676060984409722 0 0.28821474685070231 -0.049630171730190541 0 0.2926462050213941 -0.03994575740704475 0 0.27976156395234603 -0.042676060984409722 0 0.2834568679801357 -0.031706168770765007 0 0.2926462050213941 -0.03994575740704475 0 0.29546636779618729 -0.02881756441971026 0 0.2834568679801357 -0.031706168770765007 0 0.2926462050213941 -0.03994575740704475 0 0.30205955725306521 -0.04966246133594758 0 0.28821474685070231 -0.049630171730190541 0 0.2926462050213941 -0.03994575740704475 0 0.28469540610520672 -0.20642988552770039 0 0.29082598914275343 -0.2301737208231838 0 0.26928443902568933 -0.2190553766269106 0 0.28469540610520672 -0.20642988552770039 0 0.29082598914275343 -0.2301737208231838 0 0.31486570684369369 -0.2165786699041318 0 0.28469540610520672 -0.20642988552770039 0 0.29082598914275343 -0.2301737208231838 0 0.28469540610520672 -0.20642988552770039 0 0.30003331682349399 -0.19463909397512 0 0.28315763573839958 -0.1850035866243433 0 0.30003331682349399 -0.19463909397512 0 0.31912585281497191 -0.18736852618731981 0 0.31486570684369369 -0.2165786699041318 0 0.28469540610520672 -0.20642988552770039 0 0.30003331682349399 -0.19463909397512 0 0.31486570684369369 -0.2165786699041318 0 0.29082598914275343 -0.2301737208231838 0 0.31486570684369369 -0.2165786699041318 0 0.31646782004239848 -0.2441497901195139 0 0.29082598914275343 -0.2301737208231838 0 0.31646782004239848 -0.2441497901195139 0 0.29695657218029931 -0.25391755611866729 0 0.31787223586978269 -0.24958911259301181 0 0.31646782004239848 -0.2441497901195139 0 0.29695657218029931 -0.25391755611866729 0 0.31646782004239848 -0.2441497901195139 0 0.29695657218029931 -0.25391755611866729 0 0.29082598914275343 -0.2301737208231838 0 0.29695657218029931 -0.25391755611866729 0 0.29082598914275343 -0.2301737208231838 0 0.27368796748947521 -0.242914588277232 0 0.29695657218029931 -0.25391755611866729 0 0.26928443902568933 -0.2190553766269106 0 0.27368796748947521 -0.242914588277232 0 0.25650844091435548 -0.23419565614391979 0 0.29082598914275343 -0.2301737208231838 0 0.26928443902568933 -0.2190553766269106 0 0.27368796748947521 -0.242914588277232 0 0.25650844091435548 -0.23419565614391979 0 0.25824086010337621 -0.25532614280128291 0 0.24060480681938509 -0.25027410992644472 0 0.27368796748947521 -0.242914588277232 0 0.25650844091435548 -0.23419565614391979 0 0.25824086010337621 -0.25532614280128291 0 0.26928443902568933 -0.2190553766269106 0 0.25650844091435548 -0.23419565614391979 0 0.24877535007611021 -0.2091376918048363 0 0.26928443902568933 -0.2190553766269106 0 0.26121348042623521 -0.1914807171845917 0 0.24877535007611021 -0.2091376918048363 0 0.28469540610520672 -0.20642988552770039 0 0.26928443902568933 -0.2190553766269106 0 0.26121348042623521 -0.1914807171845917 0 0.28469540610520672 -0.20642988552770039 0 0.26121348042623521 -0.1914807171845917 0 0.28315763573839958 -0.1850035866243433 0 0.26121348042623521 -0.1914807171845917 0 0.24595680253086361 -0.1936582567822154 0 0.24877535007611021 -0.2091376918048363 0 0.26121348042623521 -0.1914807171845917 0 0.24543424042144971 -0.18264145256778069 0 0.24595680253086361 -0.1936582567822154 0 0.26121348042623521 -0.1914807171845917 0 0.25343691440229738 -0.17421686930019101 0 0.24543424042144971 -0.18264145256778069 0 0.26121348042623521 -0.1914807171845917 0 0.25343691440229738 -0.17421686930019101 0 0.27014258983088058 -0.1718148369707152 0 0.25343691440229738 -0.17421686930019101 0 0.25927065699923513 -0.16364339445047341 0 0.2441769992076103 -0.16218247220547569 0 0.25343691440229738 -0.17421686930019101 0 0.25927065699923513 -0.16364339445047341 0 0.27014258983088058 -0.1718148369707152 0 0.25927065699923513 -0.16364339445047341 0 0.25444385987449458 -0.15284299340302471 0 0.27024350668740338 -0.1524536700717109 0 0.25927065699923513 -0.16364339445047341 0 0.25444385987449458 -0.15284299340302471 0 0.2441769992076103 -0.16218247220547569 0 0.27014258983088058 -0.1718148369707152 0 0.27024350668740338 -0.1524536700717109 0 0.28449554404917887 -0.1667546868292851 0 0.25927065699923513 -0.16364339445047341 0 0.27014258983088058 -0.1718148369707152 0 0.27024350668740338 -0.1524536700717109 0 0.27024350668740338 -0.1524536700717109 0 0.28658659417139348 -0.15196345025887931 0 0.28449554404917887 -0.1667546868292851 0 0.27014258983088058 -0.1718148369707152 0 0.28315763573839958 -0.1850035866243433 0 0.28449554404917887 -0.1667546868292851 0 0.26121348042623521 -0.1914807171845917 0 0.27014258983088058 -0.1718148369707152 0 0.28315763573839958 -0.1850035866243433 0 0.25572641310432631 -0.14303418802101711 0 0.26890677558589632 -0.13428539770940179 0 0.2428020050379375 -0.12952994944547999 0 0.26890677558589632 -0.13428539770940179 0 0.2428020050379375 -0.12952994944547999 0 0.26019782775570188 -0.124158591544399 0 0.26890677558589632 -0.13428539770940179 0 0.2428020050379375 -0.12952994944547999 0 0.25572641310432631 -0.14303418802101711 0 0.25444385987449458 -0.15284299340302471 0 0.27024350668740338 -0.1524536700717109 0 0.25572641310432631 -0.14303418802101711 0 0.27024350668740338 -0.1524536700717109 0 0.26890677558589632 -0.13428539770940179 0 0.25572641310432631 -0.14303418802101711 0 0.25444385987449458 -0.15284299340302471 0 0.2422359183358995 -0.146058929475468 0 0.27024350668740338 -0.1524536700717109 0 0.26890677558589632 -0.13428539770940179 0 0.28292711403773152 -0.13826152336971029 0 0.27024350668740338 -0.1524536700717109 0 0.28292711403773152 -0.13826152336971029 0 0.28658659417139348 -0.15196345025887931 0 0.27668706403578408 -0.12473346773348599 0 0.26019782775570188 -0.124158591544399 0 0.26890677558589632 -0.13428539770940179 0 0.27668706403578408 -0.12473346773348599 0 0.26890677558589632 -0.13428539770940179 0 0.28292711403773152 -0.13826152336971029 0 0.29270900147572521 -0.1234359066667719 0 0.28292711403773152 -0.13826152336971029 0 0.29918640233975552 -0.14248877002424859 0 0.29270900147572521 -0.1234359066667719 0 0.27668706403578408 -0.12473346773348599 0 0.28292711403773152 -0.13826152336971029 0 0.28658659417139348 -0.15196345025887931 0 0.29918640233975552 -0.14248877002424859 0 0.29911569928699289 -0.16017787529022609 0 0.28292711403773152 -0.13826152336971029 0 0.28658659417139348 -0.15196345025887931 0 0.29918640233975552 -0.14248877002424859 0 0.29918640233975552 -0.14248877002424859 0 0.31851132082055472 -0.12898106585611799 0 0.31526868424613569 -0.15211279870378591 0 0.29918640233975552 -0.14248877002424859 0 0.29911569928699289 -0.16017787529022609 0 0.31526868424613569 -0.15211279870378591 0 0.29270900147572521 -0.1234359066667719 0 0.29918640233975552 -0.14248877002424859 0 0.31851132082055472 -0.12898106585611799 0 0.30003331682349399 -0.19463909397512 0 0.28315763573839958 -0.1850035866243433 0 0.29832198261519799 -0.17781480163210461 0 0.28315763573839958 -0.1850035866243433 0 0.28449554404917887 -0.1667546868292851 0 0.29832198261519799 -0.17781480163210461 0 0.28449554404917887 -0.1667546868292851 0 0.29911569928699289 -0.16017787529022609 0 0.29832198261519799 -0.17781480163210461 0 0.28658659417139348 -0.15196345025887931 0 0.28449554404917887 -0.1667546868292851 0 0.29911569928699289 -0.16017787529022609 0 0.29911569928699289 -0.16017787529022609 0 0.3129685346017832 -0.16975035185825199 0 0.31526868424613569 -0.15211279870378591 0 0.29911569928699289 -0.16017787529022609 0 0.29832198261519799 -0.17781480163210461 0 0.3129685346017832 -0.16975035185825199 0 0.30003331682349399 -0.19463909397512 0 0.29832198261519799 -0.17781480163210461 0 0.31912585281497191 -0.18736852618731981 0 0.29832198261519799 -0.17781480163210461 0 0.31912585281497191 -0.18736852618731981 0 0.3129685346017832 -0.16975035185825199 0 0.31912585281497191 -0.18736852618731981 0 0.3129685346017832 -0.16975035185825199 0 0.32992854130318372 -0.16618968038253579 0 0.3129685346017832 -0.16975035185825199 0 0.32992854130318372 -0.16618968038253579 0 0.31526868424613569 -0.15211279870378591 0 0.32992854130318372 -0.16618968038253579 0 0.33916341927851462 -0.18279859375970639 0 0.3582716740047267 -0.16227048518926321 0 0.32992854130318372 -0.16618968038253579 0 0.33756984809724921 -0.14528100661653959 0 0.3582716740047267 -0.16227048518926321 0 0.31912585281497191 -0.18736852618731981 0 0.32992854130318372 -0.16618968038253579 0 0.33916341927851462 -0.18279859375970639 0 0.32992854130318372 -0.16618968038253579 0 0.31526868424613569 -0.15211279870378591 0 0.33756984809724921 -0.14528100661653959 0 0.31851132082055472 -0.12898106585611799 0 0.31526868424613569 -0.15211279870378591 0 0.33756984809724921 -0.14528100661653959 0 0.31851132082055472 -0.12898106585611799 0 0.33756984809724921 -0.14528100661653959 0 0.34441915943734291 -0.12516449305795291 0 0.33756984809724921 -0.14528100661653959 0 0.34441915943734291 -0.12516449305795291 0 0.36000391278264809 -0.1372103929690886 0 0.36000391278264809 -0.1372103929690886 0 0.3582716740047267 -0.16227048518926321 0 0.33756984809724921 -0.14528100661653959 0 0.36000391278264809 -0.1372103929690886 0 0.3582716740047267 -0.16227048518926321 0 0.37058285927478279 -0.1499655963953852 0 0.36000391278264809 -0.1372103929690886 0 0.3582716740047267 -0.16227048518926321 0 0.37058285927478279 -0.1499655963953852 0 0.36000391278264809 -0.1372103929690886 0 0.38140795119900389 -0.14147070196362421 0 0.37058285927478279 -0.1499655963953852 0 0.3747073317717764 -0.1584475253891614 0 0.37759039324792082 -0.15178380615419931 0 0.36000391278264809 -0.1372103929690886 0 0.37082404598795438 -0.12601947394668861 0 0.38140795119900389 -0.14147070196362421 0 0.3617361515605676 -0.1121503007489138 0 0.36000391278264809 -0.1372103929690886 0 0.37082404598795438 -0.12601947394668861 0 0.33916341927851462 -0.18279859375970639 0 0.35653943522680531 -0.18733057740943779 0 0.3582716740047267 -0.16227048518926321 0 0.35653943522680531 -0.18733057740943779 0 0.3582716740047267 -0.16227048518926321 0 0.3582716740047267 -0.16227048518926321 0 0.3747073317717764 -0.1584475253891614 0 0.37377351960110522 -0.16755780600930331 0 0.37058285927478279 -0.1499655963953852 0 0.3582716740047267 -0.16227048518926321 0 0.3747073317717764 -0.1584475253891614 0 0.3582716740047267 -0.16227048518926321 0 0.37377351960110522 -0.16755780600930331 0 0.37171382719188778 -0.1827213404227305 0 0.35653943522680531 -0.18733057740943779 0 0.3582716740047267 -0.16227048518926321 0 0.37171382719188778 -0.1827213404227305 0 0.35653943522680531 -0.18733057740943779 0 0.37171382719188778 -0.1827213404227305 0 0.3741164844681672 -0.20235217667438141 0 0.35653943522680531 -0.18733057740943779 0 0.3741164844681672 -0.20235217667438141 0 0.35504777618633299 -0.2183671003973722 0 0.3741164844681672 -0.20235217667438141 0 0.35504777618633299 -0.2183671003973722 0 0.3741164844681672 -0.20235217667438141 0 0.37269349686123149 -0.21816632047496351 0 0.35504777618633299 -0.2183671003973722 0 0.33916341927851462 -0.18279859375970639 0 0.35653943522680531 -0.18733057740943779 0 0.33602257998251273 -0.20188587863191981 0 0.35653943522680531 -0.18733057740943779 0 0.35504777618633299 -0.2183671003973722 0 0.33602257998251273 -0.20188587863191981 0 0.31912585281497191 -0.18736852618731981 0 0.33916341927851462 -0.18279859375970639 0 0.33602257998251273 -0.20188587863191981 0 0.35504777618633299 -0.2183671003973722 0 0.33602257998251273 -0.20188587863191981 0 0.33547878272925957 -0.21780341826344671 0 0.33602257998251273 -0.20188587863191981 0 0.33547878272925957 -0.21780341826344671 0 0.31486570684369369 -0.2165786699041318 0 0.31912585281497191 -0.18736852618731981 0 0.33602257998251273 -0.20188587863191981 0 0.31486570684369369 -0.2165786699041318 0 0.31787223586978269 -0.24958911259301181 0 0.33597906790449922 -0.23438202412036349 0 0.31787223586978269 -0.24958911259301181 0 0.31646782004239848 -0.2441497901195139 0 0.33597906790449922 -0.23438202412036349 0 0.31646782004239848 -0.2441497901195139 0 0.33597906790449922 -0.23438202412036349 0 0.31486570684369369 -0.2165786699041318 0 0.31646782004239848 -0.2441497901195139 0 0.33597906790449922 -0.23438202412036349 0 0.35504777618633299 -0.2183671003973722 0 0.33547878272925957 -0.21780341826344671 0 0.33597906790449922 -0.23438202412036349 0 0.33547878272925957 -0.21780341826344671 0 0.31486570684369369 -0.2165786699041318 0 0.33597906790449922 -0.23438202412036349 0 0.33597906790449922 -0.23438202412036349 0 0.34923844452986258 -0.22774408434908389 0 0.33597906790449922 -0.23438202412036349 0 0.34524871132081908 -0.2363364011163335 0 0.34923844452986258 -0.22774408434908389 0 0.33597906790449922 -0.23438202412036349 0 0.34524871132081908 -0.2363364011163335 0 0.33787935769020339 -0.2568769980264306 0 0.31787223586978269 -0.24958911259301181 0 0.33597906790449922 -0.23438202412036349 0 0.33787935769020339 -0.2568769980264306 0 0.34524871132081908 -0.2363364011163335 0 0.35373981638844021 -0.24053723594273729 0 0.33787935769020339 -0.2568769980264306 0 0.35373981638844021 -0.24053723594273729 0 0.36901080839784067 -0.24663463147801831 0 0.35320831412282649 -0.25605139805805488 0 0.35373981638844021 -0.24053723594273729 0 0.33787935769020339 -0.2568769980264306 0 0.34524871132081908 -0.2363364011163335 0 0.35373981638844021 -0.24053723594273729 0 0.34923844452986258 -0.22774408434908389 0 0.35504777618633299 -0.2183671003973722 0 0.33597906790449922 -0.23438202412036349 0 0.34923844452986258 -0.22774408434908389 0 0.35504777618633299 -0.2183671003973722 0 0.33597906790449922 -0.23438202412036349 0 0.35373981638844021 -0.24053723594273729 0 0.34923844452986258 -0.22774408434908389 0 0.36358319864914412 -0.23025041426029591 0 0.35504777618633299 -0.2183671003973722 0 0.34923844452986258 -0.22774408434908389 0 0.36358319864914412 -0.23025041426029591 0 0.37269349686123149 -0.21816632047496351 0 0.35504777618633299 -0.2183671003973722 0 0.36358319864914412 -0.23025041426029591 0 0.37269349686123149 -0.21816632047496351 0 0.36358319864914412 -0.23025041426029591 0 0.38198411677216232 -0.23107989976110499 0 0.36358319864914412 -0.23025041426029591 0 0.36901080839784067 -0.24663463147801831 0 0.38198411677216232 -0.23107989976110499 0 0.35373981638844021 -0.24053723594273729 0 0.36358319864914412 -0.23025041426029591 0 0.36901080839784067 -0.24663463147801831 0 0.36901080839784067 -0.24663463147801831 0 0.38198411677216232 -0.23107989976110499 0 0.38777030597001172 -0.25401306326273237 0 0.38198411677216232 -0.23107989976110499 0 0.40905643678893538 -0.23642421005521799 0 0.38777030597001172 -0.25401306326273237 0 0.38198411677216232 -0.23107989976110499 0 0.39448235365954187 -0.21192143046201881 0 0.40905643678893538 -0.23642421005521799 0 0.37269349686123149 -0.21816632047496351 0 0.38198411677216232 -0.23107989976110499 0 0.39448235365954187 -0.21192143046201881 0 0.3741164844681672 -0.20235217667438141 0 0.37269349686123149 -0.21816632047496351 0 0.39448235365954187 -0.21192143046201881 0 0.3741164844681672 -0.20235217667438141 0 0.39318519275000141 -0.18633725295139059 0 0.37171382719188778 -0.1827213404227305 0 0.3741164844681672 -0.20235217667438141 0 0.39318519275000141 -0.18633725295139059 0 0.3741164844681672 -0.20235217667438141 0 0.39448235365954187 -0.21192143046201881 0 0.39318519275000141 -0.18633725295139059 0 0.39448235365954187 -0.21192143046201881 0 0.41517841059545069 -0.193253762597799 0 0.39318519275000141 -0.18633725295139059 0 0.39448235365954187 -0.21192143046201881 0 0.41795579879385081 -0.21544972360931841 0 0.41517841059545069 -0.193253762597799 0 0.41795579879385081 -0.21544972360931841 0 0.41517841059545069 -0.193253762597799 0 0.43373314022710913 -0.19765272952208429 0 0.41517841059545069 -0.193253762597799 0 0.43373314022710913 -0.19765272952208429 0 0.4341904257738764 -0.17890544966363231 0 0.41795579879385081 -0.21544972360931841 0 0.43373314022710913 -0.19765272952208429 0 0.44521411545645001 -0.21316614164080619 0 0.41795579879385081 -0.21544972360931841 0 0.4322640497163131 -0.2288920154954332 0 0.44521411545645001 -0.21316614164080619 0 0.4322640497163131 -0.2288920154954332 0 0.43625388796088083 -0.24860264341820151 0 0.40905643678893538 -0.23642421005521799 0 0.43625388796088083 -0.24860264341820151 0 0.40905643678893538 -0.23642421005521799 0 0.41015408743916681 -0.26237849634180072 0 0.39448235365954187 -0.21192143046201881 0 0.41795579879385081 -0.21544972360931841 0 0.40905643678893538 -0.23642421005521799 0 0.41795579879385081 -0.21544972360931841 0 0.4322640497163131 -0.2288920154954332 0 0.40905643678893538 -0.23642421005521799 0 0.39490717332364189 -0.13299198461089401 0 0.40567064602956587 -0.14144824207754289 0 0.40960050740841558 -0.12702113758470751 0 0.38200606603978482 -0.1247417562322093 0 0.37082404598795438 -0.12601947394668861 0 0.38140795119900389 -0.14147070196362421 0 0.38200606603978482 -0.1247417562322093 0 0.39490717332364189 -0.13299198461089401 0 0.38140795119900389 -0.14147070196362421 0 0.39490717332364189 -0.13299198461089401 0 0.38366343074612042 -0.15725140086862671 0 0.39490717332364189 -0.13299198461089401 0 0.38140795119900389 -0.14147070196362421 0 0.38366343074612042 -0.15725140086862671 0 0.38140795119900389 -0.14147070196362421 0 0.37759039324792082 -0.15178380615419931 0 0.38366343074612042 -0.15725140086862671 0 0.37058285927478279 -0.1499655963953852 0 0.38140795119900389 -0.14147070196362421 0 0.37759039324792082 -0.15178380615419931 0 0.3747073317717764 -0.1584475253891614 0 0.37759039324792082 -0.15178380615419931 0 0.38366343074612042 -0.15725140086862671 0 0.39490717332364189 -0.13299198461089401 0 0.40567064602956587 -0.14144824207754289 0 0.40027804702172409 -0.1540292003468495 0 0.39490717332364189 -0.13299198461089401 0 0.40027804702172409 -0.1540292003468495 0 0.38366343074612042 -0.15725140086862671 0 0.40027804702172409 -0.1540292003468495 0 0.38542689101666883 -0.1598257049642971 0 0.40688285189011247 -0.16068658440885111 0 0.39653503699476272 -0.1709659960999384 0 0.38542689101666883 -0.1598257049642971 0 0.41225390103183501 -0.17032232922839929 0 0.38542689101666883 -0.1598257049642971 0 0.41225390103183501 -0.17032232922839929 0 0.38542689101666883 -0.1598257049642971 0 0.41225390103183501 -0.17032232922839929 0 0.40688285189011247 -0.16068658440885111 0 0.40027804702172409 -0.1540292003468495 0 0.38542689101666883 -0.1598257049642971 0 0.38366343074612042 -0.15725140086862671 0 0.38542689101666883 -0.1598257049642971 0 0.3804609415912506 -0.16221962892347219 0 0.38663727706166667 -0.16642138304745679 0 0.38542689101666883 -0.1598257049642971 0 0.38366343074612042 -0.15725140086862671 0 0.3804609415912506 -0.16221962892347219 0 0.3747073317717764 -0.1584475253891614 0 0.37377351960110522 -0.16755780600930331 0 0.3804609415912506 -0.16221962892347219 0 0.3747073317717764 -0.1584475253891614 0 0.38366343074612042 -0.15725140086862671 0 0.3804609415912506 -0.16221962892347219 0 0.37377351960110522 -0.16755780600930331 0 0.3804609415912506 -0.16221962892347219 0 0.3841262386439851 -0.1726742022021196 0 0.39653503699476272 -0.1709659960999384 0 0.38542689101666883 -0.1598257049642971 0 0.38663727706166667 -0.16642138304745679 0 0.39653503699476272 -0.1709659960999384 0 0.38663727706166667 -0.16642138304745679 0 0.3841262386439851 -0.1726742022021196 0 0.3804609415912506 -0.16221962892347219 0 0.38663727706166667 -0.16642138304745679 0 0.3841262386439851 -0.1726742022021196 0 0.37171382719188778 -0.1827213404227305 0 0.3841262386439851 -0.1726742022021196 0 0.39318519275000141 -0.18633725295139059 0 0.37377351960110522 -0.16755780600930331 0 0.37171382719188778 -0.1827213404227305 0 0.3841262386439851 -0.1726742022021196 0 0.39318519275000141 -0.18633725295139059 0 0.41225390103183501 -0.17032232922839929 0 0.39653503699476272 -0.1709659960999384 0 0.39318519275000141 -0.18633725295139059 0 0.41225390103183501 -0.17032232922839929 0 0.39653503699476272 -0.1709659960999384 0 0.3841262386439851 -0.1726742022021196 0 0.39318519275000141 -0.18633725295139059 0 0.4341904257738764 -0.17890544966363231 0 0.41522546476786598 -0.16782665066081329 0 0.41225390103183501 -0.17032232922839929 0 0.41517841059545069 -0.193253762597799 0 0.4341904257738764 -0.17890544966363231 0 0.41225390103183501 -0.17032232922839929 0 0.41517841059545069 -0.193253762597799 0 0.39318519275000141 -0.18633725295139059 0 0.41225390103183501 -0.17032232922839929 0 0.4341904257738764 -0.17890544966363231 0 0.41225390103183501 -0.17032232922839929 0 0.4341904257738764 -0.17890544966363231 0 0.42361414260476998 -0.16025244852264789 0 0.41522546476786598 -0.16782665066081329 0 0.4341904257738764 -0.17890544966363231 0 0.43595861517112172 -0.1567388234360387 0 0.42361414260476998 -0.16025244852264789 0 0.42361414260476998 -0.16025244852264789 0 0.4164079111245001 -0.16070377957667559 0 0.41522546476786598 -0.16782665066081329 0 0.42361414260476998 -0.16025244852264789 0 0.4164079111245001 -0.16070377957667559 0 0.41483957004422872 -0.15559180212149529 0 0.4164079111245001 -0.16070377957667559 0 0.41522546476786598 -0.16782665066081329 0 0.41224742924776692 -0.16396898971385249 0 0.41225390103183501 -0.17032232922839929 0 0.40688285189011247 -0.16068658440885111 0 0.41224742924776692 -0.16396898971385249 0 0.41522546476786598 -0.16782665066081329 0 0.41225390103183501 -0.17032232922839929 0 0.41224742924776692 -0.16396898971385249 0 0.41522546476786598 -0.16782665066081329 0 0.41225390103183501 -0.17032232922839929 0 0.4164079111245001 -0.16070377957667559 0 0.40688285189011247 -0.16068658440885111 0 0.41224742924776692 -0.16396898971385249 0 0.40027804702172409 -0.1540292003468495 0 0.40688285189011247 -0.16068658440885111 0 0.41483957004422872 -0.15559180212149529 0 0.4164079111245001 -0.16070377957667559 0 0.40688285189011247 -0.16068658440885111 0 0.41483957004422872 -0.15559180212149529 0 0.40027804702172409 -0.1540292003468495 0 0.41933401537042703 -0.1406278925857834 0 0.41461259972809689 -0.15007365901942579 0 0.40567064602956587 -0.14144824207754289 0 0.40027804702172409 -0.1540292003468495 0 0.41933401537042703 -0.1406278925857834 0 0.40027804702172409 -0.1540292003468495 0 0.41933401537042703 -0.1406278925857834 0 0.40027804702172409 -0.1540292003468495 0 0.41461259972809689 -0.15007365901942579 0 0.41483957004422872 -0.15559180212149529 0 0.41933401537042703 -0.1406278925857834 0 0.41461259972809689 -0.15007365901942579 0 0.42399876647600809 -0.1500457410235751 0 0.41461259972809689 -0.15007365901942579 0 0.41483957004422872 -0.15559180212149529 0 0.42399876647600809 -0.1500457410235751 0 0.42361414260476998 -0.16025244852264789 0 0.41483957004422872 -0.15559180212149529 0 0.42399876647600809 -0.1500457410235751 0 0.43595861517112172 -0.1567388234360387 0 0.42361414260476998 -0.16025244852264789 0 0.42399876647600809 -0.1500457410235751 0 0.43595861517112172 -0.1567388234360387 0 0.42399876647600809 -0.1500457410235751 0 0.43296414268442651 -0.14434174881812509 0 0.41933401537042703 -0.1406278925857834 0 0.42399876647600809 -0.1500457410235751 0 0.43296414268442651 -0.14434174881812509 0 0.41933401537042703 -0.1406278925857834 0 0.42466867052204699 -0.13505242151805119 0 0.43838998371912979 -0.12722658482471719 0 0.41933401537042703 -0.1406278925857834 0 0.43838998371912979 -0.12722658482471719 0 0.41933401537042703 -0.1406278925857834 0 0.43296414268442651 -0.14434174881812509 0 0.43838998371912979 -0.12722658482471719 0 0.41934698305463791 -0.1221939738031026 0 0.41630896840719761 -0.13281864526682019 0 0.40960050740841558 -0.12702113758470751 0 0.41934698305463791 -0.1221939738031026 0 0.42466867052204699 -0.13505242151805119 0 0.41630896840719761 -0.13281864526682019 0 0.41933401537042703 -0.1406278925857834 0 0.42466867052204699 -0.13505242151805119 0 0.41630896840719761 -0.13281864526682019 0 0.40567064602956587 -0.14144824207754289 0 0.41630896840719761 -0.13281864526682019 0 0.40960050740841558 -0.12702113758470751 0 0.40567064602956587 -0.14144824207754289 0 0.41933401537042703 -0.1406278925857834 0 0.41630896840719761 -0.13281864526682019 0 0.45834574360343289 -0.13191037978366241 0 0.46243573534181942 -0.14946992298850881 0 0.48143876179773099 -0.13590062899659289 0 0.45834574360343289 -0.13191037978366241 0 0.43838998371912979 -0.12722658482471719 0 0.44684062040770711 -0.14567361455969829 0 0.43296414268442651 -0.14434174881812509 0 0.43838998371912979 -0.12722658482471719 0 0.44684062040770711 -0.14567361455969829 0 0.43595861517112172 -0.1567388234360387 0 0.44684062040770711 -0.14567361455969829 0 0.45294950192631261 -0.1643542275071376 0 0.43595861517112172 -0.1567388234360387 0 0.43296414268442651 -0.14434174881812509 0 0.44684062040770711 -0.14567361455969829 0 0.44684062040770711 -0.14567361455969829 0 0.46243573534181942 -0.14946992298850881 0 0.45294950192631261 -0.1643542275071376 0 0.45834574360343289 -0.13191037978366241 0 0.44684062040770711 -0.14567361455969829 0 0.46243573534181942 -0.14946992298850881 0 0.46243573534181942 -0.14946992298850881 0 0.45294950192631261 -0.1643542275071376 0 0.47600409097644231 -0.16480474823066499 0 0.4341904257738764 -0.17890544966363231 0 0.43595861517112172 -0.1567388234360387 0 0.45294950192631261 -0.1643542275071376 0 0.4341904257738764 -0.17890544966363231 0 0.45612695051591767 -0.1874885700988656 0 0.4341904257738764 -0.17890544966363231 0 0.45294950192631261 -0.1643542275071376 0 0.45612695051591767 -0.1874885700988656 0 0.45294950192631261 -0.1643542275071376 0 0.45612695051591767 -0.1874885700988656 0 0.47600409097644231 -0.16480474823066499 0 0.45612695051591767 -0.1874885700988656 0 0.47600409097644231 -0.16480474823066499 0 0.478063475257959 -0.19607169053409901 0 0.5 -0.17490562386099481 0 0.47600409097644231 -0.16480474823066499 0 0.478063475257959 -0.19607169053409901 0 0.5 -0.17490562386099481 0 0.47600409097644231 -0.16480474823066499 0 0.5 -0.1451564367526573 0 0.46243573534181942 -0.14946992298850881 0 0.47600409097644231 -0.16480474823066499 0 0.48143876179773099 -0.13590062899659289 0 0.47600409097644231 -0.16480474823066499 0 0.5 -0.1451564367526573 0 0.48143876179773099 -0.13590062899659289 0 0.5 -0.1154072496443197 0 0.5 -0.1451564367526573 0 0.48143876179773099 -0.13590062899659289 0 0.47113031965393848 -0.12094760686799939 0 0.45834574360343289 -0.13191037978366241 0 0.48143876179773099 -0.13590062899659289 0 0.46235368848259473 -0.23482679049460251 0 0.44521411545645001 -0.21316614164080619 0 0.46721233625878578 -0.21258183085449539 0 0.46235368848259473 -0.23482679049460251 0 0.47942185192537201 -0.25200238817952059 0 0.45884370385074469 -0.2610231706456817 0 0.43625388796088083 -0.24860264341820151 0 0.46235368848259473 -0.23482679049460251 0 0.45884370385074469 -0.2610231706456817 0 0.4322640497163131 -0.2288920154954332 0 0.43625388796088083 -0.24860264341820151 0 0.46235368848259473 -0.23482679049460251 0 0.43625388796088083 -0.24860264341820151 0 0.46235368848259473 -0.23482679049460251 0 0.4322640497163131 -0.2288920154954332 0 0.46235368848259473 -0.23482679049460251 0 0.44521411545645001 -0.21316614164080619 0 0.43373314022710913 -0.19765272952208429 0 0.45612695051591767 -0.1874885700988656 0 0.44521411545645001 -0.21316614164080619 0 0.43373314022710913 -0.19765272952208429 0 0.4341904257738764 -0.17890544966363231 0 0.45612695051591767 -0.1874885700988656 0 0.45612695051591767 -0.1874885700988656 0 0.46721233625878578 -0.21258183085449539 0 0.478063475257959 -0.19607169053409901 0 0.45612695051591767 -0.1874885700988656 0 0.478063475257959 -0.19607169053409901 0 0.45612695051591767 -0.1874885700988656 0 0.44521411545645001 -0.21316614164080619 0 0.46721233625878578 -0.21258183085449539 0 0.46721233625878578 -0.21258183085449539 0 0.478063475257959 -0.19607169053409901 0 0.48845348900430863 -0.2210509375710035 0 0.478063475257959 -0.19607169053409901 0 0.50000000000000022 -0.20465481096933241 0 0.5 -0.17490562386099481 0 0.478063475257959 -0.19607169053409901 0 0.50000000000000022 -0.20465481096933241 0 0.478063475257959 -0.19607169053409901 0 0.50000000000000022 -0.20465481096933241 0 0.48845348900430863 -0.2210509375710035 0 0.50000000000000022 -0.20465481096933241 0 0.5 -0.223818208341346 0 0.48845348900430863 -0.2210509375710035 0 0.5 -0.223818208341346 0 0.49237436972961418 -0.2301636560327196 0 0.49999999999999939 -0.24298160571335969 0 0.49237436972961418 -0.2301636560327196 0 0.48845348900430863 -0.2210509375710035 0 0.48504583625276648 -0.23685002578792269 0 0.5 -0.223818208341346 0 0.49237436972961418 -0.2301636560327196 0 0.48845348900430863 -0.2210509375710035 0 0.46235368848259473 -0.23482679049460251 0 0.46721233625878578 -0.21258183085449539 0 0.48845348900430863 -0.2210509375710035 0 0.46235368848259473 -0.23482679049460251 0 0.48845348900430863 -0.2210509375710035 0 0.48504583625276648 -0.23685002578792269 0 0.46235368848259473 -0.23482679049460251 0 0.48845348900430863 -0.2210509375710035 0 0.46235368848259473 -0.23482679049460251 0 0.48504583625276648 -0.23685002578792269 0 0.47942185192537201 -0.25200238817952059 0 0.48504583625276648 -0.23685002578792269 0 0.49999999999999939 -0.24298160571335969 0 0.47942185192537201 -0.25200238817952059 0 0.49999999999999939 -0.24298160571335969 0 0.47942185192537201 -0.25200238817952059 0 0.49237436972961418 -0.2301636560327196 0 0.48504583625276648 -0.23685002578792269 0 0.49999999999999939 -0.24298160571335969 0 0.5 -0.26583556637706518 0 0.4828709276741443 -0.26932592039248432 0 0.47942185192537201 -0.25200238817952059 0 0.49999999999999939 -0.24298160571335969 0 0.5 -0.26583556637706518 0 0.47942185192537201 -0.25200238817952059 0 0.5 -0.26583556637706518 0 0.4828709276741443 -0.26932592039248432 0 0.5 -0.28868952704077078 0 0.4828709276741443 -0.26932592039248432 0 0.4728114302354639 -0.28506742894645781 0 0.5 -0.28868952704077078 0 0.4828709276741443 -0.26932592039248432 0 0.45884370385074469 -0.2610231706456817 0 0.4728114302354639 -0.28506742894645781 0 0.47942185192537201 -0.25200238817952059 0 0.45884370385074469 -0.2610231706456817 0 0.4828709276741443 -0.26932592039248432 0 0.47942185192537201 -0.25200238817952059 0 0.45884370385074469 -0.2610231706456817 0 0.45884370385074469 -0.2610231706456817 0 0.45456247855043302 -0.28262988198874239 0 0.4728114302354639 -0.28506742894645781 0 0.45884370385074469 -0.2610231706456817 0 0.44076146214863632 -0.27427562219250518 0 0.45456247855043302 -0.28262988198874239 0 0.43625388796088083 -0.24860264341820151 0 0.45884370385074469 -0.2610231706456817 0 0.44076146214863632 -0.27427562219250518 0 0.44317555221396349 -0.29724147913694832 0 0.44231294364672341 -0.31801350035273213 0 0.43021769691711159 -0.31109599574612867 0 0.45302419211279549 -0.30841875687108711 0 0.44317555221396349 -0.29724147913694832 0 0.44231294364672341 -0.31801350035273213 0 0.45302419211279549 -0.30841875687108711 0 0.44317555221396349 -0.29724147913694832 0 0.45722024430335628 -0.29554170902211918 0 0.44076146214863632 -0.27427562219250518 0 0.44317555221396349 -0.29724147913694832 0 0.45456247855043302 -0.28262988198874239 0 0.44076146214863632 -0.27427562219250518 0 0.44317555221396349 -0.29724147913694832 0 0.42967253682087952 -0.28571445055872607 0 0.44317555221396349 -0.29724147913694832 0 0.45722024430335628 -0.29554170902211918 0 0.45456247855043302 -0.28262988198874239 0 0.45722024430335628 -0.29554170902211918 0 0.46609177362332482 -0.30690061815728331 0 0.4728114302354639 -0.28506742894645781 0 0.45722024430335628 -0.29554170902211918 0 0.45456247855043302 -0.28262988198874239 0 0.4728114302354639 -0.28506742894645781 0 0.45302419211279549 -0.30841875687108711 0 0.45722024430335628 -0.29554170902211918 0 0.46609177362332482 -0.30690061815728331 0 0.46609177362332482 -0.30690061815728331 0 0.48428358536887228 -0.30244212855947122 0 0.48304588681166138 -0.32064903326273292 0 0.46609177362332482 -0.30690061815728331 0 0.48428358536887228 -0.30244212855947122 0 0.4728114302354639 -0.28506742894645781 0 0.48428358536887228 -0.30244212855947122 0 0.4728114302354639 -0.28506742894645781 0 0.5 -0.28868952704077078 0 0.48428358536887228 -0.30244212855947122 0 0.5 -0.31154348770447632 0 0.48304588681166138 -0.32064903326273292 0 0.48428358536887228 -0.30244212855947122 0 0.5 -0.28868952704077078 0 0.5 -0.31154348770447632 0 0.5 -0.31154348770447632 0 0.49999999999999861 -0.33439744836818158 0 0.48304588681166138 -0.32064903326273292 0 0.49999999999999861 -0.33439744836818158 0 0.48304588681166138 -0.32064903326273292 0 0.49999999999999861 -0.33439744836818158 0 0.47774489282156468 -0.33520354216118281 0 0.48304588681166138 -0.32064903326273292 0 0.49999999999999861 -0.33439744836818158 0 0.47774489282156468 -0.33520354216118281 0 0.47885007917113381 -0.35411248790180139 0 0.47774489282156468 -0.33520354216118281 0 0.47885007917113381 -0.35411248790180139 0 0.46228914500663448 -0.3396233363113787 0 0.47774489282156468 -0.33520354216118281 0 0.48304588681166138 -0.32064903326273292 0 0.46187845411540501 -0.32335056936727608 0 0.46609177362332482 -0.30690061815728331 0 0.48304588681166138 -0.32064903326273292 0 0.46609177362332482 -0.30690061815728331 0 0.48304588681166138 -0.32064903326273292 0 0.46187845411540501 -0.32335056936727608 0 0.5 -0.36018545284026621 0 0.47884968612971263 -0.37188208765719272 0 0.5 -0.38597345731235072 0 0.5 -0.36018545284026621 0 0.47885007917113381 -0.35411248790180139 0 0.47884968612971263 -0.37188208765719272 0 0.49999999999999861 -0.33439744836818158 0 0.5 -0.36018545284026621 0 0.47885007917113381 -0.35411248790180139 0 0.47885007917113381 -0.35411248790180139 0 0.47884968612971263 -0.37188208765719272 0 0.46157042759421502 -0.36773649963078281 0 0.47884968612971263 -0.37188208765719272 0 0.46157042759421502 -0.36773649963078281 0 0.46499667456918231 -0.3818869428838258 0 0.46157042759421502 -0.36773649963078281 0 0.45157439943831679 -0.36619258401794491 0 0.44866939715783338 -0.37588099028850741 0 0.46157042759421502 -0.36773649963078281 0 0.45981595208787163 -0.35362587746918939 0 0.45157439943831679 -0.36619258401794491 0 0.47885007917113381 -0.35411248790180139 0 0.45981595208787163 -0.35362587746918939 0 0.46228914500663448 -0.3396233363113787 0 0.47885007917113381 -0.35411248790180139 0 0.46157042759421502 -0.36773649963078281 0 0.45981595208787163 -0.35362587746918939 0 0.45981595208787163 -0.35362587746918939 0 0.44769941202420088 -0.34603115969643228 0 0.46228914500663448 -0.3396233363113787 0 0.44769941202420088 -0.34603115969643228 0 0.43435513289291189 -0.33980003526797958 0 0.43540409461788532 -0.35290764552288628 0 0.44769941202420088 -0.34603115969643228 0 0.44586433406068249 -0.35774518051637078 0 0.43540409461788532 -0.35290764552288628 0 0.45981595208787163 -0.35362587746918939 0 0.44586433406068249 -0.35774518051637078 0 0.45157439943831679 -0.36619258401794491 0 0.45981595208787163 -0.35362587746918939 0 0.44769941202420088 -0.34603115969643228 0 0.44586433406068249 -0.35774518051637078 0 0.44586433406068249 -0.35774518051637078 0 0.4374192325449332 -0.36922006327519791 0 0.43540409461788532 -0.35290764552288628 0 0.44586433406068249 -0.35774518051637078 0 0.45157439943831679 -0.36619258401794491 0 0.4374192325449332 -0.36922006327519791 0 0.45157439943831679 -0.36619258401794491 0 0.4374192325449332 -0.36922006327519791 0 0.44866939715783338 -0.37588099028850741 0 0.45302419211279549 -0.30841875687108711 0 0.46609177362332482 -0.30690061815728331 0 0.46187845411540501 -0.32335056936727608 0 0.47774489282156468 -0.33520354216118281 0 0.46187845411540501 -0.32335056936727608 0 0.46228914500663448 -0.3396233363113787 0 0.46187845411540501 -0.32335056936727608 0 0.46228914500663448 -0.3396233363113787 0 0.44846781347921949 -0.33248488309078972 0 0.44846781347921949 -0.33248488309078972 0 0.43140708363231162 -0.32624518611803688 0 0.43435513289291189 -0.33980003526797958 0 0.44769941202420088 -0.34603115969643228 0 0.46228914500663448 -0.3396233363113787 0 0.44846781347921949 -0.33248488309078972 0 0.44769941202420088 -0.34603115969643228 0 0.44846781347921949 -0.33248488309078972 0 0.43435513289291189 -0.33980003526797958 0 0.44846781347921949 -0.33248488309078972 0 0.44231294364672341 -0.31801350035273213 0 0.43140708363231162 -0.32624518611803688 0 0.45302419211279549 -0.30841875687108711 0 0.46187845411540501 -0.32335056936727608 0 0.44231294364672341 -0.31801350035273213 0 0.46187845411540501 -0.32335056936727608 0 0.44846781347921949 -0.33248488309078972 0 0.44231294364672341 -0.31801350035273213 0 0.44231294364672341 -0.31801350035273213 0 0.43140708363231162 -0.32624518611803688 0 0.43021769691711159 -0.31109599574612867 0 0.43140708363231162 -0.32624518611803688 0 0.41998184762501117 -0.32105037918301149 0 0.43021769691711159 -0.31109599574612867 0 0.41998184762501117 -0.32105037918301149 0 0.43021769691711159 -0.31109599574612867 0 0.4187669742071668 -0.30871935978996079 0 0.43140708363231162 -0.32624518611803688 0 0.4215395133489816 -0.33624956079696461 0 0.41998184762501117 -0.32105037918301149 0 0.43435513289291189 -0.33980003526797958 0 0.4215395133489816 -0.33624956079696461 0 0.42394910183546369 -0.34903880388631148 0 0.43140708363231162 -0.32624518611803688 0 0.43435513289291189 -0.33980003526797958 0 0.4215395133489816 -0.33624956079696461 0 0.4215395133489816 -0.33624956079696461 0 0.40994157620185118 -0.33067223626089931 0 0.41998184762501117 -0.32105037918301149 0 0.4215395133489816 -0.33624956079696461 0 0.40994157620185118 -0.33067223626089931 0 0.40897608720107292 -0.34622857771424959 0 0.40994157620185118 -0.33067223626089931 0 0.41120993184974769 -0.31650919832678293 0 0.41998184762501117 -0.32105037918301149 0 0.41120993184974769 -0.31650919832678293 0 0.41998184762501117 -0.32105037918301149 0 0.4187669742071668 -0.30871935978996079 0 0.4374192325449332 -0.36922006327519791 0 0.42533541351728782 -0.36261974466653268 0 0.43540409461788532 -0.35290764552288628 0 0.42468480122414998 -0.37485272505487621 0 0.4374192325449332 -0.36922006327519791 0 0.42533541351728782 -0.36261974466653268 0 0.42468480122414998 -0.37485272505487621 0 0.42533541351728782 -0.36261974466653268 0 0.41572269348865443 -0.36798703233380042 0 0.42533541351728782 -0.36261974466653268 0 0.43540409461788532 -0.35290764552288628 0 0.42394910183546369 -0.34903880388631148 0 0.43435513289291189 -0.33980003526797958 0 0.43540409461788532 -0.35290764552288628 0 0.42394910183546369 -0.34903880388631148 0 0.40897608720107292 -0.34622857771424959 0 0.41560624643801791 -0.35779345286208758 0 0.40343882231651079 -0.36212368739537931 0 0.4215395133489816 -0.33624956079696461 0 0.42394910183546369 -0.34903880388631148 0 0.40897608720107292 -0.34622857771424959 0 0.42394910183546369 -0.34903880388631148 0 0.40897608720107292 -0.34622857771424959 0 0.41560624643801791 -0.35779345286208758 0 0.42533541351728782 -0.36261974466653268 0 0.42394910183546369 -0.34903880388631148 0 0.41560624643801791 -0.35779345286208758 0 0.42468480122414998 -0.37485272505487621 0 0.41572269348865443 -0.36798703233380042 0 0.40868954005521269 -0.37675384918811189 0 0.42533541351728782 -0.36261974466653268 0 0.41560624643801791 -0.35779345286208758 0 0.41572269348865443 -0.36798703233380042 0 0.41560624643801791 -0.35779345286208758 0 0.41572269348865443 -0.36798703233380042 0 0.40343882231651079 -0.36212368739537931 0 0.41572269348865443 -0.36798703233380042 0 0.40343882231651079 -0.36212368739537931 0 0.40868954005521269 -0.37675384918811189 0 0.39807074615548271 -0.37305540893315392 0 0.39358034108736772 -0.3608767416447764 0 0.38464728602610038 -0.36994253922606579 0 0.39807074615548271 -0.37305540893315392 0 0.40343882231651079 -0.36212368739537931 0 0.40868954005521269 -0.37675384918811189 0 0.39807074615548271 -0.37305540893315392 0 0.40343882231651079 -0.36212368739537931 0 0.39358034108736772 -0.3608767416447764 0 0.40897608720107292 -0.34622857771424959 0 0.40343882231651079 -0.36212368739537931 0 0.39720332934361008 -0.35150813713836088 0 0.40343882231651079 -0.36212368739537931 0 0.39358034108736772 -0.3608767416447764 0 0.39720332934361008 -0.35150813713836088 0 0.39358034108736772 -0.3608767416447764 0 0.39720332934361008 -0.35150813713836088 0 0.38454152159513172 -0.34775393553092188 0 0.40897608720107292 -0.34622857771424959 0 0.39720332934361008 -0.35150813713836088 0 0.39934182626300879 -0.33957789541607719 0 0.39720332934361008 -0.35150813713836088 0 0.38454152159513172 -0.34775393553092188 0 0.39934182626300879 -0.33957789541607719 0 0.38454152159513172 -0.34775393553092188 0 0.37766547380431542 -0.36094041106938862 0 0.37562293708396088 -0.33933457005993672 0 0.38454152159513172 -0.34775393553092188 0 0.38464728602610038 -0.36994253922606579 0 0.38454152159513172 -0.34775393553092188 0 0.37766547380431542 -0.36094041106938862 0 0.38454152159513172 -0.34775393553092188 0 0.37766547380431542 -0.36094041106938862 0 0.38464728602610038 -0.36994253922606579 0 0.39358034108736772 -0.3608767416447764 0 0.38454152159513172 -0.34775393553092188 0 0.38464728602610038 -0.36994253922606579 0 0.37766547380431542 -0.36094041106938862 0 0.38464728602610038 -0.36994253922606579 0 0.37766547380431542 -0.36094041106938862 0 0.38464728602610038 -0.36994253922606579 0 0.37024232928875811 -0.37517607617103549 0 0.41120993184974769 -0.31650919832678293 0 0.39730026093661391 -0.32328598397698832 0 0.41005900027809528 -0.29881803242305421 0 0.39730026093661391 -0.32328598397698832 0 0.38638511729490888 -0.31635545065019482 0 0.3945171018964222 -0.30934548043207571 0 0.40994157620185118 -0.33067223626089931 0 0.41120993184974769 -0.31650919832678293 0 0.39730026093661391 -0.32328598397698832 0 0.40994157620185118 -0.33067223626089931 0 0.39730026093661391 -0.32328598397698832 0 0.39934182626300879 -0.33957789541607719 0 0.38454152159513172 -0.34775393553092188 0 0.39730026093661391 -0.32328598397698832 0 0.38454152159513172 -0.34775393553092188 0 0.39730026093661391 -0.32328598397698832 0 0.39934182626300879 -0.33957789541607719 0 0.40994157620185118 -0.33067223626089931 0 0.40897608720107292 -0.34622857771424959 0 0.39934182626300879 -0.33957789541607719 0 0.37562293708396088 -0.33933457005993672 0 0.3844524073067998 -0.32905840992503588 0 0.37091775300749569 -0.32006391283531438 0 0.38454152159513172 -0.34775393553092188 0 0.39730026093661391 -0.32328598397698832 0 0.3844524073067998 -0.32905840992503588 0 0.38454152159513172 -0.34775393553092188 0 0.37562293708396088 -0.33933457005993672 0 0.3844524073067998 -0.32905840992503588 0 0.38454152159513172 -0.34775393553092188 0 0.3844524073067998 -0.32905840992503588 0 0.3844524073067998 -0.32905840992503588 0 0.38638511729490888 -0.31635545065019482 0 0.37091775300749569 -0.32006391283531438 0 0.39730026093661391 -0.32328598397698832 0 0.3844524073067998 -0.32905840992503588 0 0.38638511729490888 -0.31635545065019482 0 0.38638511729490888 -0.31635545065019482 0 0.38473806332721278 -0.30002346608155961 0 0.37091775300749569 -0.32006391283531438 0 0.38638511729490888 -0.31635545065019482 0 0.38473806332721278 -0.30002346608155961 0 0.3945171018964222 -0.30934548043207571 0 0.38473806332721278 -0.30002346608155961 0 0.41005900027809528 -0.29881803242305421 0 0.38473806332721278 -0.30002346608155961 0 0.3945171018964222 -0.30934548043207571 0 0.41005900027809528 -0.29881803242305421 0 0.39730026093661391 -0.32328598397698832 0 0.3945171018964222 -0.30934548043207571 0 0.41005900027809528 -0.29881803242305421 0 0.39730026093661391 -0.32328598397698832 0 0.41005900027809528 -0.29881803242305421 0 0.38473806332721278 -0.30002346608155961 0 0.40074859475584362 -0.28749635489636027 0 0.41005900027809528 -0.29881803242305421 0 0.38473806332721278 -0.30002346608155961 0 0.40074859475584362 -0.28749635489636027 0 0.38405428691745291 -0.27615434926539972 0 0.38473806332721278 -0.30002346608155961 0 0.38405428691745291 -0.27615434926539972 0 0.36660595774206051 -0.28341580610728229 0 0.38405428691745291 -0.27615434926539972 0 0.38777030597001172 -0.25401306326273237 0 0.36631748837816119 -0.26578822335298902 0 0.40905643678893538 -0.23642421005521799 0 0.38777030597001172 -0.25401306326273237 0 0.41015408743916681 -0.26237849634180072 0 0.38405428691745291 -0.27615434926539972 0 0.38777030597001172 -0.25401306326273237 0 0.41015408743916681 -0.26237849634180072 0 0.40074859475584362 -0.28749635489636027 0 0.38405428691745291 -0.27615434926539972 0 0.40699975958226431 -0.2769784362880629 0 0.38405428691745291 -0.27615434926539972 0 0.41015408743916681 -0.26237849634180072 0 0.38405428691745291 -0.27615434926539972 0 0.40699975958226431 -0.2769784362880629 0 0.41015408743916681 -0.26237849634180072 0 0.40699975958226431 -0.2769784362880629 0 0.41015408743916681 -0.26237849634180072 0 0.4236222662710033 -0.27224285653717017 0 0.40699975958226431 -0.2769784362880629 0 0.4236222662710033 -0.27224285653717017 0 0.41641956252785511 -0.28662012439958351 0 0.43625388796088083 -0.24860264341820151 0 0.41015408743916681 -0.26237849634180072 0 0.43625388796088083 -0.24860264341820151 0 0.44076146214863632 -0.27427562219250518 0 0.4236222662710033 -0.27224285653717017 0 0.43625388796088083 -0.24860264341820151 0 0.41015408743916681 -0.26237849634180072 0 0.4236222662710033 -0.27224285653717017 0 0.44076146214863632 -0.27427562219250518 0 0.4236222662710033 -0.27224285653717017 0 0.42967253682087952 -0.28571445055872607 0 0.44317555221396349 -0.29724147913694832 0 0.42967253682087952 -0.28571445055872607 0 0.42661727624602941 -0.29802975578000079 0 0.4236222662710033 -0.27224285653717017 0 0.42967253682087952 -0.28571445055872607 0 0.41641956252785511 -0.28662012439958351 0 0.42967253682087952 -0.28571445055872607 0 0.42661727624602941 -0.29802975578000079 0 0.41641956252785511 -0.28662012439958351 0 0.44317555221396349 -0.29724147913694832 0 0.43021769691711159 -0.31109599574612867 0 0.42661727624602941 -0.29802975578000079 0 0.44317555221396349 -0.29724147913694832 0 0.42661727624602941 -0.29802975578000079 0 0.43021769691711159 -0.31109599574612867 0 0.42661727624602941 -0.29802975578000079 0 0.4187669742071668 -0.30871935978996079 0 0.41120993184974769 -0.31650919832678293 0 0.4187669742071668 -0.30871935978996079 0 0.41005900027809528 -0.29881803242305421 0 0.42661727624602941 -0.29802975578000079 0 0.4187669742071668 -0.30871935978996079 0 0.41005900027809528 -0.29881803242305421 0 0.42661727624602941 -0.29802975578000079 0 0.41005900027809528 -0.29881803242305421 0 0.40074859475584362 -0.28749635489636027 0 0.41005900027809528 -0.29881803242305421 0 0.41641956252785511 -0.28662012439958351 0 0.41005900027809528 -0.29881803242305421 0 0.41641956252785511 -0.28662012439958351 0 0.40074859475584362 -0.28749635489636027 0 0.40699975958226431 -0.2769784362880629 0 0.41641956252785511 -0.28662012439958351 0 0.42661727624602941 -0.29802975578000079 0 0.41005900027809528 -0.29881803242305421 0 0.41641956252785511 -0.28662012439958351 0 0.47197946182988337 -0.47803337185554762 0 0.44256662575414879 -0.46191616873871871 0 0.40741731029584949 -0.5 0 0.5 -0.5 0 0.47197946182988337 -0.47803337185554762 0 0.40741731029584949 -0.5 0 0.50000000000000311 -0.46965738393251749 0 0.47197946182988337 -0.47803337185554762 0 0.4936336110371653 -0.46317992189188328 0 0.5 -0.5 0 0.50000000000000311 -0.46965738393251749 0 0.47197946182988337 -0.47803337185554762 0 0.4936336110371653 -0.46317992189188328 0 0.46810011839565713 -0.46254804531530219 0 0.4936336110371653 -0.46317992189188328 0 0.47504758967412258 -0.44426963403980041 0 0.47197946182988337 -0.47803337185554762 0 0.4936336110371653 -0.46317992189188328 0 0.46810011839565713 -0.46254804531530219 0 0.4936336110371653 -0.46317992189188328 0 0.47504758967412258 -0.44426963403980041 0 0.46810011839565713 -0.46254804531530219 0 0.50000000000000255 -0.46333747072860448 0 0.4936336110371653 -0.46317992189188328 0 0.5 -0.43754946625651991 0 0.50000000000000255 -0.46333747072860448 0 0.4936336110371653 -0.46317992189188328 0 0.50000000000000311 -0.46965738393251749 0 0.50000000000000255 -0.46333747072860448 0 0.4936336110371653 -0.46317992189188328 0 0.50000000000000311 -0.46965738393251749 0 0.4936336110371653 -0.46317992189188328 0 0.4936336110371653 -0.46317992189188328 0 0.5 -0.43754946625651991 0 0.47504758967412258 -0.44426963403980041 0 0.47504758967412258 -0.44426963403980041 0 0.45693415367107831 -0.44714140361613158 0 0.45646156831107748 -0.42535934618771981 0 0.47504758967412258 -0.44426963403980041 0 0.45693415367107831 -0.44714140361613158 0 0.46810011839565713 -0.46254804531530219 0 0.45693415367107831 -0.44714140361613158 0 0.46810011839565713 -0.46254804531530219 0 0.44256662575414879 -0.46191616873871871 0 0.47197946182988337 -0.47803337185554762 0 0.46810011839565713 -0.46254804531530219 0 0.44256662575414879 -0.46191616873871871 0 0.46810011839565713 -0.46254804531530219 0 0.44256662575414879 -0.46191616873871871 0 0.45693415367107831 -0.44714140361613158 0 0.44256662575414879 -0.46191616873871871 0 0.4430606609737664 -0.44042286090773047 0 0.45693415367107831 -0.44714140361613158 0 0.4430606609737664 -0.44042286090773047 0 0.45646156831107748 -0.42535934618771981 0 0.44256662575414879 -0.46191616873871871 0 0.4430606609737664 -0.44042286090773047 0 0.42753413452101841 -0.44715320462439689 0 0.43946428795091641 -0.42755396234882448 0 0.43944921223552552 -0.4195347596506146 0 0.45646156831107748 -0.42535934618771981 0 0.4430606609737664 -0.44042286090773047 0 0.43946428795091641 -0.42755396234882448 0 0.45646156831107748 -0.42535934618771981 0 0.4430606609737664 -0.44042286090773047 0 0.43946428795091641 -0.42755396234882448 0 0.43119266217885349 -0.43535835640258358 0 0.43787554694803171 -0.40644905833563999 0 0.45646156831107748 -0.42535934618771981 0 0.43944921223552552 -0.4195347596506146 0 0.43787554694803171 -0.40644905833563999 0 0.45646156831107748 -0.42535934618771981 0 0.43787554694803171 -0.40644905833563999 0 0.45646156831107748 -0.42535934618771981 0 0.45787190680846818 -0.40538439008052651 0 0.45646156831107748 -0.42535934618771981 0 0.47456862644002362 -0.40726441583017681 0 0.45787190680846818 -0.40538439008052651 0 0.47504758967412258 -0.44426963403980041 0 0.45646156831107748 -0.42535934618771981 0 0.47504758967412258 -0.44426963403980041 0 0.45646156831107748 -0.42535934618771981 0 0.48121555688504469 -0.42524086481973039 0 0.5 -0.43754946625651991 0 0.47504758967412258 -0.44426963403980041 0 0.48121555688504469 -0.42524086481973039 0 0.5 -0.43754946625651991 0 0.48121555688504469 -0.42524086481973039 0 0.5 -0.41176146178443518 0 0.48121555688504469 -0.42524086481973039 0 0.5 -0.41176146178443518 0 0.47456862644002362 -0.40726441583017681 0 0.45646156831107748 -0.42535934618771981 0 0.48121555688504469 -0.42524086481973039 0 0.47456862644002362 -0.40726441583017681 0 0.47456862644002362 -0.40726441583017681 0 0.48875213276844443 -0.3975945069780033 0 0.4749211333659662 -0.38921197942845659 0 0.47456862644002362 -0.40726441583017681 0 0.4749211333659662 -0.38921197942845659 0 0.46441626569095268 -0.39416810144123948 0 0.48875213276844443 -0.3975945069780033 0 0.5 -0.38597345731235072 0 0.4749211333659662 -0.38921197942845659 0 0.5 -0.41176146178443518 0 0.47456862644002362 -0.40726441583017681 0 0.48875213276844443 -0.3975945069780033 0 0.5 -0.41176146178443518 0 0.48875213276844443 -0.3975945069780033 0 0.5 -0.38597345731235072 0 0.47884968612971263 -0.37188208765719272 0 0.5 -0.38597345731235072 0 0.4749211333659662 -0.38921197942845659 0 0.47884968612971263 -0.37188208765719272 0 0.4749211333659662 -0.38921197942845659 0 0.46499667456918231 -0.3818869428838258 0 0.46157042759421502 -0.36773649963078281 0 0.4497229872711232 -0.38709277898321132 0 0.46157042759421502 -0.36773649963078281 0 0.44866939715783338 -0.37588099028850741 0 0.4497229872711232 -0.38709277898321132 0 0.46157042759421502 -0.36773649963078281 0 0.46499667456918231 -0.3818869428838258 0 0.4497229872711232 -0.38709277898321132 0 0.46499667456918231 -0.3818869428838258 0 0.46441626569095268 -0.39416810144123948 0 0.4497229872711232 -0.38709277898321132 0 0.4749211333659662 -0.38921197942845659 0 0.46499667456918231 -0.3818869428838258 0 0.46441626569095268 -0.39416810144123948 0 0.45787190680846818 -0.40538439008052651 0 0.46441626569095268 -0.39416810144123948 0 0.4497229872711232 -0.38709277898321132 0 0.47456862644002362 -0.40726441583017681 0 0.45787190680846818 -0.40538439008052651 0 0.46441626569095268 -0.39416810144123948 0 0.43787554694803171 -0.40644905833563999 0 0.4497229872711232 -0.38709277898321132 0 0.43787554694803171 -0.40644905833563999 0 0.45787190680846818 -0.40538439008052651 0 0.4497229872711232 -0.38709277898321132 0 0.43787554694803171 -0.40644905833563999 0 0.4497229872711232 -0.38709277898321132 0 0.43004276972474442 -0.39847962426041023 0 0.4374192325449332 -0.36922006327519791 0 0.44866939715783338 -0.37588099028850741 0 0.43198923748665302 -0.38158955234084169 0 0.44866939715783338 -0.37588099028850741 0 0.4497229872711232 -0.38709277898321132 0 0.43004276972474442 -0.39847962426041023 0 0.44866939715783338 -0.37588099028850741 0 0.43004276972474442 -0.39847962426041023 0 0.43198923748665302 -0.38158955234084169 0 0.43004276972474442 -0.39847962426041023 0 0.41936615488997869 -0.38761673672426089 0 0.44866939715783338 -0.37588099028850741 0 0.43198923748665302 -0.38158955234084169 0 0.43004276972474442 -0.39847962426041023 0 0.42468480122414998 -0.37485272505487621 0 0.43198923748665302 -0.38158955234084169 0 0.41936615488997869 -0.38761673672426089 0 0.42468480122414998 -0.37485272505487621 0 0.4374192325449332 -0.36922006327519791 0 0.43198923748665302 -0.38158955234084169 0 0.43787554694803171 -0.40644905833563999 0 0.43004276972474442 -0.39847962426041023 0 0.43787554694803171 -0.40644905833563999 0 0.43004276972474442 -0.39847962426041023 0 0.42777268423263232 -0.40915025159407981 0 0.43004276972474442 -0.39847962426041023 0 0.41805752419547698 -0.41302064505186881 0 0.43004276972474442 -0.39847962426041023 0 0.41720471348024712 -0.39764964954387688 0 0.41936615488997869 -0.38761673672426089 0 0.43004276972474442 -0.39847962426041023 0 0.41936615488997869 -0.38761673672426089 0 0.41720471348024712 -0.39764964954387688 0 0.41936615488997869 -0.38761673672426089 0 0.40135240511078812 -0.39148159213896788 0 0.40135240511078812 -0.39148159213896788 0 0.40393225193371418 -0.40726411356790571 0 0.41805752419547698 -0.41302064505186881 0 0.41720471348024712 -0.39764964954387688 0 0.40135240511078812 -0.39148159213896788 0 0.41805752419547698 -0.41302064505186881 0 0.40135240511078812 -0.39148159213896788 0 0.41805752419547698 -0.41302064505186881 0 0.43004276972474442 -0.39847962426041023 0 0.41720471348024712 -0.39764964954387688 0 0.41805752419547698 -0.41302064505186881 0 0.41936615488997869 -0.38761673672426089 0 0.40868954005521269 -0.37675384918811189 0 0.40135240511078812 -0.39148159213896788 0 0.42468480122414998 -0.37485272505487621 0 0.41936615488997869 -0.38761673672426089 0 0.40868954005521269 -0.37675384918811189 0 0.41936615488997869 -0.38761673672426089 0 0.40868954005521269 -0.37675384918811189 0 0.38464728602610038 -0.36994253922606579 0 0.40135240511078812 -0.39148159213896788 0 0.39807074615548271 -0.37305540893315392 0 0.40868954005521269 -0.37675384918811189 0 0.40135240511078812 -0.39148159213896788 0 0.39807074615548271 -0.37305540893315392 0 0.38464728602610038 -0.36994253922606579 0 0.40135240511078812 -0.39148159213896788 0 0.38464728602610038 -0.36994253922606579 0 0.37024232928875811 -0.37517607617103549 0 0.37422666903795249 -0.38654948934425898 0 0.38464728602610038 -0.36994253922606579 0 0.38476237331040991 -0.39408700933233048 0 0.37422666903795249 -0.38654948934425898 0 0.38464728602610038 -0.36994253922606579 0 0.38476237331040991 -0.39408700933233048 0 0.38464728602610038 -0.36994253922606579 0 0.38476237331040991 -0.39408700933233048 0 0.40135240511078812 -0.39148159213896788 0 0.38476237331040991 -0.39408700933233048 0 0.38487746059471772 -0.41823147943859512 0 0.3686621717912934 -0.40413008071918222 0 0.38476237331040991 -0.39408700933233048 0 0.3686621717912934 -0.40413008071918222 0 0.37422666903795249 -0.38654948934425898 0 0.38476237331040991 -0.39408700933233048 0 0.38487746059471772 -0.41823147943859512 0 0.38476237331040991 -0.39408700933233048 0 0.39478418033934692 -0.40384942120948703 0 0.38487746059471772 -0.41823147943859512 0 0.40135240511078812 -0.39148159213896788 0 0.39478418033934692 -0.40384942120948703 0 0.40393225193371418 -0.40726411356790571 0 0.38476237331040991 -0.39408700933233048 0 0.40135240511078812 -0.39148159213896788 0 0.39478418033934692 -0.40384942120948703 0 0.39973055979601929 -0.41299712208491141 0 0.40393225193371418 -0.40726411356790571 0 0.40610366475139748 -0.41737889261193112 0 0.39478418033934692 -0.40384942120948703 0 0.39973055979601929 -0.41299712208491141 0 0.40393225193371418 -0.40726411356790571 0 0.39973055979601929 -0.41299712208491141 0 0.40610366475139748 -0.41737889261193112 0 0.3977475251120266 -0.42173318177999869 0 0.39973055979601929 -0.41299712208491141 0 0.3977475251120266 -0.42173318177999869 0 0.38487746059471772 -0.41823147943859512 0 0.39478418033934692 -0.40384942120948703 0 0.39973055979601929 -0.41299712208491141 0 0.38487746059471772 -0.41823147943859512 0 0.38487746059471772 -0.41823147943859512 0 0.37946138774624683 -0.43685194171007152 0 0.36670559693944649 -0.425510038830335 0 0.38487746059471772 -0.41823147943859512 0 0.37946138774624683 -0.43685194171007152 0 0.39200301999182002 -0.42999828394736522 0 0.37946138774624683 -0.43685194171007152 0 0.39200301999182002 -0.42999828394736522 0 0.39275432181198089 -0.44371958993793031 0 0.39200301999182002 -0.42999828394736522 0 0.40540592300372891 -0.4283701174948995 0 0.39275432181198089 -0.44371958993793031 0 0.40540592300372891 -0.4283701174948995 0 0.40906131705928472 -0.42993141396834772 0 0.39275432181198089 -0.44371958993793031 0 0.3977475251120266 -0.42173318177999869 0 0.38487746059471772 -0.41823147943859512 0 0.39200301999182002 -0.42999828394736522 0 0.3977475251120266 -0.42173318177999869 0 0.39200301999182002 -0.42999828394736522 0 0.40540592300372891 -0.4283701174948995 0 0.40610366475139748 -0.41737889261193112 0 0.3977475251120266 -0.42173318177999869 0 0.40540592300372891 -0.4283701174948995 0 0.40540592300372891 -0.4283701174948995 0 0.39275432181198089 -0.44371958993793031 0 0.40906131705928472 -0.42993141396834772 0 0.41141472250432082 -0.43857291597068182 0 0.40466073403779268 -0.44344612231386032 0 0.40906131705928472 -0.42993141396834772 0 0.41368754699106242 -0.4323947112415889 0 0.41141472250432082 -0.43857291597068182 0 0.41851043758167178 -0.4277219697705506 0 0.42792659146553258 -0.42270360415586872 0 0.41797763598303378 -0.43895814997609761 0 0.40906131705928472 -0.42993141396834772 0 0.41368754699106242 -0.4323947112415889 0 0.41247041556232761 -0.42793170661982988 0 0.41368754699106242 -0.4323947112415889 0 0.41797763598303378 -0.43895814997609761 0 0.41141472250432082 -0.43857291597068182 0 0.41368754699106242 -0.4323947112415889 0 0.41851043758167178 -0.4277219697705506 0 0.41797763598303378 -0.43895814997609761 0 0.41368754699106242 -0.4323947112415889 0 0.41851043758167178 -0.4277219697705506 0 0.41247041556232761 -0.42793170661982988 0 0.41851043758167178 -0.4277219697705506 0 0.41509691260396009 -0.42376514735746329 0 0.41247041556232761 -0.42793170661982988 0 0.42023698093991041 -0.4220331169427507 0 0.41509691260396009 -0.42376514735746329 0 0.41643417607026678 -0.4199005374990667 0 0.42023698093991041 -0.4220331169427507 0 0.41851043758167178 -0.4277219697705506 0 0.41509691260396009 -0.42376514735746329 0 0.40540592300372891 -0.4283701174948995 0 0.41509691260396009 -0.42376514735746329 0 0.41247041556232761 -0.42793170661982988 0 0.40540592300372891 -0.4283701174948995 0 0.41509691260396009 -0.42376514735746329 0 0.41643417607026678 -0.4199005374990667 0 0.40540592300372891 -0.4283701174948995 0 0.40906131705928472 -0.42993141396834772 0 0.41247041556232761 -0.42793170661982988 0 0.40540592300372891 -0.4283701174948995 0 0.41805752419547698 -0.41302064505186881 0 0.40610366475139748 -0.41737889261193112 0 0.40540592300372891 -0.4283701174948995 0 0.41805752419547698 -0.41302064505186881 0 0.40540592300372891 -0.4283701174948995 0 0.41805752419547698 -0.41302064505186881 0 0.41643417607026678 -0.4199005374990667 0 0.40393225193371418 -0.40726411356790571 0 0.40610366475139748 -0.41737889261193112 0 0.41805752419547698 -0.41302064505186881 0 0.41805752419547698 -0.41302064505186881 0 0.42160670623078678 -0.41759684826649318 0 0.41805752419547698 -0.41302064505186881 0 0.41643417607026678 -0.4199005374990667 0 0.42160670623078678 -0.41759684826649318 0 0.41805752419547698 -0.41302064505186881 0 0.42160670623078678 -0.41759684826649318 0 0.42360689904662868 -0.41362681659717032 0 0.42023698093991041 -0.4220331169427507 0 0.41643417607026678 -0.4199005374990667 0 0.42160670623078678 -0.41759684826649318 0 0.42160670623078678 -0.41759684826649318 0 0.42360689904662868 -0.41362681659717032 0 0.42792659146553258 -0.42270360415586872 0 0.42777268423263232 -0.40915025159407981 0 0.42360689904662868 -0.41362681659717032 0 0.42792659146553258 -0.42270360415586872 0 0.43787554694803171 -0.40644905833563999 0 0.42792659146553258 -0.42270360415586872 0 0.42023698093991041 -0.4220331169427507 0 0.42160670623078678 -0.41759684826649318 0 0.42792659146553258 -0.42270360415586872 0 0.43787554694803171 -0.40644905833563999 0 0.42777268423263232 -0.40915025159407981 0 0.42792659146553258 -0.42270360415586872 0 0.43944921223552552 -0.4195347596506146 0 0.43787554694803171 -0.40644905833563999 0 0.42792659146553258 -0.42270360415586872 0 0.43004276972474442 -0.39847962426041023 0 0.41805752419547698 -0.41302064505186881 0 0.42777268423263232 -0.40915025159407981 0 0.41805752419547698 -0.41302064505186881 0 0.42777268423263232 -0.40915025159407981 0 0.42360689904662868 -0.41362681659717032 0 0.42792659146553258 -0.42270360415586872 0 0.41797763598303378 -0.43895814997609761 0 0.43946428795091641 -0.42755396234882448 0 0.43944921223552552 -0.4195347596506146 0 0.42792659146553258 -0.42270360415586872 0 0.43119266217885349 -0.43535835640258358 0 0.42792659146553258 -0.42270360415586872 0 0.41797763598303378 -0.43895814997609761 0 0.43946428795091641 -0.42755396234882448 0 0.43119266217885349 -0.43535835640258358 0 0.42792659146553258 -0.42270360415586872 0 0.42023698093991041 -0.4220331169427507 0 0.41851043758167178 -0.4277219697705506 0 0.42792659146553258 -0.42270360415586872 0 0.43119266217885349 -0.43535835640258358 0 0.42753413452101841 -0.44715320462439689 0 0.41797763598303378 -0.43895814997609761 0 0.4430606609737664 -0.44042286090773047 0 0.43119266217885349 -0.43535835640258358 0 0.42753413452101841 -0.44715320462439689 0 0.44256662575414879 -0.46191616873871871 0 0.42753413452101841 -0.44715320462439689 0 0.4170331331126409 -0.46128429216213518 0 0.44256662575414879 -0.46191616873871871 0 0.4170331331126409 -0.46128429216213518 0 0.4170331331126409 -0.46128429216213518 0 0.40462908037267159 -0.45699682520996149 0 0.39859984026769912 -0.47260150678788088 0 0.4170331331126409 -0.46128429216213518 0 0.41168637845043071 -0.44813418235351482 0 0.40462908037267159 -0.45699682520996149 0 0.42753413452101841 -0.44715320462439689 0 0.4170331331126409 -0.46128429216213518 0 0.41168637845043071 -0.44813418235351482 0 0.41168637845043071 -0.44813418235351482 0 0.40350011362657862 -0.45006984723775523 0 0.40462908037267159 -0.45699682520996149 0 0.41168637845043071 -0.44813418235351482 0 0.40466073403779268 -0.44344612231386032 0 0.40350011362657862 -0.45006984723775523 0 0.42753413452101841 -0.44715320462439689 0 0.41168637845043071 -0.44813418235351482 0 0.41797763598303378 -0.43895814997609761 0 0.41168637845043071 -0.44813418235351482 0 0.41797763598303378 -0.43895814997609761 0 0.41141472250432082 -0.43857291597068182 0 0.41168637845043071 -0.44813418235351482 0 0.41141472250432082 -0.43857291597068182 0 0.40466073403779268 -0.44344612231386032 0 0.40906131705928472 -0.42993141396834772 0 0.40466073403779268 -0.44344612231386032 0 0.39302426164541931 -0.45170225907368389 0 0.40906131705928472 -0.42993141396834772 0 0.39302426164541931 -0.45170225907368389 0 0.40906131705928472 -0.42993141396834772 0 0.39302426164541931 -0.45170225907368389 0 0.39275432181198089 -0.44371958993793031 0 0.40466073403779268 -0.44344612231386032 0 0.40350011362657862 -0.45006984723775523 0 0.39302426164541931 -0.45170225907368389 0 0.40350011362657862 -0.45006984723775523 0 0.39302426164541931 -0.45170225907368389 0 0.40462908037267159 -0.45699682520996149 0 0.37946138774624683 -0.43685194171007152 0 0.39275432181198089 -0.44371958993793031 0 0.38349687284399492 -0.44802853606482163 0 0.39302426164541931 -0.45170225907368389 0 0.39275432181198089 -0.44371958993793031 0 0.38349687284399492 -0.44802853606482163 0 0.37946138774624683 -0.43685194171007152 0 0.38349687284399492 -0.44802853606482163 0 0.37116860014104458 -0.45185296140547437 0 0.39302426164541931 -0.45170225907368389 0 0.38349687284399492 -0.44802853606482163 0 0.3769872062315538 -0.47347310417902028 0 0.39302426164541931 -0.45170225907368389 0 0.3769872062315538 -0.47347310417902028 0 0.39302426164541931 -0.45170225907368389 0 0.39859984026769912 -0.47260150678788088 0 0.3769872062315538 -0.47347310417902028 0 0.38349687284399492 -0.44802853606482163 0 0.3769872062315538 -0.47347310417902028 0 0.37116860014104458 -0.45185296140547437 0 0.39302426164541931 -0.45170225907368389 0 0.40462908037267159 -0.45699682520996149 0 0.39859984026769912 -0.47260150678788088 0 0.39859984026769912 -0.47260150678788088 0 0.3769872062315538 -0.47347310417902028 0 0.40741731029584949 -0.5 0 0.3769872062315538 -0.47347310417902028 0 0.40741731029584949 -0.5 0 0.36095015081768828 -0.49524394928435678 0 0.4170331331126409 -0.46128429216213518 0 0.39859984026769912 -0.47260150678788088 0 0.40741731029584949 -0.5 0 0.44256662575414879 -0.46191616873871871 0 0.4170331331126409 -0.46128429216213518 0 0.40741731029584949 -0.5 0 0.40741731029584949 -0.5 0 0.34088008737547382 -0.5 0 0.36095015081768828 -0.49524394928435678 0 0.32111551825746493 -0.47955780457056341 0 0.34088008737547382 -0.5 0 0.28041278140079529 -0.48629152799819908 0 0.32111551825746493 -0.47955780457056341 0 0.31525905832393158 -0.46357112402257228 0 0.30213735353817328 -0.47258305599639872 0 0.32111551825746493 -0.47955780457056341 0 0.34236659961965882 -0.4800459560794379 0 0.33170398870053341 -0.4618607994141628 0 0.32111551825746493 -0.47955780457056341 0 0.34236659961965882 -0.4800459560794379 0 0.34088008737547382 -0.5 0 0.34236659961965882 -0.4800459560794379 0 0.36095015081768828 -0.49524394928435678 0 0.35718325294713382 -0.46356722712810627 0 0.34236659961965882 -0.4800459560794379 0 0.34088008737547382 -0.5 0 0.36095015081768828 -0.49524394928435678 0 0.3769872062315538 -0.47347310417902028 0 0.36095015081768828 -0.49524394928435678 0 0.35718325294713382 -0.46356722712810627 0 0.3769872062315538 -0.47347310417902028 0 0.36095015081768828 -0.49524394928435678 0 0.34236659961965882 -0.4800459560794379 0 0.35718325294713382 -0.46356722712810627 0 0.33170398870053341 -0.4618607994141628 0 0.3769872062315538 -0.47347310417902028 0 0.35718325294713382 -0.46356722712810627 0 0.37116860014104458 -0.45185296140547437 0 0.35718325294713382 -0.46356722712810627 0 0.37116860014104458 -0.45185296140547437 0 0.36199830004382572 -0.44930403304852101 0 0.37946138774624683 -0.43685194171007152 0 0.37116860014104458 -0.45185296140547437 0 0.36603486423613751 -0.43899506449548192 0 0.37116860014104458 -0.45185296140547437 0 0.36199830004382572 -0.44930403304852101 0 0.36603486423613751 -0.43899506449548192 0 0.36199830004382572 -0.44930403304852101 0 0.36603486423613751 -0.43899506449548192 0 0.352483584315195 -0.44247521061540668 0 0.35718325294713382 -0.46356722712810627 0 0.352483584315195 -0.44247521061540668 0 0.3362391745415434 -0.44585056085985492 0 0.35718325294713382 -0.46356722712810627 0 0.36199830004382572 -0.44930403304852101 0 0.352483584315195 -0.44247521061540668 0 0.352483584315195 -0.44247521061540668 0 0.3362391745415434 -0.44585056085985492 0 0.33897415732088648 -0.42819523536994109 0 0.3362391745415434 -0.44585056085985492 0 0.33170398870053341 -0.4618607994141628 0 0.31828936619360632 -0.4483922417726296 0 0.35718325294713382 -0.46356722712810627 0 0.3362391745415434 -0.44585056085985492 0 0.33170398870053341 -0.4618607994141628 0 0.32111551825746493 -0.47955780457056341 0 0.33170398870053341 -0.4618607994141628 0 0.31525905832393158 -0.46357112402257228 0 0.33170398870053341 -0.4618607994141628 0 0.31525905832393158 -0.46357112402257228 0 0.31828936619360632 -0.4483922417726296 0 0.31828936619360632 -0.4483922417726296 0 0.3174272251806976 -0.43164697566253679 0 0.30339369959654788 -0.43837212419448413 0 0.3362391745415434 -0.44585056085985492 0 0.31828936619360632 -0.4483922417726296 0 0.3174272251806976 -0.43164697566253679 0 0.3174272251806976 -0.43164697566253679 0 0.32532543912791079 -0.41395287430969963 0 0.33897415732088648 -0.42819523536994109 0 0.3174272251806976 -0.43164697566253679 0 0.32532543912791079 -0.41395287430969963 0 0.29931766234908502 -0.40925200728900057 0 0.32532543912791079 -0.41395287430969963 0 0.34031962080191169 -0.41053836744137312 0 0.33897415732088648 -0.42819523536994109 0 0.32532543912791079 -0.41395287430969963 0 0.34031962080191169 -0.41053836744137312 0 0.33674408154541119 -0.39851388401181909 0 0.3362391745415434 -0.44585056085985492 0 0.3174272251806976 -0.43164697566253679 0 0.33897415732088648 -0.42819523536994109 0 0.352483584315195 -0.44247521061540668 0 0.33897415732088648 -0.42819523536994109 0 0.35309404743637551 -0.42860658065335328 0 0.33897415732088648 -0.42819523536994109 0 0.35309404743637551 -0.42860658065335328 0 0.35247088790288211 -0.41451358457308152 0 0.35309404743637551 -0.42860658065335328 0 0.36670559693944649 -0.425510038830335 0 0.35247088790288211 -0.41451358457308152 0 0.36603486423613751 -0.43899506449548192 0 0.352483584315195 -0.44247521061540668 0 0.35309404743637551 -0.42860658065335328 0 0.36603486423613751 -0.43899506449548192 0 0.35309404743637551 -0.42860658065335328 0 0.36670559693944649 -0.425510038830335 0 0.37946138774624683 -0.43685194171007152 0 0.36603486423613751 -0.43899506449548192 0 0.36670559693944649 -0.425510038830335 0 0.38487746059471772 -0.41823147943859512 0 0.36670559693944649 -0.425510038830335 0 0.3686621717912934 -0.40413008071918222 0 0.36670559693944649 -0.425510038830335 0 0.35247088790288211 -0.41451358457308152 0 0.3686621717912934 -0.40413008071918222 0 0.34031962080191169 -0.41053836744137312 0 0.33897415732088648 -0.42819523536994109 0 0.35247088790288211 -0.41451358457308152 0 0.34031962080191169 -0.41053836744137312 0 0.35247088790288211 -0.41451358457308152 0 0.35072662014371009 -0.39980095037739438 0 0.35247088790288211 -0.41451358457308152 0 0.35072662014371009 -0.39980095037739438 0 0.3686621717912934 -0.40413008071918222 0 0.35072662014371009 -0.39980095037739438 0 0.36281918477319902 -0.3894117412726813 0 0.34466531506318449 -0.38284038996376468 0 0.35072662014371009 -0.39980095037739438 0 0.34466531506318449 -0.38284038996376468 0 0.33674408154541119 -0.39851388401181909 0 0.35072662014371009 -0.39980095037739438 0 0.3686621717912934 -0.40413008071918222 0 0.36281918477319902 -0.3894117412726813 0 0.3686621717912934 -0.40413008071918222 0 0.37422666903795249 -0.38654948934425898 0 0.36281918477319902 -0.3894117412726813 0 0.37024232928875811 -0.37517607617103549 0 0.37422666903795249 -0.38654948934425898 0 0.36281918477319902 -0.3894117412726813 0 0.37024232928875811 -0.37517607617103549 0 0.36281918477319902 -0.3894117412726813 0 0.35757291093288868 -0.37415361711892531 0 0.37024232928875811 -0.37517607617103549 0 0.36281918477319902 -0.3894117412726813 0 0.36281918477319902 -0.3894117412726813 0 0.34466531506318449 -0.38284038996376468 0 0.35757291093288868 -0.37415361711892531 0 0.34466531506318449 -0.38284038996376468 0 0.32060987334256891 -0.38586997507461429 0 0.33066063332789419 -0.37050263529397331 0 0.34466531506318449 -0.38284038996376468 0 0.33674408154541119 -0.39851388401181909 0 0.32060987334256891 -0.38586997507461429 0 0.34031962080191169 -0.41053836744137312 0 0.35072662014371009 -0.39980095037739438 0 0.33674408154541119 -0.39851388401181909 0 0.32532543912791079 -0.41395287430969963 0 0.31259137958953359 -0.40113251313025028 0 0.32060987334256891 -0.38586997507461429 0 0.32532543912791079 -0.41395287430969963 0 0.33674408154541119 -0.39851388401181909 0 0.32060987334256891 -0.38586997507461429 0 0.32532543912791079 -0.41395287430969963 0 0.32060987334256891 -0.38586997507461429 0 0.32060987334256891 -0.38586997507461429 0 0.30180392243334592 -0.37710560816458599 0 0.29912751194868331 -0.39409566435018528 0 0.31259137958953359 -0.40113251313025028 0 0.32060987334256891 -0.38586997507461429 0 0.29912751194868331 -0.39409566435018528 0 0.31259137958953359 -0.40113251313025028 0 0.29912751194868331 -0.39409566435018528 0 0.29931766234908502 -0.40925200728900057 0 0.28120809951747239 -0.38685703891546452 0 0.29931766234908502 -0.40925200728900057 0 0.28673416302223592 -0.40588664669204422 0 0.28120809951747239 -0.38685703891546452 0 0.27950528975733208 -0.39966062021469528 0 0.28673416302223592 -0.40588664669204422 0 0.28120809951747239 -0.38685703891546452 0 0.29931766234908502 -0.40925200728900057 0 0.29912751194868331 -0.39409566435018528 0 0.28120809951747239 -0.38685703891546452 0 0.29931766234908502 -0.40925200728900057 0 0.30180392243334592 -0.37710560816458599 0 0.28469432168289799 -0.37886252148985372 0 0.28854843935423391 -0.37001696093824221 0 0.29912751194868331 -0.39409566435018528 0 0.28469432168289799 -0.37886252148985372 0 0.28120809951747239 -0.38685703891546452 0 0.30180392243334592 -0.37710560816458599 0 0.29912751194868331 -0.39409566435018528 0 0.28469432168289799 -0.37886252148985372 0 0.29912751194868331 -0.39409566435018528 0 0.28469432168289799 -0.37886252148985372 0 0.27181439966326798 -0.38928365222176581 0 0.27280118778532658 -0.38218370171857541 0 0.25818591758230391 -0.36615085596454061 0 0.28120809951747239 -0.38685703891546452 0 0.27280118778532658 -0.38218370171857541 0 0.26309853668586047 -0.3644620705419277 0 0.28469432168289799 -0.37886252148985372 0 0.28120809951747239 -0.38685703891546452 0 0.27026113141711461 -0.36362937862952049 0 0.28120809951747239 -0.38685703891546452 0 0.26309853668586047 -0.3644620705419277 0 0.28120809951747239 -0.38685703891546452 0 0.27181439966326798 -0.38928365222176581 0 0.27533626257079907 -0.39383620710168171 0 0.28120809951747239 -0.38685703891546452 0 0.27181439966326798 -0.38928365222176581 0 0.27280118778532658 -0.38218370171857541 0 0.27181439966326798 -0.38928365222176581 0 0.2630441773758983 -0.38329892059535697 0 0.25818591758230391 -0.36615085596454061 0 0.25828394686639011 -0.38089690481256328 0 0.2630441773758983 -0.38329892059535697 0 0.25818591758230391 -0.36615085596454061 0 0.27181439966326798 -0.38928365222176581 0 0.25818591758230391 -0.36615085596454061 0 0.25828394686639011 -0.38089690481256328 0 0.2630441773758983 -0.38329892059535697 0 0.26083814410965511 -0.39243146020513597 0 0.27181439966326798 -0.38928365222176581 0 0.2630441773758983 -0.38329892059535697 0 0.26083814410965511 -0.39243146020513597 0 0.25828394686639011 -0.38089690481256328 0 0.26083814410965511 -0.39243146020513597 0 0.2457115146091404 -0.38858360770929579 0 0.25828394686639011 -0.38089690481256328 0 0.25585754277712308 -0.37187791454345343 0 0.24969560672286889 -0.37532361052935398 0 0.25828394686639011 -0.38089690481256328 0 0.24969560672286889 -0.37532361052935398 0 0.2457115146091404 -0.38858360770929579 0 0.25489594942760452 -0.40353155530938561 0 0.26083814410965511 -0.39243146020513597 0 0.2457115146091404 -0.38858360770929579 0 0.25489594942760452 -0.40353155530938561 0 0.26083814410965511 -0.39243146020513597 0 0.26881726134512418 -0.39954351705480118 0 0.27181439966326798 -0.38928365222176581 0 0.26881726134512418 -0.39954351705480118 0 0.27533626257079907 -0.39383620710168171 0 0.27181439966326798 -0.38928365222176581 0 0.26083814410965511 -0.39243146020513597 0 0.26881726134512418 -0.39954351705480118 0 0.28120809951747239 -0.38685703891546452 0 0.27533626257079907 -0.39383620710168171 0 0.27950528975733208 -0.39966062021469528 0 0.26881726134512418 -0.39954351705480118 0 0.27533626257079907 -0.39383620710168171 0 0.27950528975733208 -0.39966062021469528 0 0.28673416302223592 -0.40588664669204422 0 0.27950528975733208 -0.39966062021469528 0 0.27749315649034562 -0.41131065273901052 0 0.26881726134512418 -0.39954351705480118 0 0.27950528975733208 -0.39966062021469528 0 0.27749315649034562 -0.41131065273901052 0 0.26881726134512418 -0.39954351705480118 0 0.27749315649034562 -0.41131065273901052 0 0.26332034973727347 -0.41640303173190119 0 0.27749315649034562 -0.41131065273901052 0 0.27517480328310251 -0.42533159992270531 0 0.28869025368298462 -0.41807489147163068 0 0.27749315649034562 -0.41131065273901052 0 0.26332034973727347 -0.41640303173190119 0 0.27517480328310251 -0.42533159992270531 0 0.25489594942760452 -0.40353155530938561 0 0.26881726134512418 -0.39954351705480118 0 0.26332034973727347 -0.41640303173190119 0 0.25489594942760452 -0.40353155530938561 0 0.26332034973727347 -0.41640303173190119 0 0.24658089742358119 -0.41976761720160211 0 0.26332034973727347 -0.41640303173190119 0 0.25969557113907887 -0.43281243736916308 0 0.24658089742358119 -0.41976761720160211 0 0.25969557113907887 -0.43281243736916308 0 0.27517480328310251 -0.42533159992270531 0 0.2737106565150339 -0.44089842436177212 0 0.26332034973727347 -0.41640303173190119 0 0.25969557113907887 -0.43281243736916308 0 0.27517480328310251 -0.42533159992270531 0 0.27517480328310251 -0.42533159992270531 0 0.28895352059819712 -0.43179422384025629 0 0.2737106565150339 -0.44089842436177212 0 0.28895352059819712 -0.43179422384025629 0 0.28869025368298462 -0.41807489147163068 0 0.2995564722815024 -0.42582804449158168 0 0.27517480328310251 -0.42533159992270531 0 0.28895352059819712 -0.43179422384025629 0 0.28869025368298462 -0.41807489147163068 0 0.28869025368298462 -0.41807489147163068 0 0.29931766234908502 -0.40925200728900057 0 0.2995564722815024 -0.42582804449158168 0 0.28673416302223592 -0.40588664669204422 0 0.27749315649034562 -0.41131065273901052 0 0.28869025368298462 -0.41807489147163068 0 0.28673416302223592 -0.40588664669204422 0 0.28869025368298462 -0.41807489147163068 0 0.29931766234908502 -0.40925200728900057 0 0.3174272251806976 -0.43164697566253679 0 0.29931766234908502 -0.40925200728900057 0 0.32532543912791079 -0.41395287430969963 0 0.31259137958953359 -0.40113251313025028 0 0.29931766234908502 -0.40925200728900057 0 0.3174272251806976 -0.43164697566253679 0 0.2995564722815024 -0.42582804449158168 0 0.30339369959654788 -0.43837212419448413 0 0.3174272251806976 -0.43164697566253679 0 0.29931766234908502 -0.40925200728900057 0 0.2995564722815024 -0.42582804449158168 0 0.28895352059819712 -0.43179422384025629 0 0.2995564722815024 -0.42582804449158168 0 0.30339369959654788 -0.43837212419448413 0 0.34088008737547382 -0.5 0 0.2586882092634174 -0.49999999999999978 0 0.28041278140079529 -0.48629152799819908 0 0.30339369959654788 -0.43837212419448413 0 0.30304906492987999 -0.45546171835910731 0 0.28907464577358921 -0.44738868805249599 0 0.31828936619360632 -0.4483922417726296 0 0.30339369959654788 -0.43837212419448413 0 0.30304906492987999 -0.45546171835910731 0 0.31525905832393158 -0.46357112402257228 0 0.31828936619360632 -0.4483922417726296 0 0.30304906492987999 -0.45546171835910731 0 0.31525905832393158 -0.46357112402257228 0 0.30304906492987999 -0.45546171835910731 0 0.30213735353817328 -0.47258305599639872 0 0.30304906492987999 -0.45546171835910731 0 0.28771328070485369 -0.46300500303106767 0 0.30213735353817328 -0.47258305599639872 0 0.30304906492987999 -0.45546171835910731 0 0.28771328070485369 -0.46300500303106767 0 0.28907464577358921 -0.44738868805249599 0 0.28771328070485369 -0.46300500303106767 0 0.28907464577358921 -0.44738868805249599 0 0.27762765229702208 -0.45480063452828873 0 0.28895352059819712 -0.43179422384025629 0 0.30339369959654788 -0.43837212419448413 0 0.28907464577358921 -0.44738868805249599 0 0.28895352059819712 -0.43179422384025629 0 0.28907464577358921 -0.44738868805249599 0 0.2737106565150339 -0.44089842436177212 0 0.2737106565150339 -0.44089842436177212 0 0.25914728930860981 -0.45331873837737813 0 0.27762765229702208 -0.45480063452828873 0 0.28907464577358921 -0.44738868805249599 0 0.2737106565150339 -0.44089842436177212 0 0.27762765229702208 -0.45480063452828873 0 0.25969557113907887 -0.43281243736916308 0 0.2737106565150339 -0.44089842436177212 0 0.25914728930860981 -0.45331873837737813 0 0.25969557113907887 -0.43281243736916308 0 0.25914728930860981 -0.45331873837737813 0 0.2412474156639268 -0.43909562916186801 0 0.25914728930860981 -0.45331873837737813 0 0.27223243957398918 -0.46711276006274272 0 0.25670700010458491 -0.47332469990915188 0 0.25914728930860981 -0.45331873837737813 0 0.27223243957398918 -0.46711276006274272 0 0.27762765229702208 -0.45480063452828873 0 0.28771328070485369 -0.46300500303106767 0 0.27223243957398918 -0.46711276006274272 0 0.27762765229702208 -0.45480063452828873 0 0.28013513353258662 -0.48263141121590158 0 0.25670700010458491 -0.47332469990915188 0 0.28041278140079529 -0.48629152799819908 0 0.27223243957398918 -0.46711276006274272 0 0.28013513353258662 -0.48263141121590158 0 0.25670700010458491 -0.47332469990915188 0 0.28013513353258662 -0.48263141121590158 0 0.25670700010458491 -0.47332469990915188 0 0.28771328070485369 -0.46300500303106767 0 0.27223243957398918 -0.46711276006274272 0 0.28013513353258662 -0.48263141121590158 0 0.25670700010458491 -0.47332469990915188 0 0.2586882092634174 -0.49999999999999978 0 0.2493683405524893 -0.48885981934930589 0 0.25670700010458491 -0.47332469990915188 0 0.2586882092634174 -0.49999999999999978 0 0.28041278140079529 -0.48629152799819908 0 0.25668590839932798 -0.49999999999999978 0 0.2586882092634174 -0.49999999999999978 0 0.2493683405524893 -0.48885981934930589 0 0.2586882092634174 -0.49999999999999978 0 0.28041278140079529 -0.48629152799819908 0 0.32111551825746493 -0.47955780457056341 0 0.28041278140079529 -0.48629152799819908 0 0.30213735353817328 -0.47258305599639872 0 0.28013513353258662 -0.48263141121590158 0 0.28041278140079529 -0.48629152799819908 0 0.30213735353817328 -0.47258305599639872 0 0.28771328070485369 -0.46300500303106767 0 0.28013513353258662 -0.48263141121590158 0 0.30213735353817328 -0.47258305599639872 0 0.28041278140079529 -0.48629152799819908 0 0.30213735353817328 -0.47258305599639872 0 0.33031743756867471 -0.28595614659070462 0 0.33409618942544822 -0.30243433339857229 0 0.34598724055771041 -0.2778912498936113 0 0.33409618942544822 -0.30243433339857229 0 0.32311390878057039 -0.30726604381727518 0 0.3272403445161064 -0.31993749274126171 0 0.33409618942544822 -0.30243433339857229 0 0.32311390878057039 -0.30726604381727518 0 0.31972668661973841 -0.29686457015913681 0 0.32311390878057039 -0.30726604381727518 0 0.3272403445161064 -0.31993749274126171 0 0.31139241456098898 -0.30982777897013009 0 0.32311390878057039 -0.30726604381727518 0 0.31972668661973841 -0.29686457015913681 0 0.31139241456098898 -0.30982777897013009 0 0.32201889899196662 -0.27321676011012391 0 0.30615844029372941 -0.28955652219381678 0 0.31972668661973841 -0.29686457015913681 0 0.32201889899196662 -0.27321676011012391 0 0.30615844029372941 -0.28955652219381678 0 0.33031743756867471 -0.28595614659070462 0 0.31972668661973841 -0.29686457015913681 0 0.32201889899196662 -0.27321676011012391 0 0.33031743756867471 -0.28595614659070462 0 0.33409618942544822 -0.30243433339857229 0 0.31972668661973841 -0.29686457015913681 0 0.31787223586978269 -0.24958911259301181 0 0.32201889899196662 -0.27321676011012391 0 0.29976540383506711 -0.2647962010656611 0 0.31787223586978269 -0.24958911259301181 0 0.32201889899196662 -0.27321676011012391 0 0.33787935769020339 -0.2568769980264306 0 0.32201889899196662 -0.27321676011012391 0 0.33787935769020339 -0.2568769980264306 0 0.33031743756867471 -0.28595614659070462 0 0.32201889899196662 -0.27321676011012391 0 0.34598724055771041 -0.2778912498936113 0 0.32201889899196662 -0.27321676011012391 0 0.33787935769020339 -0.2568769980264306 0 0.34598724055771041 -0.2778912498936113 0 0.34598724055771041 -0.2778912498936113 0 0.35320831412282649 -0.25605139805805488 0 0.36631748837816119 -0.26578822335298902 0 0.35373981638844021 -0.24053723594273729 0 0.33787935769020339 -0.2568769980264306 0 0.35320831412282649 -0.25605139805805488 0 0.33787935769020339 -0.2568769980264306 0 0.34598724055771041 -0.2778912498936113 0 0.35320831412282649 -0.25605139805805488 0 0.36901080839784067 -0.24663463147801831 0 0.35320831412282649 -0.25605139805805488 0 0.36631748837816119 -0.26578822335298902 0 0.36901080839784067 -0.24663463147801831 0 0.38777030597001172 -0.25401306326273237 0 0.36631748837816119 -0.26578822335298902 0 0.38405428691745291 -0.27615434926539972 0 0.36631748837816119 -0.26578822335298902 0 0.36660595774206051 -0.28341580610728229 0 0.34598724055771041 -0.2778912498936113 0 0.36631748837816119 -0.26578822335298902 0 0.36660595774206051 -0.28341580610728229 0 0.38473806332721278 -0.30002346608155961 0 0.36660595774206051 -0.28341580610728229 0 0.3594171263763305 -0.30122889974006589 0 0.33409618942544822 -0.30243433339857229 0 0.34598724055771041 -0.2778912498936113 0 0.3594171263763305 -0.30122889974006589 0 0.34598724055771041 -0.2778912498936113 0 0.36660595774206051 -0.28341580610728229 0 0.3594171263763305 -0.30122889974006589 0 0.33409618942544822 -0.30243433339857229 0 0.3594171263763305 -0.30122889974006589 0 0.33409618942544822 -0.30243433339857229 0 0.3594171263763305 -0.30122889974006589 0 0.34739240667584359 -0.31895046700847179 0 0.38473806332721278 -0.30002346608155961 0 0.3594171263763305 -0.30122889974006589 0 0.38473806332721278 -0.30002346608155961 0 0.3594171263763305 -0.30122889974006589 0 0.37091775300749569 -0.32006391283531438 0 0.37091775300749569 -0.32006391283531438 0 0.36053752970606179 -0.3388561809390217 0 0.34739240667584359 -0.31895046700847179 0 0.37562293708396088 -0.33933457005993672 0 0.37091775300749569 -0.32006391283531438 0 0.36053752970606179 -0.3388561809390217 0 0.36053752970606179 -0.3388561809390217 0 0.34648756911789907 -0.35223871586194361 0 0.33457523864070682 -0.33912543771583609 0 0.36053752970606179 -0.3388561809390217 0 0.34739240667584359 -0.31895046700847179 0 0.33457523864070682 -0.33912543771583609 0 0.3594171263763305 -0.30122889974006589 0 0.37091775300749569 -0.32006391283531438 0 0.34739240667584359 -0.31895046700847179 0 0.37766547380431542 -0.36094041106938862 0 0.36611026003185859 -0.36749372266220248 0 0.35896032610147321 -0.35970478628946051 0 0.37024232928875811 -0.37517607617103549 0 0.36611026003185859 -0.36749372266220248 0 0.35757291093288868 -0.37415361711892531 0 0.37766547380431542 -0.36094041106938862 0 0.37024232928875811 -0.37517607617103549 0 0.37766547380431542 -0.36094041106938862 0 0.37024232928875811 -0.37517607617103549 0 0.36611026003185859 -0.36749372266220248 0 0.36611026003185859 -0.36749372266220248 0 0.35896032610147321 -0.35970478628946051 0 0.35757291093288868 -0.37415361711892531 0 0.37766547380431542 -0.36094041106938862 0 0.36053752970606179 -0.3388561809390217 0 0.37766547380431542 -0.36094041106938862 0 0.37562293708396088 -0.33933457005993672 0 0.36053752970606179 -0.3388561809390217 0 0.37766547380431542 -0.36094041106938862 0 0.36053752970606179 -0.3388561809390217 0 0.35896032610147321 -0.35970478628946051 0 0.36053752970606179 -0.3388561809390217 0 0.34648756911789907 -0.35223871586194361 0 0.35896032610147321 -0.35970478628946051 0 0.34466531506318449 -0.38284038996376468 0 0.34447592919569681 -0.36645162239192253 0 0.35757291093288868 -0.37415361711892531 0 0.35896032610147321 -0.35970478628946051 0 0.34447592919569681 -0.36645162239192253 0 0.35757291093288868 -0.37415361711892531 0 0.34648756911789907 -0.35223871586194361 0 0.35896032610147321 -0.35970478628946051 0 0.34447592919569681 -0.36645162239192253 0 0.34466531506318449 -0.38284038996376468 0 0.34447592919569681 -0.36645162239192253 0 0.33066063332789419 -0.37050263529397331 0 0.34447592919569681 -0.36645162239192253 0 0.33066063332789419 -0.37050263529397331 0 0.33388882194555691 -0.35705555197347733 0 0.34648756911789907 -0.35223871586194361 0 0.33388882194555691 -0.35705555197347733 0 0.33457523864070682 -0.33912543771583609 0 0.34648756911789907 -0.35223871586194361 0 0.34447592919569681 -0.36645162239192253 0 0.33388882194555691 -0.35705555197347733 0 0.33388882194555691 -0.35705555197347733 0 0.31589430755722692 -0.35778707583952912 0 0.33457523864070682 -0.33912543771583609 0 0.33066063332789419 -0.37050263529397331 0 0.33388882194555691 -0.35705555197347733 0 0.31589430755722692 -0.35778707583952912 0 0.32060987334256891 -0.38586997507461429 0 0.31589430755722692 -0.35778707583952912 0 0.32060987334256891 -0.38586997507461429 0 0.30180392243334592 -0.37710560816458599 0 0.31589430755722692 -0.35778707583952912 0 0.32060987334256891 -0.38586997507461429 0 0.33066063332789419 -0.37050263529397331 0 0.31589430755722692 -0.35778707583952912 0 0.33409618942544822 -0.30243433339857229 0 0.34739240667584359 -0.31895046700847179 0 0.3272403445161064 -0.31993749274126171 0 0.34739240667584359 -0.31895046700847179 0 0.33457523864070682 -0.33912543771583609 0 0.3272403445161064 -0.31993749274126171 0 0.31589430755722692 -0.35778707583952912 0 0.33457523864070682 -0.33912543771583609 0 0.31117874177188493 -0.32970417660444379 0 0.31589430755722692 -0.35778707583952912 0 0.31117874177188493 -0.32970417660444379 0 0.33457523864070682 -0.33912543771583609 0 0.3272403445161064 -0.31993749274126171 0 0.31117874177188493 -0.32970417660444379 0 0.3272403445161064 -0.31993749274126171 0 0.31117874177188493 -0.32970417660444379 0 0.31139241456098898 -0.30982777897013009 0 0.31117874177188493 -0.32970417660444379 0 0.30646317598654299 -0.30162127736935851 0 0.31117874177188493 -0.32970417660444379 0 0.30646317598654299 -0.30162127736935851 0 0.29815586355063939 -0.3122497751093638 0 0.31117874177188493 -0.32970417660444379 0 0.30646317598654299 -0.30162127736935851 0 0.31139241456098898 -0.30982777897013009 0 0.31117874177188493 -0.32970417660444379 0 0.29364400889524173 -0.32169238080646329 0 0.29815586355063939 -0.3122497751093638 0 0.31117874177188493 -0.32970417660444379 0 0.29461385336766271 -0.33472179546812952 0 0.30155309689210552 -0.34608208569106469 0 0.31117874177188493 -0.32970417660444379 0 0.29461385336766271 -0.33472179546812952 0 0.29364400889524173 -0.32169238080646329 0 0.29461385336766271 -0.33472179546812952 0 0.28205536020111621 -0.34663213871638843 0 0.28093062655269568 -0.32702932285164388 0 0.29461385336766271 -0.33472179546812952 0 0.30155309689210552 -0.34608208569106469 0 0.28205536020111621 -0.34663213871638843 0 0.29364400889524173 -0.32169238080646329 0 0.28093062655269568 -0.32702932285164388 0 0.28264229500077331 -0.30908590624629328 0 0.29364400889524173 -0.32169238080646329 0 0.28264229500077331 -0.30908590624629328 0 0.29815586355063939 -0.3122497751093638 0 0.29461385336766271 -0.33472179546812952 0 0.29364400889524173 -0.32169238080646329 0 0.28093062655269568 -0.32702932285164388 0 0.30180392243334592 -0.37710560816458599 0 0.31589430755722692 -0.35778707583952912 0 0.29743438188357763 -0.36047033546901031 0 0.31589430755722692 -0.35778707583952912 0 0.31117874177188493 -0.32970417660444379 0 0.30155309689210552 -0.34608208569106469 0 0.31589430755722692 -0.35778707583952912 0 0.29743438188357763 -0.36047033546901031 0 0.30155309689210552 -0.34608208569106469 0 0.29743438188357763 -0.36047033546901031 0 0.28205536020111621 -0.34663213871638843 0 0.27026113141711461 -0.36362937862952049 0 0.29743438188357763 -0.36047033546901031 0 0.30155309689210552 -0.34608208569106469 0 0.28205536020111621 -0.34663213871638843 0 0.29743438188357763 -0.36047033546901031 0 0.28854843935423391 -0.37001696093824221 0 0.27026113141711461 -0.36362937862952049 0 0.30180392243334592 -0.37710560816458599 0 0.29743438188357763 -0.36047033546901031 0 0.28854843935423391 -0.37001696093824221 0 0.29743438188357763 -0.36047033546901031 0 0.27026113141711461 -0.36362937862952049 0 0.28120809951747239 -0.38685703891546452 0 0.27026113141711461 -0.36362937862952049 0 0.26309853668586047 -0.3644620705419277 0 0.28469432168289799 -0.37886252148985372 0 0.28854843935423391 -0.37001696093824221 0 0.27026113141711461 -0.36362937862952049 0 0.28469432168289799 -0.37886252148985372 0 0.27026113141711461 -0.36362937862952049 0 0.27026113141711461 -0.36362937862952049 0 0.26309853668586047 -0.3644620705419277 0 0.28205536020111621 -0.34663213871638843 0 0.27026113141711461 -0.36362937862952049 0 0.26798293426546688 -0.34801362503692401 0 0.28205536020111621 -0.34663213871638843 0 0.26798293426546688 -0.34801362503692401 0 0.26728180447257222 -0.33708492819636948 0 0.25818591758230391 -0.36615085596454061 0 0.2459877065429098 -0.34544578191442848 0 0.27026113141711461 -0.36362937862952049 0 0.26798293426546688 -0.34801362503692401 0 0.25233344097106492 -0.34470805460541892 0 0.25233344097106492 -0.34470805460541892 0 0.26309853668586047 -0.3644620705419277 0 0.25818591758230391 -0.36615085596454061 0 0.27026113141711461 -0.36362937862952049 0 0.25233344097106492 -0.34470805460541892 0 0.26309853668586047 -0.3644620705419277 0 0.25233344097106492 -0.34470805460541892 0 0.25818591758230391 -0.36615085596454061 0 0.2459877065429098 -0.34544578191442848 0 0.27026113141711461 -0.36362937862952049 0 0.25233344097106492 -0.34470805460541892 0 0.27280118778532658 -0.38218370171857541 0 0.26309853668586047 -0.3644620705419277 0 0.25818591758230391 -0.36615085596454061 0 0.27280118778532658 -0.38218370171857541 0 0.25818591758230391 -0.36615085596454061 0 0.26309853668586047 -0.3644620705419277 0 0.25818591758230391 -0.36615085596454061 0 0.25828394686639011 -0.38089690481256328 0 0.25818591758230391 -0.36615085596454061 0 0.25585754277712308 -0.37187791454345343 0 0.25818591758230391 -0.36615085596454061 0 0.25585754277712308 -0.37187791454345343 0 0.24969560672286889 -0.37532361052935398 0 0.28093062655269568 -0.32702932285164388 0 0.26728180447257222 -0.33708492819636948 0 0.26437634590958031 -0.31836799638651908 0 0.28093062655269568 -0.32702932285164388 0 0.26437634590958031 -0.31836799638651908 0 0.28264229500077331 -0.30908590624629328 0 0.28205536020111621 -0.34663213871638843 0 0.28093062655269568 -0.32702932285164388 0 0.26728180447257222 -0.33708492819636948 0 0.25233344097106492 -0.34470805460541892 0 0.26728180447257222 -0.33708492819636948 0 0.25173470697804651 -0.32756000922594491 0 0.26798293426546688 -0.34801362503692401 0 0.25233344097106492 -0.34470805460541892 0 0.26728180447257222 -0.33708492819636948 0 0.26728180447257222 -0.33708492819636948 0 0.25173470697804651 -0.32756000922594491 0 0.26437634590958031 -0.31836799638651908 0 0.25173470697804651 -0.32756000922594491 0 0.26437634590958031 -0.31836799638651908 0 0.24292778124351189 -0.31253148428183092 0 0.26187365544069691 -0.29661972320977409 0 0.24292778124351189 -0.31253148428183092 0 0.26437634590958031 -0.31836799638651908 0 0.26187365544069691 -0.29661972320977409 0 0.24292778124351189 -0.31253148428183092 0 0.26187365544069691 -0.29661972320977409 0 0.25645580146128 -0.27419314556145952 0 0.23620541610177109 -0.28433094028285738 0 0.26187365544069691 -0.29661972320977409 0 0.2808195296378817 -0.28070796213771743 0 0.26187365544069691 -0.29661972320977409 0 0.2808195296378817 -0.28070796213771743 0 0.25645580146128 -0.27419314556145952 0 0.26187365544069691 -0.29661972320977409 0 0.28366002418940922 -0.29493529496353549 0 0.2808195296378817 -0.28070796213771743 0 0.26437634590958031 -0.31836799638651908 0 0.26187365544069691 -0.29661972320977409 0 0.28264229500077331 -0.30908590624629328 0 0.26187365544069691 -0.29661972320977409 0 0.28264229500077331 -0.30908590624629328 0 0.28366002418940922 -0.29493529496353549 0 0.28264229500077331 -0.30908590624629328 0 0.29685109609875382 -0.29914513452026009 0 0.29815586355063939 -0.3122497751093638 0 0.28264229500077331 -0.30908590624629328 0 0.29685109609875382 -0.29914513452026009 0 0.28366002418940922 -0.29493529496353549 0 0.28366002418940922 -0.29493529496353549 0 0.29261857887278281 -0.2886842236353655 0 0.2808195296378817 -0.28070796213771743 0 0.29261857887278281 -0.2886842236353655 0 0.29560380414413989 -0.27907620436149783 0 0.2808195296378817 -0.28070796213771743 0 0.29685109609875382 -0.29914513452026009 0 0.28366002418940922 -0.29493529496353549 0 0.29261857887278281 -0.2886842236353655 0 0.29685109609875382 -0.29914513452026009 0 0.30615844029372941 -0.28955652219381678 0 0.29685109609875382 -0.29914513452026009 0 0.30615844029372941 -0.28955652219381678 0 0.30646317598654299 -0.30162127736935851 0 0.29685109609875382 -0.29914513452026009 0 0.29261857887278281 -0.2886842236353655 0 0.30615844029372941 -0.28955652219381678 0 0.29261857887278281 -0.2886842236353655 0 0.30615844029372941 -0.28955652219381678 0 0.29560380414413989 -0.27907620436149783 0 0.30615844029372941 -0.28955652219381678 0 0.30646317598654299 -0.30162127736935851 0 0.31139241456098898 -0.30982777897013009 0 0.31972668661973841 -0.29686457015913681 0 0.30615844029372941 -0.28955652219381678 0 0.31139241456098898 -0.30982777897013009 0 0.30615844029372941 -0.28955652219381678 0 0.31139241456098898 -0.30982777897013009 0 0.29685109609875382 -0.29914513452026009 0 0.30646317598654299 -0.30162127736935851 0 0.29815586355063939 -0.3122497751093638 0 0.31787223586978269 -0.24958911259301181 0 0.29976540383506711 -0.2647962010656611 0 0.29695657218029931 -0.25391755611866729 0 0.31787223586978269 -0.24958911259301181 0 0.29976540383506711 -0.2647962010656611 0 0.29976540383506711 -0.2647962010656611 0 0.29695657218029931 -0.25391755611866729 0 0.32201889899196662 -0.27321676011012391 0 0.30615844029372941 -0.28955652219381678 0 0.29976540383506711 -0.2647962010656611 0 0.30615844029372941 -0.28955652219381678 0 0.29976540383506711 -0.2647962010656611 0 0.30615844029372941 -0.28955652219381678 0 0.29976540383506711 -0.2647962010656611 0 0.29560380414413989 -0.27907620436149783 0 0.29976540383506711 -0.2647962010656611 0 0.2808195296378817 -0.28070796213771743 0 0.29976540383506711 -0.2647962010656611 0 0.29560380414413989 -0.27907620436149783 0 0.2808195296378817 -0.28070796213771743 0 0.29976540383506711 -0.2647962010656611 0 0.27670618682078879 -0.26405535084006171 0 0.2808195296378817 -0.28070796213771743 0 0.27368796748947521 -0.242914588277232 0 0.29695657218029931 -0.25391755611866729 0 0.27670618682078879 -0.26405535084006171 0 0.29976540383506711 -0.2647962010656611 0 0.29695657218029931 -0.25391755611866729 0 0.27670618682078879 -0.26405535084006171 0 0.29695657218029931 -0.25391755611866729 0 0.27670618682078879 -0.26405535084006171 0 0.27368796748947521 -0.242914588277232 0 0.27670618682078879 -0.26405535084006171 0 0.25824086010337621 -0.25532614280128291 0 0.27670618682078879 -0.26405535084006171 0 0.25645580146128 -0.27419314556145952 0 0.27670618682078879 -0.26405535084006171 0 0.2808195296378817 -0.28070796213771743 0 0.25645580146128 -0.27419314556145952 0 0.25645580146128 -0.27419314556145952 0 0.25824086010337621 -0.25532614280128291 0 0.24069773935524841 -0.26677368055363959 0 0.27670618682078879 -0.26405535084006171 0 0.25645580146128 -0.27419314556145952 0 0.25824086010337621 -0.25532614280128291 0 0.24060480681938509 -0.25027410992644472 0 0.24069773935524841 -0.26677368055363959 0 0.22550017303918971 -0.25846126094229499 0 0.25824086010337621 -0.25532614280128291 0 0.24060480681938509 -0.25027410992644472 0 0.24069773935524841 -0.26677368055363959 0 0.25645580146128 -0.27419314556145952 0 0.24069773935524841 -0.26677368055363959 0 0.23620541610177109 -0.28433094028285738 0 0.25645580146128 -0.27419314556145952 0 0.23620541610177109 -0.28433094028285738 0 0.24069773935524841 -0.26677368055363959 0 0.22562784164081739 -0.27180508050706598 0 0.23620541610177109 -0.28433094028285738 0 0.22562784164081739 -0.27180508050706598 0 0.22093987167114171 -0.28282494968917971 0 0.23620541610177109 -0.28433094028285738 0 0.24069773935524841 -0.26677368055363959 0 0.22562784164081739 -0.27180508050706598 0 0.22550017303918971 -0.25846126094229499 0 0.22562784164081739 -0.27180508050706598 0 0.2160951664090951 -0.26515906614541618 0 0.2173928245547864 -0.27315241433235699 0 0.22562784164081739 -0.27180508050706598 0 0.2173928245547864 -0.27315241433235699 0 0.22093987167114171 -0.28282494968917971 0 0.24060480681938509 -0.25027410992644472 0 0.22550017303918971 -0.25846126094229499 0 0.22393662304699799 -0.2430299400256471 0 0.22562784164081739 -0.27180508050706598 0 0.22550017303918971 -0.25846126094229499 0 0.2160951664090951 -0.26515906614541618 0 0.22550017303918971 -0.25846126094229499 0 0.2104931124150449 -0.25346063695062487 0 0.22393662304699799 -0.2430299400256471 0 0.2104931124150449 -0.25346063695062487 0 0.20823768882371449 -0.26430041806013321 0 0.20227539232925029 -0.26173860499894941 0 0.2104931124150449 -0.25346063695062487 0 0.20046151801442619 -0.25941234193315271 0 0.20227539232925029 -0.26173860499894941 0 0.20823768882371449 -0.26430041806013321 0 0.20279205083554699 -0.26678580463582469 0 0.20227539232925029 -0.26173860499894941 0 0.22550017303918971 -0.25846126094229499 0 0.2104931124150449 -0.25346063695062487 0 0.2160951664090951 -0.26515906614541618 0 0.2104931124150449 -0.25346063695062487 0 0.20823768882371449 -0.26430041806013321 0 0.2160951664090951 -0.26515906614541618 0 0.2160951664090951 -0.26515906614541618 0 0.2173928245547864 -0.27315241433235699 0 0.21138340006913039 -0.27028269477609113 0 0.20823768882371449 -0.26430041806013321 0 0.2160951664090951 -0.26515906614541618 0 0.21138340006913039 -0.27028269477609113 0 0.2173928245547864 -0.27315241433235699 0 0.21138340006913039 -0.27028269477609113 0 0.2118584321886858 -0.27570032611224571 0 0.2173928245547864 -0.27315241433235699 0 0.21480671196587109 -0.27961582449719258 0 0.22093987167114171 -0.28282494968917971 0 0.2173928245547864 -0.27315241433235699 0 0.2118584321886858 -0.27570032611224571 0 0.21480671196587109 -0.27961582449719258 0 0.2118584321886858 -0.27570032611224571 0 0.21480671196587109 -0.27961582449719258 0 0.20805842703615271 -0.28143326848500538 0 0.2118584321886858 -0.27570032611224571 0 0.20659060133351331 -0.27467063544806058 0 0.20805842703615271 -0.28143326848500538 0 0.21138340006913039 -0.27028269477609113 0 0.2118584321886858 -0.27570032611224571 0 0.20659060133351331 -0.27467063544806058 0 0.20659060133351331 -0.27467063544806058 0 0.20203837674980821 -0.27134887972759991 0 0.20207749559634131 -0.27776758317225753 0 0.20659060133351331 -0.27467063544806058 0 0.20207749559634131 -0.27776758317225753 0 0.20805842703615271 -0.28143326848500538 0 0.20823768882371449 -0.26430041806013321 0 0.21138340006913039 -0.27028269477609113 0 0.205830344167689 -0.2691758490857567 0 0.21138340006913039 -0.27028269477609113 0 0.20659060133351331 -0.27467063544806058 0 0.205830344167689 -0.2691758490857567 0 0.20659060133351331 -0.27467063544806058 0 0.205830344167689 -0.2691758490857567 0 0.20203837674980821 -0.27134887972759991 0 0.20823768882371449 -0.26430041806013321 0 0.205830344167689 -0.2691758490857567 0 0.20279205083554699 -0.26678580463582469 0 0.205830344167689 -0.2691758490857567 0 0.20279205083554699 -0.26678580463582469 0 0.20203837674980821 -0.27134887972759991 0 0.20279205083554699 -0.26678580463582469 0 0.19573320876047251 -0.26998855565608021 0 0.20227539232925029 -0.26173860499894941 0 0.19573320876047251 -0.26998855565608021 0 0.19843872778947669 -0.2878262529944518 0 0.1804600823258381 -0.28088617659428872 0 0.19573320876047251 -0.26998855565608021 0 0.20207749559634131 -0.27776758317225753 0 0.19843872778947669 -0.2878262529944518 0 0.20279205083554699 -0.26678580463582469 0 0.20203837674980821 -0.27134887972759991 0 0.19573320876047251 -0.26998855565608021 0 0.20203837674980821 -0.27134887972759991 0 0.19573320876047251 -0.26998855565608021 0 0.20207749559634131 -0.27776758317225753 0 0.19573320876047251 -0.26998855565608021 0 0.18759573748485789 -0.26647486492918099 0 0.1804600823258381 -0.28088617659428872 0 0.18759573748485789 -0.26647486492918099 0 0.19473139264387221 -0.25206355326407059 0 0.19573320876047251 -0.26998855565608021 0 0.18759573748485789 -0.26647486492918099 0 0.20046151801442619 -0.25941234193315271 0 0.18759573748485789 -0.26647486492918099 0 0.19473139264387221 -0.25206355326407059 0 0.20046151801442619 -0.25941234193315271 0 0.19473139264387221 -0.25206355326407059 0 0.20046151801442619 -0.25941234193315271 0 0.2012926349075338 -0.23881233735400539 0 0.18759573748485789 -0.26647486492918099 0 0.19473139264387221 -0.25206355326407059 0 0.1860585672958435 -0.25415058743821228 0 0.19473139264387221 -0.25206355326407059 0 0.1860585672958435 -0.25415058743821228 0 0.18978939181727089 -0.24572552096486031 0 0.19473139264387221 -0.25206355326407059 0 0.20046151801442619 -0.25941234193315271 0 0.19573320876047251 -0.26998855565608021 0 0.20046151801442619 -0.25941234193315271 0 0.19573320876047251 -0.26998855565608021 0 0.20046151801442619 -0.25941234193315271 0 0.20227539232925029 -0.26173860499894941 0 0.20046151801442619 -0.25941234193315271 0 0.20227539232925029 -0.26173860499894941 0 0.1961284374824932 -0.30439436994521252 0 0.20008440978619771 -0.30241392194747357 0 0.198582279745634 -0.32320379937746763 0 0.1961284374824932 -0.30439436994521252 0 0.20008440978619771 -0.30241392194747357 0 0.1961284374824932 -0.30439436994521252 0 0.1879082712539959 -0.30479546878834812 0 0.189516971638129 -0.3147328657536525 0 0.1961284374824932 -0.30439436994521252 0 0.20008440978619771 -0.30241392194747357 0 0.1864271584152116 -0.29669989482074788 0 0.1961284374824932 -0.30439436994521252 0 0.1879082712539959 -0.30479546878834812 0 0.1864271584152116 -0.29669989482074788 0 0.20008440978619771 -0.30241392194747357 0 0.1804600823258381 -0.28088617659428872 0 0.20008440978619771 -0.30241392194747357 0 0.19843872778947669 -0.2878262529944518 0 0.1804600823258381 -0.28088617659428872 0 0.20008440978619771 -0.30241392194747357 0 0.1804600823258381 -0.28088617659428872 0 0.1864271584152116 -0.29669989482074788 0 0.20207749559634131 -0.27776758317225753 0 0.19843872778947669 -0.2878262529944518 0 0.20805842703615271 -0.28143326848500538 0 0.20008440978619771 -0.30241392194747357 0 0.19843872778947669 -0.2878262529944518 0 0.2083430146024792 -0.29827948011705829 0 0.20856521620096299 -0.28887075811524748 0 0.21488194602276561 -0.29264729590081279 0 0.2083430146024792 -0.29827948011705829 0 0.19843872778947669 -0.2878262529944518 0 0.2083430146024792 -0.29827948011705829 0 0.19843872778947669 -0.2878262529944518 0 0.20856521620096299 -0.28887075811524748 0 0.2083430146024792 -0.29827948011705829 0 0.19843872778947669 -0.2878262529944518 0 0.20856521620096299 -0.28887075811524748 0 0.20805842703615271 -0.28143326848500538 0 0.20856521620096299 -0.28887075811524748 0 0.20805842703615271 -0.28143326848500538 0 0.21316469622633441 -0.2850112576906913 0 0.21316469622633441 -0.2850112576906913 0 0.21488194602276561 -0.29264729590081279 0 0.22093987167114171 -0.28282494968917971 0 0.21480671196587109 -0.27961582449719258 0 0.20805842703615271 -0.28143326848500538 0 0.21316469622633441 -0.2850112576906913 0 0.20856521620096299 -0.28887075811524748 0 0.21316469622633441 -0.2850112576906913 0 0.21488194602276561 -0.29264729590081279 0 0.21480671196587109 -0.27961582449719258 0 0.21316469622633441 -0.2850112576906913 0 0.22093987167114171 -0.28282494968917971 0 0.21488194602276561 -0.29264729590081279 0 0.21595503074226219 -0.29446873500425541 0 0.22093987167114171 -0.28282494968917971 0 0.21595503074226219 -0.29446873500425541 0 0.2083430146024792 -0.29827948011705829 0 0.21488194602276561 -0.29264729590081279 0 0.21595503074226219 -0.29446873500425541 0 0.2083430146024792 -0.29827948011705829 0 0.21488194602276561 -0.29264729590081279 0 0.21595503074226219 -0.29446873500425541 0 0.21595503074226219 -0.29446873500425541 0 0.2083430146024792 -0.29827948011705829 0 0.221374382563746 -0.31203310534918899 0 0.20008440978619771 -0.30241392194747357 0 0.2083430146024792 -0.29827948011705829 0 0.221374382563746 -0.31203310534918899 0 0.20008440978619771 -0.30241392194747357 0 0.2083430146024792 -0.29827948011705829 0 0.2083430146024792 -0.29827948011705829 0 0.221374382563746 -0.31203310534918899 0 0.21595503074226219 -0.29446873500425541 0 0.221374382563746 -0.31203310534918899 0 0.2251803906336392 -0.31012773279278583 0 0.21595503074226219 -0.29446873500425541 0 0.2251803906336392 -0.31012773279278583 0 0.21595503074226219 -0.29446873500425541 0 0.2251803906336392 -0.31012773279278583 0 0.23642845483237609 -0.29961572311430079 0 0.21595503074226219 -0.29446873500425541 0 0.23620541610177109 -0.28433094028285738 0 0.21595503074226219 -0.29446873500425541 0 0.23620541610177109 -0.28433094028285738 0 0.23642845483237609 -0.29961572311430079 0 0.21595503074226219 -0.29446873500425541 0 0.22093987167114171 -0.28282494968917971 0 0.23620541610177109 -0.28433094028285738 0 0.26187365544069691 -0.29661972320977409 0 0.23620541610177109 -0.28433094028285738 0 0.23642845483237609 -0.29961572311430079 0 0.2251803906336392 -0.31012773279278583 0 0.23642845483237609 -0.29961572311430079 0 0.24292778124351189 -0.31253148428183092 0 0.26187365544069691 -0.29661972320977409 0 0.23642845483237609 -0.29961572311430079 0 0.24292778124351189 -0.31253148428183092 0 0.25173470697804651 -0.32756000922594491 0 0.24292778124351189 -0.31253148428183092 0 0.234405750525017 -0.32578673058131591 0 0.234405750525017 -0.32578673058131591 0 0.23820460322001891 -0.34423149856072832 0 0.2459877065429098 -0.34544578191442848 0 0.234405750525017 -0.32578673058131591 0 0.2459877065429098 -0.34544578191442848 0 0.25233344097106492 -0.34470805460541892 0 0.234405750525017 -0.32578673058131591 0 0.2459877065429098 -0.34544578191442848 0 0.25233344097106492 -0.34470805460541892 0 0.25173470697804651 -0.32756000922594491 0 0.234405750525017 -0.32578673058131591 0 0.25233344097106492 -0.34470805460541892 0 0.234405750525017 -0.32578673058131591 0 0.21914450650310921 -0.32332271025410031 0 0.23820460322001891 -0.34423149856072832 0 0.21914450650310921 -0.32332271025410031 0 0.23820460322001891 -0.34423149856072832 0 0.20828667684644411 -0.34675145305689919 0 0.234405750525017 -0.32578673058131591 0 0.21914450650310921 -0.32332271025410031 0 0.23820460322001891 -0.34423149856072832 0 0.221374382563746 -0.31203310534918899 0 0.2251803906336392 -0.31012773279278583 0 0.234405750525017 -0.32578673058131591 0 0.221374382563746 -0.31203310534918899 0 0.234405750525017 -0.32578673058131591 0 0.21914450650310921 -0.32332271025410031 0 0.2251803906336392 -0.31012773279278583 0 0.24292778124351189 -0.31253148428183092 0 0.234405750525017 -0.32578673058131591 0 0.2251803906336392 -0.31012773279278583 0 0.234405750525017 -0.32578673058131591 0 0.221374382563746 -0.31203310534918899 0 0.234405750525017 -0.32578673058131591 0 0.25818591758230391 -0.36615085596454061 0 0.23112242569066629 -0.36817947324513739 0 0.24969560672286889 -0.37532361052935398 0 0.25818591758230391 -0.36615085596454061 0 0.23820460322001891 -0.34423149856072832 0 0.23112242569066629 -0.36817947324513739 0 0.25818591758230391 -0.36615085596454061 0 0.23112242569066629 -0.36817947324513739 0 0.25818591758230391 -0.36615085596454061 0 0.23820460322001891 -0.34423149856072832 0 0.25818591758230391 -0.36615085596454061 0 0.23820460322001891 -0.34423149856072832 0 0.2459877065429098 -0.34544578191442848 0 0.23820460322001891 -0.34423149856072832 0 0.23112242569066629 -0.36817947324513739 0 0.20828667684644411 -0.34675145305689919 0 0.23112242569066629 -0.36817947324513739 0 0.20498015144440329 -0.37121865962292211 0 0.20828667684644411 -0.34675145305689919 0 0.23112242569066629 -0.36817947324513739 0 0.20498015144440329 -0.37121865962292211 0 0.20828667684644411 -0.34675145305689919 0 0.18817213028954929 -0.36230952311139869 0 0.18426311945593499 -0.34105531421697538 0 0.20498015144440329 -0.37121865962292211 0 0.18817213028954929 -0.36230952311139869 0 0.18953897034558201 -0.38219231814297761 0 0.20498015144440329 -0.37121865962292211 0 0.20828667684644411 -0.34675145305689919 0 0.18817213028954929 -0.36230952311139869 0 0.20008440978619771 -0.30241392194747357 0 0.21914450650310921 -0.32332271025410031 0 0.20008440978619771 -0.30241392194747357 0 0.221374382563746 -0.31203310534918899 0 0.21914450650310921 -0.32332271025410031 0 0.20008440978619771 -0.30241392194747357 0 0.21914450650310921 -0.32332271025410031 0 0.198582279745634 -0.32320379937746763 0 0.21914450650310921 -0.32332271025410031 0 0.20828667684644411 -0.34675145305689919 0 0.198582279745634 -0.32320379937746763 0 0.198582279745634 -0.32320379937746763 0 0.18002929671283269 -0.32364695123024229 0 0.18426311945593499 -0.34105531421697538 0 0.20828667684644411 -0.34675145305689919 0 0.198582279745634 -0.32320379937746763 0 0.18426311945593499 -0.34105531421697538 0 0.1961284374824932 -0.30439436994521252 0 0.198582279745634 -0.32320379937746763 0 0.189516971638129 -0.3147328657536525 0 0.198582279745634 -0.32320379937746763 0 0.189516971638129 -0.3147328657536525 0 0.18002929671283269 -0.32364695123024229 0 0.189516971638129 -0.3147328657536525 0 0.18002929671283269 -0.32364695123024229 0 0.18007856087884369 -0.30733074955136608 0 0.18002929671283269 -0.32364695123024229 0 0.18007856087884369 -0.30733074955136608 0 0.17152851340112299 -0.31123812929938921 0 0.18002929671283269 -0.32364695123024229 0 0.18426311945593499 -0.34105531421697538 0 0.17057889637811849 -0.33259274377101972 0 0.18426311945593499 -0.34105531421697538 0 0.17057889637811849 -0.33259274377101972 0 0.16607833646484441 -0.34248219638650063 0 0.17057889637811849 -0.33259274377101972 0 0.16179193072498041 -0.33470583755701278 0 0.1541627122910631 -0.32638976332654063 0 0.17057889637811849 -0.33259274377101972 0 0.16607833646484441 -0.34248219638650063 0 0.16179193072498041 -0.33470583755701278 0 0.16607833646484441 -0.34248219638650063 0 0.15753976629694491 -0.35029420613380241 0 0.15497921813236701 -0.33846621838194341 0 0.16607833646484441 -0.34248219638650063 0 0.16179193072498041 -0.33470583755701278 0 0.15497921813236701 -0.33846621838194341 0 0.16179193072498041 -0.33470583755701278 0 0.1541627122910631 -0.32638976332654063 0 0.15497921813236701 -0.33846621838194341 0 0.18002929671283269 -0.32364695123024229 0 0.1633783467572755 -0.3169376235615205 0 0.17152851340112299 -0.31123812929938921 0 0.18002929671283269 -0.32364695123024229 0 0.17057889637811849 -0.33259274377101972 0 0.1541627122910631 -0.32638976332654063 0 0.18002929671283269 -0.32364695123024229 0 0.1633783467572755 -0.3169376235615205 0 0.1541627122910631 -0.32638976332654063 0 0.18002929671283269 -0.32364695123024229 0 0.1541627122910631 -0.32638976332654063 0 0.1633783467572755 -0.3169376235615205 0 0.152991171251187 -0.31263966503788487 0 0.1541627122910631 -0.32638976332654063 0 0.18817213028954929 -0.36230952311139869 0 0.16876999770116161 -0.36280583562006408 0 0.17181996553124351 -0.380815921413381 0 0.18426311945593499 -0.34105531421697538 0 0.16876999770116161 -0.36280583562006408 0 0.18817213028954929 -0.36230952311139869 0 0.18426311945593499 -0.34105531421697538 0 0.16876999770116161 -0.36280583562006408 0 0.18426311945593499 -0.34105531421697538 0 0.16607833646484441 -0.34248219638650063 0 0.16876999770116161 -0.36280583562006408 0 0.16607833646484441 -0.34248219638650063 0 0.15753976629694491 -0.35029420613380241 0 0.16876999770116161 -0.36280583562006408 0 0.15753976629694491 -0.35029420613380241 0 0.16876999770116161 -0.36280583562006408 0 0.15006743914673179 -0.36213754592113528 0 0.16876999770116161 -0.36280583562006408 0 0.15006743914673179 -0.36213754592113528 0 0.1532768759463882 -0.38455635702315277 0 0.16876999770116161 -0.36280583562006408 0 0.1532768759463882 -0.38455635702315277 0 0.14207298982413699 -0.37432339359786038 0 0.15006743914673179 -0.36213754592113528 0 0.1532768759463882 -0.38455635702315277 0 0.15006743914673179 -0.36213754592113528 0 0.14160288323582829 -0.35363801350348578 0 0.13729527250378909 -0.36284889165691719 0 0.14207298982413699 -0.37432339359786038 0 0.15006743914673179 -0.36213754592113528 0 0.13729527250378909 -0.36284889165691719 0 0.15006743914673179 -0.36213754592113528 0 0.14160288323582829 -0.35363801350348578 0 0.14780384003961969 -0.34557923435936821 0 0.15753976629694491 -0.35029420613380241 0 0.15006743914673179 -0.36213754592113528 0 0.14780384003961969 -0.34557923435936821 0 0.15753976629694491 -0.35029420613380241 0 0.14780384003961969 -0.34557923435936821 0 0.15497921813236701 -0.33846621838194341 0 0.14160288323582829 -0.35363801350348578 0 0.14780384003961969 -0.34557923435936821 0 0.1381297487890783 -0.34232841997057589 0 0.14160288323582829 -0.35363801350348578 0 0.13202742677730531 -0.35207268315013018 0 0.1381297487890783 -0.34232841997057589 0 0.12902300050688531 -0.34451802042237373 0 0.13202742677730531 -0.35207268315013018 0 0.1381297487890783 -0.34232841997057589 0 0.12902300050688531 -0.34451802042237373 0 0.13202742677730531 -0.35207268315013018 0 0.12227611303341331 -0.34962209539382899 0 0.13202742677730531 -0.35207268315013018 0 0.12433535888943099 -0.36111905437287539 0 0.12227611303341331 -0.34962209539382899 0 0.13202742677730531 -0.35207268315013018 0 0.13729527250378909 -0.36284889165691719 0 0.12433535888943099 -0.36111905437287539 0 0.14160288323582829 -0.35363801350348578 0 0.13202742677730531 -0.35207268315013018 0 0.13729527250378909 -0.36284889165691719 0 0.13729527250378909 -0.36284889165691719 0 0.13106656207536591 -0.37095359749455942 0 0.12433535888943099 -0.36111905437287539 0 0.14207298982413699 -0.37432339359786038 0 0.13729527250378909 -0.36284889165691719 0 0.13106656207536591 -0.37095359749455942 0 0.1444868019720596 -0.32459833987034697 0 0.1541627122910631 -0.32638976332654063 0 0.12829612786929351 -0.32913257542283841 0 0.1541627122910631 -0.32638976332654063 0 0.12829612786929351 -0.32913257542283841 0 0.1444868019720596 -0.32459833987034697 0 0.152991171251187 -0.31263966503788487 0 0.1541627122910631 -0.32638976332654063 0 0.1541627122910631 -0.32638976332654063 0 0.1424368269813874 -0.33315243648588111 0 0.12829612786929351 -0.32913257542283841 0 0.1541627122910631 -0.32638976332654063 0 0.15497921813236701 -0.33846621838194341 0 0.1424368269813874 -0.33315243648588111 0 0.14780384003961969 -0.34557923435936821 0 0.1424368269813874 -0.33315243648588111 0 0.1381297487890783 -0.34232841997057589 0 0.14780384003961969 -0.34557923435936821 0 0.15497921813236701 -0.33846621838194341 0 0.1424368269813874 -0.33315243648588111 0 0.1424368269813874 -0.33315243648588111 0 0.13458431119172151 -0.33541644401371867 0 0.12829612786929351 -0.32913257542283841 0 0.13458431119172151 -0.33541644401371867 0 0.1381297487890783 -0.34232841997057589 0 0.12947454112712661 -0.3370523441755795 0 0.1424368269813874 -0.33315243648588111 0 0.13458431119172151 -0.33541644401371867 0 0.1381297487890783 -0.34232841997057589 0 0.12902300050688531 -0.34451802042237373 0 0.1381297487890783 -0.34232841997057589 0 0.12947454112712661 -0.3370523441755795 0 0.12902300050688531 -0.34451802042237373 0 0.12947454112712661 -0.3370523441755795 0 0.123207172807503 -0.34151455942175402 0 0.12947454112712661 -0.3370523441755795 0 0.12829612786929351 -0.32913257542283841 0 0.13458431119172151 -0.33541644401371867 0 0.12947454112712661 -0.3370523441755795 0 0.12829612786929351 -0.32913257542283841 0 0.12947454112712661 -0.3370523441755795 0 0.12829612786929351 -0.32913257542283841 0 0.1197794979178342 -0.33444735271148718 0 0.12829612786929351 -0.32913257542283841 0 0.12518988192899111 -0.30825641048425573 0 0.12829612786929351 -0.32913257542283841 0 0.12729418767227779 -0.31271920613553511 0 0.12518988192899111 -0.30825641048425573 0 0.12829612786929351 -0.32913257542283841 0 0.13457508842984711 -0.32015745855919181 0 0.12729418767227779 -0.31271920613553511 0 0.1444868019720596 -0.32459833987034697 0 0.12829612786929351 -0.32913257542283841 0 0.13457508842984711 -0.32015745855919181 0 0.1444868019720596 -0.32459833987034697 0 0.13457508842984711 -0.32015745855919181 0 0.13537153542514241 -0.31100403517978231 0 0.13457508842984711 -0.32015745855919181 0 0.12729418767227779 -0.31271920613553511 0 0.13537153542514241 -0.31100403517978231 0 0.12729418767227779 -0.31271920613553511 0 0.12843564103688601 -0.29731546409586768 0 0.12518988192899111 -0.30825641048425573 0 0.12843564103688601 -0.29731546409586768 0 0.1220286850842833 -0.28644814184410511 0 0.12729418767227779 -0.31271920613553511 0 0.12518988192899111 -0.30825641048425573 0 0.12843564103688601 -0.29731546409586768 0 0.12729418767227779 -0.31271920613553511 0 0.12843564103688601 -0.29731546409586768 0 0.13537153542514241 -0.31100403517978231 0 0.12843564103688601 -0.29731546409586768 0 0.13537153542514241 -0.31100403517978231 0 0.14206595801464181 -0.3002297072379696 0 0.1444868019720596 -0.32459833987034697 0 0.13537153542514241 -0.31100403517978231 0 0.14206595801464181 -0.3002297072379696 0 0.1444868019720596 -0.32459833987034697 0 0.152991171251187 -0.31263966503788487 0 0.14206595801464181 -0.3002297072379696 0 0.1444868019720596 -0.32459833987034697 0 0.14206595801464181 -0.3002297072379696 0 0.152991171251187 -0.31263966503788487 0 0.14206595801464181 -0.3002297072379696 0 0.15411666948259681 -0.29883413987632818 0 0.14206595801464181 -0.3002297072379696 0 0.1476912661260405 -0.28942701850514679 0 0.13964511405722441 -0.27586107460559228 0 0.14206595801464181 -0.3002297072379696 0 0.13964511405722441 -0.27586107460559228 0 0.15031064679371689 -0.28167110519205352 0 0.15619521486529761 -0.28704180748234481 0 0.1476912661260405 -0.28942701850514679 0 0.15031064679371689 -0.28167110519205352 0 0.15619521486529761 -0.28704180748234481 0 0.15678086161096011 -0.27554104528334072 0 0.15411666948259681 -0.29883413987632818 0 0.15619521486529761 -0.28704180748234481 0 0.1476912661260405 -0.28942701850514679 0 0.14206595801464181 -0.3002297072379696 0 0.15411666948259681 -0.29883413987632818 0 0.1476912661260405 -0.28942701850514679 0 0.15031064679371689 -0.28167110519205352 0 0.1476912661260405 -0.28942701850514679 0 0.13964511405722441 -0.27586107460559228 0 0.12843564103688601 -0.29731546409586768 0 0.14206595801464181 -0.3002297072379696 0 0.12957709440149309 -0.28191172205620019 0 0.14206595801464181 -0.3002297072379696 0 0.12957709440149309 -0.28191172205620019 0 0.13964511405722441 -0.27586107460559228 0 0.12843564103688601 -0.29731546409586768 0 0.12957709440149309 -0.28191172205620019 0 0.12843564103688601 -0.29731546409586768 0 0.12957709440149309 -0.28191172205620019 0 0.1220286850842833 -0.28644814184410511 0 0.12957709440149309 -0.28191172205620019 0 0.1220286850842833 -0.28644814184410511 0 0.12957709440149309 -0.28191172205620019 0 0.1300972727638518 -0.27489199303631368 0 0.1220286850842833 -0.28644814184410511 0 0.1300972727638518 -0.27489199303631368 0 0.1220286850842833 -0.28644814184410511 0 0.12957709440149309 -0.28191172205620019 0 0.1300972727638518 -0.27489199303631368 0 0.13964511405722441 -0.27586107460559228 0 0.13828177495032279 -0.26213746811388627 0 0.1300972727638518 -0.27489199303631368 0 0.13828177495032279 -0.26213746811388627 0 0.1300972727638518 -0.27489199303631368 0 0.13964511405722441 -0.27586107460559228 0 0.13828177495032279 -0.26213746811388627 0 0.12957709440149309 -0.28191172205620019 0 0.13964511405722441 -0.27586107460559228 0 0.12957709440149309 -0.28191172205620019 0 0.1300972727638518 -0.27489199303631368 0 0.13964511405722441 -0.27586107460559228 0 0.1300972727638518 -0.27489199303631368 0 0.13178497783693821 -0.25211666607955069 0 0.13828177495032279 -0.26213746811388627 0 0.1300972727638518 -0.27489199303631368 0 0.13178497783693821 -0.25211666607955069 0 0.1245559079791172 -0.26229341046795501 0 0.13178497783693821 -0.25211666607955069 0 0.13828177495032279 -0.26213746811388627 0 0.13606532708945779 -0.23982632182759039 0 0.13828177495032279 -0.26213746811388627 0 0.13606532708945779 -0.23982632182759039 0 0.1300972727638518 -0.27489199303631368 0 0.13178497783693821 -0.25211666607955069 0 0.13828177495032279 -0.26213746811388627 0 0.14864590921915391 -0.24598625869157201 0 0.13828177495032279 -0.26213746811388627 0 0.1630546150266477 -0.26179250479703192 0 0.14864590921915391 -0.24598625869157201 0 0.1630546150266477 -0.26179250479703192 0 0.14864590921915391 -0.24598625869157201 0 0.1630546150266477 -0.26179250479703192 0 0.15646532013200559 -0.247488146640962 0 0.14864590921915391 -0.24598625869157201 0 0.15031064679371689 -0.28167110519205352 0 0.13964511405722441 -0.27586107460559228 0 0.15678086161096011 -0.27554104528334072 0 0.13964511405722441 -0.27586107460559228 0 0.15678086161096011 -0.27554104528334072 0 0.1630546150266477 -0.26179250479703192 0 0.13964511405722441 -0.27586107460559228 0 0.13828177495032279 -0.26213746811388627 0 0.1630546150266477 -0.26179250479703192 0 0.13964511405722441 -0.27586107460559228 0 0.1630546150266477 -0.26179250479703192 0 0.15678086161096011 -0.27554104528334072 0 0.1630546150266477 -0.26179250479703192 0 0.16658797921810359 -0.2816852332832796 0 0.1630546150266477 -0.26179250479703192 0 0.1804600823258381 -0.28088617659428872 0 0.1630546150266477 -0.26179250479703192 0 0.1804600823258381 -0.28088617659428872 0 0.16658797921810359 -0.2816852332832796 0 0.1630546150266477 -0.26179250479703192 0 0.16528334120954741 -0.25128856355010659 0 0.15646532013200559 -0.247488146640962 0 0.1630546150266477 -0.26179250479703192 0 0.16528334120954741 -0.25128856355010659 0 0.17642200342196049 -0.2537590128809481 0 0.1630546150266477 -0.26179250479703192 0 0.17642200342196049 -0.2537590128809481 0 0.18759573748485789 -0.26647486492918099 0 0.1630546150266477 -0.26179250479703192 0 0.17642200342196049 -0.2537590128809481 0 0.18759573748485789 -0.26647486492918099 0 0.17642200342196049 -0.2537590128809481 0 0.1860585672958435 -0.25415058743821228 0 0.17642200342196049 -0.2537590128809481 0 0.1860585672958435 -0.25415058743821228 0 0.18978939181727089 -0.24572552096486031 0 0.18759573748485789 -0.26647486492918099 0 0.1630546150266477 -0.26179250479703192 0 0.1804600823258381 -0.28088617659428872 0 0.18759573748485789 -0.26647486492918099 0 0.1804600823258381 -0.28088617659428872 0 0.1804600823258381 -0.28088617659428872 0 0.1750522411188242 -0.2918079606958206 0 0.1864271584152116 -0.29669989482074788 0 0.1804600823258381 -0.28088617659428872 0 0.1750522411188242 -0.2918079606958206 0 0.16658797921810359 -0.2816852332832796 0 0.1804600823258381 -0.28088617659428872 0 0.1750522411188242 -0.2918079606958206 0 0.1750522411188242 -0.2918079606958206 0 0.1864271584152116 -0.29669989482074788 0 0.17199657560804599 -0.30137255539657892 0 0.1879082712539959 -0.30479546878834812 0 0.1864271584152116 -0.29669989482074788 0 0.18007856087884369 -0.30733074955136608 0 0.1879082712539959 -0.30479546878834812 0 0.189516971638129 -0.3147328657536525 0 0.18007856087884369 -0.30733074955136608 0 0.18007856087884369 -0.30733074955136608 0 0.17199657560804599 -0.30137255539657892 0 0.17152851340112299 -0.31123812929938921 0 0.1864271584152116 -0.29669989482074788 0 0.18007856087884369 -0.30733074955136608 0 0.17199657560804599 -0.30137255539657892 0 0.17199657560804599 -0.30137255539657892 0 0.1621597870486168 -0.30690276675723821 0 0.16423536245415329 -0.29491566058422108 0 0.1633783467572755 -0.3169376235615205 0 0.17152851340112299 -0.31123812929938921 0 0.1621597870486168 -0.30690276675723821 0 0.17199657560804599 -0.30137255539657892 0 0.17152851340112299 -0.31123812929938921 0 0.1621597870486168 -0.30690276675723821 0 0.1633783467572755 -0.3169376235615205 0 0.152991171251187 -0.31263966503788487 0 0.1621597870486168 -0.30690276675723821 0 0.152991171251187 -0.31263966503788487 0 0.15411666948259681 -0.29883413987632818 0 0.1621597870486168 -0.30690276675723821 0 0.15411666948259681 -0.29883413987632818 0 0.1621597870486168 -0.30690276675723821 0 0.16423536245415329 -0.29491566058422108 0 0.15411666948259681 -0.29883413987632818 0 0.15619521486529761 -0.28704180748234481 0 0.16423536245415329 -0.29491566058422108 0 0.15619521486529761 -0.28704180748234481 0 0.15678086161096011 -0.27554104528334072 0 0.16658797921810359 -0.2816852332832796 0 0.15619521486529761 -0.28704180748234481 0 0.16658797921810359 -0.2816852332832796 0 0.16423536245415329 -0.29491566058422108 0 0.1750522411188242 -0.2918079606958206 0 0.16658797921810359 -0.2816852332832796 0 0.16423536245415329 -0.29491566058422108 0 0.1750522411188242 -0.2918079606958206 0 0.17199657560804599 -0.30137255539657892 0 0.16423536245415329 -0.29491566058422108 0 0.19682402676423319 -0.4887197780729241 0 0.18817844034567971 -0.47700643212117561 0 0.17928867253241501 -0.5 0 0.19682402676423319 -0.4887197780729241 0 0.20508775115471919 -0.5 0 0.17928867253241501 -0.5 0 0.19682402676423319 -0.4887197780729241 0 0.18817844034567971 -0.47700643212117561 0 0.21101426303022919 -0.48467095474745031 0 0.18817844034567971 -0.47700643212117561 0 0.21101426303022919 -0.48467095474745031 0 0.18817844034567971 -0.47700643212117561 0 0.2032441799716399 -0.46997028532441248 0 0.21101426303022919 -0.48467095474745031 0 0.18817844034567971 -0.47700643212117561 0 0.2032441799716399 -0.46997028532441248 0 0.19114622386174471 -0.46214004554360238 0 0.2032441799716399 -0.46997028532441248 0 0.21101426303022919 -0.48467095474745031 0 0.22215933310320141 -0.47404250447496038 0 0.21101426303022919 -0.48467095474745031 0 0.20508775115471919 -0.5 0 0.2308868297770236 -0.5 0 0.19682402676423319 -0.4887197780729241 0 0.21101426303022919 -0.48467095474745031 0 0.20508775115471919 -0.5 0 0.21101426303022919 -0.48467095474745031 0 0.23385008571477861 -0.49233547737372502 0 0.21101426303022919 -0.48467095474745031 0 0.2308868297770236 -0.5 0 0.23385008571477861 -0.49233547737372502 0 0.25668590839932798 -0.49999999999999978 0 0.23385008571477861 -0.49233547737372502 0 0.2493683405524893 -0.48885981934930589 0 0.25668590839932798 -0.49999999999999978 0 0.23385008571477861 -0.49233547737372502 0 0.25668590839932798 -0.49999999999999978 0 0.2308868297770236 -0.5 0 0.23385008571477861 -0.49233547737372502 0 0.23385008571477861 -0.49233547737372502 0 0.2493683405524893 -0.48885981934930589 0 0.24091049928033759 -0.47863891946365272 0 0.25670700010458491 -0.47332469990915188 0 0.2493683405524893 -0.48885981934930589 0 0.24091049928033759 -0.47863891946365272 0 0.25670700010458491 -0.47332469990915188 0 0.24091049928033759 -0.47863891946365272 0 0.23327886667658301 -0.46401798860240218 0 0.24091049928033759 -0.47863891946365272 0 0.22215933310320141 -0.47404250447496038 0 0.23327886667658301 -0.46401798860240218 0 0.21101426303022919 -0.48467095474745031 0 0.23385008571477861 -0.49233547737372502 0 0.22215933310320141 -0.47404250447496038 0 0.23385008571477861 -0.49233547737372502 0 0.24091049928033759 -0.47863891946365272 0 0.22215933310320141 -0.47404250447496038 0 0.22215933310320141 -0.47404250447496038 0 0.23327886667658301 -0.46401798860240218 0 0.20985073324858131 -0.45471127729565242 0 0.23327886667658301 -0.46401798860240218 0 0.22304144808347359 -0.44243793756842481 0 0.20985073324858131 -0.45471127729565242 0 0.23327886667658301 -0.46401798860240218 0 0.20985073324858131 -0.45471127729565242 0 0.25914728930860981 -0.45331873837737813 0 0.25670700010458491 -0.47332469990915188 0 0.23327886667658301 -0.46401798860240218 0 0.25670700010458491 -0.47332469990915188 0 0.23327886667658301 -0.46401798860240218 0 0.25914728930860981 -0.45331873837737813 0 0.23327886667658301 -0.46401798860240218 0 0.2412474156639268 -0.43909562916186801 0 0.23327886667658301 -0.46401798860240218 0 0.2412474156639268 -0.43909562916186801 0 0.22304144808347359 -0.44243793756842481 0 0.22304144808347359 -0.44243793756842481 0 0.20985073324858131 -0.45471127729565242 0 0.20535520939585811 -0.43124570489688779 0 0.2032441799716399 -0.46997028532441248 0 0.22215933310320141 -0.47404250447496038 0 0.20985073324858131 -0.45471127729565242 0 0.20985073324858131 -0.45471127729565242 0 0.19114622386174471 -0.46214004554360238 0 0.18642259982057971 -0.44540456598890271 0 0.2032441799716399 -0.46997028532441248 0 0.20985073324858131 -0.45471127729565242 0 0.19114622386174471 -0.46214004554360238 0 0.20985073324858131 -0.45471127729565242 0 0.18642259982057971 -0.44540456598890271 0 0.20985073324858131 -0.45471127729565242 0 0.20535520939585811 -0.43124570489688779 0 0.18642259982057971 -0.44540456598890271 0 0.20535520939585811 -0.43124570489688779 0 0.18588975849690409 -0.42839386543509211 0 0.18642259982057971 -0.44540456598890271 0 0.19422747314896491 -0.41355707442124939 0 0.20535520939585811 -0.43124570489688779 0 0.18588975849690409 -0.42839386543509211 0 0.19422747314896491 -0.41355707442124939 0 0.21455598558127681 -0.41020458312976849 0 0.20247600651605871 -0.39525967880800927 0 0.19422747314896491 -0.41355707442124939 0 0.21455598558127681 -0.41020458312976849 0 0.20535520939585811 -0.43124570489688779 0 0.22304144808347359 -0.44243793756842481 0 0.20535520939585811 -0.43124570489688779 0 0.22712029009175341 -0.42471176635502211 0 0.21455598558127681 -0.41020458312976849 0 0.20535520939585811 -0.43124570489688779 0 0.22712029009175341 -0.42471176635502211 0 0.2412474156639268 -0.43909562916186801 0 0.22304144808347359 -0.44243793756842481 0 0.22712029009175341 -0.42471176635502211 0 0.25969557113907887 -0.43281243736916308 0 0.2412474156639268 -0.43909562916186801 0 0.24658089742358119 -0.41976761720160211 0 0.2412474156639268 -0.43909562916186801 0 0.22712029009175341 -0.42471176635502211 0 0.24658089742358119 -0.41976761720160211 0 0.25489594942760452 -0.40353155530938561 0 0.24658089742358119 -0.41976761720160211 0 0.23492626218552989 -0.40551573653960171 0 0.22712029009175341 -0.42471176635502211 0 0.24658089742358119 -0.41976761720160211 0 0.23492626218552989 -0.40551573653960171 0 0.21455598558127681 -0.41020458312976849 0 0.22712029009175341 -0.42471176635502211 0 0.23492626218552989 -0.40551573653960171 0 0.23492626218552989 -0.40551573653960171 0 0.2457115146091404 -0.38858360770929579 0 0.2221113101171005 -0.38978577744546389 0 0.21455598558127681 -0.41020458312976849 0 0.23492626218552989 -0.40551573653960171 0 0.2221113101171005 -0.38978577744546389 0 0.25489594942760452 -0.40353155530938561 0 0.23492626218552989 -0.40551573653960171 0 0.2457115146091404 -0.38858360770929579 0 0.23112242569066629 -0.36817947324513739 0 0.24969560672286889 -0.37532361052935398 0 0.2457115146091404 -0.38858360770929579 0 0.23112242569066629 -0.36817947324513739 0 0.20498015144440329 -0.37121865962292211 0 0.2221113101171005 -0.38978577744546389 0 0.23112242569066629 -0.36817947324513739 0 0.2457115146091404 -0.38858360770929579 0 0.2221113101171005 -0.38978577744546389 0 0.20498015144440329 -0.37121865962292211 0 0.2221113101171005 -0.38978577744546389 0 0.20247600651605871 -0.39525967880800927 0 0.21455598558127681 -0.41020458312976849 0 0.2221113101171005 -0.38978577744546389 0 0.20247600651605871 -0.39525967880800927 0 0.19422747314896491 -0.41355707442124939 0 0.20247600651605871 -0.39525967880800927 0 0.18299462315243031 -0.39796552068638319 0 0.20247600651605871 -0.39525967880800927 0 0.18953897034558201 -0.38219231814297761 0 0.18299462315243031 -0.39796552068638319 0 0.20498015144440329 -0.37121865962292211 0 0.20247600651605871 -0.39525967880800927 0 0.18953897034558201 -0.38219231814297761 0 0.18953897034558201 -0.38219231814297761 0 0.18299462315243031 -0.39796552068638319 0 0.17181996553124351 -0.380815921413381 0 0.18817213028954929 -0.36230952311139869 0 0.18953897034558201 -0.38219231814297761 0 0.17181996553124351 -0.380815921413381 0 0.18299462315243031 -0.39796552068638319 0 0.1657362515832656 -0.39732657656942361 0 0.1730497097570719 -0.41748979445088169 0 0.18299462315243031 -0.39796552068638319 0 0.1657362515832656 -0.39732657656942361 0 0.17181996553124351 -0.380815921413381 0 0.16876999770116161 -0.36280583562006408 0 0.17181996553124351 -0.380815921413381 0 0.1532768759463882 -0.38455635702315277 0 0.1657362515832656 -0.39732657656942361 0 0.17181996553124351 -0.380815921413381 0 0.1532768759463882 -0.38455635702315277 0 0.14207298982413699 -0.37432339359786038 0 0.1532768759463882 -0.38455635702315277 0 0.13204692344314131 -0.38344963322127262 0 0.14207298982413699 -0.37432339359786038 0 0.13106656207536591 -0.37095359749455942 0 0.13204692344314131 -0.38344963322127262 0 0.13106656207536591 -0.37095359749455942 0 0.13204692344314131 -0.38344963322127262 0 0.119582265716331 -0.37302701462387139 0 0.12744968212790561 -0.39686932553801568 0 0.13778375419161479 -0.40630687842624158 0 0.1172574352070818 -0.40544799072893017 0 0.13204692344314131 -0.38344963322127262 0 0.12744968212790561 -0.39686932553801568 0 0.13778375419161479 -0.40630687842624158 0 0.13204692344314131 -0.38344963322127262 0 0.12744968212790561 -0.39686932553801568 0 0.1175098680062359 -0.39491139176728601 0 0.1657362515832656 -0.39732657656942361 0 0.13778375419161479 -0.40630687842624158 0 0.1657362515832656 -0.39732657656942361 0 0.1532768759463882 -0.38455635702315277 0 0.13778375419161479 -0.40630687842624158 0 0.1532768759463882 -0.38455635702315277 0 0.13204692344314131 -0.38344963322127262 0 0.13778375419161479 -0.40630687842624158 0 0.1532768759463882 -0.38455635702315277 0 0.13778375419161479 -0.40630687842624158 0 0.1657362515832656 -0.39732657656942361 0 0.15517467005663221 -0.41579547899376268 0 0.13778375419161479 -0.40630687842624158 0 0.15517467005663221 -0.41579547899376268 0 0.13778375419161479 -0.40630687842624158 0 0.14178847466077629 -0.42476290402593547 0 0.13778375419161479 -0.40630687842624158 0 0.1285885469984879 -0.41921586823640178 0 0.11170319400730611 -0.41468578281422303 0 0.13778375419161479 -0.40630687842624158 0 0.1285885469984879 -0.41921586823640178 0 0.13778375419161479 -0.40630687842624158 0 0.1285885469984879 -0.41921586823640178 0 0.14178847466077629 -0.42476290402593547 0 0.1285885469984879 -0.41921586823640178 0 0.12661094379887999 -0.43243102823908852 0 0.14178847466077629 -0.42476290402593547 0 0.12661094379887999 -0.43243102823908852 0 0.14178847466077629 -0.42476290402593547 0 0.13764047935429721 -0.43997428441553399 0 0.15595690515885399 -0.43272093806182371 0 0.14178847466077629 -0.42476290402593547 0 0.13764047935429721 -0.43997428441553399 0 0.15517467005663221 -0.41579547899376268 0 0.15595690515885399 -0.43272093806182371 0 0.14178847466077629 -0.42476290402593547 0 0.15595690515885399 -0.43272093806182371 0 0.1730497097570719 -0.41748979445088169 0 0.17251697296928131 -0.43465896764991452 0 0.15517467005663221 -0.41579547899376268 0 0.15595690515885399 -0.43272093806182371 0 0.1730497097570719 -0.41748979445088169 0 0.1657362515832656 -0.39732657656942361 0 0.15517467005663221 -0.41579547899376268 0 0.1730497097570719 -0.41748979445088169 0 0.19422747314896491 -0.41355707442124939 0 0.1730497097570719 -0.41748979445088169 0 0.18588975849690409 -0.42839386543509211 0 0.19422747314896491 -0.41355707442124939 0 0.18299462315243031 -0.39796552068638319 0 0.1730497097570719 -0.41748979445088169 0 0.17251697296928131 -0.43465896764991452 0 0.18588975849690409 -0.42839386543509211 0 0.18642259982057971 -0.44540456598890271 0 0.1730497097570719 -0.41748979445088169 0 0.17251697296928131 -0.43465896764991452 0 0.18588975849690409 -0.42839386543509211 0 0.17251697296928131 -0.43465896764991452 0 0.18642259982057971 -0.44540456598890271 0 0.16126589161299659 -0.44928567431287197 0 0.19114622386174471 -0.46214004554360238 0 0.18642259982057971 -0.44540456598890271 0 0.170513192941428 -0.46576642212555108 0 0.18817844034567971 -0.47700643212117561 0 0.19114622386174471 -0.46214004554360238 0 0.170513192941428 -0.46576642212555108 0 0.18642259982057971 -0.44540456598890271 0 0.170513192941428 -0.46576642212555108 0 0.16126589161299659 -0.44928567431287197 0 0.170513192941428 -0.46576642212555108 0 0.14708508594303291 -0.46177696651482858 0 0.15695115873575069 -0.47384522377682348 0 0.170513192941428 -0.46576642212555108 0 0.16126589161299659 -0.44928567431287197 0 0.14708508594303291 -0.46177696651482858 0 0.170513192941428 -0.46576642212555108 0 0.14708508594303291 -0.46177696651482858 0 0.15595690515885399 -0.43272093806182371 0 0.17251697296928131 -0.43465896764991452 0 0.16126589161299659 -0.44928567431287197 0 0.15595690515885399 -0.43272093806182371 0 0.16126589161299659 -0.44928567431287197 0 0.14824546723691079 -0.44769427393097261 0 0.15595690515885399 -0.43272093806182371 0 0.14824546723691079 -0.44769427393097261 0 0.13764047935429721 -0.43997428441553399 0 0.16126589161299659 -0.44928567431287197 0 0.14824546723691079 -0.44769427393097261 0 0.14708508594303291 -0.46177696651482858 0 0.14824546723691079 -0.44769427393097261 0 0.13764047935429721 -0.43997428441553399 0 0.1366686124520502 -0.45060519398664978 0 0.13764047935429721 -0.43997428441553399 0 0.1366686124520502 -0.45060519398664978 0 0.12736542642524359 -0.44361592400677952 0 0.1366686124520502 -0.45060519398664978 0 0.12736542642524359 -0.44361592400677952 0 0.12365697894463749 -0.45778751090410702 0 0.12661094379887999 -0.43243102823908852 0 0.13764047935429721 -0.43997428441553399 0 0.12736542642524359 -0.44361592400677952 0 0.1366686124520502 -0.45060519398664978 0 0.14708508594303291 -0.46177696651482858 0 0.12365697894463749 -0.45778751090410702 0 0.12709215113675251 -0.46396285783688979 0 0.14708508594303291 -0.46177696651482858 0 0.12365697894463749 -0.45778751090410702 0 0.14708508594303291 -0.46177696651482858 0 0.12365697894463749 -0.45778751090410702 0 0.12709215113675251 -0.46396285783688979 0 0.13127797056712029 -0.47148762973619812 0 0.12709215113675251 -0.46396285783688979 0 0.12365697894463749 -0.45778751090410702 0 0.14824546723691079 -0.44769427393097261 0 0.1366686124520502 -0.45060519398664978 0 0.14708508594303291 -0.46177696651482858 0 0.14708508594303291 -0.46177696651482858 0 0.1452593483709757 -0.48405383074308961 0 0.15695115873575069 -0.47384522377682348 0 0.1452593483709757 -0.48405383074308961 0 0.16494700768756651 -0.4837836757238248 0 0.15695115873575069 -0.47384522377682348 0 0.1452593483709757 -0.48405383074308961 0 0.1273630713850305 -0.48406220795834182 0 0.13127797056712029 -0.47148762973619812 0 0.12709215113675251 -0.46396285783688979 0 0.1452593483709757 -0.48405383074308961 0 0.12709215113675251 -0.46396285783688979 0 0.14708508594303291 -0.46177696651482858 0 0.1452593483709757 -0.48405383074308961 0 0.12709215113675251 -0.46396285783688979 0 0.1452593483709757 -0.48405383074308961 0 0.13127797056712029 -0.47148762973619812 0 0.12709215113675251 -0.46396285783688979 0 0.13127797056712029 -0.47148762973619812 0 0.1199954232846145 -0.47269168911093212 0 0.1273630713850305 -0.48406220795834182 0 0.13127797056712029 -0.47148762973619812 0 0.1199954232846145 -0.47269168911093212 0 0.1452593483709757 -0.48405383074308961 0 0.1273630713850305 -0.48406220795834182 0 0.12769051528780639 -0.5 0 0.1452593483709757 -0.48405383074308961 0 0.15348959391011061 -0.5 0 0.16494700768756651 -0.4837836757238248 0 0.1452593483709757 -0.48405383074308961 0 0.12769051528780639 -0.5 0 0.15348959391011061 -0.5 0 0.15348959391011061 -0.5 0 0.16494700768756651 -0.4837836757238248 0 0.17928867253241501 -0.5 0 0.170513192941428 -0.46576642212555108 0 0.16494700768756651 -0.4837836757238248 0 0.15695115873575069 -0.47384522377682348 0 0.18817844034567971 -0.47700643212117561 0 0.170513192941428 -0.46576642212555108 0 0.16494700768756651 -0.4837836757238248 0 0.18817844034567971 -0.47700643212117561 0 0.16494700768756651 -0.4837836757238248 0 0.17928867253241501 -0.5 0 0.069151809442979176 -0.48538637577355309 0 0.078700559369064282 -0.5 0 0.05550968207262641 -0.5 0 0.069151809442979176 -0.48538637577355309 0 0.084406116512107596 -0.46923166739216909 0 0.065046145507563519 -0.46841934415832548 0 0.084406116512107596 -0.46923166739216909 0 0.087684012721420221 -0.4857526816277975 0 0.1021225758156362 -0.47707994211209642 0 0.069151809442979176 -0.48538637577355309 0 0.084406116512107596 -0.46923166739216909 0 0.087684012721420221 -0.4857526816277975 0 0.069151809442979176 -0.48538637577355309 0 0.078700559369064282 -0.5 0 0.087684012721420221 -0.4857526816277975 0 0.078700559369064282 -0.5 0 0.087684012721420221 -0.4857526816277975 0 0.1018914366655021 -0.499999999999996 0 0.087684012721420221 -0.4857526816277975 0 0.1018914366655021 -0.499999999999996 0 0.1021225758156362 -0.47707994211209642 0 0.1018914366655021 -0.499999999999996 0 0.1021225758156362 -0.47707994211209642 0 0.1018914366655021 -0.499999999999996 0 0.1144401060594786 -0.48467334356102759 0 0.1021225758156362 -0.47707994211209642 0 0.12769051528780639 -0.5 0 0.1018914366655021 -0.499999999999996 0 0.1144401060594786 -0.48467334356102759 0 0.1273630713850305 -0.48406220795834182 0 0.12769051528780639 -0.5 0 0.1144401060594786 -0.48467334356102759 0 0.1273630713850305 -0.48406220795834182 0 0.1144401060594786 -0.48467334356102759 0 0.1199954232846145 -0.47269168911093212 0 0.1199954232846145 -0.47269168911093212 0 0.11032918011863301 -0.47197329641717423 0 0.1128846835206819 -0.46349831440389799 0 0.1144401060594786 -0.48467334356102759 0 0.1199954232846145 -0.47269168911093212 0 0.11032918011863301 -0.47197329641717423 0 0.1144401060594786 -0.48467334356102759 0 0.11032918011863301 -0.47197329641717423 0 0.1021225758156362 -0.47707994211209642 0 0.11032918011863301 -0.47197329641717423 0 0.1023537149657706 -0.45415988422419679 0 0.1128846835206819 -0.46349831440389799 0 0.1021225758156362 -0.47707994211209642 0 0.1023537149657706 -0.45415988422419679 0 0.084406116512107596 -0.46923166739216909 0 0.1021225758156362 -0.47707994211209642 0 0.1023537149657706 -0.45415988422419679 0 0.11032918011863301 -0.47197329641717423 0 0.1021225758156362 -0.47707994211209642 0 0.1023537149657706 -0.45415988422419679 0 0.1023537149657706 -0.45415988422419679 0 0.1128846835206819 -0.46349831440389799 0 0.1127012997287118 -0.4559219228768594 0 0.1023537149657706 -0.45415988422419679 0 0.1127012997287118 -0.4559219228768594 0 0.1128846835206819 -0.46349831440389799 0 0.1127012997287118 -0.4559219228768594 0 0.12111701007272629 -0.45735499226024767 0 0.1128846835206819 -0.46349831440389799 0 0.1127012997287118 -0.4559219228768594 0 0.1127012997287118 -0.4559219228768594 0 0.12111701007272629 -0.45735499226024767 0 0.1125054753976763 -0.44783155792931462 0 0.1127012997287118 -0.4559219228768594 0 0.12111701007272629 -0.45735499226024767 0 0.12111701007272629 -0.45735499226024767 0 0.12365697894463749 -0.45778751090410702 0 0.1125054753976763 -0.44783155792931462 0 0.12709215113675251 -0.46396285783688979 0 0.12111701007272629 -0.45735499226024767 0 0.12709215113675251 -0.46396285783688979 0 0.12111701007272629 -0.45735499226024767 0 0.12365697894463749 -0.45778751090410702 0 0.12111701007272629 -0.45735499226024767 0 0.12365697894463749 -0.45778751090410702 0 0.12709215113675251 -0.46396285783688979 0 0.12111701007272629 -0.45735499226024767 0 0.12007795209891491 -0.46439209230023198 0 0.1128846835206819 -0.46349831440389799 0 0.12111701007272629 -0.45735499226024767 0 0.12007795209891491 -0.46439209230023198 0 0.1199954232846145 -0.47269168911093212 0 0.1128846835206819 -0.46349831440389799 0 0.12007795209891491 -0.46439209230023198 0 0.12709215113675251 -0.46396285783688979 0 0.1199954232846145 -0.47269168911093212 0 0.12007795209891491 -0.46439209230023198 0 0.12736542642524359 -0.44361592400677952 0 0.12365697894463749 -0.45778751090410702 0 0.1122501175763547 -0.43728160248851738 0 0.12365697894463749 -0.45778751090410702 0 0.1122501175763547 -0.43728160248851738 0 0.12365697894463749 -0.45778751090410702 0 0.1125054753976763 -0.44783155792931462 0 0.1122501175763547 -0.43728160248851738 0 0.12661094379887999 -0.43243102823908852 0 0.12736542642524359 -0.44361592400677952 0 0.1122501175763547 -0.43728160248851738 0 0.1127012997287118 -0.4559219228768594 0 0.1125054753976763 -0.44783155792931462 0 0.12111701007272629 -0.45735499226024767 0 0.1125054753976763 -0.44783155792931462 0 0.1125054753976763 -0.44783155792931462 0 0.1122501175763547 -0.43728160248851738 0 0.1023537149657706 -0.45415988422419679 0 0.080022024872095268 -0.45035713198530342 0 0.1025287980141482 -0.43679842208440173 0 0.1125054753976763 -0.44783155792931462 0 0.1025287980141482 -0.43679842208440173 0 0.1023537149657706 -0.45415988422419679 0 0.1025287980141482 -0.43679842208440173 0 0.1023537149657706 -0.45415988422419679 0 0.1125054753976763 -0.44783155792931462 0 0.1025287980141482 -0.43679842208440173 0 0.1125054753976763 -0.44783155792931462 0 0.1025287980141482 -0.43679842208440173 0 0.1122501175763547 -0.43728160248851738 0 0.1023537149657706 -0.45415988422419679 0 0.1127012997287118 -0.4559219228768594 0 0.1125054753976763 -0.44783155792931462 0 0.080022024872095268 -0.45035713198530342 0 0.079427393847134153 -0.43557344697729578 0 0.096652269540595678 -0.43029961146312778 0 0.080022024872095268 -0.45035713198530342 0 0.096652269540595678 -0.43029961146312778 0 0.1025287980141482 -0.43679842208440173 0 0.080022024872095268 -0.45035713198530342 0 0.096652269540595678 -0.43029961146312778 0 0.1023537149657706 -0.45415988422419679 0 0.080022024872095268 -0.45035713198530342 0 0.084406116512107596 -0.46923166739216909 0 0.1023537149657706 -0.45415988422419679 0 0.080022024872095268 -0.45035713198530342 0 0.080022024872095268 -0.45035713198530342 0 0.065046145507563519 -0.46841934415832548 0 0.061361619701567269 -0.44717954456387821 0 0.084406116512107596 -0.46923166739216909 0 0.080022024872095268 -0.45035713198530342 0 0.065046145507563519 -0.46841934415832548 0 0.080022024872095268 -0.45035713198530342 0 0.065046145507563519 -0.46841934415832548 0 0.080022024872095268 -0.45035713198530342 0 0.061361619701567269 -0.44717954456387821 0 0.080022024872095268 -0.45035713198530342 0 0.079427393847134153 -0.43557344697729578 0 0.061361619701567269 -0.44717954456387821 0 0.070001123396492948 -0.42808341154457558 0 0.079427393847134153 -0.43557344697729578 0 0.061361619701567269 -0.44717954456387821 0 0.070001123396492948 -0.42808341154457558 0 0.073678952508959158 -0.41786901312235869 0 0.089099931724918285 -0.42194753532959028 0 0.073168797759687709 -0.40432940872844358 0 0.053191226226239972 -0.4067611749188203 0 0.06203555641387775 -0.41927434824400173 0 0.070001123396492948 -0.42808341154457558 0 0.073678952508959158 -0.41786901312235869 0 0.06203555641387775 -0.41927434824400173 0 0.073168797759687709 -0.40432940872844358 0 0.06203555641387775 -0.41927434824400173 0 0.073678952508959158 -0.41786901312235869 0 0.073168797759687709 -0.40432940872844358 0 0.06203555641387775 -0.41927434824400173 0 0.089099931724918285 -0.42194753532959028 0 0.073168797759687709 -0.40432940872844358 0 0.089099931724918285 -0.42194753532959028 0 0.093276119504923191 -0.40317238925548182 0 0.073168797759687709 -0.40432940872844358 0 0.073678952508959158 -0.41786901312235869 0 0.089099931724918285 -0.42194753532959028 0 0.073168797759687709 -0.40432940872844358 0 0.079427393847134153 -0.43557344697729578 0 0.089099931724918285 -0.42194753532959028 0 0.096652269540595678 -0.43029961146312778 0 0.070001123396492948 -0.42808341154457558 0 0.079427393847134153 -0.43557344697729578 0 0.089099931724918285 -0.42194753532959028 0 0.070001123396492948 -0.42808341154457558 0 0.089099931724918285 -0.42194753532959028 0 0.089099931724918285 -0.42194753532959028 0 0.096652269540595678 -0.43029961146312778 0 0.1026674982908946 -0.4230447227642703 0 0.1122501175763547 -0.43728160248851738 0 0.11170319400730611 -0.41468578281422303 0 0.096652269540595678 -0.43029961146312778 0 0.1026674982908946 -0.4230447227642703 0 0.1025287980141482 -0.43679842208440173 0 0.096652269540595678 -0.43029961146312778 0 0.1025287980141482 -0.43679842208440173 0 0.089099931724918285 -0.42194753532959028 0 0.096652269540595678 -0.43029961146312778 0 0.097747049444693229 -0.42290199668428041 0 0.096652269540595678 -0.43029961146312778 0 0.1026674982908946 -0.4230447227642703 0 0.096652269540595678 -0.43029961146312778 0 0.097747049444693229 -0.42290199668428041 0 0.1026674982908946 -0.4230447227642703 0 0.097747049444693229 -0.42290199668428041 0 0.1026674982908946 -0.4230447227642703 0 0.10269711053263721 -0.42010833446961438 0 0.1026674982908946 -0.4230447227642703 0 0.1122501175763547 -0.43728160248851738 0 0.1026674982908946 -0.4230447227642703 0 0.1025287980141482 -0.43679842208440173 0 0.1122501175763547 -0.43728160248851738 0 0.1026674982908946 -0.4230447227642703 0 0.1025287980141482 -0.43679842208440173 0 0.1122501175763547 -0.43728160248851738 0 0.11170319400730611 -0.41468578281422303 0 0.1285885469984879 -0.41921586823640178 0 0.12661094379887999 -0.43243102823908852 0 0.11170319400730611 -0.41468578281422303 0 0.12661094379887999 -0.43243102823908852 0 0.1122501175763547 -0.43728160248851738 0 0.11170319400730611 -0.41468578281422303 0 0.13778375419161479 -0.40630687842624158 0 0.11170319400730611 -0.41468578281422303 0 0.1172574352070818 -0.40544799072893017 0 0.13778375419161479 -0.40630687842624158 0 0.11170319400730611 -0.41468578281422303 0 0.11170319400730611 -0.41468578281422303 0 0.1088337927774117 -0.41560763565734371 0 0.11170319400730611 -0.41468578281422303 0 0.1116434840989398 -0.41221890371347308 0 0.1088337927774117 -0.41560763565734371 0 0.11170319400730611 -0.41468578281422303 0 0.1116434840989398 -0.41221890371347308 0 0.1172574352070818 -0.40544799072893017 0 0.1116434840989398 -0.41221890371347308 0 0.1088337927774117 -0.41560763565734371 0 0.11170319400730611 -0.41468578281422303 0 0.1116434840989398 -0.41221890371347308 0 0.1116434840989398 -0.41221890371347308 0 0.1172574352070818 -0.40544799072893017 0 0.1088337927774117 -0.41560763565734371 0 0.10272269901461969 -0.41757094741072381 0 0.1028416967353924 -0.40577097909286008 0 0.1116434840989398 -0.41221890371347308 0 0.1088337927774117 -0.41560763565734371 0 0.1028416967353924 -0.40577097909286008 0 0.089099931724918285 -0.42194753532959028 0 0.10272269901461969 -0.41757094741072381 0 0.093276119504923191 -0.40317238925548182 0 0.10272269901461969 -0.41757094741072381 0 0.1028416967353924 -0.40577097909286008 0 0.1026674982908946 -0.4230447227642703 0 0.11170319400730611 -0.41468578281422303 0 0.1088337927774117 -0.41560763565734371 0 0.1026674982908946 -0.4230447227642703 0 0.1088337927774117 -0.41560763565734371 0 0.1088337927774117 -0.41560763565734371 0 0.10272269901461969 -0.41757094741072381 0 0.1088337927774117 -0.41560763565734371 0 0.10272269901461969 -0.41757094741072381 0 0.10269711053263721 -0.42010833446961438 0 0.1026674982908946 -0.4230447227642703 0 0.1088337927774117 -0.41560763565734371 0 0.10269711053263721 -0.42010833446961438 0 0.10272269901461969 -0.41757094741072381 0 0.10269711053263721 -0.42010833446961438 0 0.1026674982908946 -0.4230447227642703 0 0.10269711053263721 -0.42010833446961438 0 0.089099931724918285 -0.42194753532959028 0 0.097747049444693229 -0.42290199668428041 0 0.10272269901461969 -0.41757094741072381 0 0.089099931724918285 -0.42194753532959028 0 0.10272269901461969 -0.41757094741072381 0 0.097747049444693229 -0.42290199668428041 0 0.10272269901461969 -0.41757094741072381 0 0.10269711053263721 -0.42010833446961438 0 0.10272269901461969 -0.41757094741072381 0 0.093276119504923191 -0.40317238925548182 0 0.10272269901461969 -0.41757094741072381 0 0.1028416967353924 -0.40577097909286008 0 0.093276119504923191 -0.40317238925548182 0 0.098334292032125403 -0.39248518042337333 0 0.1028416967353924 -0.40577097909286008 0 0.093276119504923191 -0.40317238925548182 0 0.098334292032125403 -0.39248518042337333 0 0.1028416967353924 -0.40577097909286008 0 0.1110234879715324 -0.38660413505751701 0 0.1116434840989398 -0.41221890371347308 0 0.1028416967353924 -0.40577097909286008 0 0.1110234879715324 -0.38660413505751701 0 0.1116434840989398 -0.41221890371347308 0 0.1175098680062359 -0.39491139176728601 0 0.1110234879715324 -0.38660413505751701 0 0.1116434840989398 -0.41221890371347308 0 0.1175098680062359 -0.39491139176728601 0 0.1172574352070818 -0.40544799072893017 0 0.1116434840989398 -0.41221890371347308 0 0.1110234879715324 -0.38660413505751701 0 0.12744968212790561 -0.39686932553801568 0 0.1175098680062359 -0.39491139176728601 0 0.1172574352070818 -0.40544799072893017 0 0.13204692344314131 -0.38344963322127262 0 0.1175098680062359 -0.39491139176728601 0 0.1110234879715324 -0.38660413505751701 0 0.13204692344314131 -0.38344963322127262 0 0.1110234879715324 -0.38660413505751701 0 0.119582265716331 -0.37302701462387139 0 0.098334292032125403 -0.39248518042337333 0 0.1110234879715324 -0.38660413505751701 0 0.094154772316698554 -0.37615844659011932 0 0.1110234879715324 -0.38660413505751701 0 0.094154772316698554 -0.37615844659011932 0 0.10054314439618781 -0.36671436217058201 0 0.094154772316698554 -0.37615844659011932 0 0.085048721448740705 -0.38838214454296199 0 0.078022103423724093 -0.37575052037919288 0 0.098334292032125403 -0.39248518042337333 0 0.094154772316698554 -0.37615844659011932 0 0.085048721448740705 -0.38838214454296199 0 0.094154772316698554 -0.37615844659011932 0 0.085048721448740705 -0.38838214454296199 0 0.085048721448740705 -0.38838214454296199 0 0.078022103423724093 -0.37575052037919288 0 0.085048721448740705 -0.38838214454296199 0 0.078022103423724093 -0.37575052037919288 0 0.072134721397829546 -0.38601044780748739 0 0.085048721448740705 -0.38838214454296199 0 0.093276119504923191 -0.40317238925548182 0 0.085048721448740705 -0.38838214454296199 0 0.073168797759687709 -0.40432940872844358 0 0.098334292032125403 -0.39248518042337333 0 0.085048721448740705 -0.38838214454296199 0 0.093276119504923191 -0.40317238925548182 0 0.085048721448740705 -0.38838214454296199 0 0.093276119504923191 -0.40317238925548182 0 0.073168797759687709 -0.40432940872844358 0 0.085048721448740705 -0.38838214454296199 0 0.073168797759687709 -0.40432940872844358 0 0.072134721397829546 -0.38601044780748739 0 0.073168797759687709 -0.40432940872844358 0 0.072134721397829546 -0.38601044780748739 0 0.058079896350598612 -0.38764270106044479 0 0.073168797759687709 -0.40432940872844358 0 0.058079896350598612 -0.38764270106044479 0 0.072134721397829546 -0.38601044780748739 0 0.058079896350598612 -0.38764270106044479 0 0.066354088006399234 -0.37394746432639558 0 0.078022103423724093 -0.37575052037919288 0 0.072134721397829546 -0.38601044780748739 0 0.066354088006399234 -0.37394746432639558 0 0.058079896350598612 -0.38764270106044479 0 0.052427616756956438 -0.37426299146947267 0 0.0429909949415095 -0.370955993392446 0 0.058079896350598612 -0.38764270106044479 0 0.0429909949415095 -0.370955993392446 0 0.058079896350598612 -0.38764270106044479 0 0.040402719644603832 -0.37302143510374791 0 0.0429909949415095 -0.370955993392446 0 0.058079896350598612 -0.38764270106044479 0 0.066354088006399234 -0.37394746432639558 0 0.052427616756956438 -0.37426299146947267 0 0.058079896350598612 -0.38764270106044479 0 0.039085611475461163 -0.39370998858967932 0 0.053191226226239972 -0.4067611749188203 0 0.073168797759687709 -0.40432940872844358 0 0.058079896350598612 -0.38764270106044479 0 0.053191226226239972 -0.4067611749188203 0 0.039085611475461163 -0.39370998858967932 0 0.03776850330631816 -0.41439854207561072 0 0.053191226226239972 -0.4067611749188203 0 0.039085611475461163 -0.39370998858967932 0 0.03776850330631816 -0.41439854207561072 0 0.039085611475461163 -0.39370998858967932 0 0.017057706108475231 -0.39165073808637157 0 0.040402719644603832 -0.37302143510374791 0 0.058079896350598612 -0.38764270106044479 0 0.039085611475461163 -0.39370998858967932 0 0.040402719644603832 -0.37302143510374791 0 0.039085611475461163 -0.39370998858967932 0 0.040402719644603832 -0.37302143510374791 0 0.017057706108475231 -0.39165073808637157 0 0.040402719644603832 -0.37302143510374791 0 0.017057706108475231 -0.39165073808637157 0 0.017291991239199941 -0.37036434765491738 0 0.029160590758392189 -0.3703268771144585 0 0.017057706108475231 -0.39165073808637157 0 0.040402719644603832 -0.37302143510374791 0 0.029160590758392189 -0.3703268771144585 0 0.0013770767683104789 -0.38011590404628531 0 0.017057706108475231 -0.39165073808637157 0 0.017291991239199941 -0.37036434765491738 0 -0.0062873074276530438 -0.41028004106899568 0 0.0013770767683104789 -0.38011590404628531 0 0.017057706108475231 -0.39165073808637157 0 -0.0062873074276530438 -0.41028004106899568 0 0.017057706108475231 -0.39165073808637157 0 -0.0062873074276530438 -0.41028004106899568 0 0.017057706108475231 -0.39165073808637157 0 0.018427834740568739 -0.4112053024490539 0 0.039085611475461163 -0.39370998858967932 0 0.017057706108475231 -0.39165073808637157 0 0.018427834740568739 -0.4112053024490539 0 0.018427834740568739 -0.4112053024490539 0 0.020900937351974 -0.43065117613362358 0 0.03776850330631816 -0.41439854207561072 0 0.018427834740568739 -0.4112053024490539 0 0.0064316810639237169 -0.42250890551817522 0 0.020900937351974 -0.43065117613362358 0 -0.0062873074276530438 -0.41028004106899568 0 0.018427834740568739 -0.4112053024490539 0 0.0064316810639237169 -0.42250890551817522 0 -0.003725153265320566 -0.43628033310049702 0 0.020900937351974 -0.43065117613362358 0 -0.003725153265320566 -0.43628033310049702 0 0.020900937351974 -0.43065117613362358 0 0.008411736686542659 -0.44069629426707729 0 -0.003725153265320566 -0.43628033310049702 0 0.0064316810639237169 -0.42250890551817522 0 0.020900937351974 -0.43065117613362358 0 0.020900937351974 -0.43065117613362358 0 0.036451395137174873 -0.43508709556154213 0 0.030966791039211169 -0.44062397571801049 0 0.04037664240263858 -0.43112443512057141 0 0.03776850330631816 -0.41439854207561072 0 0.049008992051497488 -0.42121206081474277 0 0.020900937351974 -0.43065117613362358 0 0.036451395137174873 -0.43508709556154213 0 0.03776850330631816 -0.41439854207561072 0 0.036451395137174873 -0.43508709556154213 0 0.04037664240263858 -0.43112443512057141 0 0.036206057162624719 -0.43894075612452599 0 0.036451395137174873 -0.43508709556154213 0 0.04037664240263858 -0.43112443512057141 0 0.03776850330631816 -0.41439854207561072 0 0.036451395137174873 -0.43508709556154213 0 0.03776850330631816 -0.41439854207561072 0 0.036451395137174873 -0.43508709556154213 0 0.04037664240263858 -0.43112443512057141 0 0.036451395137174873 -0.43508709556154213 0 0.036206057162624719 -0.43894075612452599 0 0.050902315068067083 -0.43421928775955942 0 0.036206057162624719 -0.43894075612452599 0 0.04037664240263858 -0.43112443512057141 0 0.050902315068067083 -0.43421928775955942 0 0.036206057162624719 -0.43894075612452599 0 0.04037664240263858 -0.43112443512057141 0 0.049008992051497488 -0.42121206081474277 0 0.050902315068067083 -0.43421928775955942 0 0.039085611475461163 -0.39370998858967932 0 0.018427834740568739 -0.4112053024490539 0 0.03776850330631816 -0.41439854207561072 0 0.03776850330631816 -0.41439854207561072 0 0.049008992051497488 -0.42121206081474277 0 0.053191226226239972 -0.4067611749188203 0 0.049008992051497488 -0.42121206081474277 0 0.053191226226239972 -0.4067611749188203 0 0.06203555641387775 -0.41927434824400173 0 0.06203555641387775 -0.41927434824400173 0 0.050902315068067083 -0.43421928775955942 0 0.070001123396492948 -0.42808341154457558 0 0.050902315068067083 -0.43421928775955942 0 0.070001123396492948 -0.42808341154457558 0 0.06203555641387775 -0.41927434824400173 0 0.050902315068067083 -0.43421928775955942 0 0.070001123396492948 -0.42808341154457558 0 0.050902315068067083 -0.43421928775955942 0 0.061361619701567269 -0.44717954456387821 0 0.050902315068067083 -0.43421928775955942 0 0.046357372097180487 -0.44032028707250198 0 0.049008992051497488 -0.42121206081474277 0 0.06203555641387775 -0.41927434824400173 0 0.050902315068067083 -0.43421928775955942 0 0.061361619701567269 -0.44717954456387821 0 0.050026500118105437 -0.45736464046117048 0 0.04270121453103938 -0.4440019571424525 0 0.061361619701567269 -0.44717954456387821 0 0.04270121453103938 -0.4440019571424525 0 0.046357372097180487 -0.44032028707250198 0 0.061361619701567269 -0.44717954456387821 0 0.04270121453103938 -0.4440019571424525 0 0.050902315068067083 -0.43421928775955942 0 0.061361619701567269 -0.44717954456387821 0 0.046357372097180487 -0.44032028707250198 0 0.065046145507563519 -0.46841934415832548 0 0.050026500118105437 -0.45736464046117048 0 0.04396915325698314 -0.47008834312344322 0 0.065046145507563519 -0.46841934415832548 0 0.061361619701567269 -0.44717954456387821 0 0.050026500118105437 -0.45736464046117048 0 0.050026500118105437 -0.45736464046117048 0 0.034910306367146419 -0.45929383741635349 0 0.04270121453103938 -0.4440019571424525 0 0.050026500118105437 -0.45736464046117048 0 0.034910306367146419 -0.45929383741635349 0 0.04396915325698314 -0.47008834312344322 0 0.034910306367146419 -0.45929383741635349 0 0.036206057162624719 -0.43894075612452599 0 0.030966791039211169 -0.44062397571801049 0 0.034910306367146419 -0.45929383741635349 0 0.036206057162624719 -0.43894075612452599 0 0.034910306367146419 -0.45929383741635349 0 0.04270121453103938 -0.4440019571424525 0 0.036206057162624719 -0.43894075612452599 0 0.04270121453103938 -0.4440019571424525 0 0.046357372097180487 -0.44032028707250198 0 0.036206057162624719 -0.43894075612452599 0 0.050902315068067083 -0.43421928775955942 0 0.046357372097180487 -0.44032028707250198 0 0.036206057162624719 -0.43894075612452599 0 0.036451395137174873 -0.43508709556154213 0 0.036206057162624719 -0.43894075612452599 0 0.030966791039211169 -0.44062397571801049 0 0.036206057162624719 -0.43894075612452599 0 0.030966791039211169 -0.44062397571801049 0 0.036451395137174873 -0.43508709556154213 0 0.030966791039211169 -0.44062397571801049 0 0.030966791039211169 -0.44062397571801049 0 0.01176664512382259 -0.46000712626477741 0 0.030966791039211169 -0.44062397571801049 0 0.015812651232909369 -0.44549254785073289 0 0.01176664512382259 -0.46000712626477741 0 0.030966791039211169 -0.44062397571801049 0 0.015812651232909369 -0.44549254785073289 0 0.020900937351974 -0.43065117613362358 0 0.030966791039211169 -0.44062397571801049 0 0.015812651232909369 -0.44549254785073289 0 0.020900937351974 -0.43065117613362358 0 0.015812651232909369 -0.44549254785073289 0 0.008411736686542659 -0.44069629426707729 0 0.015812651232909369 -0.44549254785073289 0 0.00065851142660783291 -0.45036111998345613 0 0.015812651232909369 -0.44549254785073289 0 0.008411736686542659 -0.44069629426707729 0 0.00065851142660783291 -0.45036111998345613 0 0.015812651232909369 -0.44549254785073289 0 0.00065851142660783291 -0.45036111998345613 0 0.01176664512382259 -0.46000712626477741 0 -0.003725153265320566 -0.43628033310049702 0 0.008411736686542659 -0.44069629426707729 0 0.00065851142660783291 -0.45036111998345613 0 -0.0074335007915662908 -0.47939027681154361 0 0.00065851142660783291 -0.45036111998345613 0 0.01176664512382259 -0.46000712626477741 0 0.034910306367146419 -0.45929383741635349 0 0.01176664512382259 -0.46000712626477741 0 0.02334395374525508 -0.46986531016436511 0 0.034910306367146419 -0.45929383741635349 0 0.030966791039211169 -0.44062397571801049 0 0.01176664512382259 -0.46000712626477741 0 0.034910306367146419 -0.45929383741635349 0 0.02334395374525508 -0.46986531016436511 0 0.033614555571667808 -0.47964691870818088 0 0.01176664512382259 -0.46000712626477741 0 0.02334395374525508 -0.46986531016436511 0 0.013084307918383531 -0.48051335826814873 0 0.02334395374525508 -0.46986531016436511 0 0.013084307918383531 -0.48051335826814873 0 0.033614555571667808 -0.47964691870818088 0 -0.0074335007915662908 -0.47939027681154361 0 0.01176664512382259 -0.46000712626477741 0 -0.0074335007915662908 -0.47939027681154361 0 0.01176664512382259 -0.46000712626477741 0 0.013084307918383531 -0.48051335826814873 0 -0.0074335007915662908 -0.47939027681154361 0 0.013084307918383531 -0.48051335826814873 0 0.0035709991458796608 -0.5 0 0.013084307918383531 -0.48051335826814873 0 0.032318804776188662 -0.50000000000000822 0 0.033614555571667808 -0.47964691870818088 0 0.013084307918383531 -0.48051335826814873 0 0.0035709991458796608 -0.5 0 0.032318804776188662 -0.50000000000000822 0 0.032318804776188662 -0.50000000000000822 0 0.033614555571667808 -0.47964691870818088 0 0.032318804776188662 -0.50000000000000822 0 0.052081345522201193 -0.48173454065787091 0 0.05550968207262641 -0.5 0 0.032318804776188662 -0.50000000000000822 0 0.033614555571667808 -0.47964691870818088 0 0.052081345522201193 -0.48173454065787091 0 0.034910306367146419 -0.45929383741635349 0 0.033614555571667808 -0.47964691870818088 0 0.033614555571667808 -0.47964691870818088 0 0.04396915325698314 -0.47008834312344322 0 0.052081345522201193 -0.48173454065787091 0 0.034910306367146419 -0.45929383741635349 0 0.033614555571667808 -0.47964691870818088 0 0.04396915325698314 -0.47008834312344322 0 0.069151809442979176 -0.48538637577355309 0 0.065046145507563519 -0.46841934415832548 0 0.052081345522201193 -0.48173454065787091 0 0.065046145507563519 -0.46841934415832548 0 0.04396915325698314 -0.47008834312344322 0 0.052081345522201193 -0.48173454065787091 0 0.069151809442979176 -0.48538637577355309 0 0.052081345522201193 -0.48173454065787091 0 0.05550968207262641 -0.5 0 0.084127347773265776 -0.29099747135839998 0 0.080940341873086671 -0.30107134698573679 0 0.073618600546553239 -0.29038072252166819 0 0.084127347773265776 -0.29099747135839998 0 0.073618600546553239 -0.29038072252166819 0 0.0794540196410181 -0.27915097684298951 0 0.084127347773265776 -0.29099747135839998 0 0.0909171258313307 -0.28331991825120079 0 0.0794540196410181 -0.27915097684298951 0 0.084127347773265776 -0.29099747135839998 0 0.0909171258313307 -0.28331991825120079 0 0.093891688084064853 -0.29292483999505048 0 0.084127347773265776 -0.29099747135839998 0 0.088996444132247943 -0.29894600856738118 0 0.093891688084064853 -0.29292483999505048 0 0.088996444132247943 -0.29894600856738118 0 0.089850521534749386 -0.30671882694714209 0 0.080940341873086671 -0.30107134698573679 0 0.088996444132247943 -0.29894600856738118 0 0.093891688084064853 -0.29292483999505048 0 0.09622035778187682 -0.30123321182390678 0 0.088996444132247943 -0.29894600856738118 0 0.089850521534749386 -0.30671882694714209 0 0.09622035778187682 -0.30123321182390678 0 0.092839007913925492 -0.31217539774118469 0 0.089850521534749386 -0.30671882694714209 0 0.088297910998574772 -0.31490231034925681 0 0.089850521534749386 -0.30671882694714209 0 0.081904451380931415 -0.30939837131668591 0 0.088297910998574772 -0.31490231034925681 0 0.092839007913925492 -0.31217539774118469 0 0.089850521534749386 -0.30671882694714209 0 0.09717837653543418 -0.30834009048248462 0 0.089850521534749386 -0.30671882694714209 0 0.081904451380931415 -0.30939837131668591 0 0.080940341873086671 -0.30107134698573679 0 0.081904451380931415 -0.30939837131668591 0 0.080940341873086671 -0.30107134698573679 0 0.071667379146659577 -0.30638132417260838 0 0.084127347773265776 -0.29099747135839998 0 0.088996444132247943 -0.29894600856738118 0 0.080940341873086671 -0.30107134698573679 0 0.080940341873086671 -0.30107134698573679 0 0.071667379146659577 -0.30638132417260838 0 0.073618600546553239 -0.29038072252166819 0 0.071667379146659577 -0.30638132417260838 0 0.0604497761061666 -0.28891903179048739 0 0.058246256145304959 -0.3123612386210125 0 0.081904451380931415 -0.30939837131668591 0 0.071667379146659577 -0.30638132417260838 0 0.07876610335158668 -0.31791804812868518 0 0.071667379146659577 -0.30638132417260838 0 0.073618600546553239 -0.29038072252166819 0 0.0604497761061666 -0.28891903179048739 0 0.073618600546553239 -0.29038072252166819 0 0.065072738739122699 -0.2757641839797873 0 0.0794540196410181 -0.27915097684298951 0 0.073618600546553239 -0.29038072252166819 0 0.065072738739122699 -0.2757641839797873 0 0.0604497761061666 -0.28891903179048739 0 0.065072738739122699 -0.2757641839797873 0 0.07656802668249528 -0.26797682560984037 0 0.065417397625243512 -0.25720793824732741 0 0.065072738739122699 -0.2757641839797873 0 0.07656802668249528 -0.26797682560984037 0 0.0794540196410181 -0.27915097684298951 0 0.065417397625243512 -0.25720793824732741 0 0.083475338330781412 -0.2428431169585703 0 0.065417397625243512 -0.25720793824732741 0 0.083737467346043579 -0.2593614898620622 0 0.083475338330781412 -0.2428431169585703 0 0.07656802668249528 -0.26797682560984037 0 0.065417397625243512 -0.25720793824732741 0 0.083737467346043579 -0.2593614898620622 0 0.083737467346043579 -0.2593614898620622 0 0.095320304620945956 -0.25735786714235681 0 0.083475338330781412 -0.2428431169585703 0 0.083737467346043579 -0.2593614898620622 0 0.091811875055319694 -0.27117132631794938 0 0.095320304620945956 -0.25735786714235681 0 0.07656802668249528 -0.26797682560984037 0 0.083737467346043579 -0.2593614898620622 0 0.091811875055319694 -0.27117132631794938 0 0.07656802668249528 -0.26797682560984037 0 0.0794540196410181 -0.27915097684298951 0 0.091811875055319694 -0.27117132631794938 0 0.0909171258313307 -0.28331991825120079 0 0.0794540196410181 -0.27915097684298951 0 0.091811875055319694 -0.27117132631794938 0 0.091811875055319694 -0.27117132631794938 0 0.10509560830532209 -0.27548043891127089 0 0.099349837319805831 -0.28128194567290499 0 0.0909171258313307 -0.28331991825120079 0 0.091811875055319694 -0.27117132631794938 0 0.099349837319805831 -0.28128194567290499 0 0.091811875055319694 -0.27117132631794938 0 0.1052141467761708 -0.26722129147714951 0 0.10509560830532209 -0.27548043891127089 0 0.1052141467761708 -0.26722129147714951 0 0.10509560830532209 -0.27548043891127089 0 0.1117314812410732 -0.27455534650338081 0 0.10509560830532209 -0.27548043891127089 0 0.1118999559271185 -0.28049002191563011 0 0.1082177614997647 -0.28517746380475573 0 0.10509560830532209 -0.27548043891127089 0 0.1082177614997647 -0.28517746380475573 0 0.099349837319805831 -0.28128194567290499 0 0.095320304620945956 -0.25735786714235681 0 0.1064980367032896 -0.25640161499131658 0 0.10075602246568729 -0.247130741130379 0 0.091811875055319694 -0.27117132631794938 0 0.1052141467761708 -0.26722129147714951 0 0.095320304620945956 -0.25735786714235681 0 0.1052141467761708 -0.26722129147714951 0 0.095320304620945956 -0.25735786714235681 0 0.1064980367032896 -0.25640161499131658 0 0.1064980367032896 -0.25640161499131658 0 0.1169120013868776 -0.25262321116256281 0 0.1194293799288003 -0.26954177159339288 0 0.1169120013868776 -0.25262321116256281 0 0.1194293799288003 -0.26954177159339288 0 0.1169120013868776 -0.25262321116256281 0 0.1245559079791172 -0.26229341046795501 0 0.1194293799288003 -0.26954177159339288 0 0.1064980367032896 -0.25640161499131658 0 0.1169120013868776 -0.25262321116256281 0 0.11396559985234039 -0.2421801808683213 0 0.1052141467761708 -0.26722129147714951 0 0.1064980367032896 -0.25640161499131658 0 0.1194293799288003 -0.26954177159339288 0 0.13178497783693821 -0.25211666607955069 0 0.1169120013868776 -0.25262321116256281 0 0.1224890003745731 -0.24541254930308659 0 0.13178497783693821 -0.25211666607955069 0 0.1169120013868776 -0.25262321116256281 0 0.1245559079791172 -0.26229341046795501 0 0.1300972727638518 -0.27489199303631368 0 0.1194293799288003 -0.26954177159339288 0 0.1220286850842833 -0.28644814184410511 0 0.1170183152679541 -0.28004320861946058 0 0.1194293799288003 -0.26954177159339288 0 0.1220286850842833 -0.28644814184410511 0 0.1194293799288003 -0.26954177159339288 0 0.1220286850842833 -0.28644814184410511 0 0.1170183152679541 -0.28004320861946058 0 0.1117314812410732 -0.27455534650338081 0 0.1194293799288003 -0.26954177159339288 0 0.1170183152679541 -0.28004320861946058 0 0.1118999559271185 -0.28049002191563011 0 0.1117314812410732 -0.27455534650338081 0 0.10509560830532209 -0.27548043891127089 0 0.1118999559271185 -0.28049002191563011 0 0.1117314812410732 -0.27455534650338081 0 0.1052141467761708 -0.26722129147714951 0 0.1117314812410732 -0.27455534650338081 0 0.1194293799288003 -0.26954177159339288 0 0.1300972727638518 -0.27489199303631368 0 0.1245559079791172 -0.26229341046795501 0 0.1194293799288003 -0.26954177159339288 0 0.1220286850842833 -0.28644814184410511 0 0.11032956770273029 -0.30569749361740051 0 0.1220286850842833 -0.28644814184410511 0 0.11032956770273029 -0.30569749361740051 0 0.1097043962824044 -0.29705743914382682 0 0.1220286850842833 -0.28644814184410511 0 0.1182817621157625 -0.28524128077802591 0 0.11473556980055349 -0.28685675087343743 0 0.1170183152679541 -0.28004320861946058 0 0.1220286850842833 -0.28644814184410511 0 0.1182817621157625 -0.28524128077802591 0 0.1220286850842833 -0.28644814184410511 0 0.10987408613482121 -0.29173783963339001 0 0.1097043962824044 -0.29705743914382682 0 0.1220286850842833 -0.28644814184410511 0 0.10987408613482121 -0.29173783963339001 0 0.11473556980055349 -0.28685675087343743 0 0.1170183152679541 -0.28004320861946058 0 0.1182817621157625 -0.28524128077802591 0 0.11403067292223069 -0.28356174519826188 0 0.1170183152679541 -0.28004320861946058 0 0.1118999559271185 -0.28049002191563011 0 0.11403067292223069 -0.28356174519826188 0 0.1182817621157625 -0.28524128077802591 0 0.11403067292223069 -0.28356174519826188 0 0.11473556980055349 -0.28685675087343743 0 0.10987408613482121 -0.29173783963339001 0 0.11473556980055349 -0.28685675087343743 0 0.1082177614997647 -0.28517746380475573 0 0.11403067292223069 -0.28356174519826188 0 0.11473556980055349 -0.28685675087343743 0 0.1082177614997647 -0.28517746380475573 0 0.1118999559271185 -0.28049002191563011 0 0.11403067292223069 -0.28356174519826188 0 0.1082177614997647 -0.28517746380475573 0 0.1082177614997647 -0.28517746380475573 0 0.10102327566138131 -0.28870854343304547 0 0.099349837319805831 -0.28128194567290499 0 0.10987408613482121 -0.29173783963339001 0 0.1082177614997647 -0.28517746380475573 0 0.10102327566138131 -0.28870854343304547 0 0.10987408613482121 -0.29173783963339001 0 0.1023314820757991 -0.29637988123535769 0 0.10102327566138131 -0.28870854343304547 0 0.10987408613482121 -0.29173783963339001 0 0.1023314820757991 -0.29637988123535769 0 0.1097043962824044 -0.29705743914382682 0 0.1023314820757991 -0.29637988123535769 0 0.093891688084064853 -0.29292483999505048 0 0.10102327566138131 -0.28870854343304547 0 0.1023314820757991 -0.29637988123535769 0 0.093891688084064853 -0.29292483999505048 0 0.09622035778187682 -0.30123321182390678 0 0.0909171258313307 -0.28331991825120079 0 0.10102327566138131 -0.28870854343304547 0 0.099349837319805831 -0.28128194567290499 0 0.0909171258313307 -0.28331991825120079 0 0.093891688084064853 -0.29292483999505048 0 0.10102327566138131 -0.28870854343304547 0 0.1039032095099828 -0.30409173568731301 0 0.096029222586943672 -0.31874036318585552 0 0.09717837653543418 -0.30834009048248462 0 0.1039032095099828 -0.30409173568731301 0 0.096029222586943672 -0.31874036318585552 0 0.089850521534749386 -0.30671882694714209 0 0.09717837653543418 -0.30834009048248462 0 0.09622035778187682 -0.30123321182390678 0 0.1023314820757991 -0.29637988123535769 0 0.09622035778187682 -0.30123321182390678 0 0.1039032095099828 -0.30409173568731301 0 0.09717837653543418 -0.30834009048248462 0 0.09622035778187682 -0.30123321182390678 0 0.1039032095099828 -0.30409173568731301 0 0.1039032095099828 -0.30409173568731301 0 0.11032956770273029 -0.30569749361740051 0 0.1097043962824044 -0.29705743914382682 0 0.1023314820757991 -0.29637988123535769 0 0.1039032095099828 -0.30409173568731301 0 0.1097043962824044 -0.29705743914382682 0 0.1039032095099828 -0.30409173568731301 0 0.11032956770273029 -0.30569749361740051 0 0.096029222586943672 -0.31874036318585552 0 0.12518988192899111 -0.30825641048425573 0 0.1220286850842833 -0.28644814184410511 0 0.1220286850842833 -0.28644814184410511 0 0.11032956770273029 -0.30569749361740051 0 0.1186165612921392 -0.30337942396333628 0 0.12518988192899111 -0.30825641048425573 0 0.1220286850842833 -0.28644814184410511 0 0.1186165612921392 -0.30337942396333628 0 0.11032956770273029 -0.30569749361740051 0 0.1168631595481468 -0.31218354620601613 0 0.1186165612921392 -0.30337942396333628 0 0.11032956770273029 -0.30569749361740051 0 0.1168631595481468 -0.31218354620601613 0 0.1108331378268393 -0.31908776989346671 0 0.12518988192899111 -0.30825641048425573 0 0.1168631595481468 -0.31218354620601613 0 0.1186165612921392 -0.30337942396333628 0 0.12829612786929351 -0.32913257542283841 0 0.12518988192899111 -0.30825641048425573 0 0.11900332003057509 -0.32110980128426758 0 0.12518988192899111 -0.30825641048425573 0 0.1168631595481468 -0.31218354620601613 0 0.11900332003057509 -0.32110980128426758 0 0.12829612786929351 -0.32913257542283841 0 0.11900332003057509 -0.32110980128426758 0 0.1082256817665976 -0.33126078305361689 0 0.1168631595481468 -0.31218354620601613 0 0.1108331378268393 -0.31908776989346671 0 0.11900332003057509 -0.32110980128426758 0 0.1108331378268393 -0.31908776989346671 0 0.11900332003057509 -0.32110980128426758 0 0.1082256817665976 -0.33126078305361689 0 0.12829612786929351 -0.32913257542283841 0 0.1082256817665976 -0.33126078305361689 0 0.12829612786929351 -0.32913257542283841 0 0.1197794979178342 -0.33444735271148718 0 0.1082256817665976 -0.33126078305361689 0 0.1197794979178342 -0.33444735271148718 0 0.123207172807503 -0.34151455942175402 0 0.1166989088476188 -0.3429535589264901 0 0.12947454112712661 -0.3370523441755795 0 0.1197794979178342 -0.33444735271148718 0 0.123207172807503 -0.34151455942175402 0 0.1197794979178342 -0.33444735271148718 0 0.1166989088476188 -0.3429535589264901 0 0.11423046423108971 -0.33590891529115641 0 0.1166989088476188 -0.3429535589264901 0 0.11423046423108971 -0.33590891529115641 0 0.10978349571671669 -0.33537459774560491 0 0.1197794979178342 -0.33444735271148718 0 0.11423046423108971 -0.33590891529115641 0 0.1082256817665976 -0.33126078305361689 0 0.11423046423108971 -0.33590891529115641 0 0.10978349571671669 -0.33537459774560491 0 0.1082256817665976 -0.33126078305361689 0 0.1082256817665976 -0.33126078305361689 0 0.088155235663901987 -0.33338899068439659 0 0.1082256817665976 -0.33126078305361689 0 0.098964463831707275 -0.33711967172757812 0 0.088155235663901987 -0.33338899068439659 0 0.1082256817665976 -0.33126078305361689 0 0.098575499416770129 -0.32401474168912747 0 0.088155235663901987 -0.33338899068439659 0 0.10978349571671669 -0.33537459774560491 0 0.1082256817665976 -0.33126078305361689 0 0.098964463831707275 -0.33711967172757812 0 0.098964463831707275 -0.33711967172757812 0 0.10397175872352039 -0.34686768342216601 0 0.083455842320170018 -0.34213165983463972 0 0.10978349571671669 -0.33537459774560491 0 0.098964463831707275 -0.33711967172757812 0 0.10397175872352039 -0.34686768342216601 0 0.11032956770273029 -0.30569749361740051 0 0.098575499416770129 -0.32401474168912747 0 0.11032956770273029 -0.30569749361740051 0 0.098575499416770129 -0.32401474168912747 0 0.096029222586943672 -0.31874036318585552 0 0.098575499416770129 -0.32401474168912747 0 0.096029222586943672 -0.31874036318585552 0 0.088155235663901987 -0.33338899068439659 0 0.11032956770273029 -0.30569749361740051 0 0.1108331378268393 -0.31908776989346671 0 0.098575499416770129 -0.32401474168912747 0 0.092839007913925492 -0.31217539774118469 0 0.09717837653543418 -0.30834009048248462 0 0.096029222586943672 -0.31874036318585552 0 0.1108331378268393 -0.31908776989346671 0 0.1082256817665976 -0.33126078305361689 0 0.098575499416770129 -0.32401474168912747 0 0.1110234879715324 -0.38660413505751701 0 0.1104034918441245 -0.36098936640156087 0 0.1110234879715324 -0.38660413505751701 0 0.119582265716331 -0.37302701462387139 0 0.1104034918441245 -0.36098936640156087 0 0.13106656207536591 -0.37095359749455942 0 0.119582265716331 -0.37302701462387139 0 0.12433535888943099 -0.36111905437287539 0 0.119582265716331 -0.37302701462387139 0 0.12433535888943099 -0.36111905437287539 0 0.1104034918441245 -0.36098936640156087 0 0.1166989088476188 -0.3429535589264901 0 0.10978349571671669 -0.33537459774560491 0 0.1104034918441245 -0.36098936640156087 0 0.10978349571671669 -0.33537459774560491 0 0.1104034918441245 -0.36098936640156087 0 0.1166989088476188 -0.3429535589264901 0 0.1104034918441245 -0.36098936640156087 0 0.12227611303341331 -0.34962209539382899 0 0.12433535888943099 -0.36111905437287539 0 0.1104034918441245 -0.36098936640156087 0 0.12227611303341331 -0.34962209539382899 0 0.12902300050688531 -0.34451802042237373 0 0.123207172807503 -0.34151455942175402 0 0.12227611303341331 -0.34962209539382899 0 0.123207172807503 -0.34151455942175402 0 0.1166989088476188 -0.3429535589264901 0 0.12227611303341331 -0.34962209539382899 0 0.10978349571671669 -0.33537459774560491 0 0.1104034918441245 -0.36098936640156087 0 0.10397175872352039 -0.34686768342216601 0 0.10397175872352039 -0.34686768342216601 0 0.10173261200093429 -0.3584303045223361 0 0.092012053039904368 -0.35914980609503572 0 0.1104034918441245 -0.36098936640156087 0 0.10397175872352039 -0.34686768342216601 0 0.10173261200093429 -0.3584303045223361 0 0.1110234879715324 -0.38660413505751701 0 0.1104034918441245 -0.36098936640156087 0 0.10054314439618781 -0.36671436217058201 0 0.094154772316698554 -0.37615844659011932 0 0.10054314439618781 -0.36671436217058201 0 0.092012053039904368 -0.35914980609503572 0 0.1104034918441245 -0.36098936640156087 0 0.10173261200093429 -0.3584303045223361 0 0.10054314439618781 -0.36671436217058201 0 0.10173261200093429 -0.3584303045223361 0 0.10054314439618781 -0.36671436217058201 0 0.092012053039904368 -0.35914980609503572 0 0.078022103423724093 -0.37575052037919288 0 0.083409334081811753 -0.36537934009079892 0 0.074904965163285583 -0.35803956208051813 0 0.094154772316698554 -0.37615844659011932 0 0.083409334081811753 -0.36537934009079892 0 0.092012053039904368 -0.35914980609503572 0 0.094154772316698554 -0.37615844659011932 0 0.078022103423724093 -0.37575052037919288 0 0.083409334081811753 -0.36537934009079892 0 0.083847918209139116 -0.35259451139095749 0 0.074904965163285583 -0.35803956208051813 0 0.083455842320170018 -0.34213165983463972 0 0.074904965163285583 -0.35803956208051813 0 0.083455842320170018 -0.34213165983463972 0 0.10397175872352039 -0.34686768342216601 0 0.083847918209139116 -0.35259451139095749 0 0.092012053039904368 -0.35914980609503572 0 0.10397175872352039 -0.34686768342216601 0 0.083847918209139116 -0.35259451139095749 0 0.083455842320170018 -0.34213165983463972 0 0.10397175872352039 -0.34686768342216601 0 0.083455842320170018 -0.34213165983463972 0 0.083409334081811753 -0.36537934009079892 0 0.083847918209139116 -0.35259451139095749 0 0.074904965163285583 -0.35803956208051813 0 0.083409334081811753 -0.36537934009079892 0 0.083847918209139116 -0.35259451139095749 0 0.092012053039904368 -0.35914980609503572 0 0.068884991594531861 -0.35029260382817101 0 0.074904965163285583 -0.35803956208051813 0 0.083455842320170018 -0.34213165983463972 0 0.068884991594531861 -0.35029260382817101 0 0.074904965163285583 -0.35803956208051813 0 0.064589615452809224 -0.36276462421719419 0 0.074904965163285583 -0.35803956208051813 0 0.066354088006399234 -0.37394746432639558 0 0.074904965163285583 -0.35803956208051813 0 0.064589615452809224 -0.36276462421719419 0 0.066354088006399234 -0.37394746432639558 0 0.078022103423724093 -0.37575052037919288 0 0.074904965163285583 -0.35803956208051813 0 0.066354088006399234 -0.37394746432639558 0 0.064589615452809224 -0.36276462421719419 0 0.066354088006399234 -0.37394746432639558 0 0.059225060303720913 -0.36838045411385789 0 0.079243332690702994 -0.3266985097719815 0 0.07876610335158668 -0.31791804812868518 0 0.086075555048243532 -0.32236261846607661 0 0.079243332690702994 -0.3266985097719815 0 0.086075555048243532 -0.32236261846607661 0 0.088155235663901987 -0.33338899068439659 0 0.07876610335158668 -0.31791804812868518 0 0.088297910998574772 -0.31490231034925681 0 0.086075555048243532 -0.32236261846607661 0 0.081904451380931415 -0.30939837131668591 0 0.07876610335158668 -0.31791804812868518 0 0.088297910998574772 -0.31490231034925681 0 0.096029222586943672 -0.31874036318585552 0 0.088297910998574772 -0.31490231034925681 0 0.086075555048243532 -0.32236261846607661 0 0.092839007913925492 -0.31217539774118469 0 0.096029222586943672 -0.31874036318585552 0 0.088297910998574772 -0.31490231034925681 0 0.096029222586943672 -0.31874036318585552 0 0.088155235663901987 -0.33338899068439659 0 0.096029222586943672 -0.31874036318585552 0 0.086075555048243532 -0.32236261846607661 0 0.088155235663901987 -0.33338899068439659 0 0.098964463831707275 -0.33711967172757812 0 0.088155235663901987 -0.33338899068439659 0 0.083455842320170018 -0.34213165983463972 0 0.088155235663901987 -0.33338899068439659 0 0.083455842320170018 -0.34213165983463972 0 0.075207964516588038 -0.3347618790154504 0 0.088155235663901987 -0.33338899068439659 0 0.083455842320170018 -0.34213165983463972 0 0.088155235663901987 -0.33338899068439659 0 0.075207964516588038 -0.3347618790154504 0 0.079243332690702994 -0.3266985097719815 0 0.088155235663901987 -0.33338899068439659 0 0.075207964516588038 -0.3347618790154504 0 0.083455842320170018 -0.34213165983463972 0 0.056042736184441437 -0.33580344545153751 0 0.068884991594531861 -0.35029260382817101 0 0.083455842320170018 -0.34213165983463972 0 0.056042736184441437 -0.33580344545153751 0 0.075207964516588038 -0.3347618790154504 0 0.069631943830624821 -0.3227185366186896 0 0.056042736184441437 -0.33580344545153751 0 0.083455842320170018 -0.34213165983463972 0 0.075207964516588038 -0.3347618790154504 0 0.056042736184441437 -0.33580344545153751 0 0.071667379146659577 -0.30638132417260838 0 0.07876610335158668 -0.31791804812868518 0 0.069631943830624821 -0.3227185366186896 0 0.071667379146659577 -0.30638132417260838 0 0.069631943830624821 -0.3227185366186896 0 0.058246256145304959 -0.3123612386210125 0 0.079243332690702994 -0.3266985097719815 0 0.075207964516588038 -0.3347618790154504 0 0.069631943830624821 -0.3227185366186896 0 0.079243332690702994 -0.3266985097719815 0 0.07876610335158668 -0.31791804812868518 0 0.069631943830624821 -0.3227185366186896 0 0.056042736184441437 -0.33580344545153751 0 0.042964358057919323 -0.33278435012690671 0 0.058246256145304959 -0.3123612386210125 0 0.069631943830624821 -0.3227185366186896 0 0.056042736184441437 -0.33580344545153751 0 0.058246256145304959 -0.3123612386210125 0 0.056042736184441437 -0.33580344545153751 0 0.058246256145304959 -0.3123612386210125 0 0.042964358057919323 -0.33278435012690671 0 0.044636086250040848 -0.30652558192023938 0 0.058246256145304959 -0.3123612386210125 0 0.056042736184441437 -0.33580344545153751 0 0.042964358057919323 -0.33278435012690671 0 0.041830082136885431 -0.35060105539826969 0 0.056042736184441437 -0.33580344545153751 0 0.042964358057919323 -0.33278435012690671 0 0.042964358057919323 -0.33278435012690671 0 0.02587311066137209 -0.32883889874083011 0 0.042964358057919323 -0.33278435012690671 0 0.041830082136885431 -0.35060105539826969 0 0.042964358057919323 -0.33278435012690671 0 0.041830082136885431 -0.35060105539826969 0 0.031145960370832278 -0.3394586112870982 0 0.042964358057919323 -0.33278435012690671 0 0.02587311066137209 -0.32883889874083011 0 0.031145960370832278 -0.3394586112870982 0 0.042964358057919323 -0.33278435012690671 0 0.044636086250040848 -0.30652558192023938 0 0.042964358057919323 -0.33278435012690671 0 0.032807261991248199 -0.31838967571115873 0 0.02587311066137209 -0.32883889874083011 0 0.042964358057919323 -0.33278435012690671 0 0.032807261991248199 -0.31838967571115873 0 0.044636086250040848 -0.30652558192023938 0 0.052427616756956438 -0.37426299146947267 0 0.053528920998719573 -0.36254673644237012 0 0.052427616756956438 -0.37426299146947267 0 0.053528920998719573 -0.36254673644237012 0 0.0429909949415095 -0.370955993392446 0 0.052427616756956438 -0.37426299146947267 0 0.059225060303720913 -0.36838045411385789 0 0.053528920998719573 -0.36254673644237012 0 0.066354088006399234 -0.37394746432639558 0 0.052427616756956438 -0.37426299146947267 0 0.059225060303720913 -0.36838045411385789 0 0.064589615452809224 -0.36276462421719419 0 0.059225060303720913 -0.36838045411385789 0 0.053528920998719573 -0.36254673644237012 0 0.053528920998719573 -0.36254673644237012 0 0.0429909949415095 -0.370955993392446 0 0.056042736184441437 -0.33580344545153751 0 0.053528920998719573 -0.36254673644237012 0 0.068884991594531861 -0.35029260382817101 0 0.056042736184441437 -0.33580344545153751 0 0.053528920998719573 -0.36254673644237012 0 0.056042736184441437 -0.33580344545153751 0 0.053528920998719573 -0.36254673644237012 0 0.041830082136885431 -0.35060105539826969 0 0.068884991594531861 -0.35029260382817101 0 0.053528920998719573 -0.36254673644237012 0 0.068884991594531861 -0.35029260382817101 0 0.064589615452809224 -0.36276462421719419 0 0.053528920998719573 -0.36254673644237012 0 0.040695806215852851 -0.36841776066963272 0 0.02344033640085592 -0.3493350605664004 0 0.041830082136885431 -0.35060105539826969 0 0.040695806215852851 -0.36841776066963272 0 0.02344033640085592 -0.3493350605664004 0 0.041830082136885431 -0.35060105539826969 0 0.02344033640085592 -0.3493350605664004 0 0.031145960370832278 -0.3394586112870982 0 0.053528920998719573 -0.36254673644237012 0 0.041830082136885431 -0.35060105539826969 0 0.040695806215852851 -0.36841776066963272 0 0.041830082136885431 -0.35060105539826969 0 0.040695806215852851 -0.36841776066963272 0 0.040402719644603832 -0.37302143510374791 0 0.040695806215852851 -0.36841776066963272 0 0.029160590758392189 -0.3703268771144585 0 0.053528920998719573 -0.36254673644237012 0 0.040695806215852851 -0.36841776066963272 0 0.0429909949415095 -0.370955993392446 0 0.040402719644603832 -0.37302143510374791 0 0.0429909949415095 -0.370955993392446 0 0.040402719644603832 -0.37302143510374791 0 0.040695806215852851 -0.36841776066963272 0 0.040402719644603832 -0.37302143510374791 0 0.040695806215852851 -0.36841776066963272 0 0.0429909949415095 -0.370955993392446 0 0.040695806215852851 -0.36841776066963272 0 0.0429909949415095 -0.370955993392446 0 0.040695806215852851 -0.36841776066963272 0 0.029160590758392189 -0.3703268771144585 0 0.02344033640085592 -0.3493350605664004 0 0.017291991239199941 -0.37036434765491738 0 0.029160590758392189 -0.3703268771144585 0 0.02344033640085592 -0.3493350605664004 0 0.017291991239199941 -0.37036434765491738 0 0.02344033640085592 -0.3493350605664004 0 0.0071201472627590362 -0.36181985524754839 0 0.02344033640085592 -0.3493350605664004 0 0.0093373323126390018 -0.34673691453689298 0 0.0071201472627590362 -0.36181985524754839 0 0.0093373323126390018 -0.34673691453689298 0 0.001354150165678658 -0.35122785741203172 0 0.002015693098996661 -0.33936484937157779 0 0.0093373323126390018 -0.34673691453689298 0 0.001354150165678658 -0.35122785741203172 0 0.0071201472627590362 -0.36181985524754839 0 0.0013770767683104789 -0.38011590404628531 0 0.017291991239199941 -0.37036434765491738 0 0.0071201472627590362 -0.36181985524754839 0 0.018946268347426621 -0.32026228959590669 0 0.02587311066137209 -0.32883889874083011 0 0.0087818632648256761 -0.32489344735475012 0 0.02587311066137209 -0.32883889874083011 0 0.0087818632648256761 -0.32489344735475012 0 0.018946268347426621 -0.32026228959590669 0 0.0085301070851182565 -0.30819581362179171 0 0.021918076496668219 -0.31078427366218991 0 0.032807261991248199 -0.31838967571115873 0 0.018946268347426621 -0.32026228959590669 0 0.021918076496668219 -0.31078427366218991 0 0.032807261991248199 -0.31838967571115873 0 0.018946268347426621 -0.32026228959590669 0 0.02587311066137209 -0.32883889874083011 0 0.02344033640085592 -0.3493350605664004 0 0.019315835378601268 -0.33466276803887107 0 0.0061848665858570042 -0.33025236046317002 0 0.02587311066137209 -0.32883889874083011 0 0.031145960370832278 -0.3394586112870982 0 0.019315835378601268 -0.33466276803887107 0 0.02587311066137209 -0.32883889874083011 0 0.019315835378601268 -0.33466276803887107 0 0.0087818632648256761 -0.32489344735475012 0 0.02344033640085592 -0.3493350605664004 0 0.031145960370832278 -0.3394586112870982 0 0.019315835378601268 -0.33466276803887107 0 0.019315835378601268 -0.33466276803887107 0 0.0061848665858570042 -0.33025236046317002 0 0.0087818632648256761 -0.32489344735475012 0 0.02344033640085592 -0.3493350605664004 0 0.0061848665858570042 -0.33025236046317002 0 0.02344033640085592 -0.3493350605664004 0 0.0093373323126390018 -0.34673691453689298 0 0.0061848665858570042 -0.33025236046317002 0 0.0093373323126390018 -0.34673691453689298 0 0.002015693098996661 -0.33936484937157779 0 0.0061848665858570042 -0.33025236046317002 0 -0.0050082009084007157 -0.32890289478594992 0 0.002015693098996661 -0.33936484937157779 0 0.0061848665858570042 -0.33025236046317002 0 -0.01107060322914191 -0.31116966035993948 0 0.0087818632648256761 -0.32489344735475012 0 0.0085301070851182565 -0.30819581362179171 0 0.018946268347426621 -0.32026228959590669 0 0.0087818632648256761 -0.32489344735475012 0 0.0085301070851182565 -0.30819581362179171 0 -0.01107060322914191 -0.31116966035993948 0 0.0061848665858570042 -0.33025236046317002 0 0.0087818632648256761 -0.32489344735475012 0 -0.01107060322914191 -0.31116966035993948 0 0.0085301070851182565 -0.30819581362179171 0 0.0026659282157936669 -0.28817997861608108 0 0.0026659282157936669 -0.28817997861608108 0 0.021191810999659281 -0.29355296221285698 0 0.020793405929845139 -0.26948437704067169 0 0.0085301070851182565 -0.30819581362179171 0 0.0026659282157936669 -0.28817997861608108 0 0.021191810999659281 -0.29355296221285698 0 0.021191810999659281 -0.29355296221285698 0 0.030786242692006239 -0.30437574905367099 0 0.033377977722414631 -0.29262625176191032 0 0.021191810999659281 -0.29355296221285698 0 0.033377977722414631 -0.29262625176191032 0 0.032877747681330519 -0.27915993676137302 0 0.0085301070851182565 -0.30819581362179171 0 0.021191810999659281 -0.29355296221285698 0 0.021918076496668219 -0.31078427366218991 0 0.021191810999659281 -0.29355296221285698 0 0.021918076496668219 -0.31078427366218991 0 0.030786242692006239 -0.30437574905367099 0 0.032807261991248199 -0.31838967571115873 0 0.021918076496668219 -0.31078427366218991 0 0.030786242692006239 -0.30437574905367099 0 0.032807261991248199 -0.31838967571115873 0 0.030786242692006239 -0.30437574905367099 0 0.044636086250040848 -0.30652558192023938 0 0.030786242692006239 -0.30437574905367099 0 0.044636086250040848 -0.30652558192023938 0 0.033377977722414631 -0.29262625176191032 0 0.044636086250040848 -0.30652558192023938 0 0.033377977722414631 -0.29262625176191032 0 0.046307814442161817 -0.28026681371357198 0 0.044636086250040848 -0.30652558192023938 0 0.046307814442161817 -0.28026681371357198 0 0.033377977722414631 -0.29262625176191032 0 0.046307814442161817 -0.28026681371357198 0 0.032877747681330519 -0.27915993676137302 0 0.065072738739122699 -0.2757641839797873 0 0.0604497761061666 -0.28891903179048739 0 0.046307814442161817 -0.28026681371357198 0 0.044636086250040848 -0.30652558192023938 0 0.0604497761061666 -0.28891903179048739 0 0.046307814442161817 -0.28026681371357198 0 0.044636086250040848 -0.30652558192023938 0 0.0604497761061666 -0.28891903179048739 0 0.058246256145304959 -0.3123612386210125 0 0.0604497761061666 -0.28891903179048739 0 0.058246256145304959 -0.3123612386210125 0 0.065417397625243512 -0.25720793824732741 0 0.047979542634282779 -0.2540080455069047 0 0.0561943733602027 -0.26681174536189778 0 0.065417397625243512 -0.25720793824732741 0 0.047979542634282779 -0.2540080455069047 0 0.061715516844357943 -0.2393351082148876 0 0.047979542634282779 -0.2540080455069047 0 0.046307814442161817 -0.28026681371357198 0 0.065072738739122699 -0.2757641839797873 0 0.065417397625243512 -0.25720793824732741 0 0.0561943733602027 -0.26681174536189778 0 0.065072738739122699 -0.2757641839797873 0 0.0561943733602027 -0.26681174536189778 0 0.046307814442161817 -0.28026681371357198 0 0.047979542634282779 -0.2540080455069047 0 0.0561943733602027 -0.26681174536189778 0 0.046307814442161817 -0.28026681371357198 0 0.047979542634282779 -0.2540080455069047 0 0.046307814442161817 -0.28026681371357198 0 0.036110944131899393 -0.26705118582227011 0 0.046307814442161817 -0.28026681371357198 0 0.032877747681330519 -0.27915993676137302 0 0.036110944131899393 -0.26705118582227011 0 0.047979542634282779 -0.2540080455069047 0 0.036110944131899393 -0.26705118582227011 0 0.033312130867552379 -0.25382992555832651 0 0.033312130867552379 -0.25382992555832651 0 0.020793405929845139 -0.26948437704067169 0 0.0208249146239088 -0.24229301485599519 0 0.036110944131899393 -0.26705118582227011 0 0.033312130867552379 -0.25382992555832651 0 0.020793405929845139 -0.26948437704067169 0 -0.00095796240604086101 -0.26761911539816108 0 -0.01241213471794524 -0.25308273483886817 0 0.0208249146239088 -0.24229301485599519 0 0.021191810999659281 -0.29355296221285698 0 0.032877747681330519 -0.27915993676137302 0 0.020793405929845139 -0.26948437704067169 0 0.032877747681330519 -0.27915993676137302 0 0.036110944131899393 -0.26705118582227011 0 0.020793405929845139 -0.26948437704067169 0 -0.00095796240604086101 -0.26761911539816108 0 0.0026659282157936669 -0.28817997861608108 0 0.020793405929845139 -0.26948437704067169 0 -0.00095796240604086101 -0.26761911539816108 0 0.020793405929845139 -0.26948437704067169 0 0.0208249146239088 -0.24229301485599519 0 -0.01241213471794524 -0.25308273483886817 0 -0.0069288431661283859 -0.23594006882876251 0 0.0208249146239088 -0.24229301485599519 0 -0.0069288431661283859 -0.23594006882876251 0 0.0208249146239088 -0.24229301485599519 0 -0.0069288431661283859 -0.23594006882876251 0 0.01296312114467158 -0.22080618424832479 0 0.0208249146239088 -0.24229301485599519 0 -0.0069288431661283859 -0.23594006882876251 0 -0.0024249296216109759 -0.21380289379123299 0 0.01296312114467158 -0.22080618424832479 0 0.01296312114467158 -0.22080618424832479 0 0.0208249146239088 -0.24229301485599519 0 0.032727956174185717 -0.21787083996028661 0 -0.0021130367834329982 -0.1985169928401376 0 0.024965898565201931 -0.1982277433032659 0 0.0016748753455320599 -0.189865468091719 0 0.01954911075851953 -0.19130774796652619 0 0.0076531498080647997 -0.1862927838280429 0 -0.0057221473242836281 -0.19855554433926489 0 -0.0021130367834329982 -0.1985169928401376 0 0.01954911075851953 -0.19130774796652619 0 -0.0057221473242836281 -0.19855554433926489 0 0.0016748753455320599 -0.189865468091719 0 0.01954911075851953 -0.19130774796652619 0 -0.0057221473242836281 -0.19855554433926489 0 0.01954911075851953 -0.19130774796652619 0 -0.0021130367834329982 -0.1985169928401376 0 0.024965898565201931 -0.1982277433032659 0 0.01954911075851953 -0.19130774796652619 0 -0.0021130367834329982 -0.1985169928401376 0 0.01366456327972689 -0.20423282720052249 0 0.024965898565201931 -0.1982277433032659 0 -0.0021130367834329982 -0.1985169928401376 0 0.0097898615723803657 -0.20943782367121719 0 0.01366456327972689 -0.20423282720052249 0 0.0097898615723803657 -0.20943782367121719 0 0.01366456327972689 -0.20423282720052249 0 0.022015529764758259 -0.21074874898746929 0 -0.0024249296216109759 -0.21380289379123299 0 -0.0021130367834329982 -0.1985169928401376 0 0.0097898615723803657 -0.20943782367121719 0 -0.0024249296216109759 -0.21380289379123299 0 0.01296312114467158 -0.22080618424832479 0 0.0097898615723803657 -0.20943782367121719 0 0.01296312114467158 -0.22080618424832479 0 0.0097898615723803657 -0.20943782367121719 0 0.022015529764758259 -0.21074874898746929 0 0.01296312114467158 -0.22080618424832479 0 0.022015529764758259 -0.21074874898746929 0 0.032727956174185717 -0.21787083996028661 0 0.03057613031893516 -0.2073659893427332 0 0.022015529764758259 -0.21074874898746929 0 0.032727956174185717 -0.21787083996028661 0 0.03057613031893516 -0.2073659893427332 0 0.022015529764758259 -0.21074874898746929 0 0.024965898565201931 -0.1982277433032659 0 0.01366456327972689 -0.20423282720052249 0 0.022015529764758259 -0.21074874898746929 0 0.024965898565201931 -0.1982277433032659 0 0.024965898565201931 -0.1982277433032659 0 0.01954911075851953 -0.19130774796652619 0 0.044825996192190902 -0.18458677238663121 0 0.024965898565201931 -0.1982277433032659 0 0.042595136771594752 -0.20261662511991099 0 0.044825996192190902 -0.18458677238663121 0 0.01954911075851953 -0.19130774796652619 0 0.044825996192190902 -0.18458677238663121 0 0.03057613031893516 -0.2073659893427332 0 0.024965898565201931 -0.1982277433032659 0 0.042595136771594752 -0.20261662511991099 0 0.042595136771594752 -0.20261662511991099 0 0.032727956174185717 -0.21787083996028661 0 0.056454391881878521 -0.2189540776041384 0 0.03057613031893516 -0.2073659893427332 0 0.042595136771594752 -0.20261662511991099 0 0.032727956174185717 -0.21787083996028661 0 0.042595136771594752 -0.20261662511991099 0 0.056454391881878521 -0.2189540776041384 0 0.062978956521350243 -0.19758933557429809 0 0.042595136771594752 -0.20261662511991099 0 0.062978956521350243 -0.19758933557429809 0 0.044825996192190902 -0.18458677238663121 0 0.033312130867552379 -0.25382992555832651 0 0.0208249146239088 -0.24229301485599519 0 0.040851847017825793 -0.23631300456579099 0 0.047979542634282779 -0.2540080455069047 0 0.033312130867552379 -0.25382992555832651 0 0.040851847017825793 -0.23631300456579099 0 0.032727956174185717 -0.21787083996028661 0 0.040851847017825793 -0.23631300456579099 0 0.056454391881878521 -0.2189540776041384 0 0.0208249146239088 -0.24229301485599519 0 0.032727956174185717 -0.21787083996028661 0 0.040851847017825793 -0.23631300456579099 0 0.040851847017825793 -0.23631300456579099 0 0.056454391881878521 -0.2189540776041384 0 0.061715516844357943 -0.2393351082148876 0 0.047979542634282779 -0.2540080455069047 0 0.040851847017825793 -0.23631300456579099 0 0.061715516844357943 -0.2393351082148876 0 0.065417397625243512 -0.25720793824732741 0 0.061715516844357943 -0.2393351082148876 0 0.083475338330781412 -0.2428431169585703 0 0.061715516844357943 -0.2393351082148876 0 0.083475338330781412 -0.2428431169585703 0 0.073975356208138762 -0.22653465904908801 0 0.083475338330781412 -0.2428431169585703 0 0.1015332790363194 -0.22847829566981309 0 0.095320304620945956 -0.25735786714235681 0 0.083475338330781412 -0.2428431169585703 0 0.10075602246568729 -0.247130741130379 0 0.083475338330781412 -0.2428431169585703 0 0.089521109585271333 -0.22125589581954541 0 0.1015332790363194 -0.22847829566981309 0 0.083475338330781412 -0.2428431169585703 0 0.089521109585271333 -0.22125589581954541 0 0.073975356208138762 -0.22653465904908801 0 0.089521109585271333 -0.22125589581954541 0 0.073975356208138762 -0.22653465904908801 0 0.078710424398404671 -0.210285096648298 0 0.056454391881878521 -0.2189540776041384 0 0.061715516844357943 -0.2393351082148876 0 0.073975356208138762 -0.22653465904908801 0 0.056454391881878521 -0.2189540776041384 0 0.073975356208138762 -0.22653465904908801 0 0.078710424398404671 -0.210285096648298 0 0.056454391881878521 -0.2189540776041384 0 0.062978956521350243 -0.19758933557429809 0 0.078710424398404671 -0.210285096648298 0 0.062978956521350243 -0.19758933557429809 0 0.085184908258170322 -0.1912276448800736 0 0.070102881625862243 -0.17786579680673609 0 0.062978956521350243 -0.19758933557429809 0 0.085184908258170322 -0.1912276448800736 0 0.078710424398404671 -0.210285096648298 0 0.085184908258170322 -0.1912276448800736 0 0.078710424398404671 -0.210285096648298 0 0.093698942701008897 -0.20356044407052509 0 0.085184908258170322 -0.1912276448800736 0 0.093698942701008897 -0.20356044407052509 0 0.1002791976193327 -0.18627395487489151 0 0.089521109585271333 -0.22125589581954541 0 0.078710424398404671 -0.210285096648298 0 0.093698942701008897 -0.20356044407052509 0 0.089521109585271333 -0.22125589581954541 0 0.093698942701008897 -0.20356044407052509 0 0.10257837308077419 -0.21320421837898221 0 0.10257837308077419 -0.21320421837898221 0 0.1195912197418572 -0.21411347438105599 0 0.1015332790363194 -0.22847829566981309 0 0.10257837308077419 -0.21320421837898221 0 0.10591964326410019 -0.19911585382135999 0 0.1195912197418572 -0.21411347438105599 0 0.093698942701008897 -0.20356044407052509 0 0.10257837308077419 -0.21320421837898221 0 0.10591964326410019 -0.19911585382135999 0 0.093698942701008897 -0.20356044407052509 0 0.10591964326410019 -0.19911585382135999 0 0.1002791976193327 -0.18627395487489151 0 0.10591964326410019 -0.19911585382135999 0 0.12354903960564891 -0.20989968896969949 0 0.1221028460494281 -0.1871617673083229 0 0.10591964326410019 -0.19911585382135999 0 0.1221028460494281 -0.1871617673083229 0 0.1002791976193327 -0.18627395487489151 0 0.12354903960564891 -0.20989968896969949 0 0.1221028460494281 -0.1871617673083229 0 0.10591964326410019 -0.19911585382135999 0 0.12354903960564891 -0.20989968896969949 0 0.1195912197418572 -0.21411347438105599 0 0.10591964326410019 -0.19911585382135999 0 0.1195912197418572 -0.21411347438105599 0 0.12354903960564891 -0.20989968896969949 0 0.1225527060400716 -0.21175765639955729 0 0.1195912197418572 -0.21411347438105599 0 0.1241340057898697 -0.2190968778343966 0 0.12067305353636219 -0.22215267652027559 0 0.12354903960564891 -0.20989968896969949 0 0.1225527060400716 -0.21175765639955729 0 0.1195912197418572 -0.21411347438105599 0 0.1225527060400716 -0.21175765639955729 0 0.1195912197418572 -0.21411347438105599 0 0.1225527060400716 -0.21175765639955729 0 0.1241340057898697 -0.2190968778343966 0 0.1195912197418572 -0.21411347438105599 0 0.1241340057898697 -0.2190968778343966 0 0.1225527060400716 -0.21175765639955729 0 0.1195912197418572 -0.21411347438105599 0 0.1241340057898697 -0.2190968778343966 0 0.124603106919671 -0.2264723668861042 0 0.12067305353636219 -0.22215267652027559 0 0.1147682382250718 -0.22627416789606999 0 0.1195912197418572 -0.21411347438105599 0 0.1147682382250718 -0.22627416789606999 0 0.1015332790363194 -0.22847829566981309 0 0.11151193568457531 -0.2316105216552245 0 0.1309996578686356 -0.2266284485307126 0 0.1195912197418572 -0.21411347438105599 0 0.1015332790363194 -0.22847829566981309 0 0.124603106919671 -0.2264723668861042 0 0.11151193568457531 -0.2316105216552245 0 0.1309996578686356 -0.2266284485307126 0 0.11151193568457531 -0.2316105216552245 0 0.1237886589078623 -0.23659236418800161 0 0.1309996578686356 -0.2266284485307126 0 0.1195912197418572 -0.21411347438105599 0 0.12067305353636219 -0.22215267652027559 0 0.1147682382250718 -0.22627416789606999 0 0.1241340057898697 -0.2190968778343966 0 0.124603106919671 -0.2264723668861042 0 0.12067305353636219 -0.22215267652027559 0 0.1241340057898697 -0.2190968778343966 0 0.124603106919671 -0.2264723668861042 0 0.1195912197418572 -0.21411347438105599 0 0.1147682382250718 -0.22627416789606999 0 0.124603106919671 -0.2264723668861042 0 0.1147682382250718 -0.22627416789606999 0 0.11151193568457531 -0.2316105216552245 0 0.1237886589078623 -0.23659236418800161 0 0.1179387987048378 -0.23894890400365851 0 0.1224890003745731 -0.24541254930308659 0 0.1179387987048378 -0.23894890400365851 0 0.1224890003745731 -0.24541254930308659 0 0.11396559985234039 -0.2421801808683213 0 0.11151193568457531 -0.2316105216552245 0 0.1237886589078623 -0.23659236418800161 0 0.1179387987048378 -0.23894890400365851 0 0.1169120013868776 -0.25262321116256281 0 0.1224890003745731 -0.24541254930308659 0 0.11396559985234039 -0.2421801808683213 0 0.11151193568457531 -0.2316105216552245 0 0.1179387987048378 -0.23894890400365851 0 0.11396559985234039 -0.2421801808683213 0 0.083475338330781412 -0.2428431169585703 0 0.1022484350739408 -0.23844857125646171 0 0.10075602246568729 -0.247130741130379 0 0.11151193568457531 -0.2316105216552245 0 0.11396559985234039 -0.2421801808683213 0 0.1022484350739408 -0.23844857125646171 0 0.083475338330781412 -0.2428431169585703 0 0.1022484350739408 -0.23844857125646171 0 0.1015332790363194 -0.22847829566981309 0 0.11396559985234039 -0.2421801808683213 0 0.1022484350739408 -0.23844857125646171 0 0.10075602246568729 -0.247130741130379 0 0.1064980367032896 -0.25640161499131658 0 0.11396559985234039 -0.2421801808683213 0 0.10075602246568729 -0.247130741130379 0 0.089521109585271333 -0.22125589581954541 0 0.10257837308077419 -0.21320421837898221 0 0.1015332790363194 -0.22847829566981309 0 0.1147682382250718 -0.22627416789606999 0 0.11151193568457531 -0.2316105216552245 0 0.1015332790363194 -0.22847829566981309 0 0.11151193568457531 -0.2316105216552245 0 0.1022484350739408 -0.23844857125646171 0 0.1015332790363194 -0.22847829566981309 0 0.1080879202808319 -0.15451501108285251 0 0.094015080548003463 -0.13780940324308391 0 0.1080879202808319 -0.15451501108285251 0 0.094015080548003463 -0.13780940324308391 0 0.093585871072164956 -0.15490046132849439 0 0.1080879202808319 -0.15451501108285251 0 0.094015080548003463 -0.13780940324308391 0 0.10806115137265811 -0.13413525827336439 0 0.094015080548003463 -0.13780940324308391 0 0.10806115137265811 -0.13413525827336439 0 0.1073873758641825 -0.1201666012699093 0 0.10806115137265811 -0.13413525827336439 0 0.1232538410946369 -0.1262028882071527 0 0.1191486978954456 -0.14071487988278389 0 0.10806115137265811 -0.13413525827336439 0 0.1232538410946369 -0.1262028882071527 0 0.1073873758641825 -0.1201666012699093 0 0.1191486978954456 -0.14071487988278389 0 0.12065665249320499 -0.1644238456469464 0 0.1080879202808319 -0.15451501108285251 0 0.10806115137265811 -0.13413525827336439 0 0.1191486978954456 -0.14071487988278389 0 0.1080879202808319 -0.15451501108285251 0 0.1191486978954456 -0.14071487988278389 0 0.12065665249320499 -0.1644238456469464 0 0.1191486978954456 -0.14071487988278389 0 0.12065665249320499 -0.1644238456469464 0 0.1257480778739504 -0.15175212419531919 0 0.1244356971050361 -0.16050450208418279 0 0.12065665249320499 -0.1644238456469464 0 0.1257480778739504 -0.15175212419531919 0 0.12065665249320499 -0.1644238456469464 0 0.12652377143427199 -0.16458843509899229 0 0.1251443743524793 -0.16227674077552151 0 0.1244356971050361 -0.16050450208418279 0 0.12065665249320499 -0.1644238456469464 0 0.1251443743524793 -0.16227674077552151 0 0.12065665249320499 -0.1644238456469464 0 0.12754889835118269 -0.1739817632498703 0 0.12652377143427199 -0.16458843509899229 0 0.12065665249320499 -0.1644238456469464 0 0.1221028460494281 -0.1871617673083229 0 0.1103344100226237 -0.1764953200444262 0 0.1221028460494281 -0.1871617673083229 0 0.1103344100226237 -0.1764953200444262 0 0.1002791976193327 -0.18627395487489151 0 0.12065665249320499 -0.1644238456469464 0 0.1221028460494281 -0.1871617673083229 0 0.12065665249320499 -0.1644238456469464 0 0.1221028460494281 -0.1871617673083229 0 0.12754889835118269 -0.1739817632498703 0 0.1103344100226237 -0.1764953200444262 0 0.1002791976193327 -0.18627395487489151 0 0.095379767059533618 -0.1711448212268411 0 0.1080879202808319 -0.15451501108285251 0 0.095379767059533618 -0.1711448212268411 0 0.093585871072164956 -0.15490046132849439 0 0.12065665249320499 -0.1644238456469464 0 0.1103344100226237 -0.1764953200444262 0 0.095379767059533618 -0.1711448212268411 0 0.12065665249320499 -0.1644238456469464 0 0.095379767059533618 -0.1711448212268411 0 0.1080879202808319 -0.15451501108285251 0 0.12065665249320499 -0.1644238456469464 0 0.095379767059533618 -0.1711448212268411 0 0.095379767059533618 -0.1711448212268411 0 0.076860716400290838 -0.1561326097612 0 0.093585871072164956 -0.15490046132849439 0 0.095379767059533618 -0.1711448212268411 0 0.070102881625862243 -0.17786579680673609 0 0.076860716400290838 -0.1561326097612 0 0.095379767059533618 -0.1711448212268411 0 0.070102881625862243 -0.17786579680673609 0 0.085184908258170322 -0.1912276448800736 0 0.1002791976193327 -0.18627395487489151 0 0.095379767059533618 -0.1711448212268411 0 0.085184908258170322 -0.1912276448800736 0 0.095379767059533618 -0.1711448212268411 0 0.070102881625862243 -0.17786579680673609 0 0.070102881625862243 -0.17786579680673609 0 0.076860716400290838 -0.1561326097612 0 0.055960245666729719 -0.16615932535980041 0 0.076860716400290838 -0.1561326097612 0 0.056261504397484008 -0.14679121687849991 0 0.055960245666729719 -0.16615932535980041 0 0.076860716400290838 -0.1561326097612 0 0.072978630111665027 -0.13805942034879101 0 0.056261504397484008 -0.14679121687849991 0 0.094015080548003463 -0.13780940324308391 0 0.076860716400290838 -0.1561326097612 0 0.072978630111665027 -0.13805942034879101 0 0.094015080548003463 -0.13780940324308391 0 0.076860716400290838 -0.1561326097612 0 0.093585871072164956 -0.15490046132849439 0 0.094015080548003463 -0.13780940324308391 0 0.072978630111665027 -0.13805942034879101 0 0.079942240815175022 -0.1211037954033153 0 0.094015080548003463 -0.13780940324308391 0 0.079942240815175022 -0.1211037954033153 0 0.072978630111665027 -0.13805942034879101 0 0.062365147829615497 -0.12512687266881559 0 0.079942240815175022 -0.1211037954033153 0 0.072978630111665027 -0.13805942034879101 0 0.062365147829615497 -0.12512687266881559 0 0.056261504397484008 -0.14679121687849991 0 0.062365147829615497 -0.12512687266881559 0 0.047761340978324067 -0.1315767501119299 0 0.056261504397484008 -0.14679121687849991 0 0.047761340978324067 -0.1315767501119299 0 0.056261504397484008 -0.14679121687849991 0 0.042096778161915857 -0.1447357415901242 0 0.042096778161915857 -0.1447357415901242 0 0.036933605675691289 -0.1659067594696122 0 0.030817289205484492 -0.14667560313625999 0 0.056261504397484008 -0.14679121687849991 0 0.042096778161915857 -0.1447357415901242 0 0.036933605675691289 -0.1659067594696122 0 0.042096778161915857 -0.1447357415901242 0 0.036287292412039929 -0.1346393002747853 0 0.030817289205484492 -0.14667560313625999 0 0.036287292412039929 -0.1346393002747853 0 0.040750025083554922 -0.12635310201696329 0 0.03067784426845489 -0.1246648425995763 0 0.047761340978324067 -0.1315767501119299 0 0.036287292412039929 -0.1346393002747853 0 0.040750025083554922 -0.12635310201696329 0 0.047761340978324067 -0.1315767501119299 0 0.042096778161915857 -0.1447357415901242 0 0.036287292412039929 -0.1346393002747853 0 0.070102881625862243 -0.17786579680673609 0 0.055960245666729719 -0.16615932535980041 0 0.044825996192190902 -0.18458677238663121 0 0.070102881625862243 -0.17786579680673609 0 0.044825996192190902 -0.18458677238663121 0 0.062978956521350243 -0.19758933557429809 0 0.070102881625862243 -0.17786579680673609 0 0.044825996192190902 -0.18458677238663121 0 0.056261504397484008 -0.14679121687849991 0 0.055960245666729719 -0.16615932535980041 0 0.036933605675691289 -0.1659067594696122 0 0.036933605675691289 -0.1659067594696122 0 0.044825996192190902 -0.18458677238663121 0 0.026840007063644072 -0.17957506028966519 0 0.055960245666729719 -0.16615932535980041 0 0.036933605675691289 -0.1659067594696122 0 0.044825996192190902 -0.18458677238663121 0 0.036933605675691289 -0.1659067594696122 0 0.026840007063644072 -0.17957506028966519 0 0.018377492282233919 -0.17372157028852669 0 0.01954911075851953 -0.19130774796652619 0 0.044825996192190902 -0.18458677238663121 0 0.026840007063644072 -0.17957506028966519 0 0.01954911075851953 -0.19130774796652619 0 0.026840007063644072 -0.17957506028966519 0 0.014513830409584689 -0.18235245133702949 0 0.026840007063644072 -0.17957506028966519 0 0.018377492282233919 -0.17372157028852669 0 0.014513830409584689 -0.18235245133702949 0 0.036933605675691289 -0.1659067594696122 0 0.018377492282233919 -0.17372157028852669 0 0.013757196106897761 -0.15896731427277511 0 0.036933605675691289 -0.1659067594696122 0 0.013757196106897761 -0.15896731427277511 0 0.030817289205484492 -0.14667560313625999 0 -0.0011051753364124341 -0.16441906961975289 0 0.013757196106897761 -0.15896731427277511 0 0.0033703655294495928 -0.1776326111285679 0 0.018377492282233919 -0.17372157028852669 0 0.013757196106897761 -0.15896731427277511 0 0.0033703655294495928 -0.1776326111285679 0 -0.0011051753364124341 -0.16441906961975289 0 0.013757196106897761 -0.15896731427277511 0 0.001367190774887289 -0.15601023548811599 0 0.018377492282233919 -0.17372157028852669 0 0.0033703655294495928 -0.1776326111285679 0 0.014513830409584689 -0.18235245133702949 0 0.0033703655294495928 -0.1776326111285679 0 0.0016888367019596579 -0.18480537576534531 0 0.0076531498080647997 -0.1862927838280429 0 0.0016748753455320599 -0.189865468091719 0 0.0016888367019596579 -0.18480537576534531 0 0.0076531498080647997 -0.1862927838280429 0 0.01954911075851953 -0.19130774796652619 0 0.0076531498080647997 -0.1862927838280429 0 0.014513830409584689 -0.18235245133702949 0 0.0033703655294495928 -0.1776326111285679 0 0.0076531498080647997 -0.1862927838280429 0 0.014513830409584689 -0.18235245133702949 0 0.013082065861509029 -0.1347981701175909 0 0.03067784426845489 -0.1246648425995763 0 0.025747614617175601 -0.13690189572689801 0 0.013082065861509029 -0.1347981701175909 0 0.03067784426845489 -0.1246648425995763 0 0.025747614617175601 -0.13690189572689801 0 0.01812020142219609 -0.14429365824021459 0 0.013082065861509029 -0.1347981701175909 0 0.036287292412039929 -0.1346393002747853 0 0.025747614617175601 -0.13690189572689801 0 0.03067784426845489 -0.1246648425995763 0 0.036287292412039929 -0.1346393002747853 0 0.025747614617175601 -0.13690189572689801 0 0.030817289205484492 -0.14667560313625999 0 0.025747614617175601 -0.13690189572689801 0 0.030817289205484492 -0.14667560313625999 0 0.01812020142219609 -0.14429365824021459 0 0.013757196106897761 -0.15896731427277511 0 0.030817289205484492 -0.14667560313625999 0 0.01812020142219609 -0.14429365824021459 0 0.013757196106897761 -0.15896731427277511 0 0.0069442268935788268 -0.14057363645318521 0 0.013757196106897761 -0.15896731427277511 0 0.01812020142219609 -0.14429365824021459 0 0.0069442268935788268 -0.14057363645318521 0 0.013757196106897761 -0.15896731427277511 0 0.001367190774887289 -0.15601023548811599 0 0.0069442268935788268 -0.14057363645318521 0 0.013082065861509029 -0.1347981701175909 0 0.0094927730995079326 -0.1253614416200243 0 0.01711266554057447 -0.11781433887577129 0 0.0069442268935788268 -0.14057363645318521 0 0.00050623466739229545 -0.1231923227989264 0 0.0069442268935788268 -0.14057363645318521 0 0.0094927730995079326 -0.1253614416200243 0 0.00050623466739229545 -0.1231923227989264 0 0.0069442268935788268 -0.14057363645318521 0 0.013082065861509029 -0.1347981701175909 0 0.0094927730995079326 -0.1253614416200243 0 0.0069442268935788268 -0.14057363645318521 0 0.013082065861509029 -0.1347981701175909 0 0.01812020142219609 -0.14429365824021459 0 0.0069442268935788268 -0.14057363645318521 0 0.013082065861509029 -0.1347981701175909 0 0.0094927730995079326 -0.1253614416200243 0 0.00050623466739229545 -0.1231923227989264 0 0.0058398971807694074 -0.1113337840242233 0 -0.0059317575587944328 -0.1058110091446678 0 0.00050623466739229545 -0.1231923227989264 0 0.0058398971807694074 -0.1113337840242233 0 0.0058398971807694074 -0.1113337840242233 0 0.01711266554057447 -0.11781433887577129 0 0.016081806941150401 -0.1070089998044486 0 0.0094927730995079326 -0.1253614416200243 0 0.0058398971807694074 -0.1113337840242233 0 0.01711266554057447 -0.11781433887577129 0 0.01711266554057447 -0.11781433887577129 0 0.026576955823325529 -0.1033682280352034 0 0.034369039206499023 -0.1151849234796269 0 0.013082065861509029 -0.1347981701175909 0 0.03067784426845489 -0.1246648425995763 0 0.034369039206499023 -0.1151849234796269 0 0.013082065861509029 -0.1347981701175909 0 0.01711266554057447 -0.11781433887577129 0 0.034369039206499023 -0.1151849234796269 0 0.013082065861509029 -0.1347981701175909 0 0.034369039206499023 -0.1151849234796269 0 0.01711266554057447 -0.11781433887577129 0 0.026576955823325529 -0.1033682280352034 0 0.016081806941150401 -0.1070089998044486 0 0.026576955823325529 -0.1033682280352034 0 0.0147977092199322 -0.095519648282596362 0 0.035527175998659108 -0.085228287420525572 0 0.026576955823325529 -0.1033682280352034 0 0.016081806941150401 -0.1070089998044486 0 0.0147977092199322 -0.095519648282596362 0 -0.0059317575587944328 -0.1058110091446678 0 0.0147977092199322 -0.095519648282596362 0 -0.0059317575587944328 -0.1058110091446678 0 0.0147977092199322 -0.095519648282596362 0 0.0052922863549169771 -0.088257816050998153 0 -0.0059317575587944328 -0.1058110091446678 0 0.0058398971807694074 -0.1113337840242233 0 0.0147977092199322 -0.095519648282596362 0 0.0058398971807694074 -0.1113337840242233 0 0.016081806941150401 -0.1070089998044486 0 0.0147977092199322 -0.095519648282596362 0 0.0147977092199322 -0.095519648282596362 0 0.0052922863549169771 -0.088257816050998153 0 0.014206435396414859 -0.077702190472260665 0 -0.0028374965336953402 -0.080678514719808053 0 0.0052922863549169771 -0.088257816050998153 0 0.014206435396414859 -0.077702190472260665 0 -0.0028374965336953402 -0.080678514719808053 0 0.014206435396414859 -0.077702190472260665 0 0.0045214092930832986 -0.064584551569048368 0 -0.0028374965336953402 -0.080678514719808053 0 0.0045214092930832986 -0.064584551569048368 0 0.014206435396414859 -0.077702190472260665 0 0.0045214092930832986 -0.064584551569048368 0 0.01672881944034036 -0.059492645665836563 0 0.014206435396414859 -0.077702190472260665 0 0.02690509164668263 -0.0676350622810135 0 0.01672881944034036 -0.059492645665836563 0 0.014206435396414859 -0.077702190472260665 0 0.02690509164668263 -0.0676350622810135 0 0.035527175998659108 -0.085228287420525572 0 0.0147977092199322 -0.095519648282596362 0 0.014206435396414859 -0.077702190472260665 0 0.035527175998659108 -0.085228287420525572 0 0.0147977092199322 -0.095519648282596362 0 0.035527175998659108 -0.085228287420525572 0 0.035527175998659108 -0.085228287420525572 0 0.052067885081150268 -0.085937536753875804 0 0.047725742430089833 -0.092661988980746748 0 0.035527175998659108 -0.085228287420525572 0 0.056256642777386019 -0.074936926558454769 0 0.035527175998659108 -0.085228287420525572 0 0.047725742430089833 -0.092661988980746748 0 0.03801451192170327 -0.098404329165990137 0 0.02690509164668263 -0.0676350622810135 0 0.035527175998659108 -0.085228287420525572 0 0.040424373085031592 -0.066118399915209652 0 0.035527175998659108 -0.085228287420525572 0 0.040424373085031592 -0.066118399915209652 0 0.056256642777386019 -0.074936926558454769 0 0.040424373085031592 -0.066118399915209652 0 0.056256642777386019 -0.074936926558454769 0 0.051261525392810418 -0.061404917927085259 0 0.056256642777386019 -0.074936926558454769 0 0.051261525392810418 -0.061404917927085259 0 0.062087838556348252 -0.060290579237654032 0 0.035527175998659108 -0.085228287420525572 0 0.056256642777386019 -0.074936926558454769 0 0.052067885081150268 -0.085937536753875804 0 0.052067885081150268 -0.085937536753875804 0 0.047725742430089833 -0.092661988980746748 0 0.056490132814748607 -0.093264231625928298 0 0.056256642777386019 -0.074936926558454769 0 0.052067885081150268 -0.085937536753875804 0 0.061245248491016591 -0.085077997778888234 0 0.052067885081150268 -0.085937536753875804 0 0.061245248491016591 -0.085077997778888234 0 0.056490132814748607 -0.093264231625928298 0 0.061245248491016591 -0.085077997778888234 0 0.056490132814748607 -0.093264231625928298 0 0.068505901214343731 -0.090931965975797058 0 0.056490132814748607 -0.093264231625928298 0 0.06586940108234654 -0.1043981875635467 0 0.056490132814748607 -0.093264231625928298 0 0.05560949168457905 -0.095521425139461047 0 0.06586940108234654 -0.1043981875635467 0 0.05560949168457905 -0.095521425139461047 0 0.048273622675400772 -0.11453151508156161 0 0.06586940108234654 -0.1043981875635467 0 0.047725742430089833 -0.092661988980746748 0 0.05560949168457905 -0.095521425139461047 0 0.043929696310717789 -0.1004431666914562 0 0.047725742430089833 -0.092661988980746748 0 0.056490132814748607 -0.093264231625928298 0 0.05560949168457905 -0.095521425139461047 0 0.062365147829615497 -0.12512687266881559 0 0.047761340978324067 -0.1315767501119299 0 0.048273622675400772 -0.11453151508156161 0 0.048273622675400772 -0.11453151508156161 0 0.06586940108234654 -0.1043981875635467 0 0.062365147829615497 -0.12512687266881559 0 0.048273622675400772 -0.11453151508156161 0 0.06586940108234654 -0.1043981875635467 0 0.03067784426845489 -0.1246648425995763 0 0.048273622675400772 -0.11453151508156161 0 0.034369039206499023 -0.1151849234796269 0 0.047761340978324067 -0.1315767501119299 0 0.040750025083554922 -0.12635310201696329 0 0.048273622675400772 -0.11453151508156161 0 0.03067784426845489 -0.1246648425995763 0 0.048273622675400772 -0.11453151508156161 0 0.040750025083554922 -0.12635310201696329 0 0.03067784426845489 -0.1246648425995763 0 0.048273622675400772 -0.11453151508156161 0 0.026576955823325529 -0.1033682280352034 0 0.034369039206499023 -0.1151849234796269 0 0.03801451192170327 -0.098404329165990137 0 0.05560949168457905 -0.095521425139461047 0 0.034369039206499023 -0.1151849234796269 0 0.043929696310717789 -0.1004431666914562 0 0.05560949168457905 -0.095521425139461047 0 0.048273622675400772 -0.11453151508156161 0 0.034369039206499023 -0.1151849234796269 0 0.034369039206499023 -0.1151849234796269 0 0.03801451192170327 -0.098404329165990137 0 0.043929696310717789 -0.1004431666914562 0 0.05560949168457905 -0.095521425139461047 0 0.034369039206499023 -0.1151849234796269 0 0.026576955823325529 -0.1033682280352034 0 0.035527175998659108 -0.085228287420525572 0 0.03801451192170327 -0.098404329165990137 0 0.047725742430089833 -0.092661988980746748 0 0.03801451192170327 -0.098404329165990137 0 0.043929696310717789 -0.1004431666914562 0 0.024527229792345461 -0.0066640793824556278 0 0.02769011368757196 -0.01409698789253337 0 0.033112655901409799 -0.00063324611952645087 0 0.018624474460967239 0.00024362624283911019 0 0.024527229792345461 -0.0066640793824556278 0 0.033112655901409799 -0.00063324611952645087 0 0.02769011368757196 -0.01409698789253337 0 0.029619442959373431 -0.01581465261299133 0 0.033112655901409799 -0.00063324611952645087 0 0.02769011368757196 -0.01409698789253337 0 0.02241517784992493 -0.013257884254654609 0 0.020464780813194489 -0.019017433357974581 0 0.024527229792345461 -0.0066640793824556278 0 0.02769011368757196 -0.01409698789253337 0 0.02241517784992493 -0.013257884254654609 0 0.024527229792345461 -0.0066640793824556278 0 0.02241517784992493 -0.013257884254654609 0 0.016978587106587818 -0.013253036385654841 0 0.02241517784992493 -0.013257884254654609 0 0.016978587106587818 -0.013253036385654841 0 0.020464780813194489 -0.019017433357974581 0 0.018624474460967239 0.00024362624283911019 0 0.024527229792345461 -0.0066640793824556278 0 0.016978587106587818 -0.013253036385654841 0 0.018624474460967239 0.00024362624283911019 0 0.0015075461902561359 -0.0206127781360903 0 -0.00071596282873132163 -0.008595039857743892 0 0.018624474460967239 0.00024362624283911019 0 0.0015075461902561359 -0.0206127781360903 0 -0.00071596282873132163 -0.008595039857743892 0 0.0044529143093724691 0.001599530544337085 0 0.018624474460967239 0.00024362624283911019 0 0.018624474460967239 0.00024362624283911019 0 0.016978587106587818 -0.013253036385654841 0 0.0015075461902561359 -0.0206127781360903 0 0.01579671925926639 -0.023909679764942949 0 0.01127674673547514 -0.03133261316807813 0 9.3668589405805289e-05 -0.032689431139981337 0 0.016978587106587818 -0.013253036385654841 0 0.0015075461902561359 -0.0206127781360903 0 0.01579671925926639 -0.023909679764942949 0 0.01579671925926639 -0.023909679764942949 0 9.3668589405805289e-05 -0.032689431139981337 0 0.0015075461902561359 -0.0206127781360903 0 0.01579671925926639 -0.023909679764942949 0 9.3668589405805289e-05 -0.032689431139981337 0 0.01579671925926639 -0.023909679764942949 0 0.019796201442581741 -0.031298830099151111 0 0.01127674673547514 -0.03133261316807813 0 0.02769011368757196 -0.01409698789253337 0 0.019796201442581741 -0.031298830099151111 0 0.01579671925926639 -0.023909679764942949 0 0.020464780813194489 -0.019017433357974581 0 0.019796201442581741 -0.031298830099151111 0 0.02769011368757196 -0.01409698789253337 0 0.027336230431006352 -0.025224217001540521 0 0.019796201442581741 -0.031298830099151111 0 0.02769011368757196 -0.01409698789253337 0 0.020464780813194489 -0.019017433357974581 0 0.019796201442581741 -0.031298830099151111 0 0.016978587106587818 -0.013253036385654841 0 0.01579671925926639 -0.023909679764942949 0 0.020464780813194489 -0.019017433357974581 0 0.02769011368757196 -0.01409698789253337 0 0.030075091473621269 -0.02090700557786894 0 0.027336230431006352 -0.025224217001540521 0 0.02769011368757196 -0.01409698789253337 0 0.029619442959373431 -0.01581465261299133 0 0.030075091473621269 -0.02090700557786894 0 0.027336230431006352 -0.025224217001540521 0 0.02780493988834257 -0.033522780679820743 0 0.032559099895504928 -0.026276020616535441 0 0.027336230431006352 -0.025224217001540521 0 0.02780493988834257 -0.033522780679820743 0 0.019796201442581741 -0.031298830099151111 0 0.030075091473621269 -0.02090700557786894 0 0.027336230431006352 -0.025224217001540521 0 0.032559099895504928 -0.026276020616535441 0 0.022468505947011361 -0.043612645198230847 0 0.019796201442581741 -0.031298830099151111 0 0.01190228919759056 -0.048500672305768391 0 0.019796201442581741 -0.031298830099151111 0 0.01190228919759056 -0.048500672305768391 0 0.02780493988834257 -0.033522780679820743 0 0.030302067309816012 -0.044599550339117389 0 0.034180205804708437 -0.037929314957609907 0 0.02780493988834257 -0.033522780679820743 0 0.030302067309816012 -0.044599550339117389 0 0.022468505947011361 -0.043612645198230847 0 0.022468505947011361 -0.043612645198230847 0 0.01190228919759056 -0.048500672305768391 0 0.02780493988834257 -0.033522780679820743 0 0.022468505947011361 -0.043612645198230847 0 0.019796201442581741 -0.031298830099151111 0 0.019796201442581741 -0.031298830099151111 0 0.0094203976506466343 -0.037432511668237141 0 0.01127674673547514 -0.03133261316807813 0 0.019796201442581741 -0.031298830099151111 0 0.0094203976506466343 -0.037432511668237141 0 0.01190228919759056 -0.048500672305768391 0 -0.001359163330916917 -0.044638420598685717 0 0.0094203976506466343 -0.037432511668237141 0 9.3668589405805289e-05 -0.032689431139981337 0 0.0094203976506466343 -0.037432511668237141 0 0.01127674673547514 -0.03133261316807813 0 9.3668589405805289e-05 -0.032689431139981337 0 -0.001359163330916917 -0.044638420598685717 0 0.0094203976506466343 -0.037432511668237141 0 0.01190228919759056 -0.048500672305768391 0 0.0045214092930832986 -0.064584551569048368 0 0.01190228919759056 -0.048500672305768391 0 -0.0047714937038859373 -0.056214114566174041 0 0.0045214092930832986 -0.064584551569048368 0 0.01190228919759056 -0.048500672305768391 0 0.0045214092930832986 -0.064584551569048368 0 0.01190228919759056 -0.048500672305768391 0 0.01672881944034036 -0.059492645665836563 0 -0.0047714937038859373 -0.056214114566174041 0 0.01190228919759056 -0.048500672305768391 0 -0.001359163330916917 -0.044638420598685717 0 -0.0047714937038859373 -0.056214114566174041 0 0.01190228919759056 -0.048500672305768391 0 0.022468505947011361 -0.043612645198230847 0 0.01190228919759056 -0.048500672305768391 0 0.01672881944034036 -0.059492645665836563 0 0.022468505947011361 -0.043612645198230847 0 0.01672881944034036 -0.059492645665836563 0 0.029495238935608011 -0.053588322327083063 0 0.030302067309816012 -0.044599550339117389 0 0.022468505947011361 -0.043612645198230847 0 0.029495238935608011 -0.053588322327083063 0 0.02690509164668263 -0.0676350622810135 0 0.01672881944034036 -0.059492645665836563 0 0.029495238935608011 -0.053588322327083063 0 0.02690509164668263 -0.0676350622810135 0 0.040424373085031592 -0.066118399915209652 0 0.029495238935608011 -0.053588322327083063 0 0.040424373085031592 -0.066118399915209652 0 0.029495238935608011 -0.053588322327083063 0 0.043276013715277367 -0.053981853630414411 0 0.030302067309816012 -0.044599550339117389 0 0.029495238935608011 -0.053588322327083063 0 0.037813949662529753 -0.045509897544414708 0 0.029495238935608011 -0.053588322327083063 0 0.043276013715277367 -0.053981853630414411 0 0.037813949662529753 -0.045509897544414708 0 0.043276013715277367 -0.053981853630414411 0 0.046946450230687317 -0.04440366142903069 0 0.037813949662529753 -0.045509897544414708 0 0.040424373085031592 -0.066118399915209652 0 0.043276013715277367 -0.053981853630414411 0 0.051261525392810418 -0.061404917927085259 0 0.043276013715277367 -0.053981853630414411 0 0.051261525392810418 -0.061404917927085259 0 0.053714544984997087 -0.052865922639663138 0 0.051261525392810418 -0.061404917927085259 0 0.062087838556348252 -0.060290579237654032 0 0.053714544984997087 -0.052865922639663138 0 0.062087838556348252 -0.060290579237654032 0 0.061751219914910331 -0.050924584166970689 0 0.053714544984997087 -0.052865922639663138 0 0.061751219914910331 -0.050924584166970689 0 0.053714544984997087 -0.052865922639663138 0 0.056271903052456967 -0.043343950072687577 0 0.043276013715277367 -0.053981853630414411 0 0.053714544984997087 -0.052865922639663138 0 0.046946450230687317 -0.04440366142903069 0 0.053714544984997087 -0.052865922639663138 0 0.046946450230687317 -0.04440366142903069 0 0.056271903052456967 -0.043343950072687577 0 0.046946450230687317 -0.04440366142903069 0 0.056271903052456967 -0.043343950072687577 0 0.04922783105997814 -0.034902257756998643 0 0.056271903052456967 -0.043343950072687577 0 0.060973294691642567 -0.033847017704080093 0 0.065378576843365288 -0.042497674993408917 0 0.061751219914910331 -0.050924584166970689 0 0.056271903052456967 -0.043343950072687577 0 0.065378576843365288 -0.042497674993408917 0 0.056271903052456967 -0.043343950072687577 0 0.060973294691642567 -0.033847017704080093 0 0.04922783105997814 -0.034902257756998643 0 0.060973294691642567 -0.033847017704080093 0 0.04922783105997814 -0.034902257756998643 0 0.054405941602567259 -0.02719961616040038 0 0.04922783105997814 -0.034902257756998643 0 0.041273067948390488 -0.037462501092398952 0 0.042331576399887397 -0.03102865424841764 0 0.046946450230687317 -0.04440366142903069 0 0.04922783105997814 -0.034902257756998643 0 0.041273067948390488 -0.037462501092398952 0 0.041273067948390488 -0.037462501092398952 0 0.035916238876610759 -0.031551583936675849 0 0.042331576399887397 -0.03102865424841764 0 0.046946450230687317 -0.04440366142903069 0 0.041273067948390488 -0.037462501092398952 0 0.037813949662529753 -0.045509897544414708 0 0.041273067948390488 -0.037462501092398952 0 0.037813949662529753 -0.045509897544414708 0 0.034180205804708437 -0.037929314957609907 0 0.030302067309816012 -0.044599550339117389 0 0.037813949662529753 -0.045509897544414708 0 0.034180205804708437 -0.037929314957609907 0 0.02780493988834257 -0.033522780679820743 0 0.034180205804708437 -0.037929314957609907 0 0.035916238876610759 -0.031551583936675849 0 0.041273067948390488 -0.037462501092398952 0 0.034180205804708437 -0.037929314957609907 0 0.035916238876610759 -0.031551583936675849 0 0.02780493988834257 -0.033522780679820743 0 0.035916238876610759 -0.031551583936675849 0 0.032559099895504928 -0.026276020616535441 0 0.032559099895504928 -0.026276020616535441 0 0.035047079538689761 -0.02040875577662642 0 0.039175019164758837 -0.026041780726680189 0 0.035916238876610759 -0.031551583936675849 0 0.032559099895504928 -0.026276020616535441 0 0.039175019164758837 -0.026041780726680189 0 0.035047079538689761 -0.02040875577662642 0 0.042445774802912312 -0.016315126131898051 0 0.039175019164758837 -0.026041780726680189 0 0.029619442959373431 -0.01581465261299133 0 0.035047079538689761 -0.02040875577662642 0 0.042445774802912312 -0.016315126131898051 0 0.030075091473621269 -0.02090700557786894 0 0.032559099895504928 -0.026276020616535441 0 0.035047079538689761 -0.02040875577662642 0 0.029619442959373431 -0.01581465261299133 0 0.030075091473621269 -0.02090700557786894 0 0.035047079538689761 -0.02040875577662642 0 0.042445774802912312 -0.016315126131898051 0 0.046764471385294173 -0.025233846934283571 0 0.039175019164758837 -0.026041780726680189 0 0.04922783105997814 -0.034902257756998643 0 0.046764471385294173 -0.025233846934283571 0 0.042331576399887397 -0.03102865424841764 0 0.035916238876610759 -0.031551583936675849 0 0.039175019164758837 -0.026041780726680189 0 0.042331576399887397 -0.03102865424841764 0 0.046764471385294173 -0.025233846934283571 0 0.039175019164758837 -0.026041780726680189 0 0.042331576399887397 -0.03102865424841764 0 0.04922783105997814 -0.034902257756998643 0 0.046764471385294173 -0.025233846934283571 0 0.054405941602567259 -0.02719961616040038 0 0.060973294691642567 -0.033847017704080093 0 0.054405941602567259 -0.02719961616040038 0 0.062498093270746791 -0.023733181302404451 0 0.054405941602567259 -0.02719961616040038 0 0.062498093270746791 -0.023733181302404451 0 0.053497723039192653 -0.016452305585805831 0 0.042445774802912312 -0.016315126131898051 0 0.046764471385294173 -0.025233846934283571 0 0.053497723039192653 -0.016452305585805831 0 0.046764471385294173 -0.025233846934283571 0 0.054405941602567259 -0.02719961616040038 0 0.053497723039192653 -0.016452305585805831 0 0.042445774802912312 -0.016315126131898051 0 0.053497723039192653 -0.016452305585805831 0 0.047625854666841223 -0.00042499582266109989 0 0.053497723039192653 -0.016452305585805831 0 0.047625854666841223 -0.00042499582266109989 0 0.067246202506794167 -0.00580706716318748 0 0.062498093270746791 -0.023733181302404451 0 0.053497723039192653 -0.016452305585805831 0 0.067246202506794167 -0.00580706716318748 0 0.029619442959373431 -0.01581465261299133 0 0.047625854666841223 -0.00042499582266109989 0 0.033112655901409799 -0.00063324611952645087 0 0.029619442959373431 -0.01581465261299133 0 0.042445774802912312 -0.016315126131898051 0 0.047625854666841223 -0.00042499582266109989 0 0.029619442959373431 -0.01581465261299133 0 0.047625854666841223 -0.00042499582266109989 0 0.086474162963314449 -0.0049404096715552834 0 0.067246202506794167 -0.00580706716318748 0 0.078888699550349273 -0.03028260178149747 0 0.062498093270746791 -0.023733181302404451 0 0.067246202506794167 -0.00580706716318748 0 0.078888699550349273 -0.03028260178149747 0 0.060973294691642567 -0.033847017704080093 0 0.062498093270746791 -0.023733181302404451 0 0.078888699550349273 -0.03028260178149747 0 0.086474162963314449 -0.0049404096715552834 0 0.078888699550349273 -0.03028260178149747 0 0.078888699550349273 -0.03028260178149747 0 0.095568109227554196 -0.034714674530584293 0 0.096889902256702728 -0.021789167287949759 0 0.086474162963314449 -0.0049404096715552834 0 0.078888699550349273 -0.03028260178149747 0 0.096889902256702728 -0.021789167287949759 0 0.078888699550349273 -0.03028260178149747 0 0.086939098218991387 -0.045734952924526583 0 0.071303236137384068 -0.05562479389143974 0 0.078888699550349273 -0.03028260178149747 0 0.086939098218991387 -0.045734952924526583 0 0.095568109227554196 -0.034714674530584293 0 0.086939098218991387 -0.045734952924526583 0 0.092714568979586257 -0.047939025797645612 0 0.096620373240606766 -0.042630396851778642 0 0.086939098218991387 -0.045734952924526583 0 0.096620373240606766 -0.042630396851778642 0 0.095568109227554196 -0.034714674530584293 0 0.078888699550349273 -0.03028260178149747 0 0.071303236137384068 -0.05562479389143974 0 0.060973294691642567 -0.033847017704080093 0 0.078888699550349273 -0.03028260178149747 0 0.065378576843365288 -0.042497674993408917 0 0.078888699550349273 -0.03028260178149747 0 0.065378576843365288 -0.042497674993408917 0 0.071303236137384068 -0.05562479389143974 0 0.061751219914910331 -0.050924584166970689 0 0.065378576843365288 -0.042497674993408917 0 0.071303236137384068 -0.05562479389143974 0 0.062087838556348252 -0.060290579237654032 0 0.071303236137384068 -0.05562479389143974 0 0.076986109556112903 -0.064645565696383994 0 0.062087838556348252 -0.060290579237654032 0 0.061751219914910331 -0.050924584166970689 0 0.071303236137384068 -0.05562479389143974 0 0.071303236137384068 -0.05562479389143974 0 0.08471694216096172 -0.056442288923182787 0 0.076986109556112903 -0.064645565696383994 0 0.08471694216096172 -0.056442288923182787 0 0.076986109556112903 -0.064645565696383994 0 0.08491741187960937 -0.064682025645731347 0 0.086939098218991387 -0.045734952924526583 0 0.071303236137384068 -0.05562479389143974 0 0.08471694216096172 -0.056442288923182787 0 0.086939098218991387 -0.045734952924526583 0 0.08471694216096172 -0.056442288923182787 0 0.089345773585306154 -0.051583738617714578 0 0.089345773585306154 -0.051583738617714578 0 0.092714568979586257 -0.047939025797645612 0 0.093012484981685309 -0.056218686825503343 0 0.086939098218991387 -0.045734952924526583 0 0.089345773585306154 -0.051583738617714578 0 0.092714568979586257 -0.047939025797645612 0 0.08471694216096172 -0.056442288923182787 0 0.08491741187960937 -0.064682025645731347 0 0.092906325173949422 -0.064187837867481307 0 0.08471694216096172 -0.056442288923182787 0 0.093012484981685309 -0.056218686825503343 0 0.092906325173949422 -0.064187837867481307 0 0.08471694216096172 -0.056442288923182787 0 0.089345773585306154 -0.051583738617714578 0 0.093012484981685309 -0.056218686825503343 0 0.10540541081100981 -0.055528552984275177 0 0.1084590367521501 -0.046700099628400153 0 0.1088225070008305 -0.063606515119414703 0 0.093012484981685309 -0.056218686825503343 0 0.097604106350264563 -0.059801278735140379 0 0.092906325173949422 -0.064187837867481307 0 0.093012484981685309 -0.056218686825503343 0 0.1010129291273293 -0.055630906790865679 0 0.097604106350264563 -0.059801278735140379 0 0.1010129291273293 -0.055630906790865679 0 0.097604106350264563 -0.059801278735140379 0 0.102781022784479 -0.060036952855810607 0 0.097604106350264563 -0.059801278735140379 0 0.102781022784479 -0.060036952855810607 0 0.101060160632961 -0.065617510649357086 0 0.093012484981685309 -0.056218686825503343 0 0.1010129291273293 -0.055630906790865679 0 0.098941163707847835 -0.049368373869400399 0 0.092714568979586257 -0.047939025797645612 0 0.093012484981685309 -0.056218686825503343 0 0.098941163707847835 -0.049368373869400399 0 0.1010129291273293 -0.055630906790865679 0 0.098941163707847835 -0.049368373869400399 0 0.10388528328074061 -0.050690793598339848 0 0.10388528328074061 -0.050690793598339848 0 0.10540541081100981 -0.055528552984275177 0 0.1084590367521501 -0.046700099628400153 0 0.1010129291273293 -0.055630906790865679 0 0.10388528328074061 -0.050690793598339848 0 0.10540541081100981 -0.055528552984275177 0 0.10388528328074061 -0.050690793598339848 0 0.1084590367521501 -0.046700099628400153 0 0.1035360403338005 -0.044690386083755237 0 0.098941163707847835 -0.049368373869400399 0 0.10388528328074061 -0.050690793598339848 0 0.1035360403338005 -0.044690386083755237 0 0.10540541081100981 -0.055528552984275177 0 0.102781022784479 -0.060036952855810607 0 0.1088225070008305 -0.063606515119414703 0 0.1010129291273293 -0.055630906790865679 0 0.10540541081100981 -0.055528552984275177 0 0.102781022784479 -0.060036952855810607 0 0.1125864481803034 -0.058497836344225423 0 0.1112180588535724 -0.035968238894941537 0 0.1088225070008305 -0.063606515119414703 0 0.1112180588535724 -0.035968238894941537 0 0.1088225070008305 -0.063606515119414703 0 0.1112180588535724 -0.035968238894941537 0 0.1084590367521501 -0.046700099628400153 0 0.1088225070008305 -0.063606515119414703 0 0.1125864481803034 -0.058497836344225423 0 0.1239275529706365 -0.060038457070599141 0 0.1186823459305789 -0.066930060893678284 0 0.1125864481803034 -0.058497836344225423 0 0.1239275529706365 -0.060038457070599141 0 0.12355870438743941 -0.048491440851528449 0 0.1125864481803034 -0.058497836344225423 0 0.12285869982271171 -0.031848542554521769 0 0.12355870438743941 -0.048491440851528449 0 0.12285869982271171 -0.031848542554521769 0 0.12794012008094391 -0.041981424138082722 0 0.1125864481803034 -0.058497836344225423 0 0.1132825410878851 -0.037624804170177183 0 0.12285869982271171 -0.031848542554521769 0 0.1125864481803034 -0.058497836344225423 0 0.12355870438743941 -0.048491440851528449 0 0.12285869982271171 -0.031848542554521769 0 0.1125864481803034 -0.058497836344225423 0 0.1132825410878851 -0.037624804170177183 0 0.1112180588535724 -0.035968238894941537 0 0.1132825410878851 -0.037624804170177183 0 0.1112180588535724 -0.035968238894941537 0 0.1230630385710916 -0.02187651922450019 0 0.1112180588535724 -0.035968238894941537 0 0.1058134681203677 -0.03371398884809159 0 0.1058044590480324 -0.027527367245648051 0 0.1058134681203677 -0.03371398884809159 0 0.10281470609978299 -0.036252597985207947 0 0.10139842039803711 -0.031153433879001938 0 0.1058134681203677 -0.03371398884809159 0 0.10281470609978299 -0.036252597985207947 0 0.1064878905882697 -0.037628463835883391 0 0.10281470609978299 -0.036252597985207947 0 0.1064878905882697 -0.037628463835883391 0 0.10467482631844161 -0.040761914173163993 0 0.10281470609978299 -0.036252597985207947 0 0.10467482631844161 -0.040761914173163993 0 0.1004893586401823 -0.039991837056468887 0 0.1112180588535724 -0.035968238894941537 0 0.1064878905882697 -0.037628463835883391 0 0.10779844163460379 -0.041091077130750893 0 0.1112180588535724 -0.035968238894941537 0 0.1058134681203677 -0.03371398884809159 0 0.1064878905882697 -0.037628463835883391 0 0.1112180588535724 -0.035968238894941537 0 0.10779844163460379 -0.041091077130750893 0 0.1084590367521501 -0.046700099628400153 0 0.10779844163460379 -0.041091077130750893 0 0.106117086259749 -0.043310869254017573 0 0.10467482631844161 -0.040761914173163993 0 0.1064878905882697 -0.037628463835883391 0 0.10779844163460379 -0.041091077130750893 0 0.10467482631844161 -0.040761914173163993 0 0.10779844163460379 -0.041091077130750893 0 0.1084590367521501 -0.046700099628400153 0 0.106117086259749 -0.043310869254017573 0 0.1084590367521501 -0.046700099628400153 0 0.106117086259749 -0.043310869254017573 0 0.1035360403338005 -0.044690386083755237 0 0.1035360403338005 -0.044690386083755237 0 0.10467482631844161 -0.040761914173163993 0 0.1004893586401823 -0.039991837056468887 0 0.106117086259749 -0.043310869254017573 0 0.1035360403338005 -0.044690386083755237 0 0.10467482631844161 -0.040761914173163993 0 0.1004893586401823 -0.039991837056468887 0 0.096620373240606766 -0.042630396851778642 0 0.095568109227554196 -0.034714674530584293 0 0.1035360403338005 -0.044690386083755237 0 0.1004893586401823 -0.039991837056468887 0 0.096620373240606766 -0.042630396851778642 0 0.098941163707847835 -0.049368373869400399 0 0.1035360403338005 -0.044690386083755237 0 0.096620373240606766 -0.042630396851778642 0 0.092714568979586257 -0.047939025797645612 0 0.098941163707847835 -0.049368373869400399 0 0.096620373240606766 -0.042630396851778642 0 0.10281470609978299 -0.036252597985207947 0 0.095568109227554196 -0.034714674530584293 0 0.10139842039803711 -0.031153433879001938 0 0.10281470609978299 -0.036252597985207947 0 0.1004893586401823 -0.039991837056468887 0 0.095568109227554196 -0.034714674530584293 0 0.1112180588535724 -0.035968238894941537 0 0.1068222402808051 -0.018665612336189411 0 0.1058044590480324 -0.027527367245648051 0 0.095568109227554196 -0.034714674530584293 0 0.10139842039803711 -0.031153433879001938 0 0.096889902256702728 -0.021789167287949759 0 0.10139842039803711 -0.031153433879001938 0 0.096889902256702728 -0.021789167287949759 0 0.1058044590480324 -0.027527367245648051 0 0.096889902256702728 -0.021789167287949759 0 0.1068222402808051 -0.018665612336189411 0 0.1058044590480324 -0.027527367245648051 0 0.1058134681203677 -0.03371398884809159 0 0.10139842039803711 -0.031153433879001938 0 0.1058044590480324 -0.027527367245648051 0 0.1112180588535724 -0.035968238894941537 0 0.1136136107063144 -0.0083299626704685381 0 0.1132825410878851 -0.037624804170177183 0 0.12285869982271171 -0.031848542554521769 0 0.1230630385710916 -0.02187651922450019 0 0.1112180588535724 -0.035968238894941537 0 0.1068222402808051 -0.018665612336189411 0 0.1136136107063144 -0.0083299626704685381 0 0.1112180588535724 -0.035968238894941537 0 0.1230630385710916 -0.02187651922450019 0 0.1136136107063144 -0.0083299626704685381 0 0.1132825410878851 -0.037624804170177183 0 0.1230630385710916 -0.02187651922450019 0 0.1230630385710916 -0.02187651922450019 0 0.1195207288501979 -0.001194353383229735 0 0.1136136107063144 -0.0083299626704685381 0 0.1230630385710916 -0.02187651922450019 0 0.1195207288501979 -0.001194353383229735 0 0.10220168048510241 0.0069554238602353618 0 0.086474162963314449 -0.0049404096715552834 0 0.10039190820330959 -0.0063679837567867754 0 0.086474162963314449 -0.0049404096715552834 0 0.096889902256702728 -0.021789167287949759 0 0.10039190820330959 -0.0063679837567867754 0 0.10805409048844559 0.002891447746746191 0 0.1136136107063144 -0.0083299626704685381 0 0.10039190820330959 -0.0063679837567867754 0 0.1068222402808051 -0.018665612336189411 0 0.1136136107063144 -0.0083299626704685381 0 0.10039190820330959 -0.0063679837567867754 0 0.096889902256702728 -0.021789167287949759 0 0.1068222402808051 -0.018665612336189411 0 0.10039190820330959 -0.0063679837567867754 0 0.081225209343131044 -0.107245690121906 0 0.093464652965053047 -0.1125437677457209 0 0.08682701721610972 -0.092328793225390449 0 0.094015080548003463 -0.13780940324308391 0 0.093464652965053047 -0.1125437677457209 0 0.079942240815175022 -0.1211037954033153 0 0.081225209343131044 -0.107245690121906 0 0.093464652965053047 -0.1125437677457209 0 0.079942240815175022 -0.1211037954033153 0 0.079942240815175022 -0.1211037954033153 0 0.06586940108234654 -0.1043981875635467 0 0.081225209343131044 -0.107245690121906 0 0.079942240815175022 -0.1211037954033153 0 0.06586940108234654 -0.1043981875635467 0 0.062365147829615497 -0.12512687266881559 0 0.079942240815175022 -0.1211037954033153 0 0.06586940108234654 -0.1043981875635467 0 0.06586940108234654 -0.1043981875635467 0 0.08682701721610972 -0.092328793225390449 0 0.081225209343131044 -0.107245690121906 0 0.06586940108234654 -0.1043981875635467 0 0.08682701721610972 -0.092328793225390449 0 0.06586940108234654 -0.1043981875635467 0 0.068505901214343731 -0.090931965975797058 0 0.08682701721610972 -0.092328793225390449 0 0.056490132814748607 -0.093264231625928298 0 0.06586940108234654 -0.1043981875635467 0 0.068505901214343731 -0.090931965975797058 0 0.068505901214343731 -0.090931965975797058 0 0.072260996631235336 -0.080628025604377845 0 0.08682701721610972 -0.092328793225390449 0 0.056256642777386019 -0.074936926558454769 0 0.061245248491016591 -0.085077997778888234 0 0.072260996631235336 -0.080628025604377845 0 0.061245248491016591 -0.085077997778888234 0 0.068505901214343731 -0.090931965975797058 0 0.072260996631235336 -0.080628025604377845 0 0.056256642777386019 -0.074936926558454769 0 0.062087838556348252 -0.060290579237654032 0 0.076986109556112903 -0.064645565696383994 0 0.056256642777386019 -0.074936926558454769 0 0.076986109556112903 -0.064645565696383994 0 0.072260996631235336 -0.080628025604377845 0 0.076986109556112903 -0.064645565696383994 0 0.085060270627413476 -0.073452410095877302 0 0.056256642777386019 -0.074936926558454769 0 0.072260996631235336 -0.080628025604377845 0 0.076986109556112903 -0.064645565696383994 0 0.076986109556112903 -0.064645565696383994 0 0.08491741187960937 -0.064682025645731347 0 0.085060270627413476 -0.073452410095877302 0 0.085060270627413476 -0.073452410095877302 0 0.092906325173949422 -0.064187837867481307 0 0.096435368742760652 -0.074521828618838437 0 0.08491741187960937 -0.064682025645731347 0 0.085060270627413476 -0.073452410095877302 0 0.092906325173949422 -0.064187837867481307 0 0.085060270627413476 -0.073452410095877302 0 0.08682701721610972 -0.092328793225390449 0 0.096435368742760652 -0.074521828618838437 0 0.072260996631235336 -0.080628025604377845 0 0.085060270627413476 -0.073452410095877302 0 0.08682701721610972 -0.092328793225390449 0 0.08682701721610972 -0.092328793225390449 0 0.1077846333498728 -0.080259398887233949 0 0.096435368742760652 -0.074521828618838437 0 0.08682701721610972 -0.092328793225390449 0 0.1077846333498728 -0.080259398887233949 0 0.1065731131521947 -0.1007201651840629 0 0.08682701721610972 -0.092328793225390449 0 0.1077846333498728 -0.080259398887233949 0 0.092906325173949422 -0.064187837867481307 0 0.101060160632961 -0.065617510649357086 0 0.096435368742760652 -0.074521828618838437 0 0.101060160632961 -0.065617510649357086 0 0.096435368742760652 -0.074521828618838437 0 0.10503098302135901 -0.070760683409192587 0 0.097604106350264563 -0.059801278735140379 0 0.092906325173949422 -0.064187837867481307 0 0.101060160632961 -0.065617510649357086 0 0.1077846333498728 -0.080259398887233949 0 0.096435368742760652 -0.074521828618838437 0 0.10503098302135901 -0.070760683409192587 0 0.1077846333498728 -0.080259398887233949 0 0.10503098302135901 -0.070760683409192587 0 0.11309735250795 -0.071104613545411421 0 0.10503098302135901 -0.070760683409192587 0 0.1088225070008305 -0.063606515119414703 0 0.11309735250795 -0.071104613545411421 0 0.101060160632961 -0.065617510649357086 0 0.10503098302135901 -0.070760683409192587 0 0.1088225070008305 -0.063606515119414703 0 0.102781022784479 -0.060036952855810607 0 0.101060160632961 -0.065617510649357086 0 0.1088225070008305 -0.063606515119414703 0 0.1077846333498728 -0.080259398887233949 0 0.11309735250795 -0.071104613545411421 0 0.12516629323710879 -0.073966409417537612 0 0.1088225070008305 -0.063606515119414703 0 0.11309735250795 -0.071104613545411421 0 0.1186823459305789 -0.066930060893678284 0 0.1125864481803034 -0.058497836344225423 0 0.1088225070008305 -0.063606515119414703 0 0.1186823459305789 -0.066930060893678284 0 0.11309735250795 -0.071104613545411421 0 0.1186823459305789 -0.066930060893678284 0 0.12516629323710879 -0.073966409417537612 0 0.1239275529706365 -0.060038457070599141 0 0.1186823459305789 -0.066930060893678284 0 0.12516629323710879 -0.073966409417537612 0 0.1077846333498728 -0.080259398887233949 0 0.1172090002113676 -0.090528718087967947 0 0.1065731131521947 -0.1007201651840629 0 0.1172090002113676 -0.090528718087967947 0 0.13040143991463379 -0.088185077234152059 0 0.12516629323710879 -0.073966409417537612 0 0.1077846333498728 -0.080259398887233949 0 0.1172090002113676 -0.090528718087967947 0 0.12516629323710879 -0.073966409417537612 0 0.1172090002113676 -0.090528718087967947 0 0.12372937608558281 -0.1010128564370152 0 0.13040143991463379 -0.088185077234152059 0 0.12372937608558281 -0.1010128564370152 0 0.1065731131521947 -0.1007201651840629 0 0.11918908738559961 -0.1130177117198384 0 0.1172090002113676 -0.090528718087967947 0 0.12372937608558281 -0.1010128564370152 0 0.1065731131521947 -0.1007201651840629 0 0.093464652965053047 -0.1125437677457209 0 0.08682701721610972 -0.092328793225390449 0 0.1065731131521947 -0.1007201651840629 0 0.093464652965053047 -0.1125437677457209 0 0.1065731131521947 -0.1007201651840629 0 0.1073873758641825 -0.1201666012699093 0 0.094015080548003463 -0.13780940324308391 0 0.093464652965053047 -0.1125437677457209 0 0.1073873758641825 -0.1201666012699093 0 0.1065731131521947 -0.1007201651840629 0 0.1073873758641825 -0.1201666012699093 0 0.11918908738559961 -0.1130177117198384 0 0.1232538410946369 -0.1262028882071527 0 0.1073873758641825 -0.1201666012699093 0 0.11918908738559961 -0.1130177117198384 0 0.1232538410946369 -0.1262028882071527 0 0.11918908738559961 -0.1130177117198384 0 0.13491226590654251 -0.1121691464028081 0 0.1232538410946369 -0.1262028882071527 0 0.13491226590654251 -0.1121691464028081 0 0.14117768062442221 -0.12536355002619509 0 0.13491226590654251 -0.1121691464028081 0 0.14990907633014949 -0.11509919930156901 0 0.14117768062442221 -0.12536355002619509 0 0.14990907633014949 -0.11509919930156901 0 0.14935145079833981 -0.12347072094141889 0 0.14117768062442221 -0.12536355002619509 0 0.13491226590654251 -0.1121691464028081 0 0.14990907633014949 -0.11509919930156901 0 0.144328727269811 -0.1060130021044625 0 0.14990907633014949 -0.11509919930156901 0 0.15396644344151569 -0.1068801376705822 0 0.15768459853676881 -0.1224950316621085 0 0.14990907633014949 -0.11509919930156901 0 0.15768459853676881 -0.1224950316621085 0 0.14990907633014949 -0.11509919930156901 0 0.14935145079833981 -0.12347072094141889 0 0.15768459853676881 -0.1224950316621085 0 0.15396644344151569 -0.1068801376705822 0 0.14693736564738111 -0.095157825460230952 0 0.1643218810964783 -0.10255844224174721 0 0.14990907633014949 -0.11509919930156901 0 0.15396644344151569 -0.1068801376705822 0 0.144328727269811 -0.1060130021044625 0 0.15396644344151569 -0.1068801376705822 0 0.144328727269811 -0.1060130021044625 0 0.14693736564738111 -0.095157825460230952 0 0.144328727269811 -0.1060130021044625 0 0.14693736564738111 -0.095157825460230952 0 0.1356180652691151 -0.10101942838452491 0 0.12372937608558281 -0.1010128564370152 0 0.11918908738559961 -0.1130177117198384 0 0.13491226590654251 -0.1121691464028081 0 0.14693736564738111 -0.095157825460230952 0 0.1356180652691151 -0.10101942838452491 0 0.13040143991463379 -0.088185077234152059 0 0.13491226590654251 -0.1121691464028081 0 0.144328727269811 -0.1060130021044625 0 0.1356180652691151 -0.10101942838452491 0 0.12372937608558281 -0.1010128564370152 0 0.13491226590654251 -0.1121691464028081 0 0.1356180652691151 -0.10101942838452491 0 0.12372937608558281 -0.1010128564370152 0 0.1356180652691151 -0.10101942838452491 0 0.13040143991463379 -0.088185077234152059 0 0.14693736564738111 -0.095157825460230952 0 0.13040143991463379 -0.088185077234152059 0 0.1405761051995856 -0.07613947036937084 0 0.13040143991463379 -0.088185077234152059 0 0.12516629323710879 -0.073966409417537612 0 0.1405761051995856 -0.07613947036937084 0 0.1239275529706365 -0.060038457070599141 0 0.12516629323710879 -0.073966409417537612 0 0.13382238634581189 -0.063470212395642475 0 0.12516629323710879 -0.073966409417537612 0 0.1405761051995856 -0.07613947036937084 0 0.13382238634581189 -0.063470212395642475 0 0.15664158026780239 -0.079837111606119407 0 0.14896127943912699 -0.057115780970491623 0 0.1405761051995856 -0.07613947036937084 0 0.13382238634581189 -0.063470212395642475 0 0.14896127943912699 -0.057115780970491623 0 0.1405761051995856 -0.07613947036937084 0 0.15664158026780239 -0.079837111606119407 0 0.14896127943912699 -0.057115780970491623 0 0.14693736564738111 -0.095157825460230952 0 0.1405761051995856 -0.07613947036937084 0 0.15664158026780239 -0.079837111606119407 0 0.14693736564738111 -0.095157825460230952 0 0.15664158026780239 -0.079837111606119407 0 0.1643218810964783 -0.10255844224174721 0 0.15664158026780239 -0.079837111606119407 0 0.17234351998299 -0.078463623387796361 0 0.1643218810964783 -0.10255844224174721 0 0.15664158026780239 -0.079837111606119407 0 0.1643218810964783 -0.10255844224174721 0 0.17234351998299 -0.078463623387796361 0 0.1643218810964783 -0.10255844224174721 0 0.15664158026780239 -0.079837111606119407 0 0.163672416289282 -0.065304505981310532 0 0.14896127943912699 -0.057115780970491623 0 0.15664158026780239 -0.079837111606119407 0 0.163672416289282 -0.065304505981310532 0 0.17234351998299 -0.078463623387796361 0 0.163672416289282 -0.065304505981310532 0 0.17234351998299 -0.078463623387796361 0 0.1742129568646956 -0.053876359851595432 0 0.18527250641886359 -0.069771380970675256 0 0.17234351998299 -0.078463623387796361 0 0.1803651588694993 -0.054368804533844697 0 0.17234351998299 -0.078463623387796361 0 0.1803651588694993 -0.054368804533844697 0 0.17234351998299 -0.078463623387796361 0 0.1832231835567821 -0.1026134226748763 0 0.1882415137259946 -0.087468354533236398 0 0.18527250641886359 -0.069771380970675256 0 0.17234351998299 -0.078463623387796361 0 0.1882415137259946 -0.087468354533236398 0 0.1832231835567821 -0.1026134226748763 0 0.17086070993130231 -0.1219028527329503 0 0.1643218810964783 -0.10255844224174721 0 0.17234351998299 -0.078463623387796361 0 0.1832231835567821 -0.1026134226748763 0 0.1643218810964783 -0.10255844224174721 0 0.1832231835567821 -0.1026134226748763 0 0.17086070993130231 -0.1219028527329503 0 0.19059246394201981 -0.1200190529176364 0 0.17086070993130231 -0.1219028527329503 0 0.15768459853676881 -0.1224950316621085 0 0.1643218810964783 -0.10255844224174721 0 0.15768459853676881 -0.1224950316621085 0 0.1643218810964783 -0.10255844224174721 0 0.17086070993130231 -0.1219028527329503 0 0.1643218810964783 -0.10255844224174721 0 0.15396644344151569 -0.1068801376705822 0 0.15768459853676881 -0.1224950316621085 0 0.1643218810964783 -0.10255844224174721 0 0.15442804697685361 0.0026242170640909351 0 0.1508932242351686 -0.010456701863164089 0 0.13313095146512011 -0.0051992487648181377 0 0.1508932242351686 -0.010456701863164089 0 0.13313095146512011 -0.0051992487648181377 0 0.14396455399932129 -0.022824666290821499 0 0.1230630385710916 -0.02187651922450019 0 0.13313095146512011 -0.0051992487648181377 0 0.1230630385710916 -0.02187651922450019 0 0.1195207288501979 -0.001194353383229735 0 0.13313095146512011 -0.0051992487648181377 0 0.12285869982271171 -0.031848542554521769 0 0.1230630385710916 -0.02187651922450019 0 0.13313095146512011 -0.0051992487648181377 0 0.12285869982271171 -0.031848542554521769 0 0.13313095146512011 -0.0051992487648181377 0 0.12285869982271171 -0.031848542554521769 0 0.13313095146512011 -0.0051992487648181377 0 0.13426860700096241 -0.024421948341877601 0 0.13313095146512011 -0.0051992487648181377 0 0.13426860700096241 -0.024421948341877601 0 0.14396455399932129 -0.022824666290821499 0 0.13426860700096241 -0.024421948341877601 0 0.14396455399932129 -0.022824666290821499 0 0.13712022271669649 -0.037815335757348967 0 0.14396455399932129 -0.022824666290821499 0 0.15665611460449419 -0.037263331669159003 0 0.1588365760783981 -0.020875367891168829 0 0.1508932242351686 -0.010456701863164089 0 0.14396455399932129 -0.022824666290821499 0 0.1588365760783981 -0.020875367891168829 0 0.13712022271669649 -0.037815335757348967 0 0.14896127943912699 -0.057115780970491623 0 0.15665611460449419 -0.037263331669159003 0 0.14396455399932129 -0.022824666290821499 0 0.13712022271669649 -0.037815335757348967 0 0.15665611460449419 -0.037263331669159003 0 0.12285869982271171 -0.031848542554521769 0 0.13426860700096241 -0.024421948341877601 0 0.13712022271669649 -0.037815335757348967 0 0.12285869982271171 -0.031848542554521769 0 0.13712022271669649 -0.037815335757348967 0 0.12794012008094391 -0.041981424138082722 0 0.12355870438743941 -0.048491440851528449 0 0.12794012008094391 -0.041981424138082722 0 0.13048070088260161 -0.050090944150213208 0 0.13712022271669649 -0.037815335757348967 0 0.12794012008094391 -0.041981424138082722 0 0.13048070088260161 -0.050090944150213208 0 0.13382238634581189 -0.063470212395642475 0 0.13048070088260161 -0.050090944150213208 0 0.14896127943912699 -0.057115780970491623 0 0.13712022271669649 -0.037815335757348967 0 0.13048070088260161 -0.050090944150213208 0 0.14896127943912699 -0.057115780970491623 0 0.1239275529706365 -0.060038457070599141 0 0.12355870438743941 -0.048491440851528449 0 0.13048070088260161 -0.050090944150213208 0 0.1239275529706365 -0.060038457070599141 0 0.13382238634581189 -0.063470212395642475 0 0.13048070088260161 -0.050090944150213208 0 0.14896127943912699 -0.057115780970491623 0 0.1620684744382524 -0.049593170218978411 0 0.15665611460449419 -0.037263331669159003 0 0.163672416289282 -0.065304505981310532 0 0.14896127943912699 -0.057115780970491623 0 0.1647545075980793 -0.05695370662883123 0 0.14896127943912699 -0.057115780970491623 0 0.1620684744382524 -0.049593170218978411 0 0.1647545075980793 -0.05695370662883123 0 0.1620684744382524 -0.049593170218978411 0 0.1742129568646956 -0.053876359851595432 0 0.17193076245573199 -0.041312503464699217 0 0.1620684744382524 -0.049593170218978411 0 0.1647545075980793 -0.05695370662883123 0 0.1742129568646956 -0.053876359851595432 0 0.163672416289282 -0.065304505981310532 0 0.1647545075980793 -0.05695370662883123 0 0.1742129568646956 -0.053876359851595432 0 0.17234351998299 -0.078463623387796361 0 0.1803651588694993 -0.054368804533844697 0 0.1742129568646956 -0.053876359851595432 0 0.18527250641886359 -0.069771380970675256 0 0.1803651588694993 -0.054368804533844697 0 0.19004426646347269 -0.055143555600187702 0 0.1803651588694993 -0.054368804533844697 0 0.19004426646347269 -0.055143555600187702 0 0.18470016593416011 -0.041347623771242098 0 0.19004426646347269 -0.055143555600187702 0 0.1803651588694993 -0.054368804533844697 0 0.18470016593416011 -0.041347623771242098 0 0.19004426646347269 -0.055143555600187702 0 0.1803651588694993 -0.054368804533844697 0 0.18470016593416011 -0.041347623771242098 0 0.1803651588694993 -0.054368804533844697 0 0.1778815261240288 -0.046720767269230412 0 0.18470016593416011 -0.041347623771242098 0 0.1742129568646956 -0.053876359851595432 0 0.17193076245573199 -0.041312503464699217 0 0.1778815261240288 -0.046720767269230412 0 0.1803651588694993 -0.054368804533844697 0 0.1742129568646956 -0.053876359851595432 0 0.1803651588694993 -0.054368804533844697 0 0.1742129568646956 -0.053876359851595432 0 0.1778815261240288 -0.046720767269230412 0 0.18470016593416011 -0.041347623771242098 0 0.1813443183901251 -0.032684417738368672 0 0.19156535553142781 -0.020726463671114331 0 0.17193076245573199 -0.041312503464699217 0 0.1778815261240288 -0.046720767269230412 0 0.18470016593416011 -0.041347623771242098 0 0.18470016593416011 -0.041347623771242098 0 0.1813443183901251 -0.032684417738368672 0 0.17193076245573199 -0.041312503464699217 0 0.18470016593416011 -0.041347623771242098 0 0.1813443183901251 -0.032684417738368672 0 0.17193076245573199 -0.041312503464699217 0 0.1813443183901251 -0.032684417738368672 0 0.1701864333848252 -0.02946295010639411 0 0.17193076245573199 -0.041312503464699217 0 0.15665611460449419 -0.037263331669159003 0 0.1701864333848252 -0.02946295010639411 0 0.1620684744382524 -0.049593170218978411 0 0.17193076245573199 -0.041312503464699217 0 0.15665611460449419 -0.037263331669159003 0 0.15665611460449419 -0.037263331669159003 0 0.1588365760783981 -0.020875367891168829 0 0.1701864333848252 -0.02946295010639411 0 0.1588365760783981 -0.020875367891168829 0 0.1710099233348529 -0.018126130746514282 0 0.1701864333848252 -0.02946295010639411 0 0.1813443183901251 -0.032684417738368672 0 0.1701864333848252 -0.02946295010639411 0 0.17951936230073781 -0.02217674305070988 0 0.1813443183901251 -0.032684417738368672 0 0.17951936230073781 -0.02217674305070988 0 0.19156535553142781 -0.020726463671114331 0 0.17951936230073781 -0.02217674305070988 0 0.18020218697840479 -0.0098716046664614754 0 0.19156535553142781 -0.020726463671114331 0 0.1710099233348529 -0.018126130746514282 0 0.1701864333848252 -0.02946295010639411 0 0.17951936230073781 -0.02217674305070988 0 0.1710099233348529 -0.018126130746514282 0 0.17951936230073781 -0.02217674305070988 0 0.18020218697840479 -0.0098716046664614754 0 0.18020218697840479 -0.0098716046664614754 0 0.18615534909213211 -0.001758144403956826 0 0.19156535553142781 -0.020726463671114331 0 0.1710099233348529 -0.018126130746514282 0 0.18020218697840479 -0.0098716046664614754 0 0.16596048227959651 -0.0062121719888348784 0 0.18122158466829291 0.0053566078110054913 0 0.18020218697840479 -0.0098716046664614754 0 0.18615534909213211 -0.001758144403956826 0 0.18122158466829291 0.0053566078110054913 0 0.18020218697840479 -0.0098716046664614754 0 0.16596048227959651 -0.0062121719888348784 0 0.1588365760783981 -0.020875367891168829 0 0.1710099233348529 -0.018126130746514282 0 0.16596048227959651 -0.0062121719888348784 0 0.1508932242351686 -0.010456701863164089 0 0.1588365760783981 -0.020875367891168829 0 0.16596048227959651 -0.0062121719888348784 0 0.15442804697685361 0.0026242170640909351 0 0.1508932242351686 -0.010456701863164089 0 0.16596048227959651 -0.0062121719888348784 0 0.20742706641989289 -0.0051724740842133878 0 0.1989071208745074 -0.014237188809931399 0 0.21913323028029039 -0.0085348936011971424 0 0.1989071208745074 -0.014237188809931399 0 0.21913323028029039 -0.0085348936011971424 0 0.22540120711002931 -0.009367858496485134 0 0.1989071208745074 -0.014237188809931399 0 0.22540120711002931 -0.009367858496485134 0 0.1989071208745074 -0.014237188809931399 0 0.21325331666021219 -0.017783026863289388 0 0.22540120711002931 -0.009367858496485134 0 0.2132373693960779 0.002187489645264109 0 0.20742706641989289 -0.0051724740842133878 0 0.21913323028029039 -0.0085348936011971424 0 0.2132373693960779 0.002187489645264109 0 0.21913323028029039 -0.0085348936011971424 0 0.2132373693960779 0.002187489645264109 0 0.20742706641989289 -0.0051724740842133878 0 0.19843054512869701 -0.0001053035709871271 0 0.18615534909213211 -0.001758144403956826 0 0.19481376673693221 -0.00066535107419350009 0 0.19156535553142781 -0.020726463671114331 0 0.20742706641989289 -0.0051724740842133878 0 0.19843054512869701 -0.0001053035709871271 0 0.1989071208745074 -0.014237188809931399 0 0.19843054512869701 -0.0001053035709871271 0 0.19156535553142781 -0.020726463671114331 0 0.19843054512869701 -0.0001053035709871271 0 0.1989071208745074 -0.014237188809931399 0 0.19156535553142781 -0.020726463671114331 0 0.19843054512869701 -0.0001053035709871271 0 0.19481376673693221 -0.00066535107419350009 0 0.19156535553142781 -0.020726463671114331 0 0.19843054512869701 -0.0001053035709871271 0 0.19481376673693221 -0.00066535107419350009 0 0.20178801628416629 -0.019873614297162601 0 0.19156535553142781 -0.020726463671114331 0 0.20342627207051761 -0.026747777844315271 0 0.18470016593416011 -0.041347623771242098 0 0.19156535553142781 -0.020726463671114331 0 0.1989071208745074 -0.014237188809931399 0 0.20178801628416629 -0.019873614297162601 0 0.19156535553142781 -0.020726463671114331 0 0.19156535553142781 -0.020726463671114331 0 0.20342627207051761 -0.026747777844315271 0 0.1949428569659214 -0.035491595293360947 0 0.21325331666021219 -0.017783026863289388 0 0.21502190165863341 -0.03426019879499223 0 0.22383863900270659 -0.02438903546542957 0 0.20342627207051761 -0.026747777844315271 0 0.21325331666021219 -0.017783026863289388 0 0.21502190165863341 -0.03426019879499223 0 0.1989071208745074 -0.014237188809931399 0 0.20178801628416629 -0.019873614297162601 0 0.21325331666021219 -0.017783026863289388 0 0.20178801628416629 -0.019873614297162601 0 0.20342627207051761 -0.026747777844315271 0 0.21325331666021219 -0.017783026863289388 0 0.20342627207051761 -0.026747777844315271 0 0.21502190165863341 -0.03426019879499223 0 0.20197691791958691 -0.042588197697689213 0 0.21502190165863341 -0.03426019879499223 0 0.20197691791958691 -0.042588197697689213 0 0.214681209931881 -0.057115586393128533 0 0.18470016593416011 -0.041347623771242098 0 0.19156535553142781 -0.020726463671114331 0 0.1949428569659214 -0.035491595293360947 0 0.20342627207051761 -0.026747777844315271 0 0.1949428569659214 -0.035491595293360947 0 0.20197691791958691 -0.042588197697689213 0 0.18470016593416011 -0.041347623771242098 0 0.1949428569659214 -0.035491595293360947 0 0.1929160518207847 -0.04364274309062019 0 0.18470016593416011 -0.041347623771242098 0 0.1929160518207847 -0.04364274309062019 0 0.19004426646347269 -0.055143555600187702 0 0.1949428569659214 -0.035491595293360947 0 0.1929160518207847 -0.04364274309062019 0 0.20197691791958691 -0.042588197697689213 0 0.19004426646347269 -0.055143555600187702 0 0.214681209931881 -0.057115586393128533 0 0.19004426646347269 -0.055143555600187702 0 0.214681209931881 -0.057115586393128533 0 0.19777274892509861 -0.075094830206079516 0 0.20197691791958691 -0.042588197697689213 0 0.19004426646347269 -0.055143555600187702 0 0.214681209931881 -0.057115586393128533 0 0.1929160518207847 -0.04364274309062019 0 0.20197691791958691 -0.042588197697689213 0 0.19004426646347269 -0.055143555600187702 0 0.214681209931881 -0.057115586393128533 0 0.23931815340028911 -0.059087617186071993 0 0.23162628563853449 -0.03863321691413598 0 0.214681209931881 -0.057115586393128533 0 0.23931815340028911 -0.059087617186071993 0 0.214681209931881 -0.057115586393128533 0 0.23931815340028911 -0.059087617186071993 0 0.22657701888052811 -0.070191217685032226 0 0.25250520716786889 -0.041593981443998583 0 0.23162628563853449 -0.03863321691413598 0 0.242664754692583 -0.02754164054495338 0 0.25250520716786889 -0.041593981443998583 0 0.23931815340028911 -0.059087617186071993 0 0.23162628563853449 -0.03863321691413598 0 0.21502190165863341 -0.03426019879499223 0 0.214681209931881 -0.057115586393128533 0 0.23162628563853449 -0.03863321691413598 0 0.21502190165863341 -0.03426019879499223 0 0.23162628563853449 -0.03863321691413598 0 0.22383863900270659 -0.02438903546542957 0 0.21325331666021219 -0.017783026863289388 0 0.22383863900270659 -0.02438903546542957 0 0.22270981553146771 -0.017369872625889751 0 0.22383863900270659 -0.02438903546542957 0 0.22270981553146771 -0.017369872625889751 0 0.2283460993529226 -0.017939569678354899 0 0.22383863900270659 -0.02438903546542957 0 0.2283460993529226 -0.017939569678354899 0 0.2337147445640301 -0.024395795910847781 0 0.2283460993529226 -0.017939569678354899 0 0.2337147445640301 -0.024395795910847781 0 0.23738593148010609 -0.01606958961852361 0 0.23162628563853449 -0.03863321691413598 0 0.22383863900270659 -0.02438903546542957 0 0.2337147445640301 -0.024395795910847781 0 0.23162628563853449 -0.03863321691413598 0 0.2337147445640301 -0.024395795910847781 0 0.242664754692583 -0.02754164054495338 0 0.25528276100525488 -0.02749201401586461 0 0.242664754692583 -0.02754164054495338 0 0.24991569469175129 -0.018573843336592691 0 0.242664754692583 -0.02754164054495338 0 0.24991569469175129 -0.018573843336592691 0 0.23738593148010609 -0.01606958961852361 0 0.2337147445640301 -0.024395795910847781 0 0.242664754692583 -0.02754164054495338 0 0.23738593148010609 -0.01606958961852361 0 0.23740048780557829 0.0059290775085717564 0 0.25189529334555122 -0.0044985281830388643 0 0.22540120711002931 -0.009367858496485134 0 0.25189529334555122 -0.0044985281830388643 0 0.22540120711002931 -0.009367858496485134 0 0.25189529334555122 -0.0044985281830388643 0 0.23738593148010609 -0.01606958961852361 0 0.22540120711002931 -0.009367858496485134 0 0.25189529334555122 -0.0044985281830388643 0 0.24991569469175129 -0.018573843336592691 0 0.23738593148010609 -0.01606958961852361 0 0.23740048780557829 0.0059290775085717564 0 0.2132373693960779 0.002187489645264109 0 0.22540120711002931 -0.009367858496485134 0 0.2283460993529226 -0.017939569678354899 0 0.23738593148010609 -0.01606958961852361 0 0.22540120711002931 -0.009367858496485134 0 0.22270981553146771 -0.017369872625889751 0 0.2283460993529226 -0.017939569678354899 0 0.22540120711002931 -0.009367858496485134 0 0.21325331666021219 -0.017783026863289388 0 0.22270981553146771 -0.017369872625889751 0 0.22540120711002931 -0.009367858496485134 0 0.2132373693960779 0.002187489645264109 0 0.21913323028029039 -0.0085348936011971424 0 0.22540120711002931 -0.009367858496485134 0 0.21011331425335561 -0.1069523143730509 0 0.19837101765896889 -0.10940668801622069 0 0.20206404566862171 -0.10234847517828689 0 0.21011331425335561 -0.1069523143730509 0 0.2055012313867243 -0.095046104811971344 0 0.20206404566862171 -0.10234847517828689 0 0.21011331425335561 -0.1069523143730509 0 0.2055012313867243 -0.095046104811971344 0 0.21011331425335561 -0.1069523143730509 0 0.2055012313867243 -0.095046104811971344 0 0.21439152299768061 -0.1015590367314865 0 0.2055012313867243 -0.095046104811971344 0 0.2011369350956079 -0.096583516925268717 0 0.2055012313867243 -0.095046104811971344 0 0.21439152299768061 -0.1015590367314865 0 0.2194912212406758 -0.096936795579006446 0 0.21011331425335561 -0.1069523143730509 0 0.21439152299768061 -0.1015590367314865 0 0.22246032510996691 -0.1073009321619172 0 0.21011331425335561 -0.1069523143730509 0 0.21669723448997871 -0.12477450118155831 0 0.19837101765896889 -0.10940668801622069 0 0.21669723448997871 -0.12477450118155831 0 0.19059246394201981 -0.1200190529176364 0 0.21011331425335561 -0.1069523143730509 0 0.21669723448997871 -0.12477450118155831 0 0.22246032510996691 -0.1073009321619172 0 0.21669723448997871 -0.12477450118155831 0 0.19059246394201981 -0.1200190529176364 0 0.19837101765896889 -0.10940668801622069 0 0.1832231835567821 -0.1026134226748763 0 0.19059246394201981 -0.1200190529176364 0 0.19837101765896889 -0.10940668801622069 0 0.1832231835567821 -0.1026134226748763 0 0.19837101765896889 -0.10940668801622069 0 0.19314261298887561 -0.1005282790394172 0 0.19837101765896889 -0.10940668801622069 0 0.20206404566862171 -0.10234847517828689 0 0.19314261298887561 -0.1005282790394172 0 0.20206404566862171 -0.10234847517828689 0 0.2011369350956079 -0.096583516925268717 0 0.19314261298887561 -0.1005282790394172 0 0.2055012313867243 -0.095046104811971344 0 0.20206404566862171 -0.10234847517828689 0 0.2011369350956079 -0.096583516925268717 0 0.2011369350956079 -0.096583516925268717 0 0.19314261298887561 -0.1005282790394172 0 0.1882415137259946 -0.087468354533236398 0 0.1832231835567821 -0.1026134226748763 0 0.19314261298887561 -0.1005282790394172 0 0.1882415137259946 -0.087468354533236398 0 0.2055012313867243 -0.095046104811971344 0 0.2011369350956079 -0.096583516925268717 0 0.19777274892509861 -0.075094830206079516 0 0.2055012313867243 -0.095046104811971344 0 0.19777274892509861 -0.075094830206079516 0 0.2011369350956079 -0.096583516925268717 0 0.1882415137259946 -0.087468354533236398 0 0.19777274892509861 -0.075094830206079516 0 0.19004426646347269 -0.055143555600187702 0 0.19777274892509861 -0.075094830206079516 0 0.18527250641886359 -0.069771380970675256 0 0.19004426646347269 -0.055143555600187702 0 0.19777274892509861 -0.075094830206079516 0 0.18527250641886359 -0.069771380970675256 0 0.1882415137259946 -0.087468354533236398 0 0.19777274892509861 -0.075094830206079516 0 0.214681209931881 -0.057115586393128533 0 0.19777274892509861 -0.075094830206079516 0 0.2145753998263536 -0.076889347175411515 0 0.214681209931881 -0.057115586393128533 0 0.2145753998263536 -0.076889347175411515 0 0.22657701888052811 -0.070191217685032226 0 0.2055012313867243 -0.095046104811971344 0 0.22834479000753599 -0.08699899678084598 0 0.2194912212406758 -0.096936795579006446 0 0.2055012313867243 -0.095046104811971344 0 0.2145753998263536 -0.076889347175411515 0 0.22834479000753599 -0.08699899678084598 0 0.2055012313867243 -0.095046104811971344 0 0.22834479000753599 -0.08699899678084598 0 0.2055012313867243 -0.095046104811971344 0 0.19777274892509861 -0.075094830206079516 0 0.2145753998263536 -0.076889347175411515 0 0.22834479000753599 -0.08699899678084598 0 0.2417799326195369 -0.090582501281898209 0 0.2312232955392797 -0.098595729079221289 0 0.2145753998263536 -0.076889347175411515 0 0.22834479000753599 -0.08699899678084598 0 0.22657701888052811 -0.070191217685032226 0 0.25118834862834771 -0.078951888749720561 0 0.23931815340028911 -0.059087617186071993 0 0.22657701888052811 -0.070191217685032226 0 0.25118834862834771 -0.078951888749720561 0 0.22834479000753599 -0.08699899678084598 0 0.25118834862834771 -0.078951888749720561 0 0.22834479000753599 -0.08699899678084598 0 0.2417799326195369 -0.090582501281898209 0 0.25118834862834771 -0.078951888749720561 0 0.22834479000753599 -0.08699899678084598 0 0.22657701888052811 -0.070191217685032226 0 0.25495894843157302 -0.10106082422818551 0 0.25118834862834771 -0.078951888749720561 0 0.2417799326195369 -0.090582501281898209 0 0.25495894843157302 -0.10106082422818551 0 0.2312232955392797 -0.098595729079221289 0 0.2378586723298369 -0.1122774061848711 0 0.25495894843157302 -0.10106082422818551 0 0.2312232955392797 -0.098595729079221289 0 0.25495894843157302 -0.10106082422818551 0 0.2417799326195369 -0.090582501281898209 0 0.2312232955392797 -0.098595729079221289 0 0.2312232955392797 -0.098595729079221289 0 0.22246032510996691 -0.1073009321619172 0 0.2378586723298369 -0.1122774061848711 0 0.21439152299768061 -0.1015590367314865 0 0.22246032510996691 -0.1073009321619172 0 0.2194912212406758 -0.096936795579006446 0 0.2312232955392797 -0.098595729079221289 0 0.22246032510996691 -0.1073009321619172 0 0.2194912212406758 -0.096936795579006446 0 0.22834479000753599 -0.08699899678084598 0 0.2312232955392797 -0.098595729079221289 0 0.2194912212406758 -0.096936795579006446 0 0.21669723448997871 -0.12477450118155831 0 0.22246032510996691 -0.1073009321619172 0 0.22995455924193001 -0.1184706972434566 0 0.21669723448997871 -0.12477450118155831 0 0.22995455924193001 -0.1184706972434566 0 0.2428020050379375 -0.12952994944547999 0 0.22246032510996691 -0.1073009321619172 0 0.22995455924193001 -0.1184706972434566 0 0.2378586723298369 -0.1122774061848711 0 0.22995455924193001 -0.1184706972434566 0 0.2378586723298369 -0.1122774061848711 0 0.2428020050379375 -0.12952994944547999 0 0.2378586723298369 -0.1122774061848711 0 0.24901380175728391 -0.118792673427335 0 0.2428020050379375 -0.12952994944547999 0 0.25495894843157302 -0.10106082422818551 0 0.2378586723298369 -0.1122774061848711 0 0.24901380175728391 -0.118792673427335 0 0.2428020050379375 -0.12952994944547999 0 0.2422359183358995 -0.146058929475468 0 0.22327588748647281 -0.1399195681658926 0 0.25572641310432631 -0.14303418802101711 0 0.2428020050379375 -0.12952994944547999 0 0.2422359183358995 -0.146058929475468 0 0.25444385987449458 -0.15284299340302471 0 0.2422359183358995 -0.146058929475468 0 0.2441769992076103 -0.16218247220547569 0 0.2422359183358995 -0.146058929475468 0 0.22935425904918411 -0.1545216236417796 0 0.2441769992076103 -0.16218247220547569 0 0.2422359183358995 -0.146058929475468 0 0.22935425904918411 -0.1545216236417796 0 0.22327588748647281 -0.1399195681658926 0 0.22935425904918411 -0.1545216236417796 0 0.21939347746833079 -0.1498650212133556 0 0.22327588748647281 -0.1399195681658926 0 0.22935425904918411 -0.1545216236417796 0 0.21939347746833079 -0.1498650212133556 0 0.21925109219149341 -0.16001888873405959 0 0.21669723448997871 -0.12477450118155831 0 0.2428020050379375 -0.12952994944547999 0 0.22327588748647281 -0.1399195681658926 0 0.21669723448997871 -0.12477450118155831 0 0.2428020050379375 -0.12952994944547999 0 0.21669723448997871 -0.12477450118155831 0 0.19059246394201981 -0.1200190529176364 0 0.20759325099426221 -0.14008422230860371 0 0.21669723448997871 -0.12477450118155831 0 0.22327588748647281 -0.1399195681658926 0 0.20759325099426221 -0.14008422230860371 0 0.21939347746833079 -0.1498650212133556 0 0.22327588748647281 -0.1399195681658926 0 0.20759325099426221 -0.14008422230860371 0 0.21939347746833079 -0.1498650212133556 0 0.20759325099426221 -0.14008422230860371 0 0.21031213899832241 -0.15459892342398929 0 0.21939347746833079 -0.1498650212133556 0 0.21031213899832241 -0.15459892342398929 0 0.21925109219149341 -0.16001888873405959 0 0.21031213899832241 -0.15459892342398929 0 0.20121783567754081 -0.15044571849858071 0 0.20355708181521839 -0.16158011927749241 0 0.20759325099426221 -0.14008422230860371 0 0.21031213899832241 -0.15459892342398929 0 0.20121783567754081 -0.15044571849858071 0 0.20759325099426221 -0.14008422230860371 0 0.20121783567754081 -0.15044571849858071 0 0.19257259575238239 -0.14077909586510759 0 0.20121783567754081 -0.15044571849858071 0 0.19205411082751869 -0.15518623161771031 0 0.20355708181521839 -0.16158011927749241 0 0.20121783567754081 -0.15044571849858071 0 0.19205411082751869 -0.15518623161771031 0 0.19257259575238239 -0.14077909586510759 0 0.19059246394201981 -0.1200190529176364 0 0.20759325099426221 -0.14008422230860371 0 0.19257259575238239 -0.14077909586510759 0 0.1984173861077953 -0.17921001381168089 0 0.21336400833492089 -0.18505836116510149 0 0.19579642821571591 -0.19127815309787749 0 0.1984173861077953 -0.17921001381168089 0 0.18789029283289971 -0.17228301261540671 0 0.20670868288890981 -0.16912520001126821 0 0.1984173861077953 -0.17921001381168089 0 0.19579642821571591 -0.19127815309787749 0 0.1855597922335028 -0.18595809190382279 0 0.1984173861077953 -0.17921001381168089 0 0.18789029283289971 -0.17228301261540671 0 0.1855597922335028 -0.18595809190382279 0 0.19205411082751869 -0.15518623161771031 0 0.18789029283289971 -0.17228301261540671 0 0.20670868288890981 -0.16912520001126821 0 0.19205411082751869 -0.15518623161771031 0 0.18789029283289971 -0.17228301261540671 0 0.1826449157995132 -0.15676513791978 0 0.19205411082751869 -0.15518623161771031 0 0.20670868288890981 -0.16912520001126821 0 0.20355708181521839 -0.16158011927749241 0 0.19205411082751869 -0.15518623161771031 0 0.20670868288890981 -0.16912520001126821 0 0.20670868288890981 -0.16912520001126821 0 0.20355708181521839 -0.16158011927749241 0 0.20670868288890981 -0.16912520001126821 0 0.20355708181521839 -0.16158011927749241 0 0.21133972178936611 -0.1627336485993644 0 0.21031213899832241 -0.15459892342398929 0 0.20355708181521839 -0.16158011927749241 0 0.21133972178936611 -0.1627336485993644 0 0.21133972178936611 -0.1627336485993644 0 0.2168696130528858 -0.16834511155001289 0 0.21925109219149341 -0.16001888873405959 0 0.21031213899832241 -0.15459892342398929 0 0.21133972178936611 -0.1627336485993644 0 0.21925109219149341 -0.16001888873405959 0 0.20670868288890981 -0.16912520001126821 0 0.21133972178936611 -0.1627336485993644 0 0.2168696130528858 -0.16834511155001289 0 0.1984173861077953 -0.17921001381168089 0 0.20670868288890981 -0.16912520001126821 0 0.21336400833492089 -0.18505836116510149 0 0.20670868288890981 -0.16912520001126821 0 0.21867773442634281 -0.18050978568065601 0 0.20670868288890981 -0.16912520001126821 0 0.2168696130528858 -0.16834511155001289 0 0.21867773442634281 -0.18050978568065601 0 0.20670868288890981 -0.16912520001126821 0 0.21336400833492089 -0.18505836116510149 0 0.20670868288890981 -0.16912520001126821 0 0.21867773442634281 -0.18050978568065601 0 0.21336400833492089 -0.18505836116510149 0 0.21867773442634281 -0.18050978568065601 0 0.2289094657595365 -0.1690866496778341 0 0.23443295505786541 -0.18342552310438459 0 0.21867773442634281 -0.18050978568065601 0 0.21336400833492089 -0.18505836116510149 0 0.22500776907672301 -0.19091677877166499 0 0.21867773442634281 -0.18050978568065601 0 0.23443295505786541 -0.18342552310438459 0 0.23064678596377511 -0.19189437135004489 0 0.21867773442634281 -0.18050978568065601 0 0.23064678596377511 -0.19189437135004489 0 0.2168696130528858 -0.16834511155001289 0 0.21867773442634281 -0.18050978568065601 0 0.2289094657595365 -0.1690866496778341 0 0.22935425904918411 -0.1545216236417796 0 0.21925109219149341 -0.16001888873405959 0 0.2289094657595365 -0.1690866496778341 0 0.2168696130528858 -0.16834511155001289 0 0.21925109219149341 -0.16001888873405959 0 0.2289094657595365 -0.1690866496778341 0 0.22935425904918411 -0.1545216236417796 0 0.2289094657595365 -0.1690866496778341 0 0.2441769992076103 -0.16218247220547569 0 0.2289094657595365 -0.1690866496778341 0 0.2441769992076103 -0.16218247220547569 0 0.24077345857564789 -0.17392640167679871 0 0.25343691440229738 -0.17421686930019101 0 0.2441769992076103 -0.16218247220547569 0 0.24077345857564789 -0.17392640167679871 0 0.23443295505786541 -0.18342552310438459 0 0.24077345857564789 -0.17392640167679871 0 0.24543424042144971 -0.18264145256778069 0 0.23443295505786541 -0.18342552310438459 0 0.24543424042144971 -0.18264145256778069 0 0.24595680253086361 -0.1936582567822154 0 0.2289094657595365 -0.1690866496778341 0 0.23443295505786541 -0.18342552310438459 0 0.24077345857564789 -0.17392640167679871 0 0.25343691440229738 -0.17421686930019101 0 0.24077345857564789 -0.17392640167679871 0 0.24543424042144971 -0.18264145256778069 0 0.24877535007611021 -0.2091376918048363 0 0.23064678596377511 -0.19189437135004489 0 0.24595680253086361 -0.1936582567822154 0 0.24877535007611021 -0.2091376918048363 0 0.23064678596377511 -0.19189437135004489 0 0.23443295505786541 -0.18342552310438459 0 0.24595680253086361 -0.1936582567822154 0 0.23064678596377511 -0.19189437135004489 0 0.24877535007611021 -0.2091376918048363 0 0.23583556595231289 -0.2155377411288929 0 0.24419823581765451 -0.2254123580974994 0 0.24877535007611021 -0.2091376918048363 0 0.23583556595231289 -0.2155377411288929 0 0.23064678596377511 -0.19189437135004489 0 0.23583556595231289 -0.2155377411288929 0 0.22318813346585331 -0.20857777733435701 0 0.23189647014261949 -0.2294259436304007 0 0.23583556595231289 -0.2155377411288929 0 0.22318813346585331 -0.20857777733435701 0 0.23064678596377511 -0.19189437135004489 0 0.22318813346585331 -0.20857777733435701 0 0.22001933378093311 -0.2009915223189343 0 0.22318813346585331 -0.20857777733435701 0 0.22001933378093311 -0.2009915223189343 0 0.23064678596377511 -0.19189437135004489 0 0.21336400833492089 -0.18505836116510149 0 0.22001933378093311 -0.2009915223189343 0 0.22500776907672301 -0.19091677877166499 0 0.22318813346585331 -0.20857777733435701 0 0.23064678596377511 -0.19189437135004489 0 0.22001933378093311 -0.2009915223189343 0 0.22500776907672301 -0.19091677877166499 0 0.22001933378093311 -0.2009915223189343 0 0.22500776907672301 -0.19091677877166499 0 0.23064678596377511 -0.19189437135004489 0 0.21867773442634281 -0.18050978568065601 0 0.22500776907672301 -0.19091677877166499 0 0.23064678596377511 -0.19189437135004489 0 0.23443295505786541 -0.18342552310438459 0 0.23064678596377511 -0.19189437135004489 0 0.25650844091435548 -0.23419565614391979 0 0.24060480681938509 -0.25027410992644472 0 0.24419823581765451 -0.2254123580974994 0 0.24060480681938509 -0.25027410992644472 0 0.23189647014261949 -0.2294259436304007 0 0.24060480681938509 -0.25027410992644472 0 0.24419823581765451 -0.2254123580974994 0 0.23189647014261949 -0.2294259436304007 0 0.25650844091435548 -0.23419565614391979 0 0.24877535007611021 -0.2091376918048363 0 0.24419823581765451 -0.2254123580974994 0 0.23583556595231289 -0.2155377411288929 0 0.24419823581765451 -0.2254123580974994 0 0.23189647014261949 -0.2294259436304007 0 0.22318813346585331 -0.20857777733435701 0 0.22725663460170109 -0.22320857276782849 0 0.23189647014261949 -0.2294259436304007 0 0.22318813346585331 -0.20857777733435701 0 0.22725663460170109 -0.22320857276782849 0 0.21274933847708699 -0.23192712292099441 0 0.22318813346585331 -0.20857777733435701 0 0.23189647014261949 -0.2294259436304007 0 0.22725663460170109 -0.22320857276782849 0 0.21274933847708699 -0.23192712292099441 0 0.22725663460170109 -0.22320857276782849 0 0.22298737516268111 -0.23281933686029371 0 0.21274933847708699 -0.23192712292099441 0 0.22725663460170109 -0.22320857276782849 0 0.22298737516268111 -0.23281933686029371 0 0.23189647014261949 -0.2294259436304007 0 0.24060480681938509 -0.25027410992644472 0 0.23189647014261949 -0.2294259436304007 0 0.22393662304699799 -0.2430299400256471 0 0.22298737516268111 -0.23281933686029371 0 0.23189647014261949 -0.2294259436304007 0 0.22393662304699799 -0.2430299400256471 0 0.22298737516268111 -0.23281933686029371 0 0.22393662304699799 -0.2430299400256471 0 0.21274933847708699 -0.23192712292099441 0 0.20046151801442619 -0.25941234193315271 0 0.21274933847708699 -0.23192712292099441 0 0.2012926349075338 -0.23881233735400539 0 0.20046151801442619 -0.25941234193315271 0 0.21274933847708699 -0.23192712292099441 0 0.2104931124150449 -0.25346063695062487 0 0.22393662304699799 -0.2430299400256471 0 0.21274933847708699 -0.23192712292099441 0 0.2104931124150449 -0.25346063695062487 0 0.20046151801442619 -0.25941234193315271 0 0.21274933847708699 -0.23192712292099441 0 0.21274933847708699 -0.23192712292099441 0 0.2012926349075338 -0.23881233735400539 0 0.21065598434423449 -0.21990192983647039 0 0.2012926349075338 -0.23881233735400539 0 0.22318813346585331 -0.20857777733435701 0 0.21274933847708699 -0.23192712292099441 0 0.21065598434423449 -0.21990192983647039 0 0.21274933847708699 -0.23192712292099441 0 0.2012926349075338 -0.23881233735400539 0 0.22318813346585331 -0.20857777733435701 0 0.21065598434423449 -0.21990192983647039 0 0.21274933847708699 -0.23192712292099441 0 0.21065598434423449 -0.21990192983647039 0 0.19371163448828019 -0.22474860740774399 0 0.2012926349075338 -0.23881233735400539 0 0.19371163448828019 -0.22474860740774399 0 0.1913315023588143 -0.23526448213601489 0 0.17869583352963439 -0.23149822048328861 0 0.19371163448828019 -0.22474860740774399 0 0.2012926349075338 -0.23881233735400539 0 0.1913315023588143 -0.23526448213601489 0 0.2012926349075338 -0.23881233735400539 0 0.1913315023588143 -0.23526448213601489 0 0.18978939181727089 -0.24572552096486031 0 0.19473139264387221 -0.25206355326407059 0 0.2012926349075338 -0.23881233735400539 0 0.18978939181727089 -0.24572552096486031 0 0.19473139264387221 -0.25206355326407059 0 0.18978939181727089 -0.24572552096486031 0 0.19473139264387221 -0.25206355326407059 0 0.2012926349075338 -0.23881233735400539 0 0.2012926349075338 -0.23881233735400539 0 0.18978939181727089 -0.24572552096486031 0 0.21336400833492089 -0.18505836116510149 0 0.22001933378093311 -0.2009915223189343 0 0.20632505111950461 -0.19874511051499749 0 0.21336400833492089 -0.18505836116510149 0 0.20632505111950461 -0.19874511051499749 0 0.19579642821571591 -0.19127815309787749 0 0.21336400833492089 -0.18505836116510149 0 0.22001933378093311 -0.2009915223189343 0 0.22318813346585331 -0.20857777733435701 0 0.22001933378093311 -0.2009915223189343 0 0.21065598434423449 -0.21990192983647039 0 0.21065598434423449 -0.21990192983647039 0 0.20632505111950461 -0.19874511051499749 0 0.1976618094456441 -0.20958614309055179 0 0.22001933378093311 -0.2009915223189343 0 0.21065598434423449 -0.21990192983647039 0 0.20632505111950461 -0.19874511051499749 0 0.22001933378093311 -0.2009915223189343 0 0.21065598434423449 -0.21990192983647039 0 0.21065598434423449 -0.21990192983647039 0 0.19371163448828019 -0.22474860740774399 0 0.1976618094456441 -0.20958614309055179 0 0.1976618094456441 -0.20958614309055179 0 0.18263204234382099 -0.21342853154613431 0 0.19371163448828019 -0.22474860740774399 0 0.1976618094456441 -0.20958614309055179 0 0.18263204234382099 -0.21342853154613431 0 0.1976618094456441 -0.20958614309055179 0 0.18601974456397749 -0.20048820908665441 0 0.18263204234382099 -0.21342853154613431 0 0.20632505111950461 -0.19874511051499749 0 0.1976618094456441 -0.20958614309055179 0 0.19579642821571591 -0.19127815309787749 0 0.1976618094456441 -0.20958614309055179 0 0.19579642821571591 -0.19127815309787749 0 0.18601974456397749 -0.20048820908665441 0 0.19579642821571591 -0.19127815309787749 0 0.18601974456397749 -0.20048820908665441 0 0.1855597922335028 -0.18595809190382279 0 0.17494145834575131 -0.19169605205019419 0 0.18601974456397749 -0.20048820908665441 0 0.1855597922335028 -0.18595809190382279 0 0.17494145834575131 -0.19169605205019419 0 0.18601974456397749 -0.20048820908665441 0 0.1723858820801375 -0.20466614878577599 0 0.18601974456397749 -0.20048820908665441 0 0.18263204234382099 -0.21342853154613431 0 0.1723858820801375 -0.20466614878577599 0 0.18263204234382099 -0.21342853154613431 0 0.16760227524199811 -0.21727092000171691 0 0.18263204234382099 -0.21342853154613431 0 0.1723858820801375 -0.20466614878577599 0 0.16760227524199811 -0.21727092000171691 0 0.1723858820801375 -0.20466614878577599 0 0.16760227524199811 -0.21727092000171691 0 0.15338020252001189 -0.199031352782607 0 0.16760227524199811 -0.21727092000171691 0 0.15338020252001189 -0.199031352782607 0 0.1723858820801375 -0.20466614878577599 0 0.16631714292815211 -0.1947609966332722 0 0.15338020252001189 -0.199031352782607 0 0.16631714292815211 -0.1947609966332722 0 0.15338020252001189 -0.199031352782607 0 0.1645610287667077 -0.18365043291451141 0 0.17494145834575131 -0.19169605205019419 0 0.16631714292815211 -0.1947609966332722 0 0.1645610287667077 -0.18365043291451141 0 0.17494145834575131 -0.19169605205019419 0 0.1723858820801375 -0.20466614878577599 0 0.16631714292815211 -0.1947609966332722 0 0.17642200342196049 -0.2537590128809481 0 0.17695294132678499 -0.24256671910626509 0 0.16519142625757341 -0.24211458988148071 0 0.17642200342196049 -0.2537590128809481 0 0.18978939181727089 -0.24572552096486031 0 0.17695294132678499 -0.24256671910626509 0 0.17642200342196049 -0.2537590128809481 0 0.18978939181727089 -0.24572552096486031 0 0.1913315023588143 -0.23526448213601489 0 0.18978939181727089 -0.24572552096486031 0 0.17869583352963439 -0.23149822048328861 0 0.18978939181727089 -0.24572552096486031 0 0.17869583352963439 -0.23149822048328861 0 0.18978939181727089 -0.24572552096486031 0 0.17695294132678499 -0.24256671910626509 0 0.17869583352963439 -0.23149822048328861 0 0.17695294132678499 -0.24256671910626509 0 0.17869583352963439 -0.23149822048328861 0 0.16722598211680889 -0.22994037969918321 0 0.18263204234382099 -0.21342853154613431 0 0.16760227524199811 -0.21727092000171691 0 0.17869583352963439 -0.23149822048328861 0 0.19371163448828019 -0.22474860740774399 0 0.18263204234382099 -0.21342853154613431 0 0.17869583352963439 -0.23149822048328861 0 0.16760227524199811 -0.21727092000171691 0 0.17869583352963439 -0.23149822048328861 0 0.16760227524199811 -0.21727092000171691 0 0.15066381316678301 -0.22160126994607701 0 0.16760227524199811 -0.21727092000171691 0 0.16722598211680889 -0.22994037969918321 0 0.15066381316678301 -0.22160126994607701 0 0.16722598211680889 -0.22994037969918321 0 0.15610272573562259 -0.23314311709386901 0 0.15066381316678301 -0.22160126994607701 0 0.16760227524199811 -0.21727092000171691 0 0.17869583352963439 -0.23149822048328861 0 0.16722598211680889 -0.22994037969918321 0 0.17695294132678499 -0.24256671910626509 0 0.16722598211680889 -0.22994037969918321 0 0.16519142625757341 -0.24211458988148071 0 0.16722598211680889 -0.22994037969918321 0 0.16519142625757341 -0.24211458988148071 0 0.15610272573562259 -0.23314311709386901 0 0.16519142625757341 -0.24211458988148071 0 0.15728563120878539 -0.241111179410125 0 0.15610272573562259 -0.23314311709386901 0 0.16528334120954741 -0.25128856355010659 0 0.16519142625757341 -0.24211458988148071 0 0.15646532013200559 -0.247488146640962 0 0.16519142625757341 -0.24211458988148071 0 0.15728563120878539 -0.241111179410125 0 0.15646532013200559 -0.247488146640962 0 0.16528334120954741 -0.25128856355010659 0 0.17642200342196049 -0.2537590128809481 0 0.16519142625757341 -0.24211458988148071 0 0.13828177495032279 -0.26213746811388627 0 0.14864590921915391 -0.24598625869157201 0 0.13606532708945779 -0.23982632182759039 0 0.14864590921915391 -0.24598625869157201 0 0.13347268291002379 -0.2293413391227879 0 0.14864590921915391 -0.24598625869157201 0 0.14436043561370759 -0.23378554054237161 0 0.13347268291002379 -0.2293413391227879 0 0.15646532013200559 -0.247488146640962 0 0.14977691076445809 -0.24422373397493949 0 0.14864590921915391 -0.24598625869157201 0 0.15728563120878539 -0.241111179410125 0 0.15646532013200559 -0.247488146640962 0 0.15385345184775859 -0.24272620996792471 0 0.15646532013200559 -0.247488146640962 0 0.15385345184775859 -0.24272620996792471 0 0.14977691076445809 -0.24422373397493949 0 0.14977691076445809 -0.24422373397493949 0 0.14864590921915391 -0.24598625869157201 0 0.14977691076445809 -0.24422373397493949 0 0.15188594528578531 -0.23808177984567219 0 0.14436043561370759 -0.23378554054237161 0 0.15728563120878539 -0.241111179410125 0 0.15188594528578531 -0.23808177984567219 0 0.15610272573562259 -0.23314311709386901 0 0.15188594528578531 -0.23808177984567219 0 0.14436043561370759 -0.23378554054237161 0 0.15610272573562259 -0.23314311709386901 0 0.15385345184775859 -0.24272620996792471 0 0.14977691076445809 -0.24422373397493949 0 0.15188594528578531 -0.23808177984567219 0 0.15728563120878539 -0.241111179410125 0 0.15385345184775859 -0.24272620996792471 0 0.15188594528578531 -0.23808177984567219 0 0.14977691076445809 -0.24422373397493949 0 0.14864590921915391 -0.24598625869157201 0 0.14436043561370759 -0.23378554054237161 0 0.15066381316678301 -0.22160126994607701 0 0.13372535109156791 -0.22593161989043711 0 0.1466330190946728 -0.20948439781705661 0 0.15066381316678301 -0.22160126994607701 0 0.13372535109156791 -0.22593161989043711 0 0.14436043561370759 -0.23378554054237161 0 0.15066381316678301 -0.22160126994607701 0 0.13372535109156791 -0.22593161989043711 0 0.14436043561370759 -0.23378554054237161 0 0.15610272573562259 -0.23314311709386901 0 0.15066381316678301 -0.22160126994607701 0 0.1225527060400716 -0.21175765639955729 0 0.1241340057898697 -0.2190968778343966 0 0.13372535109156791 -0.22593161989043711 0 0.1241340057898697 -0.2190968778343966 0 0.13372535109156791 -0.22593161989043711 0 0.1309996578686356 -0.2266284485307126 0 0.1241340057898697 -0.2190968778343966 0 0.124603106919671 -0.2264723668861042 0 0.1309996578686356 -0.2266284485307126 0 0.1241340057898697 -0.2190968778343966 0 0.1309996578686356 -0.2266284485307126 0 0.13372535109156791 -0.22593161989043711 0 0.1309996578686356 -0.2266284485307126 0 0.1237886589078623 -0.23659236418800161 0 0.1309996578686356 -0.2266284485307126 0 0.13347268291002379 -0.2293413391227879 0 0.1309996578686356 -0.2266284485307126 0 0.13347268291002379 -0.2293413391227879 0 0.13372535109156791 -0.22593161989043711 0 0.1309996578686356 -0.2266284485307126 0 0.13347268291002379 -0.2293413391227879 0 0.14436043561370759 -0.23378554054237161 0 0.13372535109156791 -0.22593161989043711 0 0.13347268291002379 -0.2293413391227879 0 0.13372535109156791 -0.22593161989043711 0 0.13347268291002379 -0.2293413391227879 0 0.13178497783693821 -0.25211666607955069 0 0.13347268291002379 -0.2293413391227879 0 0.13606532708945779 -0.23982632182759039 0 0.13178497783693821 -0.25211666607955069 0 0.1237886589078623 -0.23659236418800161 0 0.13347268291002379 -0.2293413391227879 0 0.13178497783693821 -0.25211666607955069 0 0.13347268291002379 -0.2293413391227879 0 0.14864590921915391 -0.24598625869157201 0 0.13347268291002379 -0.2293413391227879 0 0.13606532708945779 -0.23982632182759039 0 0.13178497783693821 -0.25211666607955069 0 0.1237886589078623 -0.23659236418800161 0 0.1224890003745731 -0.24541254930308659 0 0.14176530540822119 -0.1964743214436879 0 0.15338020252001189 -0.199031352782607 0 0.13915812979802519 -0.18079178556349759 0 0.15338020252001189 -0.199031352782607 0 0.13915812979802519 -0.18079178556349759 0 0.14176530540822119 -0.1964743214436879 0 0.1466330190946728 -0.20948439781705661 0 0.1355413186704115 -0.20142540964638489 0 0.14176530540822119 -0.1964743214436879 0 0.15338020252001189 -0.199031352782607 0 0.1466330190946728 -0.20948439781705661 0 0.16760227524199811 -0.21727092000171691 0 0.15066381316678301 -0.22160126994607701 0 0.1466330190946728 -0.20948439781705661 0 0.16760227524199811 -0.21727092000171691 0 0.15338020252001189 -0.199031352782607 0 0.1466330190946728 -0.20948439781705661 0 0.13372535109156791 -0.22593161989043711 0 0.1466330190946728 -0.20948439781705661 0 0.1355413186704115 -0.20142540964638489 0 0.1225527060400716 -0.21175765639955729 0 0.13372535109156791 -0.22593161989043711 0 0.1355413186704115 -0.20142540964638489 0 0.13372535109156791 -0.22593161989043711 0 0.1355413186704115 -0.20142540964638489 0 0.12354903960564891 -0.20989968896969949 0 0.1225527060400716 -0.21175765639955729 0 0.1355413186704115 -0.20142540964638489 0 0.1225527060400716 -0.21175765639955729 0 0.1355413186704115 -0.20142540964638489 0 0.12354903960564891 -0.20989968896969949 0 0.1355413186704115 -0.20142540964638489 0 0.13673555114645999 -0.18530942140994891 0 0.1355413186704115 -0.20142540964638489 0 0.13673555114645999 -0.18530942140994891 0 0.12354903960564891 -0.20989968896969949 0 0.13673555114645999 -0.18530942140994891 0 0.14176530540822119 -0.1964743214436879 0 0.1355413186704115 -0.20142540964638489 0 0.13673555114645999 -0.18530942140994891 0 0.14176530540822119 -0.1964743214436879 0 0.13915812979802519 -0.18079178556349759 0 0.13673555114645999 -0.18530942140994891 0 0.12354903960564891 -0.20989968896969949 0 0.1221028460494281 -0.1871617673083229 0 0.13673555114645999 -0.18530942140994891 0 0.14176530540822119 -0.1964743214436879 0 0.1355413186704115 -0.20142540964638489 0 0.1221028460494281 -0.1871617673083229 0 0.12754889835118269 -0.1739817632498703 0 0.13673555114645999 -0.18530942140994891 0 0.1372515137924043 -0.1783465828511136 0 0.13915812979802519 -0.18079178556349759 0 0.14492171137996601 -0.16083126923740221 0 0.12754889835118269 -0.1739817632498703 0 0.1372515137924043 -0.1783465828511136 0 0.12652377143427199 -0.16458843509899229 0 0.12754889835118269 -0.1739817632498703 0 0.1372515137924043 -0.1783465828511136 0 0.13673555114645999 -0.18530942140994891 0 0.1372515137924043 -0.1783465828511136 0 0.13915812979802519 -0.18079178556349759 0 0.1372515137924043 -0.1783465828511136 0 0.13673555114645999 -0.18530942140994891 0 0.1372515137924043 -0.1783465828511136 0 0.13915812979802519 -0.18079178556349759 0 0.13673555114645999 -0.18530942140994891 0 0.13915812979802519 -0.18079178556349759 0 0.13673555114645999 -0.18530942140994891 0 0.15338020252001189 -0.199031352782607 0 0.13915812979802519 -0.18079178556349759 0 0.1536955843793939 -0.17876042994451979 0 0.13915812979802519 -0.18079178556349759 0 0.1536955843793939 -0.17876042994451979 0 0.15285904114842691 -0.17064997139051541 0 0.1536955843793939 -0.17876042994451979 0 0.15285904114842691 -0.17064997139051541 0 0.1599591872774683 -0.17331378406274781 0 0.13915812979802519 -0.18079178556349759 0 0.15044143212716671 -0.15975063132248121 0 0.15285904114842691 -0.17064997139051541 0 0.13915812979802519 -0.18079178556349759 0 0.14492171137996601 -0.16083126923740221 0 0.15044143212716671 -0.15975063132248121 0 0.13915812979802519 -0.18079178556349759 0 0.14492171137996601 -0.16083126923740221 0 0.13915812979802519 -0.18079178556349759 0 0.15044143212716671 -0.15975063132248121 0 0.15044143212716671 -0.15975063132248121 0 0.15285904114842691 -0.17064997139051541 0 0.16100489956071731 -0.16303745961465041 0 0.1372515137924043 -0.1783465828511136 0 0.14492171137996601 -0.16083126923740221 0 0.13921459720841181 -0.15185506643865429 0 0.1372515137924043 -0.1783465828511136 0 0.13436949899525261 -0.16622245997841409 0 0.13921459720841181 -0.15185506643865429 0 0.1372515137924043 -0.1783465828511136 0 0.13921459720841181 -0.15185506643865429 0 0.13341216738729081 -0.15866243074363209 0 0.13436949899525261 -0.16622245997841409 0 0.13921459720841181 -0.15185506643865429 0 0.13341216738729081 -0.15866243074363209 0 0.13436949899525261 -0.16622245997841409 0 0.13086866983612999 -0.1625152796426125 0 0.1372515137924043 -0.1783465828511136 0 0.12652377143427199 -0.16458843509899229 0 0.13436949899525261 -0.16622245997841409 0 0.12652377143427199 -0.16458843509899229 0 0.13086866983612999 -0.1625152796426125 0 0.1372515137924043 -0.1783465828511136 0 0.13436949899525261 -0.16622245997841409 0 0.12652377143427199 -0.16458843509899229 0 0.13341216738729081 -0.15866243074363209 0 0.12759497367927811 -0.15995349873501299 0 0.1257480778739504 -0.15175212419531919 0 0.1244356971050361 -0.16050450208418279 0 0.12759497367927811 -0.15995349873501299 0 0.1257480778739504 -0.15175212419531919 0 0.13341216738729081 -0.15866243074363209 0 0.13086866983612999 -0.1625152796426125 0 0.12759497367927811 -0.15995349873501299 0 0.12652377143427199 -0.16458843509899229 0 0.1251443743524793 -0.16227674077552151 0 0.12759497367927811 -0.15995349873501299 0 0.12652377143427199 -0.16458843509899229 0 0.13086866983612999 -0.1625152796426125 0 0.12759497367927811 -0.15995349873501299 0 0.1244356971050361 -0.16050450208418279 0 0.1251443743524793 -0.16227674077552151 0 0.12759497367927811 -0.15995349873501299 0 0.13341216738729081 -0.15866243074363209 0 0.1257480778739504 -0.15175212419531919 0 0.1316421604270743 -0.14717397658266909 0 0.1191486978954456 -0.14071487988278389 0 0.1316421604270743 -0.14717397658266909 0 0.13302092718644101 -0.13813206400399461 0 0.1191486978954456 -0.14071487988278389 0 0.1257480778739504 -0.15175212419531919 0 0.1316421604270743 -0.14717397658266909 0 0.1316421604270743 -0.14717397658266909 0 0.13921459720841181 -0.15185506643865429 0 0.13302092718644101 -0.13813206400399461 0 0.13341216738729081 -0.15866243074363209 0 0.1316421604270743 -0.14717397658266909 0 0.13921459720841181 -0.15185506643865429 0 0.13921459720841181 -0.15185506643865429 0 0.13302092718644101 -0.13813206400399461 0 0.14117768062442221 -0.12536355002619509 0 0.1232538410946369 -0.1262028882071527 0 0.13302092718644101 -0.13813206400399461 0 0.14117768062442221 -0.12536355002619509 0 0.13921459720841181 -0.15185506643865429 0 0.14117768062442221 -0.12536355002619509 0 0.1232538410946369 -0.1262028882071527 0 0.1191486978954456 -0.14071487988278389 0 0.13302092718644101 -0.13813206400399461 0 0.15768459853676881 -0.1224950316621085 0 0.15130315495836599 -0.14166315044975489 0 0.13921459720841181 -0.15185506643865429 0 0.14117768062442221 -0.12536355002619509 0 0.15130315495836599 -0.14166315044975489 0 0.14935145079833981 -0.12347072094141889 0 0.14117768062442221 -0.12536355002619509 0 0.15130315495836599 -0.14166315044975489 0 0.14935145079833981 -0.12347072094141889 0 0.15768459853676881 -0.1224950316621085 0 0.15130315495836599 -0.14166315044975489 0 0.14492171137996601 -0.16083126923740221 0 0.15130315495836599 -0.14166315044975489 0 0.14492171137996601 -0.16083126923740221 0 0.13921459720841181 -0.15185506643865429 0 0.15130315495836599 -0.14166315044975489 0 0.15044143212716671 -0.15975063132248121 0 0.16172473445631011 -0.1387094770814658 0 0.15044143212716671 -0.15975063132248121 0 0.15130315495836599 -0.14166315044975489 0 0.16172473445631011 -0.1387094770814658 0 0.14492171137996601 -0.16083126923740221 0 0.15044143212716671 -0.15975063132248121 0 0.15130315495836599 -0.14166315044975489 0 0.15044143212716671 -0.15975063132248121 0 0.16171592018880229 -0.15249368021587001 0 0.16172473445631011 -0.1387094770814658 0 0.168436487893904 -0.14676436103547391 0 0.16172473445631011 -0.1387094770814658 0 0.1773995387661271 -0.14124726322415321 0 0.16171592018880229 -0.15249368021587001 0 0.168436487893904 -0.14676436103547391 0 0.16172473445631011 -0.1387094770814658 0 0.16171592018880229 -0.15249368021587001 0 0.168436487893904 -0.14676436103547391 0 0.16684393348443191 -0.15565011769669121 0 0.168436487893904 -0.14676436103547391 0 0.16684393348443191 -0.15565011769669121 0 0.17388336815073591 -0.15265076618197049 0 0.15768459853676881 -0.1224950316621085 0 0.16172473445631011 -0.1387094770814658 0 0.1773995387661271 -0.14124726322415321 0 0.15768459853676881 -0.1224950316621085 0 0.15130315495836599 -0.14166315044975489 0 0.16172473445631011 -0.1387094770814658 0 0.17086070993130231 -0.1219028527329503 0 0.15768459853676881 -0.1224950316621085 0 0.1773995387661271 -0.14124726322415321 0 0.15768459853676881 -0.1224950316621085 0 0.1773995387661271 -0.14124726322415321 0 0.17086070993130231 -0.1219028527329503 0 0.19059246394201981 -0.1200190529176364 0 0.1773995387661271 -0.14124726322415321 0 0.19059246394201981 -0.1200190529176364 0 0.19257259575238239 -0.14077909586510759 0 0.1773995387661271 -0.14124726322415321 0 0.17086070993130231 -0.1219028527329503 0 0.1773995387661271 -0.14124726322415321 0 0.17388336815073591 -0.15265076618197049 0 0.1773995387661271 -0.14124726322415321 0 0.1826449157995132 -0.15676513791978 0 0.168436487893904 -0.14676436103547391 0 0.17388336815073591 -0.15265076618197049 0 0.1773995387661271 -0.14124726322415321 0 0.19205411082751869 -0.15518623161771031 0 0.19257259575238239 -0.14077909586510759 0 0.1773995387661271 -0.14124726322415321 0 0.19205411082751869 -0.15518623161771031 0 0.1773995387661271 -0.14124726322415321 0 0.1773995387661271 -0.14124726322415321 0 0.1826449157995132 -0.15676513791978 0 0.19205411082751869 -0.15518623161771031 0 0.1773995387661271 -0.14124726322415321 0 0.1826449157995132 -0.15676513791978 0 0.17388336815073591 -0.15265076618197049 0 0.1826449157995132 -0.15676513791978 0 0.17396385138822151 -0.1642705967051673 0 0.17396385138822151 -0.1642705967051673 0 0.1757123292371113 -0.1780813110345735 0 0.16767538253209571 -0.17047062644954239 0 0.18789029283289971 -0.17228301261540671 0 0.17396385138822151 -0.1642705967051673 0 0.1757123292371113 -0.1780813110345735 0 0.18789029283289971 -0.17228301261540671 0 0.1826449157995132 -0.15676513791978 0 0.18789029283289971 -0.17228301261540671 0 0.1826449157995132 -0.15676513791978 0 0.17396385138822151 -0.1642705967051673 0 0.18789029283289971 -0.17228301261540671 0 0.1855597922335028 -0.18595809190382279 0 0.1757123292371113 -0.1780813110345735 0 0.17494145834575131 -0.19169605205019419 0 0.1855597922335028 -0.18595809190382279 0 0.1757123292371113 -0.1780813110345735 0 0.15338020252001189 -0.199031352782607 0 0.1536955843793939 -0.17876042994451979 0 0.1645610287667077 -0.18365043291451141 0 0.1757123292371113 -0.1780813110345735 0 0.1645610287667077 -0.18365043291451141 0 0.16767538253209571 -0.17047062644954239 0 0.1645610287667077 -0.18365043291451141 0 0.1599591872774683 -0.17331378406274781 0 0.16767538253209571 -0.17047062644954239 0 0.17494145834575131 -0.19169605205019419 0 0.1757123292371113 -0.1780813110345735 0 0.1645610287667077 -0.18365043291451141 0 0.1536955843793939 -0.17876042994451979 0 0.1645610287667077 -0.18365043291451141 0 0.1599591872774683 -0.17331378406274781 0 0.15285904114842691 -0.17064997139051541 0 0.1599591872774683 -0.17331378406274781 0 0.16100489956071731 -0.16303745961465041 0 0.1599591872774683 -0.17331378406274781 0 0.16100489956071731 -0.16303745961465041 0 0.16767538253209571 -0.17047062644954239 0 0.15044143212716671 -0.15975063132248121 0 0.16171592018880229 -0.15249368021587001 0 0.16100489956071731 -0.16303745961465041 0 0.16171592018880229 -0.15249368021587001 0 0.16684393348443191 -0.15565011769669121 0 0.16100489956071731 -0.16303745961465041 0 0.16684393348443191 -0.15565011769669121 0 0.17396385138822151 -0.1642705967051673 0 0.16100489956071731 -0.16303745961465041 0 0.16684393348443191 -0.15565011769669121 0 0.17388336815073591 -0.15265076618197049 0 0.17396385138822151 -0.1642705967051673 0 0.17396385138822151 -0.1642705967051673 0 0.16100489956071731 -0.16303745961465041 0 0.16767538253209571 -0.17047062644954239 0 
</DataArray>
</Points>
<Cells>
<DataArray type="UInt32" Name="connectivity" format="ascii">
0 1 2 3 4 5 6 7 8 9 10 11 12 13 14 15 16 17 18 19 20 21 22 23 24 25 26 27 28 29 30 31 32 33 34 35 36 37 38 39 40 41 42 43 44 45 46 47 48 49 50 51 52 53 54 55 56 57 58 59 60 61 62 63 64 65 66 67 68 69 70 71 72 73 74 75 76 77 78 79 80 81 82 83 84 85 86 87 88 89 90 91 92 93 94 95 96 97 98 99 100 101 102 103 104 105 106 107 108 109 110 111 112 113 114 115 116 117 118 119 120 121 122 123 124 125 126 127 128 129 130 131 132 133 134 135 136 137 138 139 140 141 142 143 144 145 146 147 148 149 150 151 152 153 154 155 156 157 158 159 160 161 162 163 164 165 166 167 168 169 170 171 172 173 174 175 176 177 178 179 180 181 182 183 184 185 186 187 188 189 190 191 192 193 194 195 196 197 198 199 200 201 202 203 204 205 206 207 208 209 210 211 212 213 214 215 216 217 218 219 220 221 222 223 224 225 226 227 228 229 230 231 232 233 234 235 236 237 238 239 240 241 242 243 244 245 246 247 248 249 250 251 252 253 254 255 256 257 258 259 260 261 262 263 264 265 266 267 268 269 270 271 272 273 274 275 276 277 278 279 280 281 282 283 284 285 286 287 288 289 290 291 292 293 294 295 296 297 298 299 300 301 302 303 304 305 306 307 308 309 310 311 312 313 314 315 316 317 318 319 320 321 322 323 324 325 326 327 328 329 330 331 332 333 334 335 336 337 338 339 340 341 342 343 344 345 346 347 348 349 350 351 352 353 354 355 356 357 358 359 360 361 362 363 364 365 366 367 368 369 370 371 372 373 374 375 376 377 378 379 380 381 382 383 384 385 386 387 388 389 390 391 392 393 394 395 396 397 398 399 400 401 402 403 404 405 406 407 408 409 410 411 412 413 414 415 416 417 418 419 420 421 422 423 424 425 426 427 428 429 430 431 432 433 434 435 436 437 438 439 440 441 442 443 444 445 446 447 448 449 450 451 452 453 454 455 456 457 458 459 460 461 462 463 464 465 466 467 468 469 470 471 472 473 474 475 476 477 478 479 480 481 482 483 484 485 486 487 488 489 490 491 492 493 494 495 496 497 498 499 500 501 502 503 504 505 506 507 508 509 510 511 512 513 514 515 516 517 518 519 520 521 522 523 524 525 526 527 528 529 530 531 532 533 534 535 536 537 538 539 540 541 542 543 544 545 546 547 548 549 550 551 552 553 554 555 556 557 558 559 560 561 562 563 564 565 566 567 568 569 570 571 572 573 574 575 576 577 578 579 580 581 582 583 584 585 586 587 588 589 590 591 592 593 594 595 596 597 598 599 600 601 602 603 604 605 606 607 608 609 610 611 612 613 614 615 616 617 618 619 620 621 622 623 624 625 626 627 628 629 630 631 632 633 634 635 636 637 638 639 640 641 642 643 644 645 646 647 648 649 650 651 652 653 654 655 656 657 658 659 660 661 662 663 664 665 666 667 668 669 670 671 672 673 674 675 676 677 678 679 680 681 682 683 684 685 686 687 688 689 690 691 692 693 694 695 696 697 698 699 700 701 702 703 704 705 706 707 708 709 710 711 712 713 714 715 716 717 718 719 720 721 722 723 724 725 726 727 728 729 730 731 732 733 734 735 736 737 738 739 740 741 742 743 744 745 746 747 748 749 750 751 752 753 754 755 756 757 758 759 760 761 762 763 764 765 766 767 768 769 770 771 772 773 774 775 776 777 778 779 780 781 782 783 784 785 786 787 788 789 790 791 792 793 794 795 796 797 798 799 800 801 802 803 804 805 806 807 808 809 810 811 812 813 814 815 816 817 818 819 820 821 822 823 824 825 826 827 828 829 830 831 832 833 834 835 836 837 838 839 840 841 842 843 844 845 846 847 848 849 850 851 852 853 854 855 856 857 858 859 860 861 862 863 864 865 866 867 868 869 870 871 872 873 874 875 876 877 878 879 880 881 882 883 884 885 886 887 888 889 890 891 892 893 894 895 896 897 898 899 900 901 902 903 904 905 906 907 908 909 910 911 912 913 914 915 916 917 918 919 920 921 922 923 924 925 926 927 928 929 930 931 932 933 934 935 936 937 938 939 940 941 942 943 944 945 946 947 948 949 950 951 952 953 954 955 956 957 958 959 960 961 962 963 964 965 966 967 968 969 970 971 972 973 974 975 976 977 978 979 980 981 982 983 984 985 986 987 988 989 990 991 992 993 994 995 996 997 998 999 1000 1001 1002 1003 1004 1005 1006 1007 1008 1009 1010 1011 1012 1013 1014 1015 1016 1017 1018 1019 1020 1021 1022 1023 1024 1025 1026 1027 1028 1029 1030 1031 1032 1033 1034 1035 1036 1037 1038 1039 1040 1041 1042 1043 1044 1045 1046 1047 1048 1049 1050 1051 1052 1053 1054 1055 1056 1057 1058 1059 1060 1061 1062 1063 1064 1065 1066 1067 1068 1069 1070 1071 1072 1073 1074 1075 1076 1077 1078 1079 1080 1081 1082 1083 1084 1085 1086 1087 1088 1089 1090 1091 1092 1093 1094 1095 1096 1097 1098 1099 1100 1101 1102 1103 1104 1105 1106 1107 1108 1109 1110 1111 1112 1113 1114 1115 1116 1117 1118 1119 1120 1121 1122 1123 1124 1125 1126 1127 1128 1129 1130 1131 1132 1133 1134 1135 1136 1137 1138 1139 1140 1141 1142 1143 1144 1145 1146 1147 1148 1149 1150 1151 1152 1153 1154 1155 1156 1157 1158 1159 1160 1161 1162 1163 1164 1165 1166 1167 1168 1169 1170 1171 1172 1173 1174 1175 1176 1177 1178 1179 1180 1181 1182 1183 1184 1185 1186 1187 1188 1189 1190 1191 1192 1193 1194 1195 1196 1197 1198 1199 1200 1201 1202 1203 1204 1205 1206 1207 1208 1209 1210 1211 1212 1213 1214 1215 1216 1217 1218 1219 1220 1221 1222 1223 1224 1225 1226 1227 1228 1229 1230 1231 1232 1233 1234 1235 1236 1237 1238 1239 1240 1241 1242 1243 1244 1245 1246 1247 1248 1249 1250 1251 1252 1253 1254 1255 1256 1257 1258 1259 1260 1261 1262 1263 1264 1265 1266 1267 1268 1269 1270 1271 1272 1273 1274 1275 1276 1277 1278 1279 1280 1281 1282 1283 1284 1285 1286 1287 1288 1289 1290 1291 1292 1293 1294 1295 1296 1297 1298 1299 1300 1301 1302 1303 1304 1305 1306 1307 1308 1309 1310 1311 1312 1313 1314 1315 1316 1317 1318 1319 1320 1321 1322 1323 1324 1325 1326 1327 1328 1329 1330 1331 1332 1333 1334 1335 1336 1337 1338 1339 1340 1341 1342 1343 1344 1345 1346 1347 1348 1349 1350 1351 1352 1353 1354 1355 1356 1357 1358 1359 1360 1361 1362 1363 1364 1365 1366 1367 1368 1369 1370 1371 1372 1373 1374 1375 1376 1377 1378 1379 1380 1381 1382 1383 1384 1385 1386 1387 1388 1389 1390 1391 1392 1393 1394 1395 1396 1397 1398 1399 1400 1401 1402 1403 1404 1405 1406 1407 1408 1409 1410 1411 1412 1413 1414 1415 1416 1417 1418 1419 1420 1421 1422 1423 1424 1425 1426 1427 1428 1429 1430 1431 1432 1433 1434 1435 1436 1437 1438 1439 1440 1441 1442 1443 1444 1445 1446 1447 1448 1449 1450 1451 1452 1453 1454 1455 1456 1457 1458 1459 1460 1461 1462 1463 1464 1465 1466 1467 1468 1469 1470 1471 1472 1473 1474 1475 1476 1477 1478 1479 1480 1481 1482 1483 1484 1485 1486 1487 1488 1489 1490 1491 1492 1493 1494 1495 1496 1497 1498 1499 1500 1501 1502 1503 1504 1505 1506 1507 1508 1509 1510 1511 1512 1513 1514 1515 1516 1517 1518 1519 1520 1521 1522 1523 1524 1525 1526 1527 1528 1529 1530 1531 1532 1533 1534 1535 1536 1537 1538 1539 1540 1541 1542 1543 1544 1545 1546 1547 1548 1549 1550 1551 1552 1553 1554 1555 1556 1557 1558 1559 1560 1561 1562 1563 1564 1565 1566 1567 1568 1569 1570 1571 1572 1573 1574 1575 1576 1577 1578 1579 1580 1581 1582 1583 1584 1585 1586 1587 1588 1589 1590 1591 1592 1593 1594 1595 1596 1597 1598 1599 1600 1601 1602 1603 1604 1605 1606 1607 1608 1609 1610 1611 1612 1613 1614 1615 1616 1617 1618 1619 1620 1621 1622 1623 1624 1625 1626 1627 1628 1629 1630 1631 1632 1633 1634 1635 1636 1637 1638 1639 1640 1641 1642 1643 1644 1645 1646 1647 1648 1649 1650 1651 1652 1653 1654 1655 1656 1657 1658 1659 1660 1661 1662 1663 1664 1665 1666 1667 1668 1669 1670 1671 1672 1673 1674 1675 1676 1677 1678 1679 1680 1681 1682 1683 1684 1685 1686 1687 1688 1689 1690 1691 1692 1693 1694 1695 1696 1697 1698 1699 1700 1701 1702 1703 1704 1705 1706 1707 1708 1709 1710 1711 1712 1713 1714 1715 1716 1717 1718 1719 1720 1721 1722 1723 1724 1725 1726 1727 1728 1729 1730 1731 1732 1733 1734 1735 1736 1737 1738 1739 1740 1741 1742 1743 1744 1745 1746 1747 1748 1749 1750 1751 1752 1753 1754 1755 1756 1757 1758 1759 1760 1761 1762 1763 1764 1765 1766 1767 1768 1769 1770 1771 1772 1773 1774 1775 1776 1777 1778 1779 1780 1781 1782 1783 1784 1785 1786 1787 1788 1789 1790 1791 1792 1793 1794 1795 1796 1797 1798 1799 1800 1801 1802 1803 1804 1805 1806 1807 1808 1809 1810 1811 1812 1813 1814 1815 1816 1817 1818 1819 1820 1821 1822 1823 1824 1825 1826 1827 1828 1829 1830 1831 1832 1833 1834 1835 1836 1837 1838 1839 1840 1841 1842 1843 1844 1845 1846 1847 1848 1849 1850 1851 1852 1853 1854 1855 1856 1857 1858 1859 1860 1861 1862 1863 1864 1865 1866 1867 1868 1869 1870 1871 1872 1873 1874 1875 1876 1877 1878 1879 1880 1881 1882 1883 1884 1885 1886 1887 1888 1889 1890 1891 1892 1893 1894 1895 1896 1897 1898 1899 1900 1901 1902 1903 1904 1905 1906 1907 1908 1909 1910 1911 1912 1913 1914 1915 1916 1917 1918 1919 1920 1921 1922 1923 1924 1925 1926 1927 1928 1929 1930 1931 1932 1933 1934 1935 1936 1937 1938 1939 1940 1941 1942 1943 1944 1945 1946 1947 1948 1949 1950 1951 1952 1953 1954 1955 1956 1957 1958 1959 1960 1961 1962 1963 1964 1965 1966 1967 1968 1969 1970 1971 1972 1973 1974 1975 1976 1977 1978 1979 1980 1981 1982 1983 1984 1985 1986 1987 1988 1989 1990 1991 1992 1993 1994 1995 1996 1997 1998 1999 2000 2001 2002 2003 2004 2005 2006 2007 2008 2009 2010 2011 2012 2013 2014 2015 2016 2017 2018 2019 2020 2021 2022 2023 2024 2025 2026 2027 2028 2029 2030 2031 2032 2033 2034 2035 2036 2037 2038 2039 2040 2041 2042 2043 2044 2045 2046 2047 2048 2049 2050 2051 2052 2053 2054 2055 2056 2057 2058 2059 2060 2061 2062 2063 2064 2065 2066 2067 2068 2069 2070 2071 2072 2073 2074 2075 2076 2077 2078 2079 2080 2081 2082 2083 2084 2085 2086 2087 2088 2089 2090 2091 2092 2093 2094 2095 2096 2097 2098 2099 2100 2101 2102 2103 2104 2105 2106 2107 2108 2109 2110 2111 2112 2113 2114 2115 2116 2117 2118 2119 2120 2121 2122 2123 2124 2125 2126 2127 2128 2129 2130 2131 2132 2133 2134 2135 2136 2137 2138 2139 2140 2141 2142 2143 2144 2145 2146 2147 2148 2149 2150 2151 2152 2153 2154 2155 2156 2157 2158 2159 2160 2161 2162 2163 2164 2165 2166 2167 2168 2169 2170 2171 2172 2173 2174 2175 2176 2177 2178 2179 2180 2181 2182 2183 2184 2185 2186 2187 2188 2189 2190 2191 2192 2193 2194 2195 2196 2197 2198 2199 2200 2201 2202 2203 2204 2205 2206 2207 2208 2209 2210 2211 2212 2213 2214 2215 2216 2217 2218 2219 2220 2221 2222 2223 2224 2225 2226 2227 2228 2229 2230 2231 2232 2233 2234 2235 2236 2237 2238 2239 2240 2241 2242 2243 2244 2245 2246 2247 2248 2249 2250 2251 2252 2253 2254 2255 2256 2257 2258 2259 2260 2261 2262 2263 2264 2265 2266 2267 2268 2269 2270 2271 2272 2273 2274 2275 2276 2277 2278 2279 2280 2281 2282 2283 2284 2285 2286 2287 2288 2289 2290 2291 2292 2293 2294 2295 2296 2297 2298 2299 2300 2301 2302 2303 2304 2305 2306 2307 2308 2309 2310 2311 2312 2313 2314 2315 2316 2317 2318 2319 2320 2321 2322 2323 2324 2325 2326 2327 2328 2329 2330 2331 2332 2333 2334 2335 2336 2337 2338 2339 2340 2341 2342 2343 2344 2345 2346 2347 2348 2349 2350 2351 2352 2353 2354 2355 2356 2357 2358 2359 2360 2361 2362 2363 2364 2365 2366 2367 2368 2369 2370 2371 2372 2373 2374 2375 2376 2377 2378 2379 2380 2381 2382 2383 2384 2385 2386 2387 2388 2389 2390 2391 2392 2393 2394 2395 2396 2397 2398 2399 2400 2401 2402 2403 2404 2405 2406 2407 2408 2409 2410 2411 2412 2413 2414 2415 2416 2417 2418 2419 2420 2421 2422 2423 2424 2425 2426 2427 2428 2429 2430 2431 2432 2433 2434 2435 2436 2437 2438 2439 2440 2441 2442 2443 2444 2445 2446 2447 2448 2449 2450 2451 2452 2453 2454 2455 2456 2457 2458 2459 2460 2461 2462 2463 2464 2465 2466 2467 2468 2469 2470 2471 2472 2473 2474 2475 2476 2477 2478 2479 2480 2481 2482 2483 2484 2485 2486 2487 2488 2489 2490 2491 2492 2493 2494 2495 2496 2497 2498 2499 2500 2501 2502 2503 2504 2505 2506 2507 2508 2509 2510 2511 2512 2513 2514 2515 2516 2517 2518 2519 2520 2521 2522 2523 2524 2525 2526 2527 2528 2529 2530 2531 2532 2533 2534 2535 2536 2537 2538 2539 2540 2541 2542 2543 2544 2545 2546 2547 2548 2549 2550 2551 2552 2553 2554 2555 2556 2557 2558 2559 2560 2561 2562 2563 2564 2565 2566 2567 2568 2569 2570 2571 2572 2573 2574 2575 2576 2577 2578 2579 2580 2581 2582 2583 2584 2585 2586 2587 2588 2589 2590 2591 2592 2593 2594 2595 2596 2597 2598 2599 2600 2601 2602 2603 2604 2605 2606 2607 2608 2609 2610 2611 2612 2613 2614 2615 2616 2617 2618 2619 2620 2621 2622 2623 2624 2625 2626 2627 2628 2629 2630 2631 2632 2633 2634 2635 2636 2637 2638 2639 2640 2641 2642 2643 2644 2645 2646 2647 2648 2649 2650 2651 2652 2653 2654 2655 2656 2657 2658 2659 2660 2661 2662 2663 2664 2665 2666 2667 2668 2669 2670 2671 2672 2673 2674 2675 2676 2677 2678 2679 2680 2681 2682 2683 2684 2685 2686 2687 2688 2689 2690 2691 2692 2693 2694 2695 2696 2697 2698 2699 2700 2701 2702 2703 2704 2705 2706 2707 2708 2709 2710 2711 2712 2713 2714 2715 2716 2717 2718 2719 2720 2721 2722 2723 2724 2725 2726 2727 2728 2729 2730 2731 2732 2733 2734 2735 2736 2737 2738 2739 2740 2741 2742 2743 2744 2745 2746 2747 2748 2749 2750 2751 2752 2753 2754 2755 2756 2757 2758 2759 2760 2761 2762 2763 2764 2765 2766 2767 2768 2769 2770 2771 2772 2773 2774 2775 2776 2777 2778 2779 2780 2781 2782 2783 2784 2785 2786 2787 2788 2789 2790 2791 2792 2793 2794 2795 2796 2797 2798 2799 2800 2801 2802 2803 2804 2805 2806 2807 2808 2809 2810 2811 2812 2813 2814 2815 2816 2817 2818 2819 2820 2821 2822 2823 2824 2825 2826 2827 2828 2829 2830 2831 2832 2833 2834 2835 2836 2837 2838 2839 2840 2841 2842 2843 2844 2845 2846 2847 2848 2849 2850 2851 2852 2853 2854 2855 2856 2857 2858 2859 2860 2861 2862 2863 2864 2865 2866 2867 2868 2869 2870 2871 2872 2873 2874 2875 2876 2877 2878 2879 2880 2881 2882 2883 2884 2885 2886 2887 2888 2889 2890 2891 2892 2893 2894 2895 2896 2897 2898 2899 2900 2901 2902 2903 2904 2905 2906 2907 2908 2909 2910 2911 2912 2913 2914 2915 2916 2917 2918 2919 2920 2921 2922 2923 2924 2925 2926 2927 2928 2929 2930 2931 2932 2933 2934 2935 2936 2937 2938 2939 2940 2941 2942 2943 2944 2945 2946 2947 2948 2949 2950 2951 2952 2953 2954 2955 2956 2957 2958 2959 2960 2961 2962 2963 2964 2965 2966 2967 2968 2969 2970 2971 2972 2973 2974 2975 2976 2977 2978 2979 2980 2981 2982 2983 2984 2985 2986 2987 2988 2989 2990 2991 2992 2993 2994 2995 2996 2997 2998 2999 3000 3001 3002 3003 3004 3005 3006 3007 3008 3009 3010 3011 3012 3013 3014 3015 3016 3017 3018 3019 3020 3021 3022 3023 3024 3025 3026 3027 3028 3029 3030 3031 3032 3033 3034 3035 3036 3037 3038 3039 3040 3041 3042 3043 3044 3045 3046 3047 3048 3049 3050 3051 3052 3053 3054 3055 3056 3057 3058 3059 3060 3061 3062 3063 3064 3065 3066 3067 3068 3069 3070 3071 3072 3073 3074 3075 3076 3077 3078 3079 3080 3081 3082 3083 3084 3085 3086 3087 3088 3089 3090 3091 3092 3093 3094 3095 3096 3097 3098 3099 3100 3101 3102 3103 3104 3105 3106 3107 3108 3109 3110 3111 3112 3113 3114 3115 3116 3117 3118 3119 3120 3121 3122 3123 3124 3125 3126 3127 3128 3129 3130 3131 3132 3133 3134 3135 3136 3137 3138 3139 3140 3141 3142 3143 3144 3145 3146 3147 3148 3149 3150 3151 3152 3153 3154 3155 3156 3157 3158 3159 3160 3161 3162 3163 3164 3165 3166 3167 3168 3169 3170 3171 3172 3173 3174 3175 3176 3177 3178 3179 3180 3181 3182 3183 3184 3185 3186 3187 3188 3189 3190 3191 3192 3193 3194 3195 3196 3197 3198 3199 3200 3201 3202 3203 3204 3205 3206 3207 3208 3209 3210 3211 3212 3213 3214 3215 3216 3217 3218 3219 3220 3221 3222 3223 3224 3225 3226 3227 3228 3229 3230 3231 3232 3233 3234 3235 3236 3237 3238 3239 3240 3241 3242 3243 3244 3245 3246 3247 3248 3249 3250 3251 3252 3253 3254 3255 3256 3257 3258 3259 3260 3261 3262 3263 3264 3265 3266 3267 3268 3269 3270 3271 3272 3273 3274 3275 3276 3277 3278 3279 3280 3281 3282 3283 3284 3285 3286 3287 3288 3289 3290 3291 3292 3293 3294 3295 3296 3297 3298 3299 3300 3301 3302 3303 3304 3305 3306 3307 3308 3309 3310 3311 3312 3313 3314 3315 3316 3317 3318 3319 3320 3321 3322 3323 3324 3325 3326 3327 3328 3329 3330 3331 3332 3333 3334 3335 3336 3337 3338 3339 3340 3341 3342 3343 3344 3345 3346 3347 3348 3349 3350 3351 3352 3353 3354 3355 3356 3357 3358 3359 3360 3361 3362 3363 3364 3365 3366 3367 3368 3369 3370 3371 3372 3373 3374 3375 3376 3377 3378 3379 3380 3381 3382 3383 3384 3385 3386 3387 3388 3389 3390 3391 3392 3393 3394 3395 3396 3397 3398 3399 3400 3401 3402 3403 3404 3405 3406 3407 3408 3409 3410 3411 3412 3413 3414 3415 3416 3417 3418 3419 3420 3421 3422 3423 3424 3425 3426 3427 3428 3429 3430 3431 3432 3433 3434 3435 3436 3437 3438 3439 3440 3441 3442 3443 3444 3445 3446 3447 3448 3449 3450 3451 3452 3453 3454 3455 3456 3457 3458 3459 3460 3461 3462 3463 3464 3465 3466 3467 3468 3469 3470 3471 3472 3473 3474 3475 3476 3477 3478 3479 3480 3481 3482 3483 3484 3485 3486 3487 3488 3489 3490 3491 3492 3493 3494 3495 3496 3497 3498 3499 3500 3501 3502 3503 3504 3505 3506 3507 3508 3509 3510 3511 3512 3513 3514 3515 3516 3517 3518 3519 3520 3521 3522 3523 3524 3525 3526 3527 3528 3529 3530 3531 3532 3533 3534 3535 3536 3537 3538 3539 3540 3541 3542 3543 3544 3545 3546 3547 3548 3549 3550 3551 3552 3553 3554 3555 3556 3557 3558 3559 3560 3561 3562 3563 3564 3565 3566 3567 3568 3569 3570 3571 3572 3573 3574 3575 3576 3577 3578 3579 3580 3581 3582 3583 3584 3585 3586 3587 3588 3589 3590 3591 3592 3593 3594 3595 3596 3597 3598 3599 3600 3601 3602 3603 3604 3605 3606 3607 3608 3609 3610 3611 3612 3613 3614 3615 3616 3617 3618 3619 3620 3621 3622 3623 3624 3625 3626 3627 3628 3629 3630 3631 3632 3633 3634 3635 3636 3637 3638 3639 3640 3641 3642 3643 3644 3645 3646 3647 3648 3649 3650 3651 3652 3653 3654 3655 3656 3657 3658 3659 3660 3661 3662 3663 3664 3665 3666 3667 3668 3669 3670 3671 3672 3673 3674 3675 3676 3677 3678 3679 3680 3681 3682 3683 3684 3685 3686 3687 3688 3689 3690 3691 3692 3693 3694 3695 3696 3697 3698 3699 3700 3701 3702 3703 3704 3705 3706 3707 3708 3709 3710 3711 3712 3713 3714 3715 3716 3717 3718 3719 3720 3721 3722 3723 3724 3725 3726 3727 3728 3729 3730 3731 3732 3733 3734 3735 3736 3737 3738 3739 3740 3741 3742 3743 3744 3745 3746 3747 3748 3749 3750 3751 3752 3753 3754 3755 3756 3757 3758 3759 3760 3761 3762 3763 3764 3765 3766 3767 3768 3769 3770 3771 3772 3773 3774 3775 3776 3777 3778 3779 3780 3781 3782 3783 3784 3785 3786 3787 3788 3789 3790 3791 3792 3793 3794 3795 3796 3797 3798 3799 3800 3801 3802 3803 3804 3805 3806 3807 3808 3809 3810 3811 3812 3813 3814 3815 3816 3817 3818 3819 3820 3821 3822 3823 3824 3825 3826 3827 3828 3829 3830 3831 3832 3833 3834 3835 3836 3837 3838 3839 3840 3841 3842 3843 3844 3845 3846 3847 3848 3849 3850 3851 3852 3853 3854 3855 3856 3857 3858 3859 3860 3861 3862 3863 3864 3865 3866 3867 3868 3869 3870 3871 3872 3873 3874 3875 3876 3877 3878 3879 3880 3881 3882 3883 3884 3885 3886 3887 3888 3889 3890 3891 3892 3893 3894 3895 3896 3897 3898 3899 3900 3901 3902 3903 3904 3905 3906 3907 3908 3909 3910 3911 3912 3913 3914 3915 3916 3917 3918 3919 3920 3921 3922 3923 3924 3925 3926 3927 3928 3929 3930 3931 3932 3933 3934 3935 3936 3937 3938 3939 3940 3941 3942 3943 3944 3945 3946 3947 3948 3949 3950 3951 3952 3953 3954 3955 3956 3957 3958 3959 3960 3961 3962 3963 3964 3965 3966 3967 3968 3969 3970 3971 3972 3973 3974 3975 3976 3977 3978 3979 3980 3981 3982 3983 3984 3985 3986 3987 3988 3989 3990 3991 3992 3993 3994 3995 3996 3997 3998 3999 4000 4001 4002 4003 4004 4005 4006 4007 4008 4009 4010 4011 4012 4013 4014 4015 4016 4017 4018 4019 4020 4021 4022 4023 4024 4025 4026 4027 4028 4029 4030 4031 4032 4033 4034 4035 4036 4037 4038 4039 4040 4041 4042 4043 4044 4045 4046 4047 4048 4049 4050 4051 4052 4053 4054 4055 4056 4057 4058 4059 4060 4061 4062 4063 4064 4065 4066 4067 4068 4069 4070 4071 4072 4073 4074 4075 4076 4077 4078 4079 4080 4081 4082 4083 4084 4085 4086 4087 4088 4089 4090 4091 4092 4093 4094 4095 4096 4097 4098 4099 4100 4101 4102 4103 4104 4105 4106 4107 4108 4109 4110 4111 4112 4113 4114 4115 4116 4117 4118 4119 4120 4121 4122 4123 4124 4125 4126 4127 4128 4129 4130 4131 4132 4133 4134 4135 4136 4137 4138 4139 4140 4141 4142 4143 4144 4145 4146 4147 4148 4149 4150 4151 4152 4153 4154 4155 4156 4157 4158 4159 4160 4161 4162 4163 4164 4165 4166 4167 4168 4169 4170 4171 4172 4173 4174 4175 4176 4177 4178 4179 4180 4181 4182 4183 4184 4185 4186 4187 4188 4189 4190 4191 4192 4193 4194 4195 4196 4197 4198 4199 4200 4201 4202 4203 4204 4205 4206 4207 4208 4209 4210 4211 4212 4213 4214 4215 4216 4217 4218 4219 4220 4221 4222 4223 4224 4225 4226 4227 4228 4229 4230 4231 4232 4233 4234 4235 4236 4237 4238 4239 4240 4241 4242 4243 4244 4245 4246 4247 4248 4249 4250 4251 4252 4253 4254 4255 4256 4257 4258 4259 4260 4261 4262 4263 4264 4265 4266 4267 4268 4269 4270 4271 4272 4273 4274 4275 4276 4277 4278 4279 4280 4281 4282 4283 4284 4285 4286 4287 4288 4289 4290 4291 4292 4293 4294 4295 4296 4297 4298 4299 4300 4301 4302 4303 4304 4305 4306 4307 4308 4309 4310 4311 4312 4313 4314 4315 4316 4317 4318 4319 4320 4321 4322 4323 4324 4325 4326 4327 4328 4329 4330 4331 4332 4333 4334 4335 4336 4337 4338 4339 4340 4341 4342 4343 4344 4345 4346 4347 4348 4349 4350 4351 4352 4353 4354 4355 4356 4357 4358 4359 4360 4361 4362 4363 4364 4365 4366 4367 4368 4369 4370 4371 4372 4373 4374 4375 4376 4377 4378 4379 4380 4381 4382 4383 4384 4385 4386 4387 4388 4389 4390 4391 4392 4393 4394 4395 4396 4397 4398 4399 4400 4401 4402 4403 4404 4405 4406 4407 4408 4409 4410 4411 4412 4413 4414 4415 4416 4417 4418 4419 4420 4421 4422 4423 4424 4425 4426 4427 4428 4429 4430 4431 4432 4433 4434 4435 4436 4437 4438 4439 4440 4441 4442 4443 4444 4445 4446 4447 4448 4449 4450 4451 4452 4453 4454 4455 4456 4457 4458 4459 4460 4461 4462 4463 4464 4465 4466 4467 4468 4469 4470 4471 4472 4473 4474 4475 4476 4477 4478 4479 4480 4481 4482 4483 4484 4485 4486 4487 4488 4489 4490 4491 4492 4493 4494 4495 4496 4497 4498 4499 4500 4501 4502 4503 4504 4505 4506 4507 4508 4509 4510 4511 4512 4513 4514 4515 4516 4517 4518 4519 4520 4521 4522 4523 4524 4525 4526 4527 4528 4529 4530 4531 4532 4533 4534 4535 4536 4537 4538 4539 4540 4541 4542 4543 4544 4545 4546 4547 4548 4549 4550 4551 4552 4553 4554 4555 4556 4557 4558 4559 4560 4561 4562 4563 4564 4565 4566 4567 4568 4569 4570 4571 4572 4573 4574 4575 4576 4577 4578 4579 4580 4581 4582 4583 4584 4585 4586 4587 4588 4589 4590 4591 4592 4593 4594 4595 4596 4597 4598 4599 4600 4601 4602 4603 4604 4605 4606 4607 4608 4609 4610 4611 4612 4613 4614 4615 4616 4617 4618 4619 4620 4621 4622 4623 4624 4625 4626 4627 4628 4629 4630 4631 4632 4633 4634 4635 4636 4637 4638 4639 4640 4641 4642 4643 4644 4645 4646 4647 4648 4649 4650 4651 4652 4653 4654 4655 4656 4657 4658 4659 4660 4661 4662 4663 4664 4665 4666 4667 4668 4669 4670 4671 4672 4673 4674 4675 4676 4677 4678 4679 4680 4681 4682 4683 4684 4685 4686 4687 4688 4689 4690 4691 4692 4693 4694 4695 4696 4697 4698 4699 4700 4701 4702 4703 4704 4705 4706 4707 4708 4709 4710 4711 4712 4713 4714 4715 4716 4717 4718 4719 4720 4721 4722 4723 4724 4725 4726 4727 4728 4729 4730 4731 4732 4733 4734 4735 4736 4737 4738 4739 4740 4741 4742 4743 4744 4745 4746 4747 4748 4749 4750 4751 4752 4753 4754 4755 4756 4757 4758 4759 4760 4761 4762 4763 4764 4765 4766 4767 4768 4769 4770 4771 4772 4773 4774 4775 4776 4777 4778 4779 4780 4781 4782 4783 4784 4785 4786 4787 4788 4789 4790 4791 4792 4793 4794 4795 4796 4797 4798 4799 4800 4801 4802 4803 4804 4805 4806 4807 4808 4809 4810 4811 4812 4813 4814 4815 4816 4817 4818 4819 4820 4821 4822 4823 4824 4825 4826 4827 4828 4829 4830 4831 4832 4833 4834 4835 4836 4837 4838 4839 4840 4841 4842 4843 4844 4845 4846 4847 4848 4849 4850 4851 4852 4853 4854 4855 4856 4857 4858 4859 4860 4861 4862 4863 4864 4865 4866 4867 4868 4869 4870 4871 4872 4873 4874 4875 4876 4877 4878 4879 4880 4881 4882 4883 4884 4885 4886 4887 4888 4889 4890 4891 4892 4893 4894 4895 4896 4897 4898 4899 4900 4901 4902 4903 4904 4905 4906 4907 4908 4909 4910 4911 4912 4913 4914 4915 4916 4917 4918 4919 4920 4921 4922 4923 4924 4925 4926 4927 4928 4929 4930 4931 4932 4933 4934 4935 4936 4937 4938 4939 4940 4941 4942 4943 4944 4945 4946 4947 4948 4949 4950 4951 4952 4953 4954 4955 4956 4957 4958 4959 4960 4961 4962 4963 4964 4965 4966 4967 4968 4969 4970 4971 4972 4973 4974 4975 4976 4977 4978 4979 4980 4981 4982 4983 4984 4985 4986 4987 4988 4989 4990 4991 4992 4993 4994 4995 4996 4997 4998 4999 5000 5001 5002 5003 5004 5005 5006 5007 5008 5009 5010 5011 5012 5013 5014 5015 5016 5017 5018 5019 5020 5021 5022 5023 5024 5025 5026 5027 5028 5029 5030 5031 5032 5033 5034 5035 5036 5037 5038 5039 5040 5041 5042 5043 5044 5045 5046 5047 5048 5049 5050 5051 5052 5053 5054 5055 5056 5057 5058 5059 5060 5061 5062 5063 5064 5065 5066 5067 5068 5069 5070 5071 5072 5073 5074 5075 5076 5077 5078 5079 5080 5081 5082 5083 5084 5085 5086 5087 5088 5089 5090 5091 5092 5093 5094 5095 5096 5097 5098 5099 5100 5101 5102 5103 5104 5105 5106 5107 5108 5109 5110 5111 5112 5113 5114 5115 5116 5117 5118 5119 5120 5121 5122 5123 5124 5125 5126 5127 5128 5129 5130 5131 5132 5133 5134 5135 5136 5137 5138 5139 5140 5141 5142 5143 5144 5145 5146 5147 5148 5149 5150 5151 5152 5153 5154 5155 5156 5157 5158 5159 5160 5161 5162 5163 5164 5165 5166 5167 5168 5169 5170 5171 5172 5173 5174 5175 5176 5177 5178 5179 5180 5181 5182 5183 5184 5185 5186 5187 5188 5189 5190 5191 5192 5193 5194 5195 5196 5197 5198 5199 5200 5201 5202 5203 5204 5205 5206 5207 5208 5209 5210 5211 5212 5213 5214 5215 5216 5217 5218 5219 5220 5221 5222 5223 5224 5225 5226 5227 5228 5229 5230 5231 5232 5233 5234 5235 5236 5237 5238 5239 5240 5241 5242 5243 5244 5245 5246 5247 5248 5249 5250 5251 5252 5253 5254 5255 5256 5257 5258 5259 5260 5261 5262 5263 5264 5265 5266 5267 5268 5269 5270 5271 5272 5273 5274 5275 5276 5277 5278 5279 5280 5281 5282 5283 5284 5285 5286 5287 5288 5289 5290 5291 5292 5293 5294 5295 5296 5297 5298 5299 5300 5301 5302 5303 5304 5305 5306 5307 5308 5309 5310 5311 5312 5313 5314 5315 5316 5317 5318 5319 5320 5321 5322 5323 5324 5325 5326 5327 5328 5329 5330 5331 5332 5333 5334 5335 5336 5337 5338 5339 5340 5341 5342 5343 5344 5345 5346 5347 5348 5349 5350 5351 5352 5353 5354 5355 5356 5357 5358 5359 5360 5361 5362 5363 5364 5365 5366 5367 5368 5369 5370 5371 5372 5373 5374 5375 5376 5377 5378 5379 5380 5381 5382 5383 5384 5385 5386 5387 5388 5389 5390 5391 5392 5393 5394 5395 5396 5397 5398 5399 5400 5401 5402 5403 5404 5405 5406 5407 5408 5409 5410 5411 5412 5413 5414 5415 5416 5417 5418 5419 5420 5421 5422 5423 5424 5425 5426 5427 5428 5429 5430 5431 5432 5433 5434 5435 5436 5437 5438 5439 5440 5441 5442 5443 5444 5445 5446 5447 5448 5449 5450 5451 5452 5453 5454 5455 5456 5457 5458 5459 5460 5461 5462 5463 5464 5465 5466 5467 5468 5469 5470 5471 5472 5473 5474 5475 5476 5477 5478 5479 5480 5481 5482 5483 5484 5485 5486 5487 5488 5489 5490 5491 5492 5493 5494 5495 5496 5497 5498 5499 5500 5501 5502 5503 5504 5505 5506 5507 5508 5509 5510 5511 5512 5513 5514 5515 5516 5517 5518 5519 5520 5521 5522 5523 5524 5525 5526 5527 5528 5529 5530 5531 5532 5533 5534 5535 5536 5537 5538 5539 5540 5541 5542 5543 5544 5545 5546 5547 5548 5549 5550 5551 5552 5553 5554 5555 5556 5557 5558 5559 5560 5561 5562 5563 5564 5565 5566 5567 5568 5569 5570 5571 5572 5573 5574 5575 5576 5577 5578 5579 5580 5581 5582 5583 5584 5585 5586 5587 5588 5589 5590 5591 5592 5593 5594 5595 5596 5597 5598 5599 5600 5601 5602 5603 5604 5605 5606 5607 5608 5609 5610 5611 5612 5613 5614 5615 5616 5617 5618 5619 5620 5621 5622 5623 5624 5625 5626 5627 5628 5629 5630 5631 5632 5633 5634 5635 5636 5637 5638 5639 5640 5641 5642 5643 5644 5645 5646 5647 5648 5649 5650 5651 5652 5653 5654 5655 5656 5657 5658 5659 5660 5661 5662 5663 5664 5665 5666 5667 5668 5669 5670 5671 5672 5673 5674 5675 5676 5677 5678 5679 5680 5681 5682 5683 5684 5685 5686 5687 5688 5689 5690 5691 5692 5693 5694 5695 5696 5697 5698 5699 5700 5701 5702 5703 5704 5705 5706 5707 5708 5709 5710 5711 5712 5713 5714 5715 5716 5717 5718 5719 5720 5721 5722 5723 5724 5725 5726 5727 5728 5729 5730 5731 5732 5733 5734 5735 5736 5737 5738 5739 5740 5741 5742 5743 5744 5745 5746 5747 5748 5749 5750 5751 5752 5753 5754 5755 5756 5757 5758 5759 5760 5761 5762 5763 5764 5765 5766 5767 5768 5769 5770 5771 5772 5773 5774 5775 5776 5777 5778 5779 5780 5781 5782 5783 5784 5785 5786 5787 5788 5789 5790 5791 5792 5793 5794 5795 5796 5797 5798 5799 5800 5801 5802 5803 5804 5805 5806 5807 5808 5809 5810 5811 5812 5813 5814 5815 5816 5817 5818 5819 5820 5821 5822 5823 5824 5825 5826 5827 5828 5829 5830 5831 5832 5833 5834 5835 5836 5837 5838 5839 5840 5841 5842 5843 5844 5845 5846 5847 5848 5849 5850 5851 5852 5853 5854 5855 5856 5857 5858 5859 5860 5861 5862 5863 5864 5865 5866 5867 5868 5869 5870 5871 5872 5873 5874 5875 5876 5877 5878 5879 5880 5881 5882 5883 5884 5885 5886 5887 5888 5889 5890 5891 5892 5893 5894 5895 5896 5897 5898 5899 5900 5901 5902 5903 5904 5905 5906 5907 5908 5909 5910 5911 5912 5913 5914 5915 5916 5917 5918 5919 5920 5921 5922 5923 5924 5925 5926 5927 5928 5929 5930 5931 5932 5933 5934 5935 5936 5937 5938 5939 5940 5941 5942 5943 5944 5945 5946 5947 5948 5949 5950 5951 5952 5953 5954 5955 5956 5957 5958 5959 5960 5961 5962 5963 5964 5965 5966 5967 5968 5969 5970 5971 5972 5973 5974 5975 5976 5977 5978 5979 5980 5981 5982 5983 5984 5985 5986 5987 5988 5989 5990 5991 5992 5993 5994 5995 5996 5997 5998 5999 6000 6001 6002 6003 6004 6005 6006 6007 6008 6009 6010 6011 6012 6013 6014 6015 6016 6017 6018 6019 6020 6021 6022 6023 6024 6025 6026 6027 6028 6029 6030 6031 6032 6033 6034 6035 6036 6037 6038 6039 6040 6041 6042 6043 6044 6045 6046 6047 6048 6049 6050 6051 6052 6053 6054 6055 6056 6057 6058 6059 6060 6061 6062 6063 6064 6065 6066 6067 6068 6069 6070 6071 6072 6073 6074 6075 6076 6077 6078 6079 6080 6081 6082 6083 6084 6085 6086 6087 6088 6089 6090 6091 6092 6093 6094 6095 6096 6097 6098 6099 6100 6101 6102 6103 6104 6105 6106 6107 6108 6109 6110 6111 6112 6113 6114 6115 6116 6117 6118 6119 6120 6121 6122 6123 6124 6125 6126 6127 6128 6129 6130 6131 6132 6133 6134 6135 6136 6137 6138 6139 6140 6141 6142 6143 6144 6145 6146 6147 6148 6149 6150 6151 6152 6153 6154 6155 6156 6157 6158 6159 6160 6161 6162 6163 6164 6165 6166 6167 6168 6169 6170 6171 6172 6173 6174 6175 6176 6177 6178 6179 6180 6181 6182 6183 6184 6185 6186 6187 6188 6189 6190 6191 6192 6193 6194 6195 6196 6197 6198 6199 6200 6201 6202 6203 6204 6205 6206 6207 6208 6209 6210 6211 6212 6213 6214 6215 6216 6217 6218 6219 6220 6221 6222 6223 6224 6225 6226 6227 6228 6229 6230 6231 6232 6233 6234 6235 6236 6237 6238 6239 6240 6241 6242 6243 6244 6245 6246 6247 6248 6249 6250 6251 6252 6253 6254 6255 6256 6257 6258 6259 6260 6261 6262 6263 6264 6265 6266 6267 6268 6269 6270 6271 6272 6273 6274 6275 6276 6277 6278 6279 6280 6281 6282 6283 6284 6285 6286 6287 6288 6289 6290 6291 6292 6293 6294 6295 6296 6297 6298 6299 6300 6301 6302 6303 6304 6305 6306 6307 6308 6309 6310 6311 6312 6313 6314 6315 6316 6317 6318 6319 6320 6321 6322 6323 6324 6325 6326 6327 6328 6329 6330 6331 6332 6333 6334 6335 6336 6337 6338 6339 6340 6341 6342 6343 6344 6345 6346 6347 6348 6349 6350 6351 6352 6353 6354 6355 6356 6357 6358 6359 6360 6361 6362 6363 6364 6365 6366 6367 6368 6369 6370 6371 6372 6373 6374 6375 6376 6377 6378 6379 6380 6381 6382 6383 6384 6385 6386 6387 6388 6389 6390 6391 6392 6393 6394 6395 6396 6397 6398 6399 6400 6401 6402 6403 6404 6405 6406 6407 6408 6409 6410 6411 6412 6413 6414 6415 6416 6417 6418 6419 6420 6421 6422 6423 6424 6425 6426 6427 6428 6429 6430 6431 6432 6433 6434 6435 6436 6437 6438 6439 6440 6441 6442 6443 6444 6445 6446 6447 6448 6449 6450 6451 6452 6453 6454 6455 6456 6457 6458 6459 6460 6461 6462 6463 6464 6465 6466 6467 6468 6469 6470 6471 6472 6473 6474 6475 6476 6477 6478 6479 6480 6481 6482 6483 6484 6485 6486 6487 6488 6489 6490 6491 6492 6493 6494 6495 6496 6497 6498 6499 6500 6501 6502 6503 6504 6505 6506 6507 6508 6509 6510 6511 6512 6513 6514 6515 6516 6517 6518 6519 6520 6521 6522 6523 6524 6525 6526 6527 6528 6529 6530 6531 6532 6533 6534 6535 6536 6537 6538 6539 6540 6541 6542 6543 6544 6545 6546 6547 6548 6549 6550 6551 6552 6553 6554 6555 6556 6557 6558 6559 6560 6561 6562 6563 6564 6565 6566 6567 6568 6569 6570 6571 6572 6573 6574 6575 6576 6577 6578 6579 6580 6581 6582 6583 6584 6585 6586 6587 6588 6589 6590 6591 6592 6593 6594 6595 6596 6597 6598 6599 6600 6601 6602 6603 6604 6605 6606 6607 6608 6609 6610 6611 6612 6613 6614 6615 6616 6617 6618 6619 6620 6621 6622 6623 6624 6625 6626 6627 6628 6629 6630 6631 6632 6633 6634 6635 6636 6637 6638 6639 6640 6641 6642 6643 6644 6645 6646 6647 6648 6649 6650 6651 6652 6653 6654 6655 6656 6657 6658 6659 6660 6661 6662 6663 6664 6665 6666 6667 6668 6669 6670 6671 6672 6673 6674 6675 6676 6677 6678 6679 6680 6681 6682 6683 6684 6685 6686 6687 6688 6689 6690 6691 6692 6693 6694 6695 6696 6697 6698 6699 6700 6701 6702 6703 6704 6705 6706 6707 6708 6709 6710 6711 6712 6713 6714 6715 6716 6717 6718 6719 6720 6721 6722 6723 6724 6725 6726 6727 6728 6729 6730 6731 6732 6733 6734 6735 6736 6737 6738 6739 6740 6741 6742 6743 6744 6745 6746 6747 6748 6749 6750 6751 6752 6753 6754 6755 6756 6757 6758 6759 6760 6761 6762 6763 6764 6765 6766 6767 6768 6769 6770 6771 6772 6773 6774 6775 6776 6777 6778 6779 6780 6781 6782 6783 6784 6785 6786 6787 6788 6789 6790 6791 6792 6793 6794 6795 6796 6797 6798 6799 6800 6801 6802 6803 6804 6805 6806 6807 6808 6809 6810 6811 6812 6813 6814 6815 6816 6817 6818 6819 6820 6821 6822 6823 6824 6825 6826 6827 6828 6829 6830 6831 6832 6833 6834 6835 6836 6837 6838 6839 6840 6841 6842 6843 6844 6845 6846 6847 6848 6849 6850 6851 6852 6853 6854 6855 6856 6857 6858 6859 6860 6861 6862 6863 6864 6865 6866 6867 6868 6869 6870 6871 6872 6873 6874 6875 6876 6877 6878 6879 6880 6881 6882 6883 6884 6885 6886 6887 6888 6889 6890 6891 6892 6893 6894 6895 6896 6897 6898 6899 6900 6901 6902 6903 6904 6905 6906 6907 6908 6909 6910 6911 6912 6913 6914 6915 6916 6917 6918 6919 6920 6921 6922 6923 6924 6925 6926 6927 6928 6929 6930 6931 6932 6933 6934 6935 6936 6937 6938 6939 6940 6941 6942 6943 6944 6945 6946 6947 6948 6949 6950 6951 6952 6953 6954 6955 6956 6957 6958 6959 6960 6961 6962 6963 6964 6965 6966 6967 6968 6969 6970 6971 6972 6973 6974 6975 6976 6977 6978 6979 6980 6981 6982 6983 6984 6985 6986 6987 6988 6989 6990 6991 6992 6993 6994 6995 6996 6997 6998 6999 7000 7001 7002 7003 7004 7005 7006 7007 7008 7009 7010 7011 7012 7013 7014 7015 7016 7017 7018 7019 7020 7021 7022 7023 7024 7025 7026 7027 7028 7029 7030 7031 7032 7033 7034 7035 7036 7037 7038 7039 7040 7041 7042 7043 7044 7045 7046 7047 7048 7049 7050 7051 7052 7053 7054 7055 7056 7057 7058 7059 7060 7061 7062 7063 7064 7065 7066 7067 7068 7069 7070 7071 7072 7073 7074 7075 7076 7077 7078 7079 7080 7081 7082 7083 7084 7085 7086 7087 7088 7089 7090 7091 7092 7093 7094 7095 7096 7097 7098 7099 7100 7101 7102 7103 7104 7105 7106 7107 7108 7109 7110 7111 7112 7113 7114 7115 7116 7117 7118 7119 7120 7121 7122 7123 7124 7125 7126 7127 7128 7129 7130 7131 7132 7133 7134 7135 7136 7137 7138 7139 7140 7141 7142 7143 7144 7145 7146 7147 7148 7149 7150 7151 7152 7153 7154 7155 7156 7157 7158 7159 7160 7161 7162 7163 7164 7165 7166 7167 7168 7169 7170 7171 7172 7173 7174 7175 7176 7177 7178 7179 7180 7181 7182 7183 7184 7185 7186 7187 7188 7189 7190 7191 7192 7193 7194 7195 7196 7197 7198 7199 7200 7201 7202 7203 7204 7205 7206 7207 7208 7209 7210 7211 7212 7213 7214 7215 7216 7217 7218 7219 7220 7221 7222 7223 7224 7225 7226 7227 7228 7229 7230 7231 7232 7233 7234 7235 7236 7237 7238 7239 7240 7241 7242 7243 7244 7245 7246 7247 7248 7249 7250 7251 7252 7253 7254 7255 7256 7257 7258 7259 7260 7261 7262 7263 7264 7265 7266 7267 7268 7269 7270 7271 7272 7273 7274 7275 7276 7277 7278 7279 7280 7281 7282 7283 7284 7285 7286 7287 7288 7289 7290 7291 7292 7293 7294 7295 7296 7297 7298 7299 7300 7301 7302 7303 7304 7305 7306 7307 7308 7309 7310 7311 7312 7313 7314 7315 7316 7317 7318 7319 7320 7321 7322 7323 7324 7325 7326 7327 7328 7329 7330 7331 7332 7333 7334 7335 7336 7337 7338 7339 7340 7341 7342 7343 7344 7345 7346 7347 7348 7349 7350 7351 7352 7353 7354 7355 7356 7357 7358 7359 7360 7361 7362 7363 7364 7365 7366 7367 7368 7369 7370 7371 7372 7373 7374 7375 7376 7377 7378 7379 7380 7381 7382 7383 7384 7385 7386 7387 7388 7389 7390 7391 7392 7393 7394 7395 7396 7397 7398 7399 7400 7401 7402 7403 7404 7405 7406 7407 7408 7409 7410 7411 7412 7413 7414 7415 7416 7417 7418 7419 7420 7421 7422 7423 7424 7425 7426 7427 7428 7429 7430 7431 7432 7433 7434 7435 7436 7437 7438 7439 7440 7441 7442 7443 7444 7445 7446 7447 7448 7449 7450 7451 7452 7453 7454 7455 7456 7457 7458 7459 7460 7461 7462 7463 7464 7465 7466 7467 7468 7469 7470 7471 7472 7473 7474 7475 7476 7477 7478 7479 7480 7481 7482 7483 7484 7485 7486 7487 7488 7489 7490 7491 7492 7493 7494 7495 7496 7497 7498 7499 7500 7501 7502 7503 7504 7505 7506 7507 7508 7509 7510 7511 7512 7513 7514 7515 7516 7517 7518 7519 7520 7521 7522 7523 7524 7525 7526 7527 7528 7529 7530 7531 7532 7533 7534 7535 7536 7537 7538 7539 7540 7541 7542 7543 7544 7545 7546 7547 7548 7549 7550 7551 7552 7553 7554 7555 7556 7557 7558 7559 7560 7561 7562 7563 7564 7565 7566 7567 7568 7569 7570 7571 7572 7573 7574 7575 7576 7577 7578 7579 7580 7581 7582 7583 7584 7585 7586 7587 7588 7589 7590 7591 7592 7593 7594 7595 7596 7597 7598 7599 7600 7601 7602 7603 7604 7605 7606 7607 7608 7609 7610 7611 7612 7613 7614 7615 7616 7617 7618 7619 7620 7621 7622 7623 7624 7625 7626 7627 7628 7629 7630 7631 7632 7633 7634 7635 7636 7637 7638 7639 7640 7641 7642 7643 7644 7645 7646 7647 7648 7649 7650 7651 7652 7653 7654 7655 7656 7657 7658 7659 7660 7661 7662 7663 7664 7665 7666 7667 7668 7669 7670 7671 7672 7673 7674 7675 7676 7677 7678 7679 7680 7681 7682 7683 7684 7685 7686 7687 7688 7689 7690 7691 7692 7693 7694 7695 7696 7697 7698 7699 7700 7701 7702 7703 7704 7705 7706 7707 7708 7709 7710 7711 7712 7713 7714 7715 7716 7717 7718 7719 7720 7721 7722 7723 7724 7725 7726 7727 7728 7729 7730 7731 7732 7733 7734 7735 7736 7737 7738 7739 7740 7741 7742 7743 7744 7745 7746 7747 7748 7749 7750 7751 7752 7753 7754 7755 7756 7757 7758 7759 7760 7761 7762 7763 7764 7765 7766 7767 7768 7769 7770 7771 7772 7773 7774 7775 7776 7777 7778 7779 7780 7781 7782 7783 7784 7785 7786 7787 7788 7789 7790 7791 7792 7793 7794 7795 7796 7797 7798 7799 7800 7801 7802 7803 7804 7805 7806 7807 7808 7809 7810 7811 7812 7813 7814 7815 7816 7817 7818 7819 7820 7821 7822 7823 7824 7825 7826 7827 7828 7829 7830 7831 7832 7833 7834 7835 7836 7837 7838 7839 7840 7841 7842 7843 7844 7845 7846 7847 7848 7849 7850 7851 7852 7853 7854 7855 7856 7857 7858 7859 7860 7861 7862 7863 7864 7865 7866 7867 7868 7869 7870 7871 7872 7873 7874 7875 7876 7877 7878 7879 7880 7881 7882 7883 7884 7885 7886 7887 7888 7889 7890 7891 7892 7893 7894 7895 7896 7897 7898 7899 7900 7901 7902 7903 7904 7905 7906 7907 7908 7909 7910 7911 7912 7913 7914 7915 7916 7917 7918 7919 7920 7921 7922 7923 7924 7925 7926 7927 7928 7929 7930 7931 7932 7933 7934 7935 7936 7937 7938 7939 7940 7941 7942 7943 7944 7945 7946 7947 7948 7949 7950 7951 7952 7953 7954 7955 7956 7957 7958 7959 7960 7961 7962 7963 7964 7965 7966 7967 7968 7969 7970 7971 7972 7973 7974 7975 7976 7977 7978 7979 7980 7981 7982 7983 7984 7985 7986 7987 7988 7989 7990 7991 7992 7993 7994 7995 7996 7997 7998 7999 8000 8001 8002 8003 8004 8005 8006 8007 8008 8009 8010 8011 8012 8013 8014 8015 8016 8017 8018 8019 8020 8021 8022 8023 8024 8025 8026 8027 8028 8029 8030 8031 8032 8033 8034 8035 8036 8037 8038 8039 8040 8041 8042 8043 8044 8045 8046 8047 8048 8049 8050 8051 8052 8053 8054 8055 8056 8057 8058 8059 8060 8061 8062 8063 8064 8065 8066 8067 8068 8069 8070 8071 8072 8073 8074 8075 8076 8077 8078 8079 8080 8081 8082 8083 8084 8085 8086 8087 8088 8089 8090 8091 8092 8093 8094 8095 8096 8097 8098 8099 8100 8101 8102 8103 8104 8105 8106 8107 8108 8109 8110 8111 8112 8113 8114 8115 8116 8117 8118 8119 8120 8121 8122 8123 8124 8125 8126 8127 8128 8129 8130 8131 8132 8133 8134 8135 8136 8137 8138 8139 8140 8141 8142 8143 8144 8145 8146 8147 8148 8149 8150 8151 8152 8153 8154 8155 8156 8157 8158 8159 8160 8161 8162 8163 8164 8165 8166 8167 8168 8169 8170 8171 8172 8173 8174 8175 8176 8177 8178 8179 8180 8181 8182 8183 8184 8185 8186 8187 8188 8189 8190 8191 8192 8193 8194 8195 8196 8197 8198 8199 8200 8201 8202 8203 8204 8205 8206 8207 8208 8209 8210 8211 8212 8213 8214 8215 8216 8217 8218 8219 8220 8221 8222 8223 8224 8225 8226 8227 8228 8229 8230 8231 8232 8233 8234 8235 8236 8237 8238 8239 8240 8241 8242 8243 8244 8245 8246 8247 8248 8249 8250 8251 8252 8253 8254 8255 8256 8257 8258 8259 8260 8261 8262 8263 8264 8265 8266 8267 8268 8269 8270 8271 8272 8273 8274 8275 8276 8277 8278 8279 8280 8281 8282 8283 8284 8285 8286 8287 8288 8289 8290 8291 8292 8293 8294 8295 8296 8297 8298 8299 8300 8301 8302 8303 8304 8305 8306 8307 8308 8309 8310 8311 8312 8313 8314 8315 8316 8317 8318 8319 8320 8321 8322 8323 8324 8325 8326 8327 8328 8329 8330 8331 8332 8333 8334 8335 8336 8337 8338 8339 8340 8341 8342 8343 8344 8345 8346 8347 8348 8349 8350 8351 8352 8353 8354 8355 8356 8357 8358 8359 8360 8361 8362 8363 8364 8365 8366 8367 8368 8369 8370 8371 8372 8373 8374 8375 8376 8377 8378 8379 8380 8381 8382 8383 8384 8385 8386 8387 8388 8389 8390 8391 8392 8393 8394 8395 8396 8397 8398 8399 8400 8401 8402 8403 8404 8405 8406 8407 8408 8409 8410 8411 8412 8413 8414 8415 8416 8417 8418 8419 8420 8421 8422 8423 8424 8425 8426 8427 8428 8429 8430 8431 8432 8433 8434 8435 8436 8437 8438 8439 8440 8441 8442 8443 8444 8445 8446 8447 8448 8449 8450 8451 8452 8453 8454 8455 8456 8457 8458 8459 8460 8461 8462 8463 8464 8465 8466 8467 8468 8469 8470 8471 8472 8473 8474 8475 8476 8477 8478 8479 8480 8481 8482 8483 8484 8485 8486 8487 8488 8489 8490 8491 8492 8493 8494 8495 8496 8497 8498 8499 8500 8501 8502 8503 8504 8505 8506 8507 8508 8509 8510 8511 8512 8513 8514 8515 8516 8517 8518 8519 8520 8521 8522 8523 8524 8525 8526 8527 8528 8529 8530 8531 8532 8533 8534 8535 8536 8537 8538 8539 8540 8541 8542 8543 8544 8545 8546 8547 8548 8549 8550 8551 8552 8553 8554 8555 8556 8557 8558 8559 8560 8561 8562 8563 8564 8565 8566 8567 8568 8569 8570 8571 8572 8573 8574 8575 8576 8577 8578 8579 8580 8581 8582 8583 8584 8585 8586 8587 8588 8589 8590 8591 8592 8593 8594 8595 8596 8597 8598 8599 8600 8601 8602 8603 8604 8605 8606 8607 8608 8609 8610 8611 8612 8613 8614 8615 8616 8617 8618 8619 8620 8621 8622 8623 8624 8625 8626 8627 8628 8629 8630 8631 8632 8633 8634 8635 8636 8637 8638 8639 8640 8641 8642 8643 8644 8645 8646 8647 8648 8649 8650 8651 8652 8653 8654 8655 8656 8657 8658 8659 8660 8661 8662 8663 8664 8665 8666 8667 8668 8669 8670 8671 8672 8673 8674 8675 8676 8677 8678 8679 8680 8681 8682 8683 8684 8685 8686 8687 8688 8689 8690 8691 8692 8693 8694 8695 8696 8697 8698 8699 8700 8701 8702 8703 8704 8705 8706 8707 8708 8709 8710 8711 8712 8713 8714 8715 8716 8717 8718 8719 8720 8721 8722 8723 8724 8725 8726 8727 8728 8729 8730 8731 8732 8733 8734 8735 8736 8737 8738 8739 8740 8741 8742 8743 8744 8745 8746 8747 8748 8749 8750 8751 8752 8753 8754 8755 8756 8757 8758 8759 8760 8761 8762 8763 8764 8765 8766 8767 8768 8769 8770 8771 8772 8773 8774 8775 8776 8777 8778 8779 8780 8781 8782 8783 8784 8785 8786 8787 8788 8789 8790 8791 8792 8793 8794 8795 8796 8797 8798 8799 8800 8801 8802 8803 8804 8805 8806 8807 8808 8809 8810 8811 8812 8813 8814 8815 8816 8817 8818 8819 8820 8821 8822 8823 8824 8825 8826 8827 8828 8829 8830 8831 8832 8833 8834 8835 8836 8837 8838 8839 8840 8841 8842 8843 8844 8845 8846 8847 8848 8849 8850 8851 8852 8853 8854 8855 8856 8857 8858 8859 8860 8861 8862 8863 8864 8865 8866 8867 8868 8869 8870 8871 8872 8873 8874 8875 8876 8877 8878 8879 8880 8881 8882 8883 8884 8885 8886 8887 8888 8889 8890 8891 8892 8893 8894 8895 8896 8897 8898 8899 8900 8901 8902 8903 8904 8905 8906 8907 8908 8909 8910 8911 8912 8913 8914 8915 8916 8917 8918 8919 8920 8921 8922 8923 8924 8925 8926 8927 8928 8929 8930 8931 8932 8933 8934 8935 8936 8937 8938 8939 8940 8941 8942 8943 8944 8945 8946 8947 8948 8949 8950 8951 8952 8953 8954 8955 8956 8957 8958 8959 8960 8961 8962 8963 8964 8965 8966 8967 8968 8969 8970 8971 8972 8973 8974 8975 8976 8977 8978 8979 8980 8981 8982 8983 8984 8985 8986 8987 8988 8989 8990 8991 8992 8993 8994 8995 8996 8997 8998 8999 9000 9001 9002 9003 9004 9005 9006 9007 9008 9009 9010 9011 9012 9013 9014 9015 9016 9017 9018 9019 9020 9021 9022 9023 9024 9025 9026 9027 9028 9029 9030 9031 9032 9033 9034 9035 9036 9037 9038 9039 9040 9041 9042 9043 9044 9045 9046 9047 9048 9049 9050 9051 9052 9053 9054 9055 9056 9057 9058 9059 9060 9061 9062 9063 9064 9065 9066 9067 9068 9069 9070 9071 9072 9073 9074 9075 9076 9077 9078 9079 9080 9081 9082 9083 9084 9085 9086 9087 9088 9089 9090 9091 9092 9093 9094 9095 9096 9097 9098 9099 9100 9101 9102 9103 9104 9105 9106 9107 9108 9109 9110 9111 9112 9113 9114 9115 9116 9117 9118 9119 9120 9121 9122 9123 9124 9125 9126 9127 9128 9129 9130 9131 9132 9133 9134 9135 9136 9137 9138 9139 9140 9141 9142 9143 9144 9145 9146 9147 9148 9149 9150 9151 9152 9153 9154 9155 9156 9157 9158 9159 9160 9161 9162 9163 9164 9165 9166 9167 9168 9169 9170 9171 9172 9173 9174 9175 9176 9177 9178 9179 9180 9181 9182 9183 9184 9185 9186 9187 9188 9189 9190 9191 9192 9193 9194 9195 9196 9197 9198 9199 9200 9201 9202 9203 9204 9205 9206 9207 9208 9209 9210 9211 9212 9213 9214 9215 9216 9217 9218 9219 9220 9221 9222 9223 9224 9225 9226 9227 9228 9229 9230 9231 9232 9233 9234 9235 9236 9237 9238 9239 9240 9241 9242 9243 9244 9245 9246 9247 9248 9249 9250 9251 9252 9253 9254 9255 9256 9257 9258 9259 9260 9261 9262 9263 9264 9265 9266 9267 9268 9269 9270 9271 9272 9273 9274 9275 9276 9277 9278 9279 9280 9281 9282 9283 9284 9285 9286 9287 9288 9289 9290 9291 9292 9293 9294 9295 9296 9297 9298 9299 9300 9301 9302 9303 9304 9305 9306 9307 9308 9309 9310 9311 9312 9313 9314 9315 9316 9317 9318 9319 9320 9321 9322 9323 9324 9325 9326 9327 9328 9329 9330 9331 9332 9333 9334 9335 9336 9337 9338 9339 9340 9341 9342 9343 9344 9345 9346 9347 9348 9349 9350 9351 9352 9353 9354 9355 9356 9357 9358 9359 9360 9361 9362 9363 9364 9365 9366 9367 9368 9369 9370 9371 9372 9373 9374 9375 9376 9377 9378 9379 9380 9381 9382 9383 9384 9385 9386 9387 9388 9389 9390 9391 9392 9393 9394 9395 9396 9397 9398 9399 9400 9401 9402 9403 9404 9405 9406 9407 9408 9409 9410 9411 9412 9413 9414 9415 9416 9417 9418 9419 9420 9421 9422 9423 9424 9425 9426 9427 9428 9429 9430 9431 9432 9433 9434 9435 9436 9437 9438 9439 9440 9441 9442 9443 9444 9445 9446 9447 9448 9449 9450 9451 9452 9453 9454 9455 9456 9457 9458 9459 9460 9461 9462 9463 9464 9465 9466 9467 9468 9469 9470 9471 9472 9473 9474 9475 9476 9477 9478 9479 9480 9481 9482 9483 9484 9485 9486 9487 9488 9489 9490 9491 9492 9493 9494 9495 9496 9497 9498 9499 9500 9501 9502 9503 9504 9505 9506 9507 9508 9509 9510 9511 9512 9513 9514 9515 9516 9517 9518 9519 9520 9521 9522 9523 9524 9525 9526 9527 9528 9529 9530 9531 9532 9533 9534 9535 9536 9537 9538 9539 9540 9541 9542 9543 9544 9545 9546 9547 9548 9549 9550 9551 9552 9553 9554 9555 9556 9557 9558 9559 9560 9561 9562 9563 9564 9565 9566 9567 9568 9569 9570 9571 9572 9573 9574 9575 9576 9577 9578 9579 9580 9581 9582 9583 9584 9585 9586 9587 9588 9589 9590 9591 9592 9593 9594 9595 9596 9597 9598 9599 9600 9601 9602 9603 9604 9605 9606 9607 9608 9609 9610 9611 9612 9613 9614 9615 9616 9617 9618 9619 9620 9621 9622 9623 9624 9625 9626 9627 9628 9629 9630 9631 9632 9633 9634 9635 9636 9637 9638 9639 9640 9641 9642 9643 9644 9645 9646 9647 9648 9649 9650 9651 9652 9653 9654 9655 9656 9657 9658 9659 9660 9661 9662 9663 9664 9665 9666 9667 9668 9669 9670 9671 9672 9673 9674 9675 9676 9677 9678 9679 9680 9681 9682 9683 9684 9685 9686 9687 9688 9689 9690 9691 9692 9693 9694 9695 9696 9697 9698 9699 9700 9701 9702 9703 9704 9705 9706 9707 9708 9709 9710 9711 9712 9713 9714 9715 9716 9717 9718 9719 9720 9721 9722 9723 9724 9725 9726 9727 9728 9729 9730 9731 9732 9733 9734 9735 9736 9737 9738 9739 9740 9741 9742 9743 9744 9745 9746 9747 9748 9749 9750 9751 9752 9753 9754 9755 9756 9757 9758 9759 9760 9761 9762 9763 9764 9765 9766 9767 9768 9769 9770 9771 9772 9773 9774 9775 9776 9777 9778 9779 9780 9781 9782 9783 9784 9785 9786 9787 9788 9789 9790 9791 9792 9793 9794 9795 9796 9797 9798 9799 9800 9801 9802 9803 9804 9805 9806 9807 9808 9809 9810 9811 9812 9813 9814 9815 9816 9817 9818 9819 9820 9821 9822 9823 9824 9825 9826 9827 9828 9829 9830 9831 9832 9833 9834 9835 9836 9837 9838 9839 9840 9841 9842 9843 9844 9845 9846 9847 9848 9849 9850 9851 9852 9853 9854 9855 9856 9857 9858 9859 9860 9861 9862 9863 9864 9865 9866 9867 9868 9869 9870 9871 9872 9873 9874 9875 9876 9877 9878 9879 9880 9881 9882 9883 9884 9885 9886 9887 9888 9889 9890 9891 9892 9893 9894 9895 9896 9897 9898 9899 9900 9901 9902 9903 9904 9905 9906 9907 9908 9909 9910 9911 9912 9913 9914 9915 9916 9917 9918 9919 9920 9921 9922 9923 9924 9925 9926 9927 9928 9929 9930 9931 9932 9933 9934 9935 9936 9937 9938 9939 9940 9941 9942 9943 9944 9945 9946 9947 9948 9949 9950 9951 9952 9953 9954 9955 9956 9957 9958 9959 9960 9961 9962 9963 9964 9965 9966 9967 9968 9969 9970 9971 9972 9973 9974 9975 9976 9977 9978 9979 9980 9981 9982 9983 9984 9985 9986 9987 9988 9989 9990 9991 9992 9993 9994 9995 9996 9997 9998 9999 10000 10001 10002 10003 10004 10005 10006 10007 10008 10009 10010 10011 10012 10013 10014 10015 10016 10017 10018 10019 10020 10021 10022 10023 10024 10025 10026 10027 10028 10029 10030 10031 10032 10033 10034 10035 10036 10037 10038 10039 10040 10041 10042 10043 10044 10045 10046 10047 10048 10049 10050 10051 10052 10053 10054 10055 10056 10057 10058 10059 10060 10061 10062 10063 10064 10065 10066 10067 10068 10069 10070 10071 10072 10073 10074 10075 10076 10077 10078 10079 10080 10081 10082 10083 10084 10085 10086 10087 10088 10089 10090 10091 10092 10093 10094 10095 10096 10097 10098 10099 10100 10101 10102 10103 10104 10105 10106 10107 10108 10109 10110 10111 10112 10113 10114 10115 10116 10117 10118 10119 10120 10121 10122 10123 10124 10125 10126 10127 10128 10129 10130 10131 10132 10133 10134 10135 10136 10137 10138 10139 10140 10141 10142 10143 10144 10145 10146 10147 10148 10149 10150 10151 10152 10153 10154 10155 10156 10157 10158 10159 10160 10161 10162 10163 10164 10165 10166 10167 10168 10169 10170 10171 10172 10173 10174 10175 10176 10177 10178 10179 10180 10181 10182 10183 10184 10185 10186 10187 10188 10189 10190 10191 10192 10193 10194 10195 10196 10197 10198 10199 10200 10201 10202 10203 10204 10205 10206 10207 10208 10209 10210 10211 10212 10213 10214 10215 10216 10217 10218 10219 10220 10221 10222 10223 10224 10225 10226 10227 10228 10229 10230 10231 10232 10233 10234 10235 10236 10237 10238 10239 10240 10241 10242 10243 10244 10245 10246 10247 10248 10249 10250 10251 10252 10253 10254 10255 10256 10257 10258 10259 10260 10261 10262 10263 10264 10265 10266 10267 10268 10269 10270 10271 10272 10273 10274 10275 10276 10277 10278 10279 10280 10281 10282 10283 10284 10285 10286 10287 10288 10289 10290 10291 10292 10293 10294 10295 10296 10297 10298 10299 10300 10301 10302 10303 10304 10305 10306 10307 10308 10309 10310 10311 10312 10313 10314 10315 10316 10317 10318 10319 10320 10321 10322 10323 10324 10325 10326 10327 10328 10329 10330 10331 10332 10333 10334 10335 10336 10337 10338 10339 10340 10341 10342 10343 10344 10345 10346 10347 10348 10349 10350 10351 10352 10353 10354 10355 10356 10357 10358 10359 10360 10361 10362 10363 10364 10365 10366 10367 10368 10369 10370 10371 10372 10373 10374 10375 10376 10377 10378 10379 10380 10381 10382 10383 10384 10385 10386 10387 10388 10389 10390 10391 10392 10393 10394 10395 10396 10397 10398 10399 10400 10401 10402 10403 10404 10405 10406 10407 10408 10409 10410 10411 10412 10413 10414 10415 10416 10417 10418 10419 10420 10421 10422 10423 10424 10425 10426 10427 10428 10429 10430 10431 10432 10433 10434 10435 10436 10437 10438 10439 10440 10441 10442 10443 10444 10445 10446 10447 10448 10449 10450 10451 10452 10453 10454 10455 10456 10457 10458 10459 10460 10461 10462 10463 10464 10465 10466 10467 10468 10469 10470 10471 10472 10473 10474 10475 10476 10477 10478 10479 10480 10481 10482 10483 10484 10485 10486 10487 10488 10489 10490 10491 10492 10493 10494 10495 10496 10497 10498 10499 10500 10501 10502 10503 10504 10505 10506 10507 10508 10509 10510 10511 10512 10513 10514 10515 10516 10517 10518 10519 10520 10521 10522 10523 10524 10525 10526 10527 10528 10529 10530 10531 10532 10533 10534 10535 10536 10537 10538 10539 10540 10541 10542 10543 10544 10545 10546 10547 10548 10549 10550 10551 10552 10553 10554 10555 10556 10557 10558 10559 10560 10561 10562 10563 10564 10565 10566 10567 10568 10569 10570 10571 10572 10573 10574 10575 10576 10577 10578 10579 10580 10581 10582 10583 10584 10585 10586 10587 10588 10589 10590 10591 10592 10593 10594 10595 10596 10597 10598 10599 10600 10601 10602 10603 10604 10605 10606 10607 10608 10609 10610 10611 10612 10613 10614 10615 10616 10617 10618 10619 10620 10621 10622 10623 10624 10625 10626 10627 10628 10629 10630 10631 10632 10633 10634 10635 10636 10637 10638 10639 10640 10641 10642 10643 10644 10645 10646 10647 10648 10649 10650 10651 10652 10653 10654 10655 10656 10657 10658 10659 10660 10661 10662 10663 10664 10665 10666 10667 10668 10669 10670 10671 10672 10673 10674 10675 10676 10677 10678 10679 10680 10681 10682 10683 10684 10685 10686 10687 10688 10689 10690 10691 10692 10693 10694 10695 10696 10697 10698 10699 10700 10701 10702 10703 10704 10705 10706 10707 10708 10709 10710 10711 10712 10713 10714 10715 10716 10717 10718 10719 10720 10721 10722 10723 10724 10725 10726 10727 10728 10729 10730 10731 10732 10733 10734 10735 10736 10737 10738 10739 10740 10741 10742 10743 10744 10745 10746 10747 10748 10749 10750 10751 10752 10753 10754 10755 10756 10757 10758 10759 10760 10761 10762 10763 10764 10765 10766 10767 10768 10769 10770 10771 10772 10773 10774 10775 10776 10777 10778 10779 10780 10781 10782 10783 10784 10785 10786 10787 10788 10789 10790 10791 10792 10793 10794 10795 10796 10797 10798 10799 10800 10801 10802 10803 10804 10805 10806 10807 10808 10809 10810 10811 10812 10813 10814 10815 10816 10817 10818 10819 10820 10821 10822 10823 10824 10825 10826 10827 10828 10829 10830 10831 10832 10833 10834 10835 10836 10837 10838 10839 10840 10841 10842 10843 10844 10845 10846 10847 10848 10849 10850 10851 10852 10853 10854 10855 10856 10857 10858 10859 10860 10861 10862 10863 10864 10865 10866 10867 10868 10869 10870 10871 10872 10873 10874 10875 10876 10877 10878 10879 10880 10881 10882 10883 10884 10885 10886 10887 10888 10889 10890 10891 10892 10893 10894 10895 10896 10897 10898 10899 10900 10901 10902 10903 10904 10905 10906 10907 10908 10909 10910 10911 10912 10913 10914 10915 10916 10917 10918 10919 10920 10921 10922 10923 10924 10925 10926 10927 10928 10929 10930 10931 10932 10933 10934 10935 10936 10937 10938 10939 10940 10941 10942 10943 10944 10945 10946 10947 10948 10949 10950 10951 10952 10953 10954 10955 10956 10957 10958 10959 10960 10961 10962 10963 10964 10965 10966 10967 10968 10969 10970 10971 10972 10973 10974 10975 10976 10977 10978 10979 10980 10981 10982 10983 10984 10985 10986 10987 10988 10989 10990 10991 10992 10993 10994 10995 10996 10997 10998 10999 11000 11001 11002 11003 11004 11005 11006 11007 11008 11009 11010 11011 11012 11013 11014 11015 11016 11017 11018 11019 11020 11021 11022 11023 11024 11025 11026 11027 11028 11029 11030 11031 11032 11033 11034 11035 11036 11037 11038 11039 11040 11041 11042 11043 11044 11045 11046 11047 11048 11049 11050 11051 11052 11053 11054 11055 11056 11057 11058 11059 11060 11061 11062 11063 11064 11065 11066 11067 11068 11069 11070 11071 11072 11073 11074 11075 11076 11077 11078 11079 11080 11081 11082 11083 11084 11085 11086 11087 11088 11089 11090 11091 11092 11093 11094 11095 11096 11097 11098 11099 11100 11101 11102 11103 11104 11105 11106 11107 11108 11109 11110 11111 11112 11113 11114 11115 11116 11117 11118 11119 11120 11121 11122 11123 11124 11125 11126 11127 11128 11129 11130 11131 11132 11133 11134 11135 11136 11137 11138 11139 11140 11141 11142 11143 11144 11145 11146 11147 11148 11149 11150 11151 11152 11153 11154 11155 11156 11157 11158 11159 11160 11161 11162 11163 11164 11165 11166 11167 11168 11169 11170 11171 11172 11173 11174 11175 11176 11177 11178 11179 11180 11181 11182 11183 11184 11185 11186 11187 11188 11189 11190 11191 11192 11193 11194 11195 11196 11197 11198 11199 11200 11201 11202 11203 11204 11205 11206 11207 11208 11209 11210 11211 11212 11213 11214 11215 11216 11217 11218 11219 11220 11221 11222 11223 11224 11225 11226 11227 11228 11229 11230 11231 11232 11233 11234 11235 11236 11237 11238 11239 11240 11241 11242 11243 11244 11245 11246 11247 11248 11249 11250 11251 11252 11253 11254 11255 11256 11257 11258 11259 11260 11261 11262 11263 11264 11265 11266 11267 11268 11269 11270 11271 11272 11273 11274 11275 11276 11277 11278 11279 11280 11281 11282 11283 11284 11285 11286 11287 11288 11289 11290 11291 11292 11293 11294 11295 11296 11297 11298 11299 11300 11301 11302 11303 11304 11305 11306 11307 11308 11309 11310 11311 11312 11313 11314 11315 11316 11317 11318 11319 11320 11321 11322 11323 11324 11325 11326 11327 11328 11329 11330 11331 11332 11333 11334 11335 11336 11337 11338 11339 11340 11341 11342 11343 11344 11345 11346 11347 11348 11349 11350 11351 11352 11353 11354 11355 11356 11357 11358 11359 11360 11361 11362 11363 11364 11365 11366 11367 11368 11369 11370 11371 11372 11373 11374 11375 11376 11377 11378 11379 11380 11381 11382 11383 11384 11385 11386 11387 11388 11389 11390 11391 11392 11393 11394 11395 11396 11397 11398 11399 11400 11401 11402 11403 11404 11405 11406 11407 11408 11409 11410 11411 11412 11413 11414 11415 11416 11417 11418 11419 11420 11421 11422 11423 11424 11425 11426 11427 11428 11429 11430 11431 11432 11433 11434 11435 11436 11437 11438 11439 11440 11441 11442 11443 11444 11445 11446 11447 11448 11449 11450 11451 11452 11453 11454 11455 11456 11457 11458 11459 11460 11461 11462 11463 11464 11465 11466 11467 11468 11469 11470 11471 11472 11473 11474 11475 11476 11477 11478 11479 11480 11481 11482 11483 11484 11485 11486 11487 11488 11489 11490 11491 11492 11493 11494 11495 11496 11497 11498 11499 11500 11501 11502 11503 11504 11505 11506 11507 11508 11509 11510 11511 11512 11513 11514 11515 11516 11517 11518 11519 11520 11521 11522 11523 11524 11525 11526 11527 11528 11529 11530 11531 11532 11533 11534 11535 11536 11537 11538 11539 11540 11541 11542 11543 11544 11545 11546 11547 11548 11549 11550 11551 11552 11553 11554 11555 11556 11557 11558 11559 11560 11561 11562 11563 11564 11565 11566 11567 11568 11569 11570 11571 11572 11573 11574 11575 11576 11577 11578 11579 11580 11581 11582 11583 11584 11585 11586 11587 11588 11589 11590 11591 11592 11593 11594 11595 11596 11597 11598 11599 11600 11601 11602 11603 11604 11605 11606 11607 11608 11609 11610 11611 11612 11613 11614 11615 11616 11617 11618 11619 11620 11621 11622 11623 11624 11625 11626 11627 11628 11629 11630 11631 11632 11633 11634 11635 11636 11637 11638 11639 11640 11641 11642 11643 11644 11645 11646 11647 11648 11649 11650 11651 11652 11653 11654 11655 11656 11657 11658 11659 11660 11661 11662 11663 11664 11665 11666 11667 11668 11669 11670 11671 11672 11673 11674 11675 11676 11677 11678 11679 11680 11681 11682 11683 11684 11685 11686 11687 11688 11689 11690 11691 11692 11693 11694 11695 11696 11697 11698 11699 11700 11701 11702 11703 11704 11705 11706 11707 11708 11709 11710 11711 11712 11713 11714 11715 11716 11717 11718 11719 11720 11721 11722 11723 11724 11725 11726 11727 11728 11729 11730 11731 11732 11733 11734 11735 11736 11737 11738 11739 11740 11741 11742 11743 11744 11745 11746 11747 11748 11749 11750 11751 11752 11753 11754 11755 11756 11757 11758 11759 11760 11761 11762 11763 11764 11765 11766 11767 11768 11769 11770 11771 11772 11773 11774 11775 11776 11777 11778 11779 11780 11781 11782 11783 11784 11785 11786 11787 11788 11789 11790 11791 11792 11793 11794 11795 11796 11797 11798 11799 11800 11801 11802 11803 11804 11805 11806 11807 11808 11809 11810 11811 11812 11813 11814 11815 11816 11817 11818 11819 11820 11821 11822 11823 11824 11825 11826 11827 11828 11829 11830 11831 11832 11833 11834 11835 11836 11837 11838 11839 11840 11841 11842 11843 11844 11845 11846 11847 11848 11849 11850 11851 11852 11853 11854 11855 11856 11857 11858 11859 11860 11861 11862 11863 11864 11865 11866 11867 11868 11869 11870 11871 11872 11873 11874 11875 11876 11877 11878 11879 11880 11881 11882 11883 11884 11885 11886 11887 11888 11889 11890 11891 11892 11893 11894 11895 11896 11897 11898 11899 11900 11901 11902 11903 11904 11905 11906 11907 11908 11909 11910 11911 11912 11913 11914 11915 11916 11917 11918 11919 11920 11921 11922 11923 11924 11925 11926 11927 11928 11929 11930 11931 11932 11933 11934 11935 11936 11937 11938 11939 11940 11941 11942 11943 11944 11945 11946 11947 11948 11949 11950 11951 11952 11953 11954 11955 11956 11957 11958 11959 11960 11961 11962 11963 11964 11965 11966 11967 11968 11969 11970 11971 11972 11973 11974 11975 11976 11977 11978 11979 11980 11981 11982 11983 11984 11985 11986 11987 11988 11989 11990 11991 11992 11993 11994 11995 11996 11997 11998 11999 12000 12001 12002 12003 12004 12005 12006 12007 12008 12009 12010 12011 12012 12013 12014 12015 12016 12017 12018 12019 12020 12021 12022 12023 12024 12025 12026 12027 12028 12029 12030 12031 12032 12033 12034 12035 12036 12037 12038 12039 12040 12041 12042 12043 12044 12045 12046 12047 12048 12049 12050 12051 12052 12053 12054 12055 12056 12057 12058 12059 12060 12061 12062 12063 12064 12065 12066 12067 12068 12069 12070 12071 12072 12073 12074 12075 12076 12077 12078 12079 12080 12081 12082 12083 12084 12085 12086 12087 12088 12089 12090 12091 12092 12093 12094 12095 12096 12097 12098 12099 12100 12101 12102 12103 12104 12105 12106 12107 12108 12109 12110 12111 12112 12113 12114 12115 12116 12117 12118 12119 12120 12121 12122 12123 12124 12125 12126 12127 12128 12129 12130 12131 12132 12133 12134 12135 12136 12137 12138 12139 12140 12141 12142 12143 12144 12145 12146 12147 12148 12149 12150 12151 12152 12153 12154 12155 12156 12157 12158 12159 12160 12161 12162 12163 12164 12165 12166 12167 12168 12169 12170 12171 12172 12173 12174 12175 12176 12177 12178 12179 12180 12181 12182 12183 12184 12185 12186 12187 12188 12189 12190 12191 12192 12193 12194 12195 12196 12197 12198 12199 12200 12201 12202 12203 12204 12205 12206 12207 12208 12209 12210 12211 12212 12213 12214 12215 12216 12217 12218 12219 12220 12221 12222 12223 12224 12225 12226 12227 12228 12229 12230 12231 12232 12233 12234 12235 12236 12237 12238 12239 12240 12241 12242 12243 12244 12245 12246 12247 12248 12249 12250 12251 12252 12253 12254 12255 12256 12257 12258 12259 12260 12261 12262 12263 12264 12265 12266 12267 12268 12269 12270 12271 12272 12273 12274 12275 12276 12277 12278 12279 12280 12281 12282 12283 12284 12285 12286 12287 12288 12289 12290 12291 12292 12293 12294 12295 12296 12297 12298 12299 12300 12301 12302 12303 12304 12305 12306 12307 12308 12309 12310 12311 12312 12313 12314 12315 12316 12317 12318 12319 12320 12321 12322 12323 12324 12325 12326 12327 12328 12329 12330 12331 12332 12333 12334 12335 12336 12337 12338 12339 12340 12341 12342 12343 12344 12345 12346 12347 12348 12349 12350 12351 12352 12353 12354 12355 12356 12357 12358 12359 12360 12361 12362 12363 12364 12365 12366 12367 12368 12369 12370 12371 12372 12373 12374 12375 12376 12377 12378 12379 12380 12381 12382 12383 12384 12385 12386 12387 12388 12389 12390 12391 12392 12393 12394 12395 12396 12397 12398 12399 12400 12401 12402 12403 12404 12405 12406 12407 12408 12409 12410 12411 12412 12413 12414 12415 12416 12417 12418 12419 12420 12421 12422 12423 12424 12425 12426 12427 12428 12429 12430 12431 12432 12433 12434 12435 12436 12437 12438 12439 12440 12441 12442 12443 12444 12445 12446 12447 12448 12449 12450 12451 12452 12453 12454 12455 12456 12457 12458 12459 12460 12461 12462 12463 12464 12465 12466 12467 12468 12469 12470 12471 12472 12473 12474 12475 12476 12477 12478 12479 12480 12481 12482 12483 12484 12485 12486 12487 12488 12489 12490 12491 12492 12493 12494 12495 12496 12497 12498 12499 12500 12501 12502 12503 12504 12505 12506 12507 12508 12509 12510 12511 12512 12513 12514 12515 12516 12517 12518 12519 12520 12521 12522 12523 12524 12525 12526 12527 12528 12529 12530 12531 12532 12533 12534 12535 12536 12537 12538 12539 12540 12541 12542 12543 12544 12545 12546 12547 12548 12549 12550 12551 12552 12553 12554 12555 12556 12557 12558 12559 12560 12561 12562 12563 12564 12565 12566 12567 12568 12569 12570 12571 12572 12573 12574 12575 12576 12577 12578 12579 12580 12581 12582 12583 12584 12585 12586 12587 12588 12589 12590 12591 12592 12593 12594 12595 12596 12597 12598 12599 12600 12601 12602 12603 12604 12605 12606 12607 12608 12609 12610 12611 12612 12613 12614 12615 12616 12617 12618 12619 12620 12621 12622 12623 12624 12625 12626 12627 12628 12629 12630 12631 12632 12633 12634 12635 12636 12637 12638 12639 12640 12641 12642 12643 12644 12645 12646 12647 12648 12649 12650 12651 12652 12653 12654 12655 12656 12657 12658 12659 12660 12661 12662 12663 12664 12665 12666 12667 12668 12669 12670 12671 12672 12673 12674 12675 12676 12677 12678 12679 12680 12681 12682 12683 12684 12685 12686 12687 12688 12689 12690 12691 12692 12693 12694 12695 12696 12697 12698 12699 12700 12701 12702 12703 12704 12705 12706 12707 12708 12709 12710 12711 12712 12713 12714 12715 12716 12717 12718 12719 12720 12721 12722 12723 12724 12725 12726 12727 12728 12729 12730 12731 12732 12733 12734 12735 12736 12737 12738 12739 12740 12741 12742 12743 12744 12745 12746 12747 12748 12749 12750 12751 12752 12753 12754 12755 12756 12757 12758 12759 12760 12761 12762 12763 12764 12765 12766 12767 12768 12769 12770 12771 12772 12773 12774 12775 12776 12777 12778 12779 12780 12781 12782 12783 12784 12785 12786 12787 12788 12789 12790 12791 12792 12793 12794 12795 12796 12797 12798 12799 12800 12801 12802 12803 12804 12805 12806 12807 12808 12809 12810 12811 12812 12813 12814 12815 12816 12817 12818 12819 12820 12821 12822 12823 12824 12825 12826 12827 12828 12829 12830 12831 12832 12833 12834 12835 12836 12837 12838 12839 12840 12841 12842 12843 12844 12845 12846 12847 12848 12849 12850 12851 12852 12853 12854 12855 12856 12857 12858 12859 12860 12861 12862 12863 12864 12865 12866 12867 12868 12869 12870 12871 12872 12873 12874 12875 12876 12877 12878 12879 12880 12881 12882 12883 12884 12885 12886 12887 12888 12889 12890 12891 12892 12893 12894 12895 12896 12897 12898 12899 12900 12901 12902 12903 12904 12905 12906 12907 12908 12909 12910 12911 12912 12913 12914 12915 12916 12917 12918 12919 12920 12921 12922 12923 12924 12925 12926 12927 12928 12929 12930 12931 12932 12933 12934 12935 12936 12937 12938 12939 12940 12941 12942 12943 12944 12945 12946 12947 12948 12949 12950 12951 12952 12953 12954 12955 12956 12957 12958 12959 12960 12961 12962 12963 12964 12965 12966 12967 12968 12969 12970 12971 12972 12973 12974 12975 12976 12977 12978 12979 12980 12981 12982 12983 12984 12985 12986 12987 12988 12989 12990 12991 12992 12993 12994 12995 12996 12997 12998 12999 13000 13001 13002 13003 13004 13005 13006 13007 13008 13009 13010 13011 13012 13013 13014 13015 13016 13017 13018 13019 13020 13021 13022 13023 13024 13025 13026 13027 13028 13029 13030 13031 13032 13033 13034 13035 13036 13037 13038 13039 13040 13041 13042 13043 13044 13045 13046 13047 13048 13049 13050 13051 13052 13053 13054 13055 13056 13057 13058 13059 13060 13061 13062 13063 13064 13065 13066 13067 13068 13069 13070 13071 13072 13073 13074 13075 13076 13077 13078 13079 13080 13081 13082 13083 13084 13085 13086 13087 13088 13089 13090 13091 13092 13093 13094 13095 13096 13097 13098 13099 13100 13101 13102 13103 13104 13105 13106 13107 13108 13109 13110 13111 13112 13113 13114 13115 13116 13117 13118 13119 13120 13121 13122 13123 13124 13125 13126 13127 13128 13129 13130 13131 13132 13133 13134 13135 13136 13137 13138 13139 13140 13141 13142 13143 13144 13145 13146 13147 13148 13149 13150 13151 13152 13153 13154 13155 13156 13157 13158 13159 13160 13161 13162 13163 13164 13165 13166 13167 13168 13169 13170 13171 13172 13173 13174 13175 13176 13177 13178 13179 13180 13181 13182 13183 13184 13185 13186 13187 13188 13189 13190 13191 13192 13193 13194 13195 13196 13197 13198 13199 13200 13201 13202 13203 13204 13205 13206 13207 13208 13209 13210 13211 13212 13213 13214 13215 13216 13217 13218 13219 13220 13221 13222 13223 13224 13225 13226 13227 13228 13229 13230 13231 13232 13233 13234 13235 13236 13237 13238 13239 13240 13241 13242 13243 13244 13245 13246 13247 13248 13249 13250 13251 13252 13253 13254 13255 13256 13257 13258 13259 13260 13261 13262 13263 13264 13265 13266 13267 13268 13269 13270 13271 13272 13273 13274 13275 13276 13277 13278 13279 13280 13281 13282 13283 13284 13285 13286 13287 13288 13289 13290 13291 13292 13293 13294 13295 13296 13297 13298 13299 13300 13301 13302 13303 13304 13305 13306 13307 13308 13309 13310 13311 13312 13313 13314 13315 13316 13317 13318 13319 13320 13321 13322 13323 13324 13325 13326 13327 13328 13329 13330 13331 13332 13333 13334 13335 13336 13337 13338 13339 13340 13341 13342 13343 13344 13345 13346 13347 13348 13349 13350 13351 13352 13353 13354 13355 13356 13357 13358 13359 13360 13361 13362 13363 13364 13365 13366 13367 13368 13369 13370 13371 13372 13373 13374 13375 13376 13377 13378 13379 13380 13381 13382 13383 13384 13385 13386 13387 13388 13389 13390 13391 13392 13393 13394 13395 13396 13397 13398 13399 13400 13401 13402 13403 13404 13405 13406 13407 13408 13409 13410 13411 13412 13413 13414 13415 13416 13417 13418 13419 13420 13421 13422 13423 13424 13425 13426 13427 13428 13429 13430 13431 13432 13433 13434 13435 13436 13437 13438 13439 13440 13441 13442 13443 13444 13445 13446 13447 13448 13449 13450 13451 13452 13453 13454 13455 13456 13457 13458 13459 13460 13461 13462 13463 13464 13465 13466 13467 13468 13469 13470 13471 13472 13473 13474 13475 13476 13477 13478 13479 13480 13481 13482 13483 13484 13485 13486 13487 13488 13489 13490 13491 13492 13493 13494 13495 13496 13497 13498 13499 13500 13501 13502 13503 13504 13505 13506 13507 13508 13509 13510 13511 13512 13513 13514 13515 13516 13517 13518 13519 13520 13521 13522 13523 13524 13525 13526 13527 13528 13529 13530 13531 13532 13533 13534 13535 13536 13537 13538 13539 13540 13541 13542 13543 13544 13545 13546 13547 13548 13549 13550 13551 13552 13553 13554 13555 13556 13557 13558 13559 13560 13561 13562 13563 13564 13565 13566 13567 13568 13569 13570 13571 13572 13573 13574 13575 13576 13577 13578 13579 13580 13581 13582 13583 13584 13585 13586 13587 13588 13589 13590 13591 13592 13593 13594 13595 13596 13597 13598 13599 13600 13601 13602 13603 13604 13605 13606 13607 13608 13609 13610 13611 13612 13613 13614 13615 13616 13617 13618 13619 13620 13621 13622 13623 13624 13625 13626 13627 13628 13629 13630 13631 13632 13633 13634 13635 13636 13637 13638 13639 13640 13641 13642 13643 13644 13645 13646 13647 13648 13649 13650 13651 13652 13653 13654 13655 13656 13657 13658 13659 13660 13661 13662 13663 13664 13665 13666 13667 13668 13669 13670 13671 13672 13673 13674 13675 13676 13677 13678 13679 13680 13681 13682 13683 13684 13685 13686 13687 13688 13689 13690 13691 13692 13693 13694 13695 13696 13697 13698 13699 13700 13701 13702 13703 13704 13705 13706 13707 13708 13709 13710 13711 13712 13713 13714 13715 13716 13717 13718 13719 13720 13721 13722 13723 13724 13725 13726 13727 13728 13729 13730 13731 13732 13733 13734 13735 13736 13737 13738 13739 13740 13741 13742 13743 13744 13745 13746 13747 13748 13749 13750 13751 13752 13753 13754 13755 13756 13757 13758 13759 13760 13761 13762 13763 13764 13765 13766 13767 13768 13769 13770 13771 13772 13773 13774 13775 13776 13777 13778 13779 13780 13781 13782 13783 13784 13785 13786 13787 13788 13789 13790 13791 13792 13793 13794 13795 13796 13797 13798 13799 13800 13801 13802 13803 13804 13805 13806 13807 13808 13809 13810 13811 13812 13813 13814 13815 13816 13817 13818 13819 13820 13821 13822 13823 13824 13825 13826 13827 13828 13829 13830 13831 13832 13833 13834 13835 13836 13837 13838 13839 13840 13841 13842 13843 13844 13845 13846 13847 13848 13849 13850 13851 13852 13853 13854 13855 13856 13857 13858 13859 13860 13861 13862 13863 13864 13865 13866 13867 13868 13869 13870 13871 13872 13873 13874 13875 13876 13877 13878 13879 13880 13881 13882 13883 13884 13885 13886 13887 13888 13889 13890 13891 13892 13893 13894 13895 13896 13897 13898 13899 13900 13901 13902 13903 13904 13905 13906 13907 13908 13909 13910 13911 13912 13913 13914 13915 13916 13917 13918 13919 13920 13921 13922 13923 13924 13925 13926 13927 13928 13929 13930 13931 13932 13933 13934 13935 13936 13937 13938 13939 13940 13941 13942 13943 13944 13945 13946 13947 13948 13949 13950 13951 13952 13953 13954 13955 13956 13957 13958 13959 13960 13961 13962 13963 13964 13965 13966 13967 13968 13969 13970 13971 13972 13973 13974 13975 13976 13977 13978 13979 13980 13981 13982 13983 13984 13985 13986 13987 13988 13989 13990 13991 13992 13993 13994 13995 13996 13997 13998 13999 14000 14001 14002 14003 14004 14005 14006 14007 14008 14009 14010 14011 14012 14013 14014 14015 14016 14017 14018 14019 14020 14021 14022 14023 14024 14025 14026 14027 14028 14029 14030 14031 14032 14033 14034 14035 14036 14037 14038 14039 14040 14041 14042 14043 14044 14045 14046 14047 14048 14049 14050 14051 14052 14053 14054 14055 14056 14057 14058 14059 14060 14061 14062 14063 14064 14065 14066 14067 14068 14069 14070 14071 14072 14073 14074 14075 14076 14077 14078 14079 14080 14081 14082 14083 14084 14085 14086 14087 14088 14089 14090 14091 14092 14093 14094 14095 14096 14097 14098 14099 14100 14101 14102 14103 14104 14105 14106 14107 14108 14109 14110 14111 14112 14113 14114 14115 14116 14117 14118 14119 14120 14121 14122 14123 14124 14125 14126 14127 14128 14129 14130 14131 14132 14133 14134 14135 14136 14137 14138 14139 14140 14141 14142 14143 14144 14145 14146 14147 14148 14149 14150 14151 14152 14153 14154 14155 14156 14157 14158 14159 14160 14161 14162 14163 14164 14165 14166 14167 14168 14169 14170 14171 14172 14173 14174 14175 14176 14177 14178 14179 14180 14181 14182 14183 14184 14185 14186 14187 14188 14189 14190 14191 14192 14193 14194 14195 14196 14197 14198 14199 14200 14201 14202 14203 14204 14205 14206 14207 14208 14209 14210 14211 14212 14213 14214 14215 14216 14217 14218 14219 14220 14221 14222 14223 14224 14225 14226 14227 14228 14229 14230 14231 14232 14233 14234 14235 14236 14237 14238 14239 14240 14241 14242 14243 14244 14245 14246 14247 14248 14249 14250 14251 14252 14253 14254 14255 14256 14257 14258 14259 14260 14261 14262 14263 14264 14265 14266 14267 14268 14269 14270 14271 14272 14273 14274 14275 14276 14277 14278 14279 14280 14281 14282 14283 14284 14285 14286 14287 14288 14289 14290 14291 14292 14293 14294 14295 14296 14297 14298 14299 14300 14301 14302 14303 14304 14305 14306 14307 14308 14309 14310 14311 14312 14313 14314 14315 14316 14317 14318 14319 14320 14321 14322 14323 14324 14325 14326 14327 14328 14329 14330 14331 14332 14333 14334 14335 14336 14337 14338 14339 14340 14341 14342 14343 14344 14345 14346 14347 14348 14349 14350 14351 14352 14353 14354 14355 14356 14357 14358 14359 14360 14361 14362 14363 14364 14365 14366 14367 14368 14369 14370 14371 14372 14373 14374 14375 14376 14377 14378 14379 14380 14381 14382 14383 14384 14385 14386 14387 14388 14389 14390 14391 14392 14393 14394 14395 14396 14397 14398 14399 14400 14401 14402 14403 14404 14405 14406 14407 14408 14409 14410 14411 14412 14413 14414 14415 14416 14417 14418 14419 14420 14421 14422 14423 14424 14425 14426 14427 14428 14429 14430 14431 14432 14433 14434 14435 14436 14437 14438 14439 14440 14441 14442 14443 14444 14445 14446 14447 14448 14449 14450 14451 14452 14453 14454 14455 14456 14457 14458 14459 14460 14461 14462 14463 14464 14465 14466 14467 14468 14469 14470 14471 14472 14473 14474 14475 14476 14477 14478 14479 14480 14481 14482 14483 14484 14485 14486 14487 14488 14489 14490 14491 14492 14493 14494 14495 14496 14497 14498 14499 14500 14501 14502 14503 14504 14505 14506 14507 14508 14509 14510 14511 14512 14513 14514 14515 14516 14517 14518 14519 14520 14521 14522 14523 14524 14525 14526 14527 14528 14529 14530 14531 14532 14533 14534 14535 14536 14537 14538 14539 14540 14541 14542 14543 14544 14545 14546 14547 14548 14549 14550 14551 14552 14553 14554 14555 14556 14557 14558 14559 14560 14561 14562 14563 14564 14565 14566 14567 14568 14569 14570 14571 14572 14573 14574 14575 14576 14577 14578 14579 14580 14581 14582 14583 14584 14585 14586 14587 14588 14589 14590 14591 14592 14593 14594 14595 14596 14597 14598 14599 14600 14601 14602 14603 14604 14605 14606 14607 14608 14609 14610 14611 14612 14613 14614 14615 14616 14617 14618 14619 14620 14621 14622 14623 14624 14625 14626 14627 14628 14629 14630 14631 14632 14633 14634 14635 14636 14637 14638 14639 14640 14641 14642 14643 14644 14645 14646 14647 14648 14649 14650 14651 14652 14653 14654 14655 14656 14657 14658 14659 14660 14661 14662 14663 14664 14665 14666 14667 14668 14669 14670 14671 14672 14673 14674 14675 14676 14677 14678 14679 14680 14681 14682 14683 14684 14685 14686 14687 14688 14689 14690 14691 14692 14693 14694 14695 14696 14697 14698 14699 14700 14701 14702 14703 14704 14705 14706 14707 14708 14709 14710 14711 14712 14713 14714 14715 14716 14717 14718 14719 14720 14721 14722 14723 14724 14725 14726 14727 14728 14729 14730 14731 14732 14733 14734 14735 14736 14737 14738 14739 14740 14741 14742 14743 14744 14745 14746 14747 14748 14749 14750 14751 14752 14753 14754 14755 14756 14757 14758 14759 14760 14761 14762 14763 14764 14765 14766 14767 14768 14769 14770 14771 14772 14773 14774 14775 14776 14777 14778 14779 14780 14781 14782 14783 14784 14785 14786 14787 14788 14789 14790 14791 14792 14793 14794 14795 14796 14797 14798 14799 14800 14801 14802 14803 14804 14805 14806 14807 14808 14809 14810 14811 14812 14813 14814 14815 14816 14817 14818 14819 14820 14821 14822 14823 14824 14825 14826 14827 14828 14829 14830 14831 14832 14833 14834 14835 14836 14837 14838 14839 14840 14841 14842 14843 14844 14845 14846 14847 14848 14849 14850 14851 14852 14853 14854 14855 14856 14857 14858 14859 14860 14861 14862 14863 14864 14865 14866 14867 14868 14869 14870 14871 14872 14873 14874 14875 14876 14877 14878 14879 14880 14881 14882 14883 14884 14885 14886 14887 14888 14889 14890 14891 14892 14893 14894 14895 14896 14897 14898 14899 14900 14901 14902 14903 14904 14905 14906 14907 14908 14909 14910 14911 14912 14913 14914 14915 14916 14917 14918 14919 14920 14921 14922 14923 14924 14925 14926 14927 14928 14929 14930 14931 14932 14933 14934 14935 14936 14937 14938 14939 14940 14941 14942 14943 14944 14945 14946 14947 14948 14949 14950 14951 14952 14953 14954 14955 14956 14957 14958 14959 14960 14961 14962 14963 14964 14965 14966 14967 14968 14969 14970 14971 14972 14973 14974 14975 14976 14977 14978 14979 14980 14981 14982 14983 14984 14985 14986 14987 14988 14989 14990 14991 14992 14993 14994 14995 14996 14997 14998 14999 15000 15001 15002 15003 15004 15005 15006 15007 15008 15009 15010 15011 15012 15013 15014 15015 15016 15017 15018 15019 15020 15021 15022 15023 15024 15025 15026 15027 15028 15029 15030 15031 15032 15033 15034 15035 15036 15037 15038 15039 15040 15041 15042 15043 15044 15045 15046 15047 15048 15049 15050 15051 15052 15053 15054 15055 15056 15057 15058 15059 15060 15061 15062 15063 15064 15065 15066 15067 15068 15069 15070 15071 15072 15073 15074 15075 15076 15077 15078 15079 15080 15081 15082 15083 15084 15085 15086 15087 15088 15089 15090 15091 15092 15093 15094 15095 15096 15097 15098 15099 15100 15101 15102 15103 15104 15105 15106 15107 15108 15109 15110 15111 15112 15113 15114 15115 15116 15117 15118 15119 15120 15121 15122 15123 15124 15125 15126 15127 15128 15129 15130 15131 15132 15133 15134 15135 15136 15137 15138 15139 15140 15141 15142 15143 15144 15145 15146 15147 15148 15149 15150 15151 15152 15153 15154 15155 15156 15157 15158 15159 15160 15161 15162 15163 15164 15165 15166 15167 15168 15169 15170 15171 15172 15173 15174 15175 15176 15177 15178 15179 15180 15181 15182 15183 15184 15185 15186 15187 15188 15189 15190 15191 15192 15193 15194 15195 15196 15197 15198 15199 15200 15201 15202 15203 15204 15205 15206 15207 15208 15209 15210 15211 15212 15213 15214 15215 15216 15217 15218 15219 15220 15221 15222 15223 15224 15225 15226 15227 15228 15229 15230 15231 15232 15233 15234 15235 15236 15237 15238 15239 15240 15241 15242 15243 15244 15245 15246 15247 15248 15249 15250 15251 15252 15253 15254 15255 15256 15257 15258 15259 15260 15261 15262 15263 15264 15265 15266 15267 15268 15269 15270 15271 15272 15273 15274 15275 15276 15277 15278 15279 15280 15281 15282 15283 15284 15285 15286 15287 15288 15289 15290 15291 15292 15293 15294 15295 15296 15297 15298 15299 15300 15301 15302 15303 15304 15305 15306 15307 15308 15309 15310 15311 15312 15313 15314 15315 15316 15317 15318 15319 15320 15321 15322 15323 15324 15325 15326 15327 15328 15329 15330 15331 15332 15333 15334 15335 15336 15337 15338 15339 15340 15341 15342 15343 15344 15345 15346 15347 15348 15349 15350 15351 15352 15353 15354 15355 15356 15357 15358 15359 15360 15361 15362 15363 15364 15365 15366 15367 15368 15369 15370 15371 15372 15373 15374 15375 15376 15377 15378 15379 15380 15381 15382 15383 15384 15385 15386 15387 15388 15389 15390 15391 15392 15393 15394 15395 15396 15397 15398 15399 15400 15401 15402 15403 15404 15405 15406 15407 15408 15409 15410 15411 15412 15413 15414 15415 15416 15417 15418 15419 15420 15421 15422 15423 15424 15425 15426 15427 15428 15429 15430 15431 15432 15433 15434 15435 15436 15437 15438 15439 15440 15441 15442 15443 15444 15445 15446 15447 15448 15449 15450 15451 15452 15453 15454 15455 15456 15457 15458 15459 15460 15461 15462 15463 15464 15465 15466 15467 15468 15469 15470 15471 15472 15473 15474 15475 15476 15477 15478 15479 15480 15481 15482 15483 15484 15485 15486 15487 15488 15489 15490 15491 15492 15493 15494 15495 15496 15497 15498 15499 15500 15501 15502 15503 15504 15505 15506 15507 15508 15509 15510 15511 15512 15513 15514 15515 15516 15517 15518 15519 15520 15521 15522 15523 15524 15525 15526 15527 15528 15529 15530 15531 15532 15533 15534 15535 15536 15537 15538 15539 15540 15541 15542 15543 15544 15545 15546 15547 15548 15549 15550 15551 15552 15553 15554 15555 15556 15557 15558 15559 15560 15561 15562 15563 15564 15565 15566 15567 15568 15569 15570 15571 15572 15573 15574 15575 15576 15577 15578 15579 15580 15581 15582 15583 15584 15585 15586 15587 15588 15589 15590 15591 15592 15593 15594 15595 15596 15597 15598 15599 15600 15601 15602 15603 15604 15605 15606 15607 15608 15609 15610 15611 15612 15613 15614 15615 15616 15617 15618 15619 15620 15621 15622 15623 15624 15625 15626 15627 15628 15629 15630 15631 15632 15633 15634 15635 15636 15637 15638 15639 15640 15641 15642 15643 15644 15645 15646 15647 15648 15649 15650 15651 15652 15653 15654 15655 15656 15657 15658 15659 15660 15661 15662 15663 15664 15665 15666 15667 15668 15669 15670 15671 15672 15673 15674 15675 15676 15677 15678 15679 15680 15681 15682 15683 15684 15685 15686 15687 15688 15689 15690 15691 15692 15693 15694 15695 15696 15697 15698 15699 15700 15701 15702 15703 15704 15705 15706 15707 15708 15709 15710 15711 15712 15713 15714 15715 15716 15717 15718 15719 15720 15721 15722 15723 15724 15725 15726 15727 15728 15729 15730 15731 15732 15733 15734 15735 15736 15737 15738 15739 15740 15741 15742 15743 15744 15745 15746 15747 15748 15749 15750 15751 15752 15753 15754 15755 15756 15757 15758 15759 15760 15761 15762 15763 15764 15765 15766 15767 15768 15769 15770 15771 15772 15773 15774 15775 15776 15777 15778 15779 15780 15781 15782 15783 15784 15785 15786 15787 15788 15789 15790 15791 15792 15793 15794 15795 15796 15797 15798 15799 15800 15801 15802 15803 15804 15805 15806 15807 15808 15809 15810 15811 15812 15813 15814 15815 15816 15817 15818 15819 15820 15821 15822 15823 15824 15825 15826 15827 15828 15829 15830 15831 15832 15833 15834 15835 15836 15837 15838 15839 15840 15841 15842 15843 15844 15845 15846 15847 15848 15849 15850 15851 15852 15853 15854 15855 15856 15857 15858 15859 15860 15861 15862 15863 15864 15865 15866 15867 15868 15869 15870 15871 15872 15873 15874 15875 15876 15877 15878 15879 15880 15881 15882 15883 15884 15885 15886 15887 15888 15889 15890 15891 15892 15893 15894 15895 15896 15897 15898 15899 15900 15901 15902 15903 15904 15905 15906 15907 15908 15909 15910 15911 15912 15913 15914 15915 15916 15917 15918 15919 15920 15921 15922 15923 15924 15925 15926 15927 15928 15929 15930 15931 15932 15933 15934 15935 15936 15937 15938 15939 15940 15941 15942 15943 15944 15945 15946 15947 15948 15949 15950 15951 15952 15953 15954 15955 15956 15957 15958 15959 15960 15961 15962 15963 15964 15965 15966 15967 15968 15969 15970 15971 15972 15973 15974 15975 15976 15977 15978 15979 15980 15981 15982 15983 15984 15985 15986 15987 15988 15989 15990 15991 15992 15993 15994 15995 15996 15997 15998 15999 16000 16001 16002 16003 16004 16005 16006 16007 16008 16009 16010 16011 16012 16013 16014 16015 16016 16017 16018 16019 16020 16021 16022 16023 16024 16025 16026 16027 16028 16029 16030 16031 16032 16033 16034 16035 16036 16037 16038 16039 16040 16041 16042 16043 16044 16045 16046 16047 16048 16049 16050 16051 16052 16053 16054 16055 16056 16057 16058 16059 16060 16061 16062 16063 16064 16065 16066 16067 16068 16069 16070 16071 16072 16073 16074 16075 16076 16077 16078 16079 16080 16081 16082 16083 16084 16085 16086 16087 16088 16089 16090 16091 16092 16093 16094 16095 16096 16097 16098 16099 16100 16101 16102 16103 16104 16105 16106 16107 16108 16109 16110 16111 16112 16113 16114 16115 16116 16117 16118 16119 16120 16121 16122 16123 16124 16125 16126 16127 16128 16129 16130 16131 16132 16133 16134 16135 16136 16137 16138 16139 16140 16141 16142 16143 16144 16145 16146 16147 16148 16149 16150 16151 16152 16153 16154 16155 16156 16157 16158 16159 16160 16161 16162 16163 16164 16165 16166 16167 16168 16169 16170 16171 16172 16173 16174 16175 16176 16177 16178 16179 16180 16181 16182 16183 16184 16185 16186 16187 16188 16189 16190 16191 16192 16193 16194 16195 16196 16197 16198 16199 16200 16201 16202 16203 16204 16205 16206 16207 16208 16209 16210 16211 16212 16213 16214 16215 16216 16217 16218 16219 16220 16221 16222 16223 16224 16225 16226 16227 16228 16229 16230 16231 16232 16233 16234 16235 16236 16237 16238 16239 16240 16241 16242 16243 16244 16245 16246 16247 16248 16249 16250 16251 16252 16253 16254 16255 16256 16257 16258 16259 16260 16261 16262 16263 16264 16265 16266 16267 16268 16269 16270 16271 16272 16273 16274 16275 16276 16277 16278 16279 16280 16281 16282 16283 16284 16285 16286 16287 16288 16289 16290 16291 16292 16293 16294 16295 16296 16297 16298 16299 16300 16301 16302 16303 16304 16305 16306 16307 16308 16309 16310 16311 16312 16313 16314 16315 16316 16317 16318 16319 16320 16321 16322 16323 16324 16325 16326 16327 16328 16329 16330 16331 16332 16333 16334 16335 16336 16337 16338 16339 16340 16341 16342 16343 16344 16345 16346 16347 16348 16349 16350 16351 16352 16353 16354 16355 16356 16357 16358 16359 16360 16361 16362 16363 16364 16365 16366 16367 16368 16369 16370 16371 16372 16373 16374 16375 16376 16377 16378 16379 16380 16381 16382 16383 16384 16385 16386 16387 16388 16389 16390 16391 16392 16393 16394 16395 16396 16397 16398 16399 16400 16401 16402 16403 16404 16405 16406 16407 16408 16409 16410 16411 16412 16413 16414 16415 16416 16417 16418 16419 16420 16421 16422 16423 16424 16425 16426 16427 16428 16429 16430 16431 16432 16433 16434 16435 16436 16437 16438 16439 16440 16441 16442 16443 16444 16445 16446 16447 16448 16449 16450 16451 16452 16453 16454 16455 16456 16457 16458 16459 16460 16461 16462 16463 16464 16465 16466 16467 16468 16469 16470 16471 16472 16473 16474 16475 16476 16477 16478 16479 16480 16481 16482 16483 16484 16485 16486 16487 16488 16489 16490 16491 16492 16493 16494 16495 16496 16497 16498 16499 16500 16501 16502 16503 16504 16505 16506 16507 16508 16509 16510 16511 16512 16513 16514 16515 16516 16517 16518 16519 16520 16521 16522 16523 16524 16525 16526 16527 16528 16529 16530 16531 16532 16533 16534 16535 16536 16537 16538 16539 16540 16541 16542 16543 16544 16545 16546 16547 16548 16549 16550 16551 16552 16553 16554 16555 16556 16557 16558 16559 16560 16561 16562 16563 16564 16565 16566 16567 16568 16569 16570 16571 16572 16573 16574 16575 16576 16577 16578 16579 16580 16581 16582 16583 16584 16585 16586 16587 16588 16589 16590 16591 16592 16593 16594 16595 16596 16597 16598 16599 16600 16601 16602 16603 16604 16605 16606 16607 16608 16609 16610 16611 16612 16613 16614 16615 16616 16617 16618 16619 16620 16621 16622 16623 16624 16625 16626 16627 16628 16629 16630 16631 16632 16633 16634 16635 16636 16637 16638 16639 16640 16641 16642 16643 16644 16645 16646 16647 16648 16649 16650 16651 16652 16653 16654 16655 16656 16657 16658 16659 16660 16661 16662 16663 16664 16665 16666 16667 16668 16669 16670 16671 16672 16673 16674 16675 16676 16677 16678 16679 16680 16681 16682 16683 16684 16685 16686 16687 16688 16689 16690 16691 16692 16693 16694 16695 16696 16697 16698 16699 16700 16701 16702 16703 16704 16705 16706 16707 16708 16709 16710 16711 16712 16713 16714 16715 16716 16717 16718 16719 16720 16721 16722 16723 16724 16725 16726 16727 16728 16729 16730 16731 16732 16733 16734 16735 16736 16737 16738 16739 16740 16741 16742 16743 16744 16745 16746 16747 16748 16749 16750 16751 16752 16753 16754 16755 16756 16757 16758 16759 16760 16761 16762 16763 16764 16765 16766 16767 16768 16769 16770 16771 16772 16773 16774 16775 16776 16777 16778 16779 16780 16781 16782 16783 16784 16785 16786 16787 16788 16789 16790 16791 16792 16793 16794 16795 16796 16797 16798 16799 16800 16801 16802 16803 16804 16805 16806 16807 16808 16809 16810 16811 16812 16813 16814 16815 16816 16817 16818 16819 16820 16821 16822 16823 16824 16825 16826 16827 16828 16829 16830 16831 16832 16833 16834 16835 16836 16837 16838 16839 16840 16841 16842 16843 16844 16845 16846 16847 16848 16849 16850 16851 16852 16853 16854 16855 16856 16857 16858 16859 16860 16861 16862 16863 16864 16865 16866 16867 16868 16869 16870 16871 16872 16873 16874 16875 16876 16877 16878 16879 16880 16881 16882 16883 16884 16885 16886 16887 16888 16889 16890 16891 16892 16893 16894 16895 16896 16897 16898 16899 16900 16901 16902 16903 16904 16905 16906 16907 16908 16909 16910 16911 16912 16913 16914 16915 16916 16917 16918 16919 16920 16921 16922 16923 16924 16925 16926 16927 16928 16929 16930 16931 16932 16933 16934 16935 16936 16937 16938 16939 16940 16941 16942 16943 16944 16945 16946 16947 16948 16949 16950 16951 16952 16953 16954 16955 16956 16957 16958 16959 16960 16961 16962 16963 16964 16965 16966 16967 16968 16969 16970 16971 16972 16973 16974 16975 16976 16977 16978 16979 16980 16981 16982 16983 16984 16985 16986 16987 16988 16989 16990 16991 16992 16993 16994 16995 16996 16997 16998 16999 17000 17001 17002 17003 17004 17005 17006 17007 17008 17009 17010 17011 17012 17013 17014 17015 17016 17017 17018 17019 17020 17021 17022 17023 17024 17025 17026 17027 17028 17029 17030 17031 17032 17033 17034 17035 17036 17037 17038 17039 17040 17041 17042 17043 17044 17045 17046 17047 17048 17049 17050 17051 17052 17053 17054 17055 17056 17057 17058 17059 17060 17061 17062 17063 17064 17065 17066 17067 17068 17069 17070 17071 17072 17073 17074 17075 17076 17077 17078 17079 17080 17081 17082 17083 17084 17085 17086 17087 17088 17089 17090 17091 17092 17093 17094 17095 17096 17097 17098 17099 17100 17101 17102 17103 17104 17105 17106 17107 17108 17109 17110 17111 17112 17113 17114 17115 17116 17117 17118 17119 17120 17121 17122 17123 17124 17125 17126 17127 17128 17129 17130 17131 17132 17133 17134 17135 17136 17137 17138 17139 17140 17141 17142 17143 17144 17145 17146 17147 17148 17149 17150 17151 17152 17153 17154 17155 17156 17157 17158 17159 17160 17161 17162 17163 17164 17165 17166 17167 17168 17169 17170 17171 17172 17173 17174 17175 17176 17177 17178 17179 17180 17181 17182 17183 17184 17185 17186 17187 17188 17189 17190 17191 17192 17193 17194 17195 17196 17197 17198 17199 17200 17201 17202 17203 17204 17205 17206 17207 17208 17209 17210 17211 17212 17213 17214 17215 17216 17217 17218 17219 17220 17221 17222 17223 17224 17225 17226 17227 17228 17229 17230 17231 17232 17233 17234 17235 17236 17237 17238 17239 17240 17241 17242 17243 17244 17245 17246 17247 17248 17249 17250 17251 17252 17253 17254 17255 17256 17257 17258 17259 17260 17261 17262 17263 17264 17265 17266 17267 17268 17269 17270 17271 17272 17273 17274 17275 17276 17277 17278 17279 17280 17281 17282 17283 17284 17285 17286 17287 17288 17289 17290 17291 17292 17293 17294 17295 17296 17297 17298 17299 17300 17301 17302 17303 17304 17305 17306 17307 17308 17309 17310 17311 17312 17313 17314 17315 17316 17317 17318 17319 17320 17321 17322 17323 17324 17325 17326 17327 17328 17329 17330 17331 17332 17333 17334 17335 17336 17337 17338 17339 17340 17341 17342 17343 17344 17345 17346 17347 17348 17349 17350 17351 17352 17353 17354 17355 17356 17357 17358 17359 17360 17361 17362 17363 17364 17365 17366 17367 17368 17369 17370 17371 17372 17373 17374 17375 17376 17377 17378 17379 17380 17381 17382 17383 17384 17385 17386 17387 17388 17389 17390 17391 17392 17393 17394 17395 17396 17397 17398 17399 17400 17401 17402 17403 17404 17405 17406 17407 17408 17409 17410 17411 17412 17413 17414 17415 17416 17417 17418 17419 17420 17421 17422 17423 17424 17425 17426 17427 17428 17429 17430 17431 17432 17433 17434 17435 17436 17437 17438 17439 17440 17441 17442 17443 17444 17445 17446 17447 17448 17449 17450 17451 17452 17453 17454 17455 17456 17457 17458 17459 17460 17461 17462 17463 17464 17465 17466 17467 17468 17469 17470 17471 17472 17473 17474 17475 17476 17477 17478 17479 17480 17481 17482 17483 17484 17485 17486 17487 17488 17489 17490 17491 17492 17493 17494 17495 17496 17497 17498 17499 17500 17501 17502 17503 17504 17505 17506 17507 17508 17509 17510 17511 17512 17513 17514 17515 17516 17517 17518 17519 17520 17521 17522 17523 17524 17525 17526 17527 17528 17529 17530 17531 17532 17533 17534 17535 17536 17537 17538 17539 17540 17541 17542 17543 17544 17545 17546 17547 17548 17549 17550 17551 17552 17553 17554 17555 17556 17557 17558 17559 17560 17561 17562 17563 17564 17565 17566 17567 17568 17569 17570 17571 17572 17573 17574 17575 17576 17577 17578 17579 17580 17581 17582 17583 17584 17585 17586 17587 17588 17589 17590 17591 17592 17593 17594 17595 17596 17597 17598 17599 17600 17601 17602 17603 17604 17605 17606 17607 17608 17609 17610 17611 17612 17613 17614 17615 17616 17617 17618 17619 17620 17621 17622 17623 17624 17625 17626 17627 17628 17629 17630 17631 17632 17633 17634 17635 17636 17637 17638 17639 17640 17641 17642 17643 17644 17645 17646 17647 17648 17649 17650 17651 17652 17653 17654 17655 17656 17657 17658 17659 17660 17661 17662 17663 17664 17665 17666 17667 17668 17669 17670 17671 17672 17673 17674 17675 17676 17677 17678 17679 17680 17681 17682 17683 17684 17685 17686 17687 17688 17689 17690 17691 17692 17693 17694 17695 17696 17697 17698 17699 17700 17701 17702 17703 17704 17705 17706 17707 17708 17709 17710 17711 17712 17713 17714 17715 17716 17717 17718 17719 17720 17721 17722 17723 17724 17725 17726 17727 17728 17729 17730 17731 17732 17733 17734 17735 17736 17737 17738 17739 17740 17741 17742 17743 17744 17745 17746 17747 17748 17749 17750 17751 17752 17753 17754 17755 17756 17757 17758 17759 17760 17761 17762 17763 17764 17765 17766 17767 17768 17769 17770 17771 17772 17773 17774 17775 17776 17777 17778 17779 17780 17781 17782 17783 17784 17785 17786 17787 17788 17789 17790 17791 17792 17793 17794 17795 17796 17797 17798 17799 17800 17801 17802 17803 17804 17805 17806 17807 17808 17809 17810 17811 17812 17813 17814 17815 17816 17817 17818 17819 17820 17821 17822 17823 17824 17825 17826 17827 17828 17829 17830 17831 17832 17833 17834 17835 17836 17837 17838 17839 17840 17841 17842 17843 17844 17845 17846 17847 17848 17849 17850 17851 17852 17853 17854 17855 17856 17857 17858 17859 17860 17861 17862 17863 17864 17865 17866 17867 17868 17869 17870 17871 17872 17873 17874 17875 17876 17877 17878 17879 17880 17881 17882 17883 17884 17885 17886 17887 17888 17889 17890 17891 17892 17893 17894 17895 17896 17897 17898 17899 17900 17901 17902 17903 17904 17905 17906 17907 17908 17909 17910 17911 17912 17913 17914 17915 17916 17917 17918 17919 17920 17921 17922 17923 17924 17925 17926 17927 17928 17929 17930 17931 17932 17933 17934 17935 17936 17937 17938 17939 17940 17941 17942 17943 17944 17945 17946 17947 17948 17949 17950 17951 17952 17953 17954 17955 17956 17957 17958 17959 17960 17961 17962 17963 17964 17965 17966 17967 17968 17969 17970 17971 17972 17973 17974 17975 17976 17977 17978 17979 17980 17981 17982 17983 17984 17985 17986 17987 17988 17989 17990 17991 17992 17993 17994 17995 17996 17997 17998 17999 18000 18001 18002 18003 18004 18005 18006 18007 18008 18009 18010 18011 18012 18013 18014 18015 18016 18017 18018 18019 18020 18021 18022 18023 18024 18025 18026 18027 18028 18029 18030 18031 18032 18033 18034 18035 18036 18037 18038 18039 18040 18041 18042 18043 18044 18045 18046 18047 18048 18049 18050 18051 18052 18053 18054 18055 18056 18057 18058 18059 18060 18061 18062 18063 18064 18065 18066 18067 18068 18069 18070 18071 18072 18073 18074 18075 18076 18077 18078 18079 18080 18081 18082 18083 18084 18085 18086 18087 18088 18089 18090 18091 18092 18093 18094 18095 18096 18097 18098 18099 18100 18101 18102 18103 18104 18105 18106 18107 18108 18109 18110 18111 18112 18113 18114 18115 18116 18117 18118 18119 18120 18121 18122 18123 18124 18125 18126 18127 18128 18129 18130 18131 18132 18133 18134 18135 18136 18137 18138 18139 18140 18141 18142 18143 18144 18145 18146 18147 18148 18149 18150 18151 18152 18153 18154 18155 18156 18157 18158 18159 18160 18161 18162 18163 18164 18165 18166 18167 18168 18169 18170 18171 18172 18173 18174 18175 18176 18177 18178 18179 18180 18181 18182 18183 18184 18185 18186 18187 18188 18189 18190 18191 18192 18193 18194 18195 18196 18197 18198 18199 18200 18201 18202 18203 18204 18205 18206 18207 18208 18209 18210 18211 18212 18213 18214 18215 18216 18217 18218 18219 18220 18221 18222 18223 18224 18225 18226 18227 18228 18229 18230 18231 18232 18233 18234 18235 18236 18237 18238 18239 18240 18241 18242 18243 18244 18245 18246 18247 18248 18249 18250 18251 18252 18253 18254 18255 18256 18257 18258 18259 18260 18261 18262 18263 18264 18265 18266 18267 18268 18269 18270 18271 18272 18273 18274 18275 18276 18277 18278 18279 18280 18281 18282 18283 18284 18285 18286 18287 18288 18289 18290 18291 18292 18293 18294 18295 18296 18297 18298 18299 18300 18301 18302 18303 18304 18305 18306 18307 18308 18309 18310 18311 18312 18313 18314 18315 18316 18317 18318 18319 18320 18321 18322 18323 18324 18325 18326 18327 18328 18329 18330 18331 18332 18333 18334 18335 18336 18337 18338 18339 18340 18341 18342 18343 18344 18345 18346 18347 18348 18349 18350 18351 18352 18353 18354 18355 18356 18357 18358 18359 18360 18361 18362 18363 18364 18365 18366 18367 18368 18369 18370 18371 18372 18373 18374 18375 18376 18377 18378 18379 18380 18381 18382 18383 18384 18385 18386 18387 18388 18389 18390 18391 18392 18393 18394 18395 18396 18397 18398 18399 18400 18401 18402 18403 18404 18405 18406 18407 18408 18409 18410 18411 18412 18413 18414 18415 18416 18417 18418 18419 18420 18421 18422 18423 18424 18425 18426 18427 18428 18429 18430 18431 18432 18433 18434 18435 18436 18437 18438 18439 18440 18441 18442 18443 18444 18445 18446 18447 18448 18449 18450 18451 18452 18453 18454 18455 18456 18457 18458 18459 18460 18461 18462 18463 18464 18465 18466 18467 18468 18469 18470 18471 18472 18473 18474 18475 18476 18477 18478 18479 18480 18481 18482 18483 18484 18485 18486 18487 18488 18489 18490 18491 18492 18493 18494 18495 18496 18497 18498 18499 18500 18501 18502 18503 18504 18505 18506 18507 18508 18509 18510 18511 18512 18513 18514 18515 18516 18517 18518 18519 18520 18521 18522 18523 18524 18525 18526 18527 18528 18529 18530 18531 18532 18533 18534 18535 18536 18537 18538 18539 18540 18541 18542 18543 18544 18545 18546 18547 18548 18549 18550 18551 18552 18553 18554 18555 18556 18557 18558 18559 18560 18561 18562 18563 18564 18565 18566 18567 18568 18569 18570 18571 18572 18573 18574 18575 18576 18577 18578 18579 18580 18581 18582 18583 18584 18585 18586 18587 18588 18589 18590 18591 18592 18593 18594 18595 18596 18597 18598 18599 18600 18601 18602 18603 18604 18605 18606 18607 18608 18609 18610 18611 18612 18613 18614 18615 18616 18617 18618 18619 18620 18621 18622 18623 18624 18625 18626 18627 18628 18629 18630 18631 18632 18633 18634 18635 18636 18637 18638 18639 18640 18641 18642 18643 18644 18645 18646 18647 18648 18649 18650 18651 18652 18653 18654 18655 18656 18657 18658 18659 18660 18661 18662 18663 18664 18665 18666 18667 18668 18669 18670 18671 18672 18673 18674 18675 18676 18677 18678 18679 18680 18681 18682 18683 18684 18685 18686 18687 18688 18689 18690 18691 18692 18693 18694 18695 18696 18697 18698 18699 18700 18701 18702 18703 18704 18705 18706 18707 18708 18709 18710 18711 18712 18713 18714 18715 18716 18717 18718 18719 18720 18721 18722 18723 18724 18725 18726 18727 18728 18729 18730 18731 18732 18733 18734 18735 18736 18737 18738 18739 18740 18741 18742 18743 18744 18745 18746 18747 18748 18749 18750 18751 18752 18753 18754 18755 18756 18757 18758 18759 18760 18761 18762 18763 18764 18765 18766 18767 18768 18769 18770 18771 18772 18773 18774 18775 18776 18777 18778 18779 18780 18781 18782 18783 18784 18785 18786 18787 18788 18789 18790 18791 18792 18793 18794 18795 18796 18797 18798 18799 18800 18801 18802 18803 18804 18805 18806 18807 18808 18809 18810 18811 18812 18813 18814 18815 18816 18817 18818 18819 18820 18821 18822 18823 18824 18825 18826 18827 18828 18829 18830 18831 18832 18833 18834 18835 18836 18837 18838 18839 18840 18841 18842 18843 18844 18845 18846 18847 18848 18849 18850 18851 18852 18853 18854 18855 18856 18857 18858 18859 18860 18861 18862 18863 18864 18865 18866 18867 18868 18869 18870 18871 18872 18873 18874 18875 18876 18877 18878 18879 18880 18881 18882 18883 18884 18885 18886 18887 18888 18889 18890 18891 18892 18893 18894 18895 18896 18897 18898 18899 18900 18901 18902 18903 18904 18905 18906 18907 18908 18909 18910 18911 18912 18913 18914 18915 18916 18917 18918 18919 18920 18921 18922 18923 18924 18925 18926 18927 18928 18929 18930 18931 18932 18933 18934 18935 18936 18937 18938 18939 18940 18941 18942 18943 18944 18945 18946 18947 18948 18949 18950 18951 18952 18953 18954 18955 18956 18957 18958 18959 18960 18961 18962 18963 18964 18965 18966 18967 18968 18969 18970 18971 18972 18973 18974 18975 18976 18977 18978 18979 18980 18981 18982 18983 18984 18985 18986 18987 18988 18989 18990 18991 18992 18993 18994 18995 18996 18997 18998 18999 19000 19001 19002 19003 19004 19005 19006 19007 19008 19009 19010 19011 19012 19013 19014 19015 19016 19017 19018 19019 19020 19021 19022 19023 19024 19025 19026 19027 19028 19029 19030 19031 19032 19033 19034 19035 19036 19037 19038 19039 19040 19041 19042 19043 19044 19045 19046 19047 19048 19049 19050 19051 19052 19053 19054 19055 19056 19057 19058 19059 19060 19061 19062 19063 19064 19065 19066 19067 19068 19069 19070 19071 19072 19073 19074 19075 19076 19077 19078 19079 19080 19081 19082 19083 19084 19085 19086 19087 19088 19089 19090 19091 19092 19093 19094 19095 19096 19097 19098 19099 19100 19101 19102 19103 19104 19105 19106 19107 19108 19109 19110 19111 19112 19113 19114 19115 19116 19117 19118 19119 19120 19121 19122 19123 19124 19125 19126 19127 19128 19129 19130 19131 19132 19133 19134 19135 19136 19137 19138 19139 19140 19141 19142 19143 19144 19145 19146 19147 19148 19149 19150 19151 19152 19153 19154 19155 19156 19157 19158 19159 19160 19161 19162 19163 19164 19165 19166 19167 19168 19169 19170 19171 19172 19173 19174 19175 19176 19177 19178 19179 19180 19181 19182 19183 19184 19185 19186 19187 19188 19189 19190 19191 19192 19193 19194 19195 19196 19197 19198 19199 19200 19201 19202 19203 19204 19205 19206 19207 19208 19209 19210 19211 19212 19213 19214 19215 19216 19217 19218 19219 19220 19221 19222 19223 19224 19225 19226 19227 19228 19229 19230 19231 19232 19233 19234 19235 19236 19237 19238 19239 19240 19241 19242 19243 19244 19245 19246 19247 19248 19249 19250 19251 19252 19253 19254 19255 19256 19257 19258 19259 19260 19261 19262 19263 19264 19265 19266 19267 19268 19269 19270 19271 19272 19273 19274 19275 19276 19277 19278 19279 19280 19281 19282 19283 19284 19285 19286 19287 19288 19289 19290 19291 19292 19293 19294 19295 19296 19297 19298 19299 19300 19301 19302 19303 19304 19305 19306 19307 19308 19309 19310 19311 19312 19313 19314 19315 19316 19317 19318 19319 19320 19321 19322 19323 19324 19325 19326 19327 19328 19329 19330 19331 19332 19333 19334 19335 19336 19337 19338 19339 19340 19341 19342 19343 19344 19345 19346 19347 19348 19349 19350 19351 19352 19353 19354 19355 19356 19357 19358 19359 19360 19361 19362 19363 19364 19365 19366 19367 19368 19369 19370 19371 19372 19373 19374 19375 19376 19377 19378 19379 19380 19381 19382 19383 19384 19385 19386 19387 19388 19389 19390 19391 19392 19393 19394 19395 19396 19397 19398 19399 19400 19401 19402 19403 19404 19405 19406 19407 19408 19409 19410 19411 19412 19413 19414 19415 19416 19417 19418 19419 19420 19421 19422 19423 19424 19425 19426 19427 19428 19429 19430 19431 19432 19433 19434 19435 19436 19437 19438 19439 19440 19441 19442 19443 19444 19445 19446 19447 19448 19449 19450 19451 19452 19453 19454 19455 19456 19457 19458 19459 19460 19461 19462 19463 19464 19465 19466 19467 19468 19469 19470 19471 19472 19473 19474 19475 19476 19477 19478 19479 19480 19481 19482 19483 19484 19485 19486 19487 19488 19489 19490 19491 19492 19493 19494 19495 19496 19497 19498 19499 19500 19501 19502 19503 19504 19505 19506 19507 19508 19509 19510 19511 19512 19513 19514 19515 19516 19517 19518 19519 19520 19521 19522 19523 19524 19525 19526 19527 19528 19529 19530 19531 19532 19533 19534 19535 19536 19537 19538 19539 19540 19541 19542 19543 19544 19545 19546 19547 19548 19549 19550 19551 19552 19553 19554 19555 19556 19557 19558 19559 19560 19561 19562 19563 19564 19565 19566 19567 19568 19569 19570 19571 19572 19573 19574 19575 19576 19577 19578 19579 19580 19581 19582 19583 19584 19585 19586 19587 19588 19589 19590 19591 19592 19593 19594 19595 19596 19597 19598 19599 19600 19601 19602 19603 19604 19605 19606 19607 19608 19609 19610 19611 19612 19613 19614 19615 19616 19617 19618 19619 19620 19621 19622 19623 19624 19625 19626 19627 19628 19629 19630 19631 19632 19633 19634 19635 19636 19637 19638 19639 19640 19641 19642 19643 19644 19645 19646 19647 19648 19649 19650 19651 19652 19653 19654 19655 19656 19657 19658 19659 19660 19661 19662 19663 19664 19665 19666 19667 19668 19669 19670 19671 19672 19673 19674 19675 19676 19677 19678 19679 19680 19681 19682 19683 19684 19685 19686 19687 19688 19689 19690 19691 19692 19693 19694 19695 19696 19697 19698 19699 19700 19701 19702 19703 19704 19705 19706 19707 19708 19709 19710 19711 19712 19713 19714 19715 19716 19717 19718 19719 19720 19721 19722 19723 19724 19725 19726 19727 19728 19729 19730 19731 19732 19733 19734 19735 19736 19737 19738 19739 19740 19741 19742 19743 19744 19745 19746 19747 19748 19749 19750 19751 19752 19753 19754 19755 19756 19757 19758 19759 19760 19761 19762 19763 19764 19765 19766 19767 19768 19769 19770 19771 19772 19773 19774 19775 19776 19777 19778 19779 19780 19781 19782 19783 19784 19785 19786 19787 19788 19789 19790 19791 19792 19793 19794 19795 19796 19797 19798 19799 19800 19801 19802 19803 19804 19805 19806 19807 19808 19809 19810 19811 19812 19813 19814 19815 19816 19817 19818 19819 19820 19821 19822 19823 19824 19825 19826 19827 19828 19829 19830 19831 19832 19833 19834 19835 19836 19837 19838 19839 19840 19841 19842 19843 19844 19845 19846 19847 19848 19849 19850 19851 19852 19853 19854 19855 19856 19857 19858 19859 19860 19861 19862 19863 19864 19865 19866 19867 19868 19869 19870 19871 19872 19873 19874 19875 19876 19877 19878 19879 19880 19881 19882 19883 19884 19885 19886 19887 19888 19889 19890 19891 19892 19893 19894 19895 19896 19897 19898 19899 19900 19901 19902 19903 19904 19905 19906 19907 19908 19909 19910 19911 19912 19913 19914 19915 19916 19917 19918 19919 19920 19921 19922 19923 19924 19925 19926 19927 19928 19929 19930 19931 19932 19933 19934 19935 19936 19937 19938 19939 19940 19941 19942 19943 19944 19945 19946 19947 19948 19949 19950 19951 19952 19953 19954 19955 19956 19957 19958 19959 19960 19961 19962 19963 19964 19965 19966 19967 19968 19969 19970 19971 19972 19973 19974 19975 19976 19977 19978 19979 19980 19981 19982 19983 19984 19985 19986 19987 19988 19989 19990 19991 19992 19993 19994 19995 19996 19997 19998 19999 20000 20001 20002 20003 20004 20005 20006 20007 20008 20009 20010 20011 20012 20013 20014 20015 20016 20017 20018 20019 20020 20021 20022 20023 20024 20025 20026 20027 20028 20029 20030 20031 20032 20033 20034 20035 20036 20037 20038 20039 20040 20041 20042 20043 20044 20045 20046 20047 20048 20049 20050 20051 20052 20053 20054 20055 20056 20057 20058 20059 20060 20061 20062 20063 20064 20065 20066 20067 20068 20069 20070 20071 20072 20073 20074 20075 20076 20077 20078 20079 20080 20081 20082 20083 20084 20085 20086 20087 20088 20089 20090 20091 20092 20093 20094 20095 20096 20097 20098 20099 20100 20101 20102 20103 20104 20105 20106 20107 20108 20109 20110 20111 20112 20113 20114 20115 20116 20117 20118 20119 20120 20121 20122 20123 20124 20125 20126 20127 20128 20129 20130 20131 20132 20133 20134 20135 20136 20137 20138 20139 20140 20141 20142 20143 20144 20145 20146 20147 20148 20149 20150 20151 20152 20153 20154 20155 20156 20157 20158 20159 20160 20161 20162 20163 20164 20165 20166 20167 20168 20169 20170 20171 20172 20173 20174 20175 20176 20177 20178 20179 20180 20181 20182 20183 20184 20185 20186 20187 20188 20189 20190 20191 20192 20193 20194 20195 20196 20197 20198 20199 20200 20201 20202 20203 20204 20205 20206 20207 20208 20209 20210 20211 20212 20213 20214 20215 20216 20217 20218 20219 20220 20221 20222 20223 20224 20225 20226 20227 20228 20229 20230 20231 20232 20233 20234 20235 20236 20237 20238 20239 20240 20241 20242 20243 20244 20245 20246 20247 20248 20249 20250 20251 20252 20253 20254 20255 20256 20257 20258 20259 20260 20261 20262 20263 20264 20265 20266 20267 20268 20269 20270 20271 20272 20273 20274 20275 20276 20277 20278 20279 20280 20281 20282 20283 20284 20285 20286 20287 20288 20289 20290 20291 20292 20293 20294 20295 20296 20297 20298 20299 20300 20301 20302 20303 20304 20305 20306 20307 20308 20309 20310 20311 20312 20313 20314 20315 20316 20317 20318 20319 20320 20321 20322 20323 20324 20325 20326 20327 20328 20329 20330 20331 20332 20333 20334 20335 20336 20337 20338 20339 20340 20341 20342 20343 20344 20345 20346 20347 20348 20349 20350 20351 20352 20353 20354 20355 20356 20357 20358 20359 20360 20361 20362 20363 20364 20365 20366 20367 20368 20369 20370 20371 20372 20373 20374 20375 20376 20377 20378 20379 20380 20381 20382 20383 20384 20385 20386 20387 20388 20389 20390 20391 20392 20393 20394 20395 20396 20397 20398 20399 20400 20401 20402 20403 20404 20405 20406 20407 20408 20409 20410 20411 20412 20413 20414 20415 20416 20417 20418 20419 20420 20421 20422 20423 20424 20425 20426 20427 20428 20429 20430 20431 20432 20433 20434 20435 20436 20437 20438 20439 20440 20441 20442 20443 20444 20445 20446 20447 20448 20449 20450 20451 20452 20453 20454 20455 20456 20457 20458 20459 20460 20461 20462 20463 20464 20465 20466 20467 20468 20469 20470 20471 20472 20473 20474 20475 20476 20477 20478 20479 20480 20481 20482 20483 20484 20485 20486 20487 20488 20489 20490 20491 20492 20493 20494 20495 20496 20497 20498 20499 20500 20501 20502 20503 20504 20505 20506 20507 20508 20509 20510 20511 20512 20513 20514 20515 20516 20517 20518 20519 20520 20521 20522 20523 20524 20525 20526 20527 20528 20529 20530 20531 20532 20533 20534 20535 20536 20537 20538 20539 20540 20541 20542 20543 20544 20545 20546 20547 20548 20549 20550 20551 20552 20553 20554 20555 20556 20557 20558 20559 20560 20561 20562 20563 20564 20565 20566 20567 20568 20569 20570 20571 20572 20573 20574 20575 20576 20577 20578 20579 20580 20581 20582 20583 20584 20585 20586 20587 20588 20589 20590 20591 20592 20593 20594 20595 20596 20597 20598 20599 20600 20601 20602 20603 20604 20605 20606 20607 20608 20609 20610 20611 20612 20613 20614 20615 20616 20617 20618 20619 20620 20621 20622 20623 20624 20625 20626 20627 20628 20629 20630 20631 20632 20633 20634 20635 20636 20637 20638 20639 20640 20641 20642 20643 20644 20645 20646 20647 20648 20649 20650 20651 20652 20653 20654 20655 20656 20657 20658 20659 20660 20661 20662 20663 20664 20665 20666 20667 20668 20669 20670 20671 20672 20673 20674 20675 20676 20677 20678 20679 20680 20681 20682 20683 20684 20685 20686 20687 20688 20689 20690 20691 20692 20693 20694 20695 20696 20697 20698 20699 20700 20701 20702 20703 20704 20705 20706 20707 20708 20709 20710 20711 20712 20713 20714 20715 20716 20717 20718 20719 20720 20721 20722 20723 20724 20725 20726 20727 20728 20729 20730 20731 20732 20733 20734 20735 20736 20737 20738 20739 20740 20741 20742 20743 20744 20745 20746 20747 20748 20749 20750 20751 20752 20753 20754 20755 20756 20757 20758 20759 20760 20761 20762 20763 20764 20765 20766 20767 20768 20769 20770 20771 20772 20773 20774 20775 20776 20777 20778 20779 20780 20781 20782 20783 20784 20785 20786 20787 20788 20789 20790 20791 20792 20793 20794 20795 20796 20797 20798 20799 20800 20801 20802 20803 20804 20805 20806 20807 20808 20809 20810 20811 20812 20813 20814 20815 20816 20817 20818 20819 20820 20821 20822 20823 20824 20825 20826 20827 20828 20829 20830 20831 20832 20833 20834 20835 20836 20837 20838 20839 20840 20841 20842 20843 20844 20845 20846 20847 20848 20849 20850 20851 20852 20853 20854 20855 20856 20857 20858 20859 20860 20861 20862 20863 20864 20865 20866 20867 20868 20869 20870 20871 20872 20873 20874 20875 20876 20877 20878 20879 20880 20881 20882 20883 20884 20885 20886 20887 20888 20889 20890 20891 20892 20893 20894 20895 20896 20897 20898 20899 20900 20901 20902 20903 20904 20905 20906 20907 20908 20909 20910 20911 20912 20913 20914 20915 20916 20917 20918 20919 20920 20921 20922 20923 20924 20925 20926 20927 20928 20929 20930 20931 20932 20933 20934 20935 20936 20937 20938 20939 20940 20941 20942 20943 20944 20945 20946 20947 20948 20949 20950 20951 20952 20953 20954 20955 20956 20957 20958 20959 20960 20961 20962 20963 20964 20965 20966 20967 20968 20969 20970 20971 20972 20973 20974 20975 20976 20977 20978 20979 20980 20981 20982 20983 20984 20985 20986 20987 20988 20989 20990 20991 20992 20993 20994 20995 20996 20997 20998 20999 21000 21001 21002 21003 21004 21005 21006 21007 21008 21009 21010 21011 21012 21013 21014 21015 21016 21017 21018 21019 21020 21021 21022 21023 21024 21025 21026 21027 21028 21029 21030 21031 21032 21033 21034 21035 21036 21037 21038 21039 21040 21041 21042 21043 21044 21045 21046 21047 21048 21049 21050 21051 21052 21053 21054 21055 21056 21057 21058 21059 21060 21061 21062 21063 21064 21065 21066 21067 21068 21069 21070 21071 21072 21073 21074 21075 21076 21077 21078 21079 21080 21081 21082 21083 21084 21085 21086 21087 21088 21089 21090 21091 21092 21093 21094 21095 21096 21097 21098 21099 21100 21101 21102 21103 21104 21105 21106 21107 21108 21109 21110 21111 21112 21113 21114 21115 21116 21117 21118 21119 21120 21121 21122 21123 21124 21125 21126 21127 21128 21129 21130 21131 21132 21133 21134 21135 21136 21137 21138 21139 21140 21141 21142 21143 21144 21145 21146 21147 21148 21149 21150 21151 21152 21153 21154 21155 21156 21157 21158 21159 21160 21161 21162 21163 21164 21165 21166 21167 21168 21169 21170 21171 21172 21173 21174 21175 21176 21177 21178 21179 21180 21181 21182 21183 21184 21185 21186 21187 21188 21189 21190 21191 21192 21193 21194 21195 21196 21197 21198 21199 21200 21201 21202 21203 21204 21205 21206 21207 21208 21209 21210 21211 21212 21213 21214 21215 21216 21217 21218 21219 21220 21221 21222 21223 21224 21225 21226 21227 21228 21229 21230 21231 21232 21233 21234 21235 21236 21237 21238 21239 21240 21241 21242 21243 21244 21245 21246 21247 21248 21249 21250 21251 21252 21253 21254 21255 21256 21257 21258 21259 21260 21261 21262 21263 21264 21265 21266 21267 21268 21269 21270 21271 21272 21273 21274 21275 21276 21277 21278 21279 21280 21281 21282 21283 21284 21285 21286 21287 21288 21289 21290 21291 21292 21293 21294 21295 21296 21297 21298 21299 21300 21301 21302 21303 21304 21305 21306 21307 21308 21309 21310 21311 21312 21313 21314 21315 21316 21317 21318 21319 21320 21321 21322 21323 21324 21325 21326 21327 21328 21329 21330 21331 21332 21333 21334 21335 21336 21337 21338 21339 21340 21341 21342 21343 21344 21345 21346 21347 21348 21349 21350 21351 21352 21353 21354 21355 21356 21357 21358 21359 21360 21361 21362 21363 21364 21365 21366 21367 21368 21369 21370 21371 21372 21373 21374 21375 21376 21377 21378 21379 21380 21381 21382 21383 21384 21385 21386 21387 21388 21389 21390 21391 21392 21393 21394 21395 21396 21397 21398 21399 21400 21401 21402 21403 21404 21405 21406 21407 21408 21409 21410 21411 21412 21413 21414 21415 21416 21417 21418 21419 21420 21421 21422 21423 21424 21425 21426 21427 21428 21429 21430 21431 21432 21433 21434 21435 21436 21437 21438 21439 21440 21441 21442 21443 21444 21445 21446 21447 21448 21449 21450 21451 21452 21453 21454 21455 21456 21457 21458 21459 21460 21461 21462 21463 21464 21465 21466 21467 21468 21469 21470 21471 21472 21473 21474 21475 21476 21477 21478 21479 21480 21481 21482 21483 21484 21485 21486 21487 21488 21489 21490 21491 21492 21493 21494 21495 21496 21497 21498 21499 21500 21501 21502 21503 21504 21505 21506 21507 21508 21509 21510 21511 21512 21513 21514 21515 21516 21517 21518 21519 21520 21521 21522 21523 21524 21525 21526 21527 21528 21529 21530 21531 21532 21533 21534 21535 21536 21537 21538 21539 21540 21541 21542 21543 21544 21545 21546 21547 21548 21549 21550 21551 21552 21553 21554 21555 21556 21557 21558 21559 21560 21561 21562 21563 21564 21565 21566 21567 21568 21569 21570 21571 21572 21573 21574 21575 21576 21577 21578 21579 21580 21581 21582 21583 21584 21585 21586 21587 21588 21589 21590 21591 21592 21593 21594 21595 21596 21597 21598 21599 21600 21601 21602 21603 21604 21605 21606 21607 21608 21609 21610 21611 21612 21613 21614 21615 21616 21617 21618 21619 21620 21621 21622 21623 21624 21625 21626 21627 21628 21629 21630 21631 21632 21633 21634 21635 21636 21637 21638 21639 21640 21641 21642 21643 21644 21645 21646 21647 21648 21649 21650 21651 21652 21653 21654 21655 21656 21657 21658 21659 21660 21661 21662 21663 21664 21665 21666 21667 21668 21669 21670 21671 21672 21673 21674 21675 21676 21677 21678 21679 21680 21681 21682 21683 21684 21685 21686 21687 21688 21689 21690 21691 21692 21693 21694 21695 21696 21697 21698 21699 21700 21701 21702 21703 21704 21705 21706 21707 21708 21709 21710 21711 21712 21713 21714 21715 21716 21717 21718 21719 21720 21721 21722 21723 21724 21725 21726 21727 21728 21729 21730 21731 21732 21733 21734 21735 21736 21737 21738 21739 21740 21741 21742 21743 21744 21745 21746 21747 21748 21749 21750 21751 21752 21753 21754 21755 21756 21757 21758 21759 21760 21761 21762 21763 21764 21765 21766 21767 21768 21769 21770 21771 21772 21773 21774 21775 21776 21777 21778 21779 21780 21781 21782 21783 21784 21785 21786 21787 21788 21789 21790 21791 21792 21793 21794 21795 21796 21797 21798 21799 21800 21801 21802 21803 21804 21805 21806 21807 21808 21809 21810 21811 21812 21813 21814 21815 21816 21817 21818 21819 21820 21821 21822 21823 21824 21825 21826 21827 21828 21829 21830 21831 21832 21833 21834 21835 21836 21837 21838 21839 21840 21841 21842 21843 21844 21845 21846 21847 21848 21849 21850 21851 21852 21853 21854 21855 21856 21857 21858 21859 21860 21861 21862 21863 21864 21865 21866 21867 21868 21869 21870 21871 21872 21873 21874 21875 21876 21877 21878 21879 21880 21881 21882 21883 21884 21885 21886 21887 21888 21889 21890 21891 21892 21893 21894 21895 21896 21897 21898 21899 21900 21901 21902 21903 21904 21905 21906 21907 21908 21909 21910 21911 21912 21913 21914 21915 21916 21917 21918 21919 21920 21921 21922 21923 21924 21925 21926 21927 21928 21929 21930 21931 21932 21933 21934 21935 21936 21937 21938 21939 21940 21941 21942 21943 21944 21945 21946 21947 21948 21949 21950 21951 21952 21953 21954 21955 21956 21957 21958 21959 21960 21961 21962 21963 21964 21965 21966 21967 21968 21969 21970 21971 21972 21973 21974 21975 21976 21977 21978 21979 21980 21981 21982 21983 21984 21985 21986 21987 21988 21989 21990 21991 21992 21993 21994 21995 21996 21997 21998 21999 22000 22001 22002 22003 22004 22005 22006 22007 22008 22009 22010 22011 22012 22013 22014 22015 22016 22017 22018 22019 22020 22021 22022 22023 22024 22025 22026 22027 22028 22029 22030 22031 22032 22033 22034 22035 22036 22037 22038 22039 22040 22041 22042 22043 22044 22045 22046 22047 22048 22049 22050 22051 22052 22053 22054 22055 22056 22057 22058 22059 22060 22061 22062 22063 22064 22065 22066 22067 22068 22069 22070 22071 22072 22073 22074 22075 22076 22077 22078 22079 22080 22081 22082 22083 22084 22085 22086 22087 22088 22089 22090 22091 22092 22093 22094 22095 22096 22097 22098 22099 22100 22101 22102 22103 22104 22105 22106 22107 22108 22109 22110 22111 22112 22113 22114 22115 22116 22117 22118 22119 22120 22121 22122 22123 22124 22125 22126 22127 22128 22129 22130 22131 22132 22133 22134 22135 22136 22137 22138 22139 22140 22141 22142 22143 22144 22145 22146 22147 22148 22149 22150 22151 22152 22153 22154 22155 22156 22157 22158 22159 22160 22161 22162 22163 22164 22165 22166 22167 22168 22169 22170 22171 22172 22173 22174 22175 22176 22177 22178 22179 22180 22181 22182 22183 22184 22185 22186 22187 22188 22189 22190 22191 22192 22193 22194 22195 22196 22197 22198 22199 22200 22201 22202 22203 22204 22205 22206 22207 22208 22209 22210 22211 22212 22213 22214 22215 22216 22217 22218 22219 22220 22221 22222 22223 22224 22225 22226 22227 22228 22229 22230 22231 22232 22233 22234 22235 22236 22237 22238 22239 22240 22241 22242 22243 22244 22245 22246 22247 22248 22249 22250 22251 22252 22253 22254 22255 22256 22257 22258 22259 22260 22261 22262 22263 22264 22265 22266 22267 22268 22269 22270 22271 22272 22273 22274 22275 22276 22277 22278 22279 22280 22281 22282 22283 22284 22285 22286 22287 22288 22289 22290 22291 22292 22293 22294 22295 22296 22297 22298 22299 22300 22301 22302 22303 22304 22305 22306 22307 22308 22309 22310 22311 22312 22313 22314 22315 22316 22317 22318 22319 22320 22321 22322 22323 22324 22325 22326 22327 22328 22329 22330 22331 22332 22333 22334 22335 22336 22337 22338 22339 22340 22341 22342 22343 22344 22345 22346 22347 22348 22349 22350 22351 22352 22353 22354 22355 22356 22357 22358 22359 22360 22361 22362 22363 22364 22365 22366 22367 22368 22369 22370 22371 22372 22373 22374 22375 22376 22377 22378 22379 22380 22381 22382 22383 22384 22385 22386 22387 22388 22389 22390 22391 22392 22393 22394 22395 22396 22397 22398 22399 22400 22401 22402 22403 22404 22405 22406 22407 22408 22409 22410 22411 22412 22413 22414 22415 22416 22417 22418 22419 22420 22421 22422 22423 22424 22425 22426 22427 22428 22429 22430 22431 22432 22433 22434 22435 22436 22437 22438 22439 22440 22441 22442 22443 22444 22445 22446 22447 22448 22449 22450 22451 22452 22453 22454 22455 22456 22457 22458 22459 22460 22461 22462 22463 22464 22465 22466 22467 22468 22469 22470 22471 22472 22473 22474 22475 22476 22477 22478 22479 22480 22481 22482 22483 22484 22485 22486 22487 22488 22489 22490 22491 22492 22493 22494 22495 22496 22497 22498 22499 22500 22501 22502 22503 22504 22505 22506 22507 22508 22509 22510 22511 22512 22513 22514 22515 22516 22517 22518 22519 22520 22521 22522 22523 22524 22525 22526 22527 22528 22529 22530 22531 22532 22533 22534 22535 22536 22537 22538 22539 22540 22541 22542 22543 22544 22545 22546 22547 22548 22549 22550 22551 22552 22553 22554 22555 22556 22557 22558 22559 22560 22561 22562 22563 22564 22565 22566 22567 22568 22569 22570 22571 22572 22573 22574 22575 22576 22577 22578 22579 22580 22581 22582 22583 22584 22585 22586 22587 22588 22589 22590 22591 22592 22593 22594 22595 22596 22597 22598 22599 22600 22601 22602 22603 22604 22605 22606 22607 22608 22609 22610 22611 22612 22613 22614 22615 22616 22617 22618 22619 22620 22621 22622 22623 22624 22625 22626 22627 22628 22629 22630 22631 22632 22633 22634 22635 22636 22637 22638 22639 22640 22641 22642 22643 22644 22645 22646 22647 22648 22649 22650 22651 22652 22653 22654 22655 22656 22657 22658 22659 22660 22661 22662 22663 22664 22665 22666 22667 22668 22669 22670 22671 22672 22673 22674 22675 22676 22677 22678 22679 22680 22681 22682 22683 22684 22685 22686 22687 22688 22689 22690 22691 22692 22693 22694 22695 22696 22697 22698 22699 22700 22701 22702 22703 22704 22705 22706 22707 22708 22709 22710 22711 22712 22713 22714 22715 22716 22717 22718 22719 22720 22721 22722 22723 22724 22725 22726 22727 22728 22729 22730 22731 22732 22733 22734 22735 22736 22737 22738 22739 22740 22741 22742 22743 22744 22745 22746 22747 22748 22749 22750 22751 22752 22753 22754 22755 22756 22757 22758 22759 22760 22761 22762 22763 22764 22765 22766 22767 22768 22769 22770 22771 22772 22773 22774 22775 22776 22777 22778 22779 22780 22781 22782 22783 22784 22785 22786 22787 22788 22789 22790 22791 22792 22793 22794 22795 22796 22797 22798 22799 22800 22801 22802 22803 22804 22805 22806 22807 22808 22809 22810 22811 22812 22813 22814 22815 22816 22817 22818 22819 22820 22821 22822 22823 22824 22825 22826 22827 22828 22829 22830 22831 22832 22833 22834 22835 22836 22837 22838 22839 22840 22841 22842 22843 22844 22845 22846 22847 22848 22849 22850 22851 22852 22853 22854 22855 22856 22857 22858 22859 22860 22861 22862 22863 22864 22865 22866 22867 22868 22869 22870 22871 22872 22873 22874 22875 22876 22877 22878 22879 22880 22881 22882 22883 22884 22885 22886 22887 22888 22889 22890 22891 22892 22893 22894 22895 22896 22897 22898 22899 22900 22901 22902 22903 22904 22905 22906 22907 22908 22909 22910 22911 22912 22913 22914 22915 22916 22917 22918 22919 22920 22921 22922 22923 22924 22925 22926 22927 22928 22929 22930 22931 22932 22933 22934 22935 22936 22937 22938 22939 22940 22941 22942 22943 22944 22945 22946 22947 22948 22949 22950 22951 22952 22953 22954 22955 22956 22957 22958 22959 22960 22961 22962 22963 22964 22965 22966 22967 22968 22969 22970 22971 22972 22973 22974 22975 22976 22977 22978 22979 22980 22981 22982 22983 22984 22985 22986 22987 22988 22989 22990 22991 22992 22993 22994 22995 22996 22997 22998 22999 23000 23001 23002 23003 23004 23005 23006 23007 23008 23009 23010 23011 23012 23013 23014 23015 23016 23017 23018 23019 23020 23021 23022 23023 23024 23025 23026 23027 23028 23029 23030 23031 23032 23033 23034 23035 23036 23037 23038 23039 23040 23041 23042 23043 23044 23045 23046 23047 23048 23049 23050 23051 23052 23053 23054 23055 23056 23057 23058 23059 23060 23061 23062 23063 23064 23065 23066 23067 23068 23069 23070 23071 23072 23073 23074 23075 23076 23077 23078 23079 23080 23081 23082 23083 23084 23085 23086 23087 23088 23089 23090 23091 23092 23093 23094 23095 23096 23097 23098 23099 23100 23101 23102 23103 23104 23105 23106 23107 23108 23109 23110 23111 23112 23113 23114 23115 23116 23117 23118 23119 23120 23121 23122 23123 23124 23125 23126 23127 23128 23129 23130 23131 23132 23133 23134 23135 23136 23137 23138 23139 23140 23141 23142 23143 23144 23145 23146 23147 23148 23149 23150 23151 23152 23153 23154 23155 23156 23157 23158 23159 23160 23161 23162 23163 23164 23165 23166 23167 23168 23169 23170 23171 23172 23173 23174 23175 23176 23177 23178 23179 23180 23181 23182 23183 23184 23185 23186 23187 23188 23189 23190 23191 23192 23193 23194 23195 23196 23197 23198 23199 23200 23201 23202 23203 23204 23205 23206 23207 23208 23209 23210 23211 23212 23213 23214 23215 23216 23217 23218 23219 23220 23221 23222 23223 23224 23225 23226 23227 23228 23229 23230 23231 23232 23233 23234 23235 23236 23237 23238 23239 23240 23241 23242 23243 23244 23245 23246 23247 23248 23249 23250 23251 23252 23253 23254 23255 23256 23257 23258 23259 23260 23261 23262 23263 23264 23265 23266 23267 23268 23269 23270 23271 23272 23273 23274 23275 23276 23277 23278 23279 23280 23281 23282 23283 23284 23285 23286 23287 23288 23289 23290 23291 23292 23293 23294 23295 23296 23297 23298 23299 23300 23301 23302 23303 23304 23305 23306 23307 23308 23309 23310 23311 23312 23313 23314 23315 23316 23317 23318 23319 23320 23321 23322 23323 23324 23325 23326 23327 23328 23329 23330 23331 23332 23333 23334 23335 23336 23337 23338 23339 23340 23341 23342 23343 23344 23345 23346 23347 23348 23349 23350 23351 23352 23353 23354 23355 23356 23357 23358 23359 23360 23361 23362 23363 23364 23365 23366 23367 23368 23369 23370 23371 23372 23373 23374 23375 23376 23377 23378 23379 23380 23381 23382 23383 23384 23385 23386 23387 23388 23389 23390 23391 23392 23393 23394 23395 23396 23397 23398 23399 23400 23401 23402 23403 23404 23405 23406 23407 23408 23409 23410 23411 23412 23413 23414 23415 23416 23417 23418 23419 23420 23421 23422 23423 23424 23425 23426 23427 23428 23429 23430 23431 23432 23433 23434 23435 23436 23437 23438 23439 23440 23441 23442 23443 23444 23445 23446 23447 23448 23449 23450 23451 23452 23453 23454 23455 23456 23457 23458 23459 23460 23461 23462 23463 23464 23465 23466 23467 23468 23469 23470 23471 23472 23473 23474 23475 23476 23477 23478 23479 23480 23481 23482 23483 23484 23485 23486 23487 23488 23489 23490 23491 23492 23493 23494 23495 23496 23497 23498 23499 23500 23501 23502 23503 23504 23505 23506 23507 23508 23509 23510 23511 23512 23513 23514 23515 23516 23517 23518 23519 23520 23521 23522 23523 23524 23525 23526 23527 23528 23529 23530 23531 23532 23533 23534 23535 23536 23537 23538 23539 23540 23541 23542 23543 23544 23545 23546 23547 23548 23549 23550 23551 23552 23553 23554 23555 23556 23557 23558 23559 23560 23561 23562 23563 23564 23565 23566 23567 23568 23569 23570 23571 23572 23573 23574 23575 23576 23577 23578 23579 23580 23581 23582 23583 23584 23585 23586 23587 23588 23589 23590 23591 23592 23593 23594 23595 23596 23597 23598 23599 23600 23601 23602 23603 23604 23605 23606 23607 23608 23609 23610 23611 23612 23613 23614 23615 23616 23617 23618 23619 23620 23621 23622 23623 23624 23625 23626 23627 23628 23629 23630 23631 23632 23633 23634 23635 23636 23637 23638 23639 23640 23641 23642 23643 23644 23645 23646 23647 23648 23649 23650 23651 23652 23653 23654 23655 23656 23657 23658 23659 23660 23661 23662 23663 23664 23665 23666 23667 23668 23669 23670 23671 23672 23673 23674 23675 23676 23677 23678 23679 23680 23681 23682 23683 23684 23685 23686 23687 23688 23689 23690 23691 23692 23693 23694 23695 23696 23697 23698 23699 23700 23701 23702 23703 23704 23705 23706 23707 23708 23709 23710 23711 23712 23713 23714 23715 23716 23717 23718 23719 23720 23721 23722 23723 23724 23725 23726 23727 23728 23729 23730 23731 23732 23733 23734 23735 23736 23737 23738 23739 23740 23741 23742 23743 23744 23745 23746 23747 23748 23749 23750 23751 23752 23753 23754 23755 23756 23757 23758 23759 23760 23761 23762 23763 23764 23765 23766 23767 23768 23769 23770 23771 23772 23773 23774 23775 23776 23777 23778 23779 23780 23781 23782 23783 23784 23785 23786 23787 23788 23789 23790 23791 23792 23793 23794 23795 23796 23797 23798 23799 23800 23801 23802 23803 23804 23805 23806 23807 23808 23809 23810 23811 23812 23813 23814 23815 23816 23817 23818 23819 23820 23821 23822 23823 23824 23825 23826 23827 23828 23829 23830 23831 23832 23833 23834 23835 23836 23837 23838 23839 23840 23841 23842 23843 23844 23845 23846 23847 23848 23849 23850 23851 23852 23853 23854 23855 23856 23857 23858 23859 23860 23861 23862 23863 23864 23865 23866 23867 23868 23869 23870 23871 23872 23873 23874 23875 23876 23877 23878 23879 23880 23881 23882 23883 23884 23885 23886 23887 23888 23889 23890 23891 23892 23893 23894 23895 23896 23897 23898 23899 23900 23901 23902 23903 23904 23905 23906 23907 23908 23909 23910 23911 23912 23913 23914 23915 23916 23917 23918 23919 23920 23921 23922 23923 23924 23925 23926 23927 23928 23929 23930 23931 23932 23933 23934 23935 23936 23937 23938 23939 23940 23941 23942 23943 23944 23945 23946 23947 23948 23949 23950 23951 23952 23953 23954 23955 23956 23957 23958 23959 23960 23961 23962 23963 23964 23965 23966 23967 23968 23969 23970 23971 23972 23973 23974 23975 23976 23977 23978 23979 23980 23981 23982 23983 23984 23985 23986 23987 23988 23989 23990 23991 23992 23993 23994 23995 23996 23997 23998 23999 24000 24001 24002 24003 24004 24005 24006 24007 24008 24009 24010 24011 24012 24013 24014 24015 24016 24017 24018 24019 24020 24021 24022 24023 24024 24025 24026 24027 24028 24029 24030 24031 24032 24033 24034 24035 24036 24037 24038 24039 24040 24041 24042 24043 24044 24045 24046 24047 24048 24049 24050 24051 24052 24053 24054 24055 24056 24057 24058 24059 24060 24061 24062 24063 24064 24065 24066 24067 24068 24069 24070 24071 24072 24073 24074 24075 24076 24077 24078 24079 24080 24081 24082 24083 24084 24085 24086 24087 24088 24089 24090 24091 24092 24093 24094 24095 24096 24097 24098 24099 24100 24101 24102 24103 24104 24105 24106 24107 24108 24109 24110 24111 24112 24113 24114 24115 24116 24117 24118 24119 24120 24121 24122 24123 24124 24125 24126 24127 24128 24129 24130 24131 24132 24133 24134 24135 24136 24137 24138 24139 24140 24141 24142 24143 24144 24145 24146 24147 24148 24149 24150 24151 24152 24153 24154 24155 24156 24157 24158 24159 24160 24161 24162 24163 24164 24165 24166 24167 24168 24169 24170 24171 24172 24173 24174 24175 24176 24177 24178 24179 24180 24181 24182 24183 24184 24185 24186 24187 24188 24189 24190 24191 24192 24193 24194 24195 24196 24197 24198 24199 24200 24201 24202 24203 24204 24205 24206 24207 24208 24209 24210 24211 24212 24213 24214 24215 24216 24217 24218 24219 24220 24221 24222 24223 24224 24225 24226 24227 24228 24229 24230 24231 24232 24233 24234 24235 24236 24237 24238 24239 24240 24241 24242 24243 24244 24245 24246 24247 24248 24249 24250 24251 24252 24253 24254 24255 24256 24257 24258 24259 24260 24261 24262 24263 24264 24265 24266 24267 24268 24269 24270 24271 24272 24273 24274 24275 24276 24277 24278 24279 24280 24281 24282 24283 24284 24285 24286 24287 24288 24289 24290 24291 24292 24293 24294 24295 24296 24297 24298 24299 24300 24301 24302 24303 24304 24305 24306 24307 24308 24309 24310 24311 24312 24313 24314 24315 24316 24317 24318 24319 24320 24321 24322 24323 24324 24325 24326 24327 24328 24329 24330 24331 24332 24333 24334 24335 24336 24337 24338 24339 24340 24341 24342 24343 24344 24345 24346 24347 24348 24349 24350 24351 24352 24353 24354 24355 24356 24357 24358 24359 24360 24361 24362 24363 24364 24365 24366 24367 24368 24369 24370 24371 24372 24373 24374 24375 24376 24377 24378 24379 24380 24381 24382 24383 24384 24385 24386 24387 24388 24389 24390 24391 24392 24393 24394 24395 24396 24397 24398 24399 24400 24401 24402 24403 24404 24405 24406 24407 24408 24409 24410 24411 24412 24413 24414 24415 24416 24417 24418 24419 24420 24421 24422 24423 24424 24425 24426 24427 24428 24429 24430 24431 24432 24433 24434 24435 24436 24437 24438 24439 24440 24441 24442 24443 24444 24445 24446 24447 24448 24449 24450 24451 24452 24453 24454 24455 24456 24457 24458 24459 24460 24461 24462 24463 24464 24465 24466 24467 24468 24469 24470 24471 24472 24473 24474 24475 24476 24477 24478 24479 24480 24481 24482 24483 24484 24485 24486 24487 24488 24489 24490 24491 24492 24493 24494 24495 24496 24497 24498 24499 24500 24501 24502 24503 24504 24505 24506 24507 24508 24509 24510 24511 24512 24513 24514 24515 24516 24517 24518 24519 24520 24521 24522 24523 24524 24525 24526 24527 24528 24529 24530 24531 24532 24533 24534 24535 24536 24537 24538 24539 24540 24541 24542 24543 24544 24545 24546 24547 24548 24549 24550 24551 24552 24553 24554 24555 24556 24557 24558 24559 24560 24561 24562 24563 24564 24565 24566 24567 24568 24569 24570 24571 24572 24573 24574 24575 24576 24577 24578 24579 24580 24581 24582 24583 24584 24585 24586 24587 24588 24589 24590 24591 24592 24593 24594 24595 24596 24597 24598 24599 24600 24601 24602 24603 24604 24605 24606 24607 24608 24609 24610 24611 24612 24613 24614 24615 24616 24617 24618 24619 24620 24621 24622 24623 24624 24625 24626 24627 24628 24629 24630 24631 24632 24633 24634 24635 24636 24637 24638 24639 24640 24641 24642 24643 24644 24645 24646 24647 24648 24649 24650 24651 24652 24653 24654 24655 24656 24657 24658 24659 24660 24661 24662 24663 24664 24665 24666 24667 24668 24669 24670 24671 24672 24673 24674 24675 24676 24677 24678 24679 24680 24681 24682 24683 24684 24685 24686 24687 24688 24689 24690 24691 24692 24693 24694 24695 24696 24697 24698 24699 24700 24701 24702 24703 24704 24705 24706 24707 24708 24709 24710 24711 24712 24713 24714 24715 24716 24717 24718 24719 24720 24721 24722 24723 24724 24725 24726 24727 24728 24729 24730 24731 24732 24733 24734 24735 24736 24737 24738 24739 24740 24741 24742 24743 24744 24745 24746 24747 24748 24749 24750 24751 24752 24753 24754 24755 24756 24757 24758 24759 24760 24761 24762 24763 24764 24765 24766 24767 24768 24769 24770 24771 24772 24773 24774 24775 24776 24777 24778 24779 24780 24781 24782 24783 24784 24785 24786 24787 24788 24789 24790 24791 24792 24793 24794 24795 24796 24797 24798 24799 24800 24801 24802 24803 24804 24805 24806 24807 24808 24809 24810 24811 24812 24813 24814 24815 24816 24817 24818 24819 24820 24821 24822 24823 24824 24825 24826 24827 24828 24829 24830 24831 24832 24833 24834 24835 24836 24837 24838 24839 24840 24841 24842 24843 24844 24845 24846 24847 24848 24849 24850 24851 24852 24853 24854 24855 24856 24857 24858 24859 24860 24861 24862 24863 24864 24865 24866 24867 24868 24869 24870 24871 24872 24873 24874 24875 24876 24877 24878 24879 24880 24881 24882 24883 24884 24885 24886 24887 24888 24889 24890 24891 24892 24893 24894 24895 24896 24897 24898 24899 24900 24901 24902 24903 24904 24905 24906 24907 24908 24909 24910 24911 24912 24913 24914 24915 24916 24917 24918 24919 24920 24921 24922 24923 24924 24925 24926 24927 24928 24929 24930 24931 24932 24933 24934 24935 24936 24937 24938 24939 24940 24941 24942 24943 24944 24945 24946 24947 24948 24949 24950 24951 24952 24953 24954 24955 24956 24957 24958 24959 24960 24961 24962 24963 24964 24965 24966 24967 24968 24969 24970 24971 24972 24973 24974 24975 24976 24977 24978 24979 24980 24981 24982 24983 24984 24985 24986 24987 24988 24989 24990 24991 24992 24993 24994 24995 24996 24997 24998 24999 25000 25001 25002 25003 25004 25005 25006 25007 25008 25009 25010 25011 25012 25013 25014 25015 25016 25017 25018 25019 25020 25021 25022 25023 25024 25025 25026 25027 25028 25029 25030 25031 25032 25033 25034 25035 25036 25037 25038 25039 25040 25041 25042 25043 25044 25045 25046 25047 25048 25049 25050 25051 25052 25053 25054 25055 25056 25057 25058 25059 25060 25061 25062 25063 25064 25065 25066 25067 25068 25069 25070 25071 25072 25073 25074 25075 25076 25077 25078 25079 25080 25081 25082 25083 25084 25085 25086 25087 25088 25089 25090 25091 25092 25093 25094 25095 25096 25097 25098 25099 25100 25101 25102 25103 25104 25105 25106 25107 25108 25109 25110 25111 25112 25113 25114 25115 25116 25117 25118 25119 25120 25121 25122 25123 25124 25125 25126 25127 25128 25129 25130 25131 25132 25133 25134 25135 25136 25137 25138 25139 25140 25141 25142 25143 25144 25145 25146 25147 25148 25149 25150 25151 25152 25153 25154 25155 25156 25157 25158 25159 25160 25161 25162 25163 25164 25165 25166 25167 25168 25169 25170 25171 25172 25173 25174 25175 25176 25177 25178 25179 25180 25181 25182 25183 25184 25185 25186 25187 25188 25189 25190 25191 25192 25193 25194 25195 25196 25197 25198 25199 25200 25201 25202 25203 25204 25205 25206 25207 25208 25209 25210 25211 25212 25213 25214 25215 25216 25217 25218 25219 25220 25221 25222 25223 25224 25225 25226 25227 25228 25229 25230 25231 25232 25233 25234 25235 25236 25237 25238 25239 25240 25241 25242 25243 25244 25245 25246 25247 25248 25249 25250 25251 25252 25253 25254 25255 25256 25257 25258 25259 25260 25261 25262 25263 25264 25265 25266 25267 25268 25269 25270 25271 25272 25273 25274 25275 25276 25277 25278 25279 25280 25281 25282 25283 25284 25285 25286 25287 25288 25289 25290 25291 25292 25293 25294 25295 25296 25297 25298 25299 25300 25301 25302 25303 25304 25305 25306 25307 25308 25309 25310 25311 25312 25313 25314 25315 25316 25317 25318 25319 25320 25321 25322 25323 25324 25325 25326 25327 25328 25329 25330 25331 25332 25333 25334 25335 25336 25337 25338 25339 25340 25341 25342 25343 25344 25345 25346 25347 25348 25349 25350 25351 25352 25353 25354 25355 25356 25357 25358 25359 25360 25361 25362 25363 25364 25365 25366 25367 25368 25369 25370 25371 25372 25373 25374 25375 25376 25377 25378 25379 25380 25381 25382 25383 25384 25385 25386 25387 25388 25389 25390 25391 25392 25393 25394 25395 25396 25397 25398 25399 25400 25401 25402 25403 25404 25405 25406 25407 25408 25409 25410 25411 25412 25413 25414 25415 25416 25417 25418 25419 25420 25421 25422 25423 25424 25425 25426 25427 25428 25429 25430 25431 25432 25433 25434 25435 25436 25437 25438 25439 25440 25441 25442 25443 25444 25445 25446 25447 25448 25449 25450 25451 25452 25453 25454 25455 25456 25457 25458 25459 25460 25461 25462 25463 25464 25465 25466 25467 25468 25469 25470 25471 25472 25473 25474 25475 25476 25477 25478 25479 25480 25481 25482 25483 25484 25485 25486 25487 25488 25489 25490 25491 25492 25493 25494 25495 25496 25497 25498 25499 25500 25501 25502 25503 25504 25505 25506 25507 25508 25509 25510 25511 25512 25513 25514 25515 25516 25517 25518 25519 25520 25521 25522 25523 25524 25525 25526 25527 25528 25529 25530 25531 25532 25533 25534 25535 25536 25537 25538 25539 25540 25541 25542 25543 25544 25545 25546 25547 25548 25549 25550 25551 25552 25553 25554 25555 25556 25557 25558 25559 25560 25561 25562 25563 25564 25565 25566 25567 25568 25569 25570 25571 25572 25573 25574 25575 25576 25577 25578 25579 25580 25581 25582 25583 25584 25585 25586 25587 25588 25589 25590 25591 25592 25593 25594 25595 25596 25597 25598 25599 25600 25601 25602 25603 25604 25605 25606 25607 25608 25609 25610 25611 25612 25613 25614 25615 25616 25617 25618 25619 25620 25621 25622 25623 25624 25625 25626 25627 25628 25629 25630 25631 25632 25633 25634 25635 25636 25637 25638 25639 25640 25641 25642 25643 25644 25645 25646 25647 25648 25649 25650 25651 25652 25653 25654 25655 25656 25657 25658 25659 25660 25661 25662 25663 25664 25665 25666 25667 25668 25669 25670 25671 25672 25673 25674 25675 25676 25677 25678 25679 25680 25681 25682 25683 25684 25685 25686 25687 25688 25689 25690 25691 25692 25693 25694 25695 25696 25697 25698 25699 25700 25701 25702 25703 25704 25705 25706 25707 25708 25709 25710 25711 25712 25713 25714 25715 25716 25717 25718 25719 25720 25721 25722 25723 25724 25725 25726 25727 25728 25729 25730 25731 25732 25733 25734 25735 25736 25737 25738 25739 25740 25741 25742 25743 25744 25745 25746 25747 25748 25749 25750 25751 25752 25753 25754 25755 25756 25757 25758 25759 25760 25761 25762 25763 25764 25765 25766 25767 25768 25769 25770 25771 25772 25773 25774 25775 25776 25777 25778 25779 25780 25781 25782 25783 25784 25785 25786 25787 25788 25789 25790 25791 25792 25793 25794 25795 25796 25797 25798 25799 25800 25801 25802 25803 25804 25805 25806 25807 25808 25809 25810 25811 25812 25813 25814 25815 25816 25817 25818 25819 25820 25821 25822 25823 25824 25825 25826 25827 25828 25829 25830 25831 25832 25833 25834 25835 25836 25837 25838 25839 25840 25841 25842 25843 25844 25845 25846 25847 25848 25849 25850 25851 25852 25853 25854 25855 25856 25857 25858 25859 25860 25861 25862 25863 25864 25865 25866 25867 25868 25869 25870 25871 25872 25873 25874 25875 25876 25877 25878 25879 25880 25881 25882 25883 25884 25885 25886 25887 25888 25889 25890 25891 25892 25893 25894 25895 25896 25897 25898 25899 25900 25901 25902 25903 25904 25905 25906 25907 25908 25909 25910 25911 25912 25913 25914 25915 25916 25917 25918 25919 25920 25921 25922 25923 25924 25925 25926 25927 25928 25929 25930 25931 25932 25933 25934 25935 25936 25937 25938 25939 25940 25941 25942 25943 25944 25945 25946 25947 25948 25949 25950 25951 25952 25953 25954 25955 25956 25957 25958 25959 25960 25961 25962 25963 25964 25965 25966 25967 25968 25969 25970 25971 25972 25973 25974 25975 25976 25977 25978 25979 25980 25981 25982 25983 25984 25985 25986 25987 25988 25989 25990 25991 25992 25993 25994 25995 25996 25997 25998 25999 26000 26001 26002 26003 26004 26005 26006 26007 26008 26009 26010 26011 26012 26013 26014 26015 26016 26017 26018 26019 26020 26021 26022 26023 26024 26025 26026 26027 26028 26029 26030 26031 26032 26033 26034 26035 26036 26037 26038 26039 26040 26041 26042 26043 26044 26045 26046 26047 26048 26049 26050 26051 26052 26053 26054 26055 26056 26057 26058 26059 26060 26061 26062 26063 26064 26065 26066 26067 26068 26069 26070 26071 26072 26073 26074 26075 26076 26077 26078 26079 26080 26081 26082 26083 26084 26085 26086 26087 26088 26089 26090 26091 26092 26093 26094 26095 26096 26097 26098 26099 26100 26101 26102 26103 26104 26105 26106 26107 26108 26109 26110 26111 26112 26113 26114 26115 26116 26117 26118 26119 26120 26121 26122 26123 26124 26125 26126 26127 26128 26129 26130 26131 26132 26133 26134 26135 26136 26137 26138 26139 26140 26141 26142 26143 26144 26145 26146 26147 26148 26149 26150 26151 26152 26153 26154 26155 26156 26157 26158 26159 26160 26161 26162 26163 26164 26165 26166 26167 26168 26169 26170 26171 26172 26173 26174 26175 26176 26177 26178 26179 26180 26181 26182 26183 26184 26185 26186 26187 26188 26189 26190 26191 26192 26193 26194 26195 26196 26197 26198 26199 26200 26201 26202 26203 26204 26205 26206 26207 26208 26209 26210 26211 26212 26213 26214 26215 26216 26217 26218 26219 26220 26221 26222 26223 26224 26225 26226 26227 26228 26229 26230 26231 26232 26233 26234 26235 26236 26237 26238 26239 26240 26241 26242 26243 26244 26245 26246 26247 26248 26249 26250 26251 26252 26253 26254 26255 26256 26257 26258 26259 26260 26261 26262 26263 26264 26265 26266 26267 26268 26269 26270 26271 26272 26273 26274 26275 26276 26277 26278 26279 26280 26281 26282 26283 26284 26285 26286 26287 26288 26289 26290 26291 26292 26293 26294 26295 26296 26297 26298 26299 26300 26301 26302 26303 26304 26305 26306 26307 26308 26309 26310 26311 26312 26313 26314 26315 26316 26317 26318 26319 26320 26321 26322 26323 26324 26325 26326 26327 26328 26329 26330 26331 26332 26333 26334 26335 26336 26337 26338 26339 26340 26341 26342 26343 26344 26345 26346 26347 26348 26349 26350 26351 26352 26353 26354 26355 26356 26357 26358 26359 26360 26361 26362 26363 26364 26365 26366 26367 26368 26369 26370 26371 26372 26373 26374 26375 26376 26377 26378 26379 26380 26381 26382 26383 26384 26385 26386 26387 26388 26389 26390 26391 26392 26393 26394 26395 26396 26397 26398 26399 26400 26401 26402 26403 26404 26405 26406 26407 26408 26409 26410 26411 26412 26413 26414 26415 26416 26417 26418 26419 26420 26421 26422 26423 26424 26425 26426 26427 26428 26429 26430 26431 26432 26433 26434 26435 26436 26437 26438 26439 26440 26441 26442 26443 26444 26445 26446 26447 26448 26449 26450 26451 26452 26453 26454 26455 26456 26457 26458 26459 26460 26461 26462 26463 26464 26465 26466 26467 26468 26469 26470 26471 26472 26473 26474 26475 26476 26477 26478 26479 26480 26481 26482 26483 26484 26485 26486 26487 26488 26489 26490 26491 26492 26493 26494 26495 26496 26497 26498 26499 26500 26501 26502 26503 26504 26505 26506 26507 26508 26509 26510 26511 26512 26513 26514 26515 26516 26517 26518 26519 26520 26521 26522 26523 26524 26525 26526 26527 26528 26529 26530 26531 26532 26533 26534 26535 26536 26537 26538 26539 26540 26541 26542 26543 26544 26545 26546 26547 26548 26549 26550 26551 26552 26553 26554 26555 26556 26557 26558 26559 26560 26561 26562 26563 26564 26565 26566 26567 26568 26569 26570 26571 26572 26573 26574 26575 26576 26577 26578 26579 26580 26581 26582 26583 26584 26585 26586 26587 26588 26589 26590 26591 26592 26593 26594 26595 26596 26597 26598 26599 26600 26601 26602 26603 26604 26605 26606 26607 26608 26609 26610 26611 26612 26613 26614 26615 26616 26617 26618 26619 26620 26621 26622 26623 26624 26625 26626 26627 26628 26629 26630 26631 26632 26633 26634 26635 26636 26637 26638 26639 26640 26641 26642 26643 26644 26645 26646 26647 26648 26649 26650 26651 26652 26653 26654 26655 26656 26657 26658 26659 26660 26661 26662 26663 26664 26665 26666 26667 26668 26669 26670 26671 26672 26673 26674 26675 26676 26677 26678 26679 26680 26681 26682 26683 26684 26685 26686 26687 26688 26689 26690 26691 26692 26693 26694 26695 26696 26697 26698 26699 26700 26701 26702 26703 26704 26705 26706 26707 26708 26709 26710 26711 26712 26713 26714 26715 26716 26717 26718 26719 26720 26721 26722 26723 26724 26725 26726 26727 26728 26729 26730 26731 26732 26733 26734 26735 26736 26737 26738 26739 26740 26741 26742 26743 26744 26745 26746 26747 26748 26749 26750 26751 26752 26753 26754 26755 26756 26757 26758 26759 26760 26761 26762 26763 26764 26765 26766 26767 26768 26769 26770 26771 26772 26773 26774 26775 26776 26777 26778 26779 26780 26781 26782 26783 26784 26785 26786 26787 26788 26789 26790 26791 26792 26793 26794 26795 26796 26797 26798 26799 26800 26801 26802 26803 26804 26805 26806 26807 26808 26809 26810 26811 26812 26813 26814 26815 26816 26817 26818 26819 26820 26821 26822 26823 26824 26825 26826 26827 26828 26829 26830 26831 26832 26833 26834 26835 26836 26837 26838 26839 26840 26841 26842 26843 26844 26845 26846 26847 26848 26849 26850 26851 26852 26853 26854 26855 26856 26857 26858 26859 26860 26861 26862 26863 26864 26865 26866 26867 26868 26869 26870 26871 26872 26873 26874 26875 26876 26877 26878 26879 26880 26881 26882 26883 26884 26885 26886 26887 26888 26889 26890 26891 26892 26893 26894 26895 26896 26897 26898 26899 26900 26901 26902 26903 26904 26905 26906 26907 26908 26909 26910 26911 26912 26913 26914 26915 26916 26917 26918 26919 26920 26921 26922 26923 26924 26925 26926 26927 26928 26929 26930 26931 26932 26933 26934 26935 26936 26937 26938 26939 26940 26941 26942 26943 26944 26945 26946 26947 26948 26949 26950 26951 26952 26953 26954 26955 26956 26957 26958 26959 26960 26961 26962 26963 26964 26965 26966 26967 26968 26969 26970 26971 26972 26973 26974 26975 26976 26977 26978 26979 26980 26981 26982 26983 26984 26985 26986 26987 26988 26989 26990 26991 26992 26993 26994 26995 26996 26997 26998 26999 27000 27001 27002 27003 27004 27005 27006 27007 27008 27009 27010 27011 27012 27013 27014 27015 27016 27017 27018 27019 27020 27021 27022 27023 27024 27025 27026 27027 27028 27029 27030 27031 27032 27033 27034 27035 27036 27037 27038 27039 27040 27041 27042 27043 27044 27045 27046 27047 27048 27049 27050 27051 27052 27053 27054 27055 27056 27057 27058 27059 27060 27061 27062 27063 27064 27065 27066 27067 27068 27069 27070 27071 27072 27073 27074 27075 27076 27077 27078 27079 27080 27081 27082 27083 27084 27085 27086 27087 27088 27089 27090 27091 27092 27093 27094 27095 27096 27097 27098 27099 27100 27101 27102 27103 27104 27105 27106 27107 27108 27109 27110 27111 27112 27113 27114 27115 27116 27117 27118 27119 27120 27121 27122 27123 27124 27125 27126 27127 27128 27129 27130 27131 27132 27133 27134 27135 27136 27137 27138 27139 27140 27141 27142 27143 27144 27145 27146 27147 27148 27149 27150 27151 27152 27153 27154 27155 27156 27157 27158 27159 27160 27161 27162 27163 27164 27165 27166 27167 27168 27169 27170 27171 27172 27173 27174 27175 27176 27177 27178 27179 27180 27181 27182 27183 27184 27185 27186 27187 27188 27189 27190 27191 27192 27193 27194 27195 27196 27197 27198 27199 27200 27201 27202 27203 27204 27205 27206 27207 27208 27209 27210 27211 27212 27213 27214 27215 27216 27217 27218 27219 27220 27221 27222 27223 27224 27225 27226 27227 27228 27229 27230 27231 27232 27233 27234 27235 27236 27237 27238 27239 27240 27241 27242 27243 27244 27245 27246 27247 27248 27249 27250 27251 27252 27253 27254 27255 27256 27257 27258 27259 27260 27261 27262 27263 27264 27265 27266 27267 27268 27269 27270 27271 27272 27273 27274 27275 27276 27277 27278 27279 27280 27281 27282 27283 27284 27285 27286 27287 27288 27289 27290 27291 27292 27293 27294 27295 27296 27297 27298 27299 27300 27301 27302 27303 27304 27305 27306 27307 27308 27309 27310 27311 27312 27313 27314 27315 27316 27317 27318 27319 27320 27321 27322 27323 27324 27325 27326 27327 27328 27329 27330 27331 27332 27333 27334 27335 27336 27337 27338 27339 27340 27341 27342 27343 27344 27345 27346 27347 27348 27349 27350 27351 27352 27353 27354 27355 27356 27357 27358 27359 27360 27361 27362 27363 27364 27365 27366 27367 27368 27369 27370 27371 27372 27373 27374 27375 27376 27377 27378 27379 27380 27381 27382 27383 27384 27385 27386 27387 27388 27389 27390 27391 27392 27393 27394 27395 27396 27397 27398 27399 27400 27401 27402 27403 27404 27405 27406 27407 27408 27409 27410 27411 27412 27413 27414 27415 27416 27417 27418 27419 27420 27421 27422 27423 27424 27425 27426 27427 27428 27429 27430 27431 27432 27433 27434 27435 27436 27437 27438 27439 27440 27441 27442 27443 27444 27445 27446 27447 27448 27449 27450 27451 27452 27453 27454 27455 27456 27457 27458 27459 27460 27461 27462 27463 27464 27465 27466 27467 27468 27469 27470 27471 27472 27473 27474 27475 27476 27477 27478 27479 27480 27481 27482 27483 27484 27485 27486 27487 27488 27489 27490 27491 27492 27493 27494 27495 27496 27497 27498 27499 27500 27501 27502 27503 27504 27505 27506 27507 27508 27509 27510 27511 27512 27513 27514 27515 27516 27517 27518 27519 27520 27521 27522 27523 27524 27525 27526 27527 27528 27529 27530 27531 27532 27533 27534 27535 27536 27537 27538 27539 27540 27541 27542 27543 27544 27545 27546 27547 27548 27549 27550 27551 27552 27553 27554 27555 27556 27557 27558 27559 27560 27561 27562 27563 27564 27565 27566 27567 27568 27569 27570 27571 27572 27573 27574 27575 27576 27577 27578 27579 27580 27581 27582 27583 27584 27585 27586 27587 27588 27589 27590 27591 27592 27593 27594 27595 27596 27597 27598 27599 27600 27601 27602 27603 27604 27605 27606 27607 27608 27609 27610 27611 27612 27613 27614 27615 27616 27617 27618 27619 27620 27621 27622 27623 27624 27625 27626 27627 27628 27629 27630 27631 27632 27633 27634 27635 27636 27637 27638 27639 27640 27641 27642 27643 27644 27645 27646 27647 27648 27649 27650 27651 27652 27653 27654 27655 27656 27657 27658 27659 27660 27661 27662 27663 27664 27665 27666 27667 27668 27669 27670 27671 27672 27673 27674 27675 27676 27677 27678 27679 27680 27681 27682 27683 27684 27685 27686 27687 27688 27689 27690 27691 27692 27693 27694 27695 27696 27697 27698 27699 27700 27701 27702 27703 27704 27705 27706 27707 27708 27709 27710 27711 27712 27713 27714 27715 27716 27717 27718 27719 27720 27721 27722 27723 27724 27725 27726 27727 27728 27729 27730 27731 27732 27733 27734 27735 27736 27737 27738 27739 27740 27741 27742 27743 27744 27745 27746 27747 27748 27749 27750 27751 27752 27753 27754 27755 27756 27757 27758 27759 27760 27761 27762 27763 27764 27765 27766 27767 27768 27769 27770 27771 27772 27773 27774 27775 27776 27777 27778 27779 27780 27781 27782 27783 27784 27785 27786 27787 27788 27789 27790 27791 27792 27793 27794 27795 27796 27797 27798 27799 27800 27801 27802 27803 27804 27805 27806 27807 27808 27809 27810 27811 27812 27813 27814 27815 27816 27817 27818 27819 27820 27821 27822 27823 27824 27825 27826 27827 27828 27829 27830 27831 27832 27833 27834 27835 27836 27837 27838 27839 27840 27841 27842 27843 27844 27845 27846 27847 27848 27849 27850 27851 27852 27853 27854 27855 27856 27857 27858 27859 27860 27861 27862 27863 27864 27865 27866 27867 27868 27869 27870 27871 27872 27873 27874 27875 27876 27877 27878 27879 27880 27881 27882 27883 27884 27885 27886 27887 27888 27889 27890 27891 27892 27893 27894 27895 27896 27897 27898 27899 27900 27901 27902 27903 27904 27905 27906 27907 27908 27909 27910 27911 27912 27913 27914 27915 27916 27917 27918 27919 27920 27921 27922 27923 27924 27925 27926 27927 27928 27929 27930 27931 27932 27933 27934 27935 27936 27937 27938 27939 27940 27941 27942 27943 27944 27945 27946 27947 27948 27949 27950 27951 27952 27953 27954 27955 27956 27957 27958 27959 27960 27961 27962 27963 27964 27965 27966 27967 27968 27969 27970 27971 27972 27973 27974 27975 27976 27977 27978 27979 27980 27981 27982 27983 27984 27985 27986 27987 27988 27989 27990 27991 27992 27993 27994 27995 27996 27997 27998 27999 28000 28001 28002 28003 28004 28005 28006 28007 28008 28009 28010 28011 28012 28013 28014 28015 28016 28017 28018 28019 28020 28021 28022 28023 28024 28025 28026 28027 28028 28029 28030 28031 28032 28033 28034 28035 28036 28037 28038 28039 28040 28041 28042 28043 28044 28045 28046 28047 28048 28049 28050 28051 28052 28053 28054 28055 28056 28057 28058 28059 28060 28061 28062 28063 28064 28065 28066 28067 28068 28069 28070 28071 28072 28073 28074 28075 28076 28077 28078 28079 28080 28081 28082 28083 28084 28085 28086 28087 28088 28089 28090 28091 28092 28093 28094 28095 28096 28097 28098 28099 28100 28101 28102 28103 28104 28105 28106 28107 28108 28109 28110 28111 28112 28113 28114 28115 28116 28117 28118 28119 28120 28121 28122 28123 28124 28125 28126 28127 28128 28129 28130 28131 28132 28133 28134 28135 28136 28137 28138 28139 28140 28141 28142 28143 28144 28145 28146 28147 28148 28149 28150 28151 28152 28153 28154 28155 28156 28157 28158 28159 28160 28161 28162 28163 28164 28165 28166 28167 28168 28169 28170 28171 28172 28173 28174 28175 28176 28177 28178 28179 28180 28181 28182 28183 28184 28185 28186 28187 28188 28189 28190 28191 28192 28193 28194 28195 28196 28197 28198 28199 28200 28201 28202 28203 28204 28205 28206 28207 28208 28209 28210 28211 28212 28213 28214 28215 28216 28217 28218 28219 28220 28221 28222 28223 28224 28225 28226 28227 28228 28229 28230 28231 28232 28233 28234 28235 28236 28237 28238 28239 28240 28241 28242 28243 28244 28245 28246 28247 28248 28249 28250 28251 28252 28253 28254 28255 28256 28257 28258 28259 28260 28261 28262 28263 28264 28265 28266 28267 28268 28269 28270 28271 28272 28273 28274 28275 28276 28277 28278 28279 28280 28281 28282 28283 28284 28285 28286 28287 28288 28289 28290 28291 28292 28293 28294 28295 28296 28297 28298 28299 28300 28301 28302 28303 28304 28305 28306 28307 28308 28309 28310 28311 28312 28313 28314 28315 28316 28317 28318 28319 28320 28321 28322 28323 28324 28325 28326 28327 28328 28329 28330 28331 28332 28333 28334 28335 28336 28337 28338 28339 28340 28341 28342 28343 28344 28345 28346 28347 28348 28349 28350 28351 28352 28353 28354 28355 28356 28357 28358 28359 28360 28361 28362 28363 28364 28365 28366 28367 28368 28369 28370 28371 28372 28373 28374 28375 28376 28377 28378 28379 28380 28381 28382 28383 28384 28385 28386 28387 28388 28389 28390 28391 28392 28393 28394 28395 28396 28397 28398 28399 28400 28401 28402 28403 28404 28405 28406 28407 28408 28409 28410 28411 28412 28413 28414 28415 28416 28417 28418 28419 28420 28421 28422 28423 28424 28425 28426 28427 28428 28429 28430 28431 28432 28433 28434 28435 28436 28437 28438 28439 28440 28441 28442 28443 28444 28445 28446 28447 28448 28449 28450 28451 28452 28453 28454 28455 28456 28457 28458 28459 28460 28461 28462 28463 28464 28465 28466 28467 28468 28469 28470 28471 28472 28473 28474 28475 28476 28477 28478 28479 28480 28481 28482 28483 28484 28485 28486 28487 28488 28489 28490 28491 28492 28493 28494 28495 28496 28497 28498 28499 28500 28501 28502 28503 28504 28505 28506 28507 28508 28509 28510 28511 28512 28513 28514 28515 28516 28517 28518 28519 28520 28521 28522 28523 28524 28525 28526 28527 28528 28529 28530 28531 28532 28533 28534 28535 28536 28537 28538 28539 28540 28541 28542 28543 28544 28545 28546 28547 28548 28549 28550 28551 28552 28553 28554 28555 28556 28557 28558 28559 28560 28561 28562 28563 28564 28565 28566 28567 28568 28569 28570 28571 28572 28573 28574 28575 28576 28577 28578 28579 28580 28581 28582 28583 28584 28585 28586 28587 28588 28589 28590 28591 28592 28593 28594 28595 28596 28597 28598 28599 28600 28601 28602 28603 28604 28605 28606 28607 28608 28609 28610 28611 28612 28613 28614 28615 28616 28617 28618 28619 28620 28621 28622 28623 28624 28625 28626 28627 28628 28629 28630 28631 28632 28633 28634 28635 28636 28637 28638 28639 28640 28641 28642 28643 28644 28645 28646 28647 28648 28649 28650 28651 28652 28653 28654 28655 28656 28657 28658 28659 28660 28661 28662 28663 28664 28665 28666 28667 28668 28669 28670 28671 28672 28673 28674 28675 28676 28677 28678 28679 28680 28681 28682 28683 28684 28685 28686 28687 28688 28689 28690 28691 28692 28693 28694 28695 28696 28697 28698 28699 28700 28701 28702 28703 28704 28705 28706 28707 28708 28709 28710 28711 28712 28713 28714 28715 28716 28717 28718 28719 28720 28721 28722 28723 28724 28725 28726 28727 28728 28729 28730 28731 28732 28733 28734 28735 28736 28737 28738 28739 28740 28741 28742 28743 28744 28745 28746 28747 28748 28749 28750 28751 28752 28753 28754 28755 28756 28757 28758 28759 28760 28761 28762 28763 28764 28765 28766 28767 28768 28769 28770 28771 28772 28773 28774 28775 28776 28777 28778 28779 28780 28781 28782 28783 28784 28785 28786 28787 28788 28789 28790 28791 28792 28793 28794 28795 28796 28797 28798 28799 28800 28801 28802 28803 28804 28805 28806 28807 28808 28809 28810 28811 28812 28813 28814 28815 28816 28817 28818 28819 28820 28821 28822 28823 28824 28825 28826 28827 28828 28829 28830 28831 28832 28833 28834 28835 28836 28837 28838 28839 28840 28841 28842 28843 28844 28845 28846 28847 28848 28849 28850 28851 28852 28853 28854 28855 28856 28857 28858 28859 28860 28861 28862 28863 28864 28865 28866 28867 28868 28869 28870 28871 28872 28873 28874 28875 28876 28877 28878 28879 28880 28881 28882 28883 28884 28885 28886 28887 28888 28889 28890 28891 28892 28893 28894 28895 28896 28897 28898 28899 28900 28901 28902 28903 28904 28905 28906 28907 28908 28909 28910 28911 28912 28913 28914 28915 28916 28917 28918 28919 28920 28921 28922 28923 28924 28925 28926 28927 28928 28929 28930 28931 28932 28933 28934 28935 28936 28937 28938 28939 28940 28941 28942 28943 28944 28945 28946 28947 28948 28949 28950 28951 28952 28953 28954 28955 28956 28957 28958 28959 28960 28961 28962 28963 28964 28965 28966 28967 28968 28969 28970 28971 28972 28973 28974 28975 28976 28977 28978 28979 28980 28981 28982 28983 28984 28985 28986 28987 28988 28989 28990 28991 28992 28993 28994 28995 28996 28997 28998 28999 29000 29001 29002 29003 29004 29005 29006 29007 29008 29009 29010 29011 29012 29013 29014 29015 29016 29017 29018 29019 29020 29021 29022 29023 29024 29025 29026 29027 29028 29029 29030 29031 29032 29033 29034 29035 29036 29037 29038 29039 29040 29041 29042 29043 29044 29045 29046 29047 29048 29049 29050 29051 29052 29053 29054 29055 29056 29057 29058 29059 29060 29061 29062 29063 29064 29065 29066 29067 29068 29069 29070 29071 29072 29073 29074 29075 29076 29077 29078 29079 29080 29081 29082 29083 29084 29085 29086 29087 29088 29089 29090 29091 29092 29093 29094 29095 29096 29097 29098 29099 29100 29101 29102 29103 29104 29105 29106 29107 29108 29109 29110 29111 29112 29113 29114 29115 29116 29117 29118 29119 29120 29121 29122 29123 29124 29125 29126 29127 29128 29129 29130 29131 29132 29133 29134 29135 29136 29137 29138 29139 29140 29141 29142 29143 29144 29145 29146 29147 29148 29149 29150 29151 29152 29153 29154 29155 29156 29157 29158 29159 29160 29161 29162 29163 29164 29165 29166 29167 29168 29169 29170 29171 29172 29173 29174 29175 29176 29177 29178 29179 29180 29181 29182 29183 29184 29185 29186 29187 29188 29189 29190 29191 29192 29193 29194 29195 29196 29197 29198 29199 29200 29201 29202 29203 29204 29205 29206 29207 29208 29209 29210 29211 29212 29213 29214 29215 29216 29217 29218 29219 29220 29221 29222 29223 29224 29225 29226 29227 29228 29229 29230 29231 29232 29233 29234 29235 29236 29237 29238 29239 29240 29241 29242 29243 29244 29245 29246 29247 29248 29249 29250 29251 29252 29253 29254 29255 29256 29257 29258 29259 29260 29261 29262 29263 29264 29265 29266 29267 29268 29269 29270 29271 29272 29273 29274 29275 29276 29277 29278 29279 29280 29281 29282 29283 29284 29285 29286 29287 29288 29289 29290 29291 29292 29293 29294 29295 29296 29297 29298 29299 29300 29301 29302 29303 29304 29305 29306 29307 29308 29309 29310 29311 29312 29313 29314 29315 29316 29317 29318 29319 29320 29321 29322 29323 29324 29325 29326 29327 29328 29329 29330 29331 29332 29333 29334 29335 29336 29337 29338 29339 29340 29341 29342 29343 29344 29345 29346 29347 29348 29349 29350 29351 29352 29353 29354 29355 29356 29357 29358 29359 29360 29361 29362 29363 29364 29365 29366 29367 29368 29369 29370 29371 29372 29373 29374 29375 29376 29377 29378 29379 29380 29381 29382 29383 29384 29385 29386 29387 29388 29389 29390 29391 29392 29393 29394 29395 29396 29397 29398 29399 29400 29401 29402 29403 29404 29405 29406 29407 29408 29409 29410 29411 29412 29413 29414 29415 29416 29417 29418 29419 29420 29421 29422 29423 29424 29425 29426 29427 29428 29429 29430 29431 29432 29433 29434 29435 29436 29437 29438 29439 29440 29441 29442 29443 29444 29445 29446 29447 29448 29449 29450 29451 29452 29453 29454 29455 29456 29457 29458 29459 29460 29461 29462 29463 29464 29465 29466 29467 29468 29469 29470 29471 29472 29473 29474 29475 29476 29477 29478 29479 29480 29481 29482 29483 29484 29485 29486 29487 29488 29489 29490 29491 29492 29493 29494 29495 29496 29497 29498 29499 29500 29501 29502 29503 29504 29505 29506 29507 29508 29509 29510 29511 29512 29513 29514 29515 29516 29517 29518 29519 29520 29521 29522 29523 29524 29525 29526 29527 29528 29529 29530 29531 29532 29533 29534 29535 29536 29537 29538 29539 29540 29541 29542 29543 29544 29545 29546 29547 29548 29549 29550 29551 29552 29553 29554 29555 29556 29557 29558 29559 29560 29561 29562 29563 29564 29565 29566 29567 29568 29569 29570 29571 29572 29573 29574 29575 29576 29577 29578 29579 29580 29581 29582 29583 29584 29585 29586 29587 29588 29589 29590 29591 29592 29593 29594 29595 29596 29597 29598 29599 29600 29601 29602 29603 29604 29605 29606 29607 29608 29609 29610 29611 29612 29613 29614 29615 29616 29617 29618 29619 29620 29621 29622 29623 29624 29625 29626 29627 29628 29629 29630 29631 29632 29633 29634 29635 29636 29637 29638 29639 29640 29641 29642 29643 29644 29645 29646 29647 29648 29649 29650 29651 29652 29653 29654 29655 29656 29657 29658 29659 29660 29661 29662 29663 29664 29665 29666 29667 29668 29669 29670 29671 29672 29673 29674 29675 29676 29677 29678 29679 29680 29681 29682 29683 29684 29685 29686 29687 29688 29689 29690 29691 29692 29693 29694 29695 29696 29697 29698 29699 29700 29701 29702 29703 29704 29705 29706 29707 29708 29709 29710 29711 29712 29713 29714 29715 29716 29717 29718 29719 29720 29721 29722 29723 29724 29725 29726 29727 29728 29729 29730 29731 29732 29733 29734 29735 29736 29737 29738 29739 29740 29741 29742 29743 29744 29745 29746 29747 29748 29749 29750 29751 29752 29753 29754 29755 29756 29757 29758 29759 29760 29761 29762 29763 29764 29765 29766 29767 29768 29769 29770 29771 29772 29773 29774 29775 29776 29777 29778 29779 29780 29781 29782 29783 29784 29785 29786 29787 29788 29789 29790 29791 29792 29793 29794 29795 29796 29797 29798 29799 29800 29801 29802 29803 29804 29805 29806 29807 29808 29809 29810 29811 29812 29813 29814 29815 29816 29817 29818 29819 29820 29821 29822 29823 29824 29825 29826 29827 29828 29829 29830 29831 29832 29833 29834 29835 29836 29837 29838 29839 29840 29841 29842 29843 29844 29845 29846 29847 29848 29849 29850 29851 29852 29853 29854 29855 29856 29857 29858 29859 29860 29861 29862 29863 29864 29865 29866 29867 29868 29869 29870 29871 29872 29873 29874 29875 29876 29877 29878 29879 29880 29881 29882 29883 29884 29885 29886 29887 29888 29889 29890 29891 29892 29893 29894 29895 29896 29897 29898 29899 29900 29901 29902 29903 29904 29905 29906 29907 29908 29909 29910 29911 29912 29913 29914 29915 29916 29917 29918 29919 29920 29921 29922 29923 29924 29925 29926 29927 29928 29929 29930 29931 29932 29933 29934 29935 29936 29937 29938 29939 29940 29941 29942 29943 29944 29945 29946 29947 29948 29949 29950 29951 29952 29953 29954 29955 29956 29957 29958 29959 29960 29961 29962 29963 29964 29965 29966 29967 29968 29969 29970 29971 29972 29973 29974 29975 29976 29977 29978 29979 29980 29981 29982 29983 29984 29985 29986 29987 29988 29989 29990 29991 29992 29993 29994 29995 29996 29997 29998 29999 30000 30001 30002 30003 30004 30005 30006 30007 30008 30009 30010 30011 30012 30013 30014 30015 30016 30017 30018 30019 30020 30021 30022 30023 30024 30025 30026 30027 30028 30029 30030 30031 30032 30033 30034 30035 30036 30037 30038 30039 30040 30041 30042 30043 30044 30045 30046 30047 30048 30049 30050 30051 30052 30053 30054 30055 30056 30057 30058 30059 30060 30061 30062 30063 30064 30065 30066 30067 30068 30069 30070 30071 30072 30073 30074 30075 30076 30077 30078 30079 30080 30081 30082 30083 30084 30085 30086 30087 30088 30089 30090 30091 30092 30093 30094 30095 30096 30097 30098 30099 30100 30101 30102 30103 30104 30105 30106 30107 30108 30109 30110 30111 30112 30113 30114 30115 30116 30117 30118 30119 30120 30121 30122 30123 30124 30125 30126 30127 30128 30129 30130 30131 30132 30133 30134 30135 30136 30137 30138 30139 30140 30141 30142 30143 30144 30145 30146 30147 30148 30149 30150 30151 30152 30153 30154 30155 30156 30157 30158 30159 30160 30161 30162 30163 30164 30165 30166 30167 30168 30169 30170 30171 30172 30173 30174 30175 30176 30177 30178 30179 30180 30181 30182 30183 30184 30185 30186 30187 30188 30189 30190 30191 30192 30193 30194 30195 30196 30197 30198 30199 30200 30201 30202 30203 30204 30205 30206 30207 30208 30209 30210 30211 30212 30213 30214 30215 30216 30217 30218 30219 30220 30221 30222 30223 30224 30225 30226 30227 30228 30229 30230 30231 30232 30233 30234 30235 30236 30237 30238 30239 30240 30241 30242 30243 30244 30245 30246 30247 30248 30249 30250 30251 30252 30253 30254 30255 30256 30257 30258 30259 30260 30261 30262 30263 30264 30265 30266 30267 30268 30269 30270 30271 30272 30273 30274 30275 30276 30277 30278 30279 30280 30281 30282 30283 30284 30285 30286 30287 30288 30289 30290 30291 30292 30293 30294 30295 30296 30297 30298 30299 30300 30301 30302 30303 30304 30305 30306 30307 30308 30309 30310 30311 30312 30313 30314 30315 30316 30317 30318 30319 30320 30321 30322 30323 30324 30325 30326 30327 30328 30329 30330 30331 30332 30333 30334 30335 30336 30337 30338 30339 30340 30341 30342 30343 30344 30345 30346 30347 30348 30349 30350 30351 30352 30353 30354 30355 30356 30357 30358 30359 30360 30361 30362 30363 30364 30365 30366 30367 30368 30369 30370 30371 30372 
</DataArray>
<DataArray type="UInt32" Name="offsets" format="ascii">
3 6 9 12 15 18 21 24 27 30 33 36 38 41 44 47 50 53 56 59 62 64 67 70 73 76 79 81 84 87 89 92 95 98 100 103 106 108 111 114 117 120 123 126 129 131 134 137 140 143 146 149 151 154 157 160 163 166 169 172 175 177 180 183 186 189 191 194 197 200 203 206 209 212 215 218 221 224 226 228 231 234 237 240 243 246 249 252 255 258 260 262 265 268 271 273 276 279 282 284 287 290 293 295 298 301 304 307 310 313 316 319 321 324 327 330 333 336 339 342 345 348 351 354 357 360 363 366 369 372 375 378 381 384 387 390 393 396 398 401 404 407 410 412 415 418 421 424 427 430 433 436 439 441 443 446 449 451 454 457 460 463 465 468 470 473 476 479 482 485 488 491 494 496 499 502 505 508 511 514 517 520 523 526 528 531 534 536 539 542 544 547 550 553 556 558 561 563 566 569 572 575 578 581 584 587 590 593 596 599 602 605 608 611 614 617 620 623 626 629 632 635 638 641 644 647 650 653 656 659 662 665 668 671 674 676 679 682 684 687 689 692 695 698 701 703 706 708 710 713 716 719 722 724 727 729 732 735 737 740 743 746 749 752 755 758 761 764 767 770 773 776 779 781 784 787 790 793 796 799 802 804 807 810 813 816 819 822 825 828 831 834 837 840 843 846 849 852 855 858 861 864 867 870 873 876 879 882 884 887 890 893 896 898 901 904 907 910 913 915 918 920 923 926 929 931 934 937 940 943 946 949 952 955 958 961 964 966 969 972 975 978 981 984 987 990 993 996 999 1002 1005 1008 1011 1014 1017 1020 1023 1026 1029 1032 1035 1038 1041 1044 1047 1050 1053 1055 1058 1061 1064 1067 1069 1072 1075 1078 1081 1084 1087 1090 1092 1095 1098 1101 1104 1107 1110 1113 1116 1118 1121 1123 1126 1129 1131 1134 1137 1140 1143 1146 1149 1151 1154 1156 1159 1162 1165 1168 1171 1174 1177 1180 1183 1186 1189 1192 1194 1196 1199 1202 1205 1207 1209 1212 1215 1218 1221 1224 1227 1230 1232 1234 1237 1240 1243 1245 1248 1251 1254 1256 1259 1262 1265 1268 1270 1272 1275 1277 1280 1283 1286 1289 1291 1294 1297 1300 1303 1306 1309 1312 1315 1318 1321 1324 1327 1330 1333 1336 1339 1342 1345 1348 1351 1354 1357 1360 1363 1366 1369 1372 1375 1378 1381 1383 1386 1389 1392 1395 1398 1401 1404 1407 1410 1413 1416 1419 1422 1425 1428 1431 1434 1437 1440 1443 1446 1448 1451 1454 1457 1460 1463 1466 1469 1472 1475 1477 1480 1483 1486 1489 1491 1494 1497 1500 1502 1505 1508 1510 1513 1516 1519 1522 1525 1528 1531 1534 1537 1540 1542 1544 1546 1549 1552 1555 1558 1561 1564 1566 1569 1572 1575 1578 1581 1584 1587 1590 1592 1595 1598 1601 1604 1607 1610 1612 1615 1618 1621 1624 1627 1630 1633 1636 1639 1642 1645 1648 1651 1653 1656 1659 1661 1664 1667 1670 1673 1675 1678 1681 1683 1686 1689 1692 1695 1698 1701 1704 1707 1710 1713 1716 1719 1722 1725 1728 1731 1734 1737 1740 1743 1745 1748 1751 1754 1757 1760 1763 1765 1768 1771 1774 1776 1778 1781 1784 1787 1789 1792 1795 1798 1801 1804 1807 1810 1813 1816 1819 1822 1825 1827 1830 1833 1835 1838 1841 1844 1847 1849 1852 1854 1857 1860 1863 1866 1869 1872 1875 1878 1881 1884 1886 1889 1892 1895 1898 1901 1904 1907 1910 1913 1916 1918 1921 1924 1927 1930 1933 1936 1939 1942 1945 1948 1951 1954 1957 1960 1963 1966 1969 1971 1974 1977 1980 1983 1986 1989 1992 1995 1998 2001 2004 2007 2009 2011 2014 2017 2019 2022 2025 2028 2031 2033 2036 2039 2041 2044 2047 2050 2053 2056 2059 2061 2064 2067 2069 2072 2074 2077 2080 2083 2086 2088 2091 2093 2096 2099 2102 2105 2108 2111 2113 2116 2119 2122 2125 2127 2130 2133 2136 2138 2141 2144 2146 2149 2151 2154 2157 2160 2162 2165 2168 2171 2173 2176 2179 2182 2185 2188 2191 2194 2197 2200 2203 2205 2208 2210 2213 2215 2218 2221 2224 2226 2229 2232 2235 2238 2241 2244 2247 2249 2252 2255 2258 2261 2264 2267 2270 2273 2276 2279 2282 2285 2288 2291 2294 2296 2299 2302 2305 2308 2310 2313 2316 2319 2322 2324 2327 2330 2333 2336 2339 2341 2344 2347 2350 2353 2356 2359 2362 2365 2368 2371 2374 2377 2380 2383 2386 2389 2392 2395 2398 2401 2404 2407 2410 2413 2416 2419 2422 2425 2428 2431 2434 2437 2440 2443 2446 2449 2452 2455 2458 2461 2464 2467 2470 2473 2476 2479 2481 2484 2487 2490 2493 2496 2499 2501 2504 2507 2510 2513 2516 2519 2522 2525 2528 2531 2534 2537 2540 2543 2546 2548 2551 2554 2557 2560 2563 2565 2568 2571 2574 2577 2580 2583 2586 2588 2591 2594 2597 2600 2603 2606 2609 2612 2615 2618 2621 2624 2627 2630 2633 2636 2639 2642 2645 2648 2651 2654 2657 2659 2662 2665 2668 2671 2674 2677 2680 2683 2686 2689 2692 2695 2697 2700 2703 2706 2709 2712 2715 2718 2721 2724 2726 2729 2732 2735 2738 2741 2744 2747 2750 2753 2756 2758 2761 2764 2767 2770 2773 2776 2779 2782 2785 2788 2791 2793 2795 2798 2801 2804 2807 2810 2813 2816 2818 2821 2824 2827 2830 2832 2835 2838 2841 2844 2847 2850 2852 2855 2858 2861 2864 2867 2870 2873 2876 2879 2882 2884 2887 2890 2893 2896 2899 2902 2904 2907 2910 2913 2916 2919 2922 2925 2927 2930 2933 2935 2938 2940 2943 2946 2949 2952 2955 2958 2961 2963 2966 2969 2972 2975 2977 2980 2983 2986 2989 2992 2995 2998 3000 3003 3006 3009 3012 3014 3017 3020 3022 3025 3027 3030 3033 3036 3039 3042 3044 3047 3050 3053 3056 3058 3060 3063 3066 3069 3072 3075 3078 3081 3084 3087 3090 3093 3095 3098 3101 3104 3107 3110 3113 3115 3118 3121 3124 3127 3130 3133 3136 3139 3141 3144 3147 3150 3153 3156 3159 3162 3165 3168 3171 3174 3177 3180 3183 3185 3188 3191 3194 3196 3199 3202 3205 3208 3211 3214 3217 3220 3223 3226 3229 3232 3234 3237 3240 3243 3246 3249 3252 3255 3257 3260 3262 3265 3267 3270 3272 3275 3278 3281 3284 3287 3290 3293 3296 3298 3301 3304 3306 3309 3312 3314 3317 3320 3323 3326 3328 3331 3334 3337 3340 3343 3346 3349 3352 3354 3357 3359 3362 3364 3367 3370 3372 3375 3378 3381 3383 3386 3389 3392 3394 3397 3399 3402 3405 3408 3411 3414 3417 3420 3423 3426 3429 3431 3433 3436 3438 3441 3444 3446 3449 3452 3454 3457 3459 3462 3465 3468 3470 3473 3476 3479 3482 3485 3488 3491 3494 3497 3500 3503 3505 3508 3510 3513 3516 3519 3521 3524 3527 3530 3533 3535 3538 3541 3543 3546 3549 3552 3554 3557 3560 3563 3565 3568 3570 3572 3575 3578 3581 3584 3587 3590 3593 3596 3599 3601 3604 3607 3610 3613 3616 3619 3622 3625 3628 3631 3634 3637 3640 3643 3646 3648 3651 3654 3657 3660 3663 3666 3669 3672 3675 3678 3681 3683 3686 3688 3691 3694 3697 3700 3703 3706 3708 3711 3714 3717 3720 3723 3726 3728 3731 3734 3737 3740 3742 3745 3748 3751 3754 3756 3759 3762 3764 3767 3769 3772 3775 3778 3780 3782 3785 3788 3791 3794 3797 3800 3803 3806 3809 3812 3815 3818 3820 3823 3826 3829 3832 3835 3838 3841 3844 3847 3850 3853 3855 3857 3860 3863 3865 3868 3871 3874 3876 3878 3881 3884 3887 3890 3893 3896 3899 3902 3905 3908 3911 3914 3917 3919 3922 3925 3927 3930 3933 3936 3939 3942 3945 3948 3950 3953 3956 3959 3961 3964 3967 3970 3973 3976 3978 3981 3983 3986 3989 3992 3995 3998 4001 4004 4007 4010 4013 4015 4018 4021 4024 4027 4029 4031 4034 4037 4040 4043 4046 4049 4052 4055 4058 4061 4064 4067 4070 4073 4075 4078 4081 4084 4087 4090 4093 4096 4098 4101 4104 4107 4109 4112 4115 4118 4121 4124 4127 4130 4133 4135 4138 4141 4144 4147 4150 4153 4156 4159 4162 4165 4168 4171 4174 4176 4179 4182 4185 4188 4191 4194 4196 4199 4202 4204 4207 4210 4213 4216 4219 4222 4225 4228 4231 4234 4237 4240 4242 4245 4248 4251 4254 4257 4260 4262 4265 4268 4271 4274 4277 4280 4283 4286 4288 4291 4294 4297 4299 4302 4305 4308 4311 4313 4316 4319 4322 4325 4328 4331 4333 4336 4339 4342 4345 4348 4351 4353 4356 4359 4361 4364 4367 4370 4373 4375 4378 4381 4384 4387 4390 4392 4395 4398 4401 4404 4407 4410 4413 4416 4419 4421 4424 4427 4430 4432 4435 4437 4440 4443 4446 4449 4452 4455 4458 4461 4464 4467 4470 4473 4476 4479 4481 4484 4487 4490 4492 4495 4498 4501 4504 4507 4510 4513 4516 4519 4522 4525 4528 4531 4534 4537 4540 4542 4545 4548 4551 4554 4556 4559 4562 4565 4568 4571 4574 4576 4579 4582 4585 4588 4591 4594 4597 4600 4603 4606 4609 4611 4614 4617 4619 4622 4625 4628 4631 4634 4637 4640 4643 4646 4649 4651 4654 4657 4660 4663 4666 4669 4672 4675 4678 4681 4683 4686 4689 4692 4695 4698 4701 4704 4707 4710 4713 4716 4719 4722 4725 4727 4730 4733 4736 4738 4741 4743 4746 4749 4751 4754 4757 4760 4763 4766 4769 4772 4775 4778 4781 4784 4786 4789 4792 4795 4797 4800 4803 4806 4809 4812 4815 4818 4821 4824 4827 4830 4833 4836 4839 4842 4845 4848 4851 4853 4856 4859 4862 4865 4868 4871 4874 4877 4880 4883 4886 4889 4892 4895 4898 4901 4904 4906 4909 4911 4914 4917 4920 4923 4925 4927 4929 4932 4935 4938 4941 4944 4947 4950 4953 4956 4959 4962 4964 4967 4969 4972 4975 4977 4980 4982 4985 4988 4991 4994 4997 5000 5002 5005 5008 5010 5013 5016 5018 5021 5024 5027 5030 5033 5036 5038 5041 5043 5045 5048 5051 5054 5057 5060 5062 5065 5068 5070 5073 5076 5079 5082 5085 5088 5091 5094 5097 5100 5103 5106 5109 5112 5115 5118 5121 5124 5127 5130 5133 5136 5138 5141 5144 5147 5150 5153 5156 5159 5162 5165 5167 5170 5173 5176 5179 5182 5185 5187 5190 5193 5196 5199 5202 5205 5208 5211 5213 5216 5219 5222 5225 5227 5230 5233 5236 5239 5242 5245 5248 5251 5254 5257 5260 5262 5265 5268 5271 5274 5277 5280 5283 5286 5289 5292 5295 5298 5301 5304 5307 5310 5313 5316 5319 5322 5324 5327 5329 5332 5335 5338 5341 5344 5347 5350 5353 5356 5359 5362 5365 5368 5371 5374 5377 5380 5383 5386 5389 5392 5395 5398 5401 5404 5407 5409 5412 5415 5418 5420 5423 5426 5429 5432 5435 5438 5441 5444 5446 5449 5452 5455 5458 5460 5462 5465 5468 5470 5473 5476 5478 5480 5483 5486 5488 5491 5494 5497 5500 5503 5506 5508 5511 5514 5517 5520 5523 5526 5529 5532 5535 5538 5541 5544 5547 5550 5553 5556 5558 5561 5564 5567 5570 5572 5575 5578 5581 5584 5587 5590 5593 5596 5599 5602 5605 5608 5610 5613 5616 5618 5621 5624 5626 5628 5630 5633 5636 5639 5642 5645 5648 5651 5654 5656 5659 5661 5664 5667 5670 5673 5676 5679 5682 5685 5687 5690 5692 5695 5698 5701 5704 5706 5709 5711 5714 5717 5720 5722 5724 5727 5730 5733 5736 5739 5741 5744 5747 5749 5752 5755 5757 5759 5762 5765 5768 5771 5773 5776 5779 5781 5784 5786 5788 5791 5794 5797 5800 5803 5806 5809 5812 5815 5818 5821 5824 5827 5830 5833 5836 5838 5841 5844 5847 5850 5853 5856 5859 5862 5865 5868 5871 5874 5877 5880 5883 5885 5888 5890 5893 5896 5899 5902 5904 5907 5910 5913 5916 5919 5922 5924 5927 5929 5932 5935 5938 5941 5944 5947 5950 5952 5955 5958 5960 5963 5966 5969 5972 5975 5977 5979 5982 5985 5988 5991 5994 5997 6000 6003 6005 6007 6010 6013 6015 6017 6020 6023 6026 6029 6032 6035 6038 6041 6043 6046 6049 6052 6055 6057 6060 6063 6066 6069 6072 6075 6078 6081 6084 6086 6089 6091 6094 6097 6100 6102 6105 6108 6111 6114 6117 6120 6123 6126 6129 6132 6134 6137 6140 6143 6146 6148 6151 6153 6156 6159 6161 6163 6166 6169 6172 6175 6178 6181 6184 6187 6190 6193 6195 6198 6201 6204 6207 6210 6213 6216 6219 6222 6225 6228 6231 6234 6237 6240 6243 6246 6249 6252 6255 6258 6261 6264 6267 6270 6273 6276 6279 6282 6285 6288 6291 6294 6296 6299 6301 6304 6307 6310 6313 6316 6319 6322 6325 6328 6330 6333 6336 6338 6341 6344 6347 6350 6353 6356 6359 6362 6365 6368 6371 6374 6377 6380 6383 6386 6389 6392 6395 6397 6400 6403 6406 6409 6412 6415 6418 6421 6424 6427 6430 6433 6436 6439 6442 6445 6448 6451 6453 6456 6459 6462 6465 6468 6471 6474 6477 6480 6483 6485 6488 6491 6494 6497 6500 6503 6506 6509 6512 6515 6517 6520 6523 6526 6529 6532 6535 6538 6541 6544 6547 6550 6553 6556 6559 6562 6565 6567 6570 6573 6576 6579 6582 6585 6588 6591 6594 6597 6599 6602 6605 6608 6611 6613 6616 6619 6622 6625 6628 6631 6634 6637 6639 6642 6644 6647 6650 6653 6656 6659 6662 6665 6668 6671 6674 6677 6679 6682 6685 6688 6691 6694 6696 6699 6702 6705 6708 6711 6714 6717 6720 6723 6726 6729 6731 6734 6737 6739 6742 6745 6748 6750 6753 6756 6759 6762 6764 6767 6770 6773 6775 6778 6781 6784 6787 6790 6793 6796 6798 6801 6804 6807 6809 6812 6815 6818 6821 6824 6827 6830 6833 6836 6839 6842 6845 6848 6850 6853 6856 6858 6861 6864 6867 6870 6873 6876 6879 6882 6885 6887 6890 6893 6896 6899 6902 6905 6908 6911 6913 6916 6919 6922 6925 6927 6929 6932 6934 6937 6940 6943 6946 6949 6952 6954 6957 6960 6963 6966 6968 6971 6974 6976 6979 6982 6985 6988 6991 6994 6997 7000 7003 7006 7009 7012 7015 7017 7020 7023 7026 7029 7031 7034 7037 7039 7042 7045 7048 7051 7054 7056 7059 7062 7065 7068 7071 7074 7077 7080 7083 7086 7089 7092 7095 7098 7101 7104 7107 7109 7112 7115 7117 7120 7123 7126 7129 7132 7135 7137 7140 7143 7146 7149 7152 7155 7158 7161 7163 7166 7169 7172 7174 7177 7180 7183 7186 7189 7192 7195 7198 7200 7202 7205 7208 7211 7214 7216 7219 7222 7225 7227 7230 7233 7235 7238 7241 7244 7247 7250 7253 7256 7259 7262 7265 7268 7271 7274 7277 7280 7283 7286 7289 7291 7294 7297 7300 7303 7306 7309 7312 7315 7318 7321 7324 7327 7330 7333 7336 7338 7341 7344 7347 7350 7353 7356 7359 7362 7365 7368 7371 7373 7376 7379 7382 7385 7388 7391 7394 7397 7400 7403 7406 7409 7412 7415 7418 7421 7424 7427 7430 7433 7435 7438 7441 7444 7447 7450 7453 7455 7458 7461 7464 7467 7470 7473 7476 7479 7482 7485 7488 7491 7494 7497 7499 7502 7505 7507 7510 7513 7516 7519 7522 7525 7528 7531 7534 7537 7540 7543 7546 7548 7551 7554 7557 7560 7563 7566 7569 7572 7575 7578 7581 7584 7587 7590 7593 7596 7599 7602 7605 7608 7611 7614 7617 7620 7623 7626 7629 7632 7635 7638 7641 7644 7647 7650 7653 7655 7658 7661 7664 7667 7670 7673 7676 7679 7681 7684 7687 7690 7693 7696 7699 7702 7705 7708 7711 7714 7717 7720 7723 7726 7729 7732 7735 7738 7740 7742 7745 7748 7751 7754 7757 7760 7763 7766 7769 7772 7775 7778 7781 7784 7787 7790 7793 7796 7799 7802 7805 7808 7811 7814 7817 7820 7823 7826 7829 7832 7835 7838 7841 7844 7846 7849 7852 7854 7857 7860 7863 7866 7869 7872 7875 7878 7881 7884 7887 7890 7893 7895 7898 7901 7904 7906 7909 7912 7914 7917 7919 7922 7925 7927 7930 7933 7936 7939 7942 7945 7948 7950 7953 7956 7959 7962 7964 7967 7969 7971 7974 7977 7980 7983 7986 7989 7991 7993 7995 7998 8001 8004 8007 8010 8013 8015 8018 8021 8024 8027 8030 8033 8036 8039 8042 8045 8048 8050 8053 8055 8057 8060 8063 8066 8068 8071 8074 8076 8078 8081 8084 8087 8090 8093 8096 8099 8102 8105 8108 8111 8114 8117 8120 8122 8125 8128 8131 8134 8137 8140 8143 8146 8149 8152 8155 8158 8161 8164 8167 8170 8173 8176 8179 8182 8185 8187 8190 8192 8195 8198 8201 8204 8207 8210 8213 8216 8219 8222 8224 8227 8230 8233 8236 8239 8242 8245 8248 8251 8254 8257 8260 8263 8266 8269 8272 8275 8278 8281 8284 8287 8290 8293 8296 8299 8302 8305 8308 8311 8314 8317 8320 8323 8326 8329 8332 8335 8338 8341 8344 8347 8350 8353 8356 8359 8362 8365 8368 8370 8373 8375 8378 8380 8383 8386 8389 8392 8395 8398 8401 8404 8407 8410 8413 8416 8419 8422 8425 8428 8431 8434 8437 8439 8442 8445 8448 8451 8453 8456 8459 8462 8465 8468 8471 8474 8477 8479 8482 8485 8488 8491 8494 8497 8500 8503 8506 8509 8512 8515 8517 8520 8522 8525 8527 8530 8533 8536 8539 8542 8544 8547 8550 8552 8555 8558 8561 8563 8565 8568 8571 8574 8576 8579 8582 8585 8587 8590 8592 8595 8598 8601 8604 8607 8610 8613 8616 8619 8622 8625 8628 8631 8634 8636 8639 8641 8644 8647 8650 8653 8656 8659 8662 8665 8667 8670 8673 8676 8679 8682 8685 8688 8691 8694 8697 8699 8702 8705 8708 8711 8714 8717 8720 8723 8726 8729 8732 8735 8738 8741 8744 8747 8749 8752 8755 8758 8761 8764 8766 8769 8772 8775 8778 8780 8783 8785 8788 8791 8794 8796 8799 8802 8805 8808 8811 8814 8817 8820 8823 8826 8829 8832 8835 8838 8841 8844 8847 8850 8853 8856 8859 8862 8865 8868 8871 8874 8877 8880 8883 8886 8889 8892 8894 8896 8899 8901 8904 8907 8909 8912 8914 8917 8920 8923 8925 8928 8931 8934 8937 8940 8942 8945 8948 8951 8953 8956 8959 8961 8964 8967 8969 8972 8975 8978 8981 8984 8987 8990 8993 8996 8998 9001 9004 9007 9010 9013 9016 9019 9021 9024 9027 9030 9032 9035 9038 9040 9043 9046 9049 9052 9055 9058 9061 9064 9066 9068 9071 9074 9077 9080 9082 9085 9088 9090 9093 9096 9099 9102 9105 9108 9111 9114 9117 9120 9123 9126 9129 9132 9135 9138 9141 9143 9146 9149 9151 9154 9156 9159 9161 9164 9167 9170 9173 9176 9178 9181 9184 9186 9189 9191 9194 9197 9200 9203 9206 9208 9211 9214 9217 9219 9222 9225 9228 9230 9233 9236 9238 9241 9244 9247 9250 9252 9254 9257 9260 9263 9266 9269 9272 9275 9277 9279 9282 9285 9288 9290 9293 9296 9299 9302 9305 9308 9311 9314 9317 9320 9322 9325 9328 9331 9334 9337 9340 9343 9346 9348 9351 9354 9356 9359 9362 9365 9368 9371 9374 9377 9380 9383 9386 9389 9392 9395 9398 9401 9404 9407 9410 9412 9415 9417 9420 9423 9426 9429 9432 9435 9438 9441 9444 9447 9450 9453 9456 9459 9462 9465 9468 9471 9474 9477 9480 9483 9486 9489 9492 9495 9498 9501 9504 9507 9510 9513 9516 9519 9522 9525 9528 9531 9534 9537 9540 9543 9546 9549 9552 9555 9558 9561 9564 9567 9570 9572 9575 9578 9581 9584 9587 9590 9593 9596 9599 9602 9605 9608 9611 9614 9617 9620 9623 9626 9628 9631 9634 9637 9639 9642 9644 9647 9650 9653 9656 9659 9661 9664 9666 9669 9672 9675 9678 9681 9683 9685 9688 9691 9694 9697 9700 9703 9706 9709 9712 9715 9718 9721 9724 9727 9729 9731 9734 9737 9740 9743 9746 9749 9752 9755 9758 9761 9764 9766 9769 9771 9774 9776 9779 9782 9785 9787 9790 9792 9795 9798 9801 9804 9807 9810 9813 9816 9819 9822 9825 9828 9830 9832 9835 9838 9841 9844 9847 9850 9853 9856 9859 9862 9865 9868 9871 9874 9877 9880 9883 9886 9889 9892 9895 9898 9901 9904 9907 9910 9913 9916 9919 9921 9924 9927 9930 9932 9935 9938 9941 9944 9947 9950 9952 9955 9958 9961 9964 9967 9970 9973 9976 9979 9982 9985 9988 9991 9994 9997 9999 10002 10005 10008 10011 10014 10017 10020 10023 10026 10029 10032 10035 10038 10041 10044 10047 10050 10053 10056 10059 10062 10065 10067 10070 10073 10076 10078 10080 10083 10086 10089 10092 10095 10098 10101 10103 10106 10109 10112 10115 10118 10121 10124 10127 10129 10132 10135 10137 10140 10143 10145 10148 10151 10154 10157 10160 10163 10166 10168 10171 10174 10177 10180 10183 10186 10189 10192 10194 10197 10200 10203 10206 10209 10212 10215 10218 10221 10224 10227 10230 10233 10236 10239 10242 10245 10248 10251 10254 10257 10259 10262 10264 10267 10270 10273 10276 10279 10282 10285 10288 10291 10294 10297 10300 10303 10306 10309 10312 10315 10318 10321 10324 10327 10330 10333 10336 10339 10342 10345 10348 10351 10354 10356 10359 10362 10365 10368 10371 10374 10377 10380 10383 10385 10388 10391 10394 10397 10400 10403 10406 10409 10412 10415 10418 10421 10424 10427 10429 10432 10435 10438 10441 10444 10447 10450 10453 10456 10459 10462 10465 10468 10471 10474 10477 10480 10483 10486 10488 10491 10494 10497 10499 10502 10505 10508 10511 10514 10517 10520 10523 10526 10529 10532 10535 10538 10541 10544 10547 10550 10552 10555 10558 10561 10564 10567 10570 10573 10576 10578 10581 10584 10587 10590 10593 10596 10599 10602 10605 10608 10611 10614 10617 10620 10623 10626 10629 10632 10635 10638 10641 10644 10647 10650 10653 10656 10659 10662 10665 10667 10670 10673 10676 10678 10681 10684 10686 10689 10692 10695 10697 10700 10702 10705 10707 10709 10712 10715 10718 10721 10723 10725 10728 10731 10734 10737 10740 10742 10745 10748 10751 10753 10756 10759 10762 10765 10768 10771 10774 10777 10780 10783 10786 10789 10792 10795 10798 10801 10804 10807 10809 10812 10815 10818 10820 10823 10826 10829 10832 10835 10838 10841 10844 10847 10850 10853 10856 10859 10862 10865 10868 10871 10874 10877 10880 10882 10885 10888 10891 10894 10897 10900 10903 10906 10908 10911 10914 10917 10920 10922 10924 10927 10930 10933 10936 10939 10942 10945 10948 10951 10954 10957 10960 10963 10966 10969 10972 10975 10978 10981 10983 10986 10989 10992 10994 10997 10999 11002 11005 11007 11010 11013 11016 11019 11022 11025 11028 11030 11033 11036 11039 11041 11044 11047 11049 11052 11055 11058 11061 11064 11066 11068 11071 11074 11077 11080 11083 11086 11089 11092 11095 11098 11101 11103 11106 11109 11112 11114 11117 11120 11123 11125 11128 11130 11133 11136 11139 11142 11144 11147 11150 11153 11156 11159 11162 11165 11168 11171 11174 11177 11180 11183 11185 11188 11191 11194 11196 11199 11202 11205 11207 11210 11213 11216 11219 11222 11225 11228 11231 11234 11237 11240 11242 11245 11248 11251 11254 11257 11260 11263 11266 11269 11272 11275 11278 11281 11284 11287 11290 11293 11296 11299 11302 11305 11308 11311 11314 11317 11320 11323 11326 11329 11332 11335 11338 11341 11344 11347 11349 11352 11355 11358 11361 11364 11367 11370 11373 11376 11379 11382 11385 11388 11391 11394 11397 11400 11403 11406 11408 11411 11414 11417 11420 11423 11426 11428 11431 11434 11437 11440 11443 11445 11448 11451 11454 11457 11460 11463 11466 11469 11472 11475 11477 11480 11483 11486 11489 11492 11495 11498 11501 11504 11507 11510 11513 11515 11518 11521 11524 11527 11530 11533 11536 11539 11542 11545 11548 11551 11554 11557 11560 11563 11566 11569 11572 11575 11578 11581 11584 11587 11589 11592 11595 11598 11601 11604 11607 11610 11613 11616 11619 11622 11625 11628 11630 11633 11636 11639 11642 11645 11648 11651 11654 11657 11660 11663 11666 11669 11672 11675 11678 11681 11684 11687 11690 11693 11696 11699 11702 11705 11708 11711 11714 11717 11720 11722 11724 11727 11730 11733 11736 11739 11742 11745 11748 11751 11754 11757 11760 11763 11766 11769 11772 11775 11778 11781 11784 11787 11790 11793 11796 11799 11802 11805 11808 11810 11813 11816 11819 11821 11824 11827 11830 11833 11836 11838 11841 11844 11847 11850 11853 11856 11859 11862 11864 11867 11870 11873 11876 11879 11881 11884 11887 11890 11892 11895 11898 11901 11904 11906 11909 11912 11915 11918 11921 11924 11927 11930 11933 11936 11939 11941 11944 11947 11950 11953 11956 11959 11962 11965 11968 11971 11974 11977 11980 11983 11985 11988 11991 11994 11997 12000 12003 12006 12009 12011 12014 12017 12020 12023 12026 12029 12032 12035 12038 12041 12044 12047 12050 12053 12056 12059 12062 12065 12068 12071 12074 12077 12080 12083 12086 12089 12092 12094 12097 12100 12103 12106 12109 12112 12115 12118 12121 12124 12127 12129 12132 12135 12138 12141 12144 12147 12150 12153 12156 12159 12162 12165 12168 12171 12173 12176 12179 12182 12185 12188 12191 12194 12197 12199 12202 12205 12207 12210 12213 12216 12219 12221 12224 12227 12229 12232 12234 12237 12239 12242 12245 12247 12250 12253 12256 12259 12262 12265 12268 12271 12274 12277 12280 12283 12285 12287 12290 12293 12295 12298 12301 12304 12307 12310 12313 12316 12319 12322 12325 12328 12331 12333 12336 12339 12342 12345 12348 12351 12354 12357 12360 12363 12366 12369 12372 12375 12377 12380 12382 12385 12388 12391 12394 12397 12400 12402 12405 12408 12411 12414 12417 12420 12422 12425 12428 12431 12434 12436 12439 12441 12444 12447 12450 12452 12454 12457 12460 12462 12465 12467 12470 12473 12475 12478 12481 12484 12487 12490 12493 12496 12499 12502 12505 12508 12511 12513 12516 12519 12522 12525 12528 12531 12534 12536 12539 12542 12545 12548 12551 12554 12557 12560 12563 12566 12569 12572 12575 12577 12580 12582 12585 12587 12590 12592 12595 12597 12599 12601 12604 12607 12610 12612 12615 12618 12621 12623 12626 12629 12631 12633 12636 12639 12642 12644 12647 12650 12653 12656 12659 12662 12664 12667 12670 12673 12676 12679 12682 12685 12688 12691 12694 12697 12700 12703 12706 12709 12712 12715 12718 12720 12722 12725 12728 12731 12733 12735 12738 12741 12743 12746 12748 12751 12754 12757 12760 12763 12766 12769 12772 12774 12777 12780 12783 12786 12789 12792 12795 12798 12801 12804 12807 12809 12812 12815 12817 12819 12822 12825 12828 12830 12833 12836 12838 12841 12844 12847 12850 12853 12856 12859 12862 12865 12868 12870 12873 12875 12877 12880 12883 12885 12888 12890 12893 12896 12898 12900 12903 12906 12909 12912 12915 12918 12920 12923 12925 12928 12931 12933 12936 12939 12942 12945 12948 12951 12953 12956 12959 12962 12965 12968 12971 12974 12977 12980 12982 12985 12987 12990 12993 12996 12999 13002 13005 13007 13010 13013 13016 13019 13022 13025 13028 13031 13034 13037 13040 13043 13046 13049 13052 13055 13058 13061 13064 13067 13070 13073 13076 13079 13082 13085 13088 13091 13094 13097 13100 13103 13105 13108 13111 13114 13117 13120 13122 13125 13128 13131 13134 13137 13140 13142 13145 13148 13151 13154 13157 13160 13163 13166 13169 13172 13175 13178 13180 13183 13186 13189 13192 13195 13197 13200 13203 13206 13209 13212 13214 13217 13220 13223 13226 13229 13232 13235 13238 13241 13244 13247 13250 13253 13256 13259 13262 13265 13268 13271 13274 13276 13278 13281 13284 13287 13289 13292 13295 13298 13301 13304 13307 13310 13313 13316 13319 13322 13325 13328 13330 13333 13336 13338 13341 13344 13347 13350 13353 13356 13359 13362 13365 13368 13371 13374 13377 13380 13383 13386 13389 13392 13395 13398 13401 13404 13407 13410 13413 13416 13419 13422 13425 13428 13431 13434 13437 13440 13443 13446 13449 13452 13454 13457 13460 13463 13466 13469 13472 13475 13477 13480 13483 13486 13489 13492 13495 13498 13501 13504 13506 13509 13512 13515 13518 13521 13524 13527 13529 13532 13535 13537 13540 13542 13544 13547 13550 13552 13555 13558 13560 13563 13565 13568 13570 13573 13576 13579 13582 13585 13587 13590 13593 13596 13599 13602 13605 13607 13610 13613 13616 13619 13622 13625 13628 13631 13634 13637 13640 13642 13645 13648 13650 13653 13655 13658 13661 13664 13666 13669 13672 13675 13678 13681 13684 13687 13690 13693 13696 13699 13702 13704 13707 13710 13713 13716 13719 13722 13725 13728 13731 13733 13736 13739 13742 13745 13748 13750 13753 13756 13759 13761 13764 13766 13769 13772 13775 13777 13779 13781 13783 13786 13788 13791 13794 13797 13800 13803 13805 13808 13811 13814 13817 13820 13823 13826 13828 13831 13834 13837 13840 13843 13845 13847 13850 13853 13856 13859 13862 13865 13868 13871 13873 13876 13879 13882 13884 13886 13889 13892 13895 13898 13901 13904 13906 13909 13912 13915 13918 13921 13924 13927 13930 13932 13935 13938 13941 13944 13947 13950 13952 13955 13958 13961 13964 13967 13970 13973 13976 13979 13982 13985 13988 13991 13994 13997 14000 14002 14005 14008 14011 14013 14015 14018 14021 14024 14027 14030 14033 14035 14038 14041 14044 14046 14049 14052 14055 14058 14061 14064 14067 14070 14073 14076 14079 14082 14085 14088 14091 14094 14096 14099 14102 14105 14108 14110 14113 14116 14118 14121 14124 14127 14129 14131 14134 14137 14140 14143 14146 14149 14152 14155 14158 14161 14164 14166 14169 14172 14174 14177 14180 14183 14186 14189 14192 14195 14198 14201 14204 14207 14210 14213 14216 14219 14222 14225 14228 14231 14234 14237 14240 14243 14246 14249 14252 14255 14258 14261 14263 14266 14268 14271 14274 14277 14280 14283 14286 14289 14292 14295 14298 14301 14304 14307 14310 14313 14316 14319 14322 14325 14328 14331 14333 14336 14339 14342 14345 14348 14351 14354 14357 14360 14363 14366 14369 14372 14375 14378 14381 14384 14387 14390 14393 14396 14399 14402 14405 14408 14411 14414 14417 14420 14423 14426 14429 14432 14435 14438 14441 14444 14447 14450 14453 14456 14459 14462 14465 14468 14471 14473 14476 14479 14482 14485 14488 14491 14494 14497 14500 14503 14506 14509 14511 14513 14516 14519 14522 14525 14528 14531 14534 14536 14539 14542 14545 14548 14551 14554 14557 14560 14562 14564 14567 14570 14573 14575 14578 14581 14584 14587 14590 14593 14596 14599 14602 14605 14608 14611 14614 14617 14620 14623 14625 14628 14631 14634 14636 14639 14642 14645 14648 14651 14653 14656 14659 14662 14665 14668 14671 14674 14677 14680 14683 14685 14688 14691 14694 14696 14699 14702 14705 14707 14710 14713 14716 14719 14722 14725 14728 14731 14734 14737 14739 14742 14745 14748 14750 14753 14756 14759 14762 14764 14767 14770 14773 14776 14779 14782 14785 14787 14790 14793 14795 14798 14801 14804 14807 14810 14812 14815 14818 14821 14824 14827 14830 14832 14834 14837 14839 14841 14844 14847 14850 14853 14855 14857 14859 14862 14864 14867 14869 14872 14874 14877 14880 14882 14885 14887 14889 14892 14895 14897 14900 14903 14906 14908 14911 14914 14917 14920 14923 14926 14929 14932 14935 14938 14941 14944 14947 14950 14952 14955 14958 14960 14963 14966 14968 14971 14974 14977 14980 14982 14984 14987 14989 14992 14995 14998 15000 15003 15005 15007 15010 15012 15014 15017 15020 15023 15025 15028 15031 15034 15037 15040 15043 15046 15049 15052 15055 15057 15060 15063 15065 15068 15070 15073 15076 15079 15082 15085 15087 15090 15093 15095 15098 15101 15104 15106 15109 15111 15113 15116 15119 15122 15124 15127 15130 15133 15135 15138 15141 15143 15146 15149 15152 15155 15158 15161 15164 15167 15170 15173 15176 15179 15182 15185 15188 15191 15194 15197 15199 15202 15204 15207 15210 15212 15215 15218 15221 15224 15227 15229 15232 15235 15237 15240 15243 15246 15248 15251 15254 15257 15259 15262 15265 15268 15270 15273 15276 15279 15282 15285 15288 15291 15294 15297 15300 15303 15306 15309 15312 15315 15318 15321 15324 15327 15330 15333 15336 15339 15342 15345 15348 15351 15354 15357 15360 15363 15366 15369 15372 15375 15378 15381 15384 15387 15390 15393 15396 15399 15402 15405 15408 15411 15414 15417 15420 15423 15426 15429 15432 15435 15438 15441 15444 15447 15450 15453 15456 15459 15462 15465 15468 15471 15474 15477 15480 15483 15486 15489 15492 15495 15498 15501 15504 15507 15510 15513 15516 15519 15522 15524 15527 15530 15533 15536 15539 15542 15545 15548 15551 15554 15557 15560 15563 15565 15568 15571 15573 15576 15579 15582 15585 15588 15591 15594 15597 15600 15603 15605 15608 15610 15613 15616 15618 15620 15623 15626 15629 15632 15634 15637 15640 15643 15645 15647 15650 15652 15655 15658 15661 15664 15666 15669 15672 15675 15678 15681 15684 15687 15690 15693 15695 15698 15701 15704 15706 15709 15712 15715 15718 15721 15723 15726 15728 15731 15734 15737 15740 15742 15745 15748 15751 15754 15757 15760 15763 15765 15768 15771 15774 15777 15780 15783 15786 15789 15792 15795 15797 15800 15803 15806 15809 15812 15815 15818 15820 15822 15825 15827 15830 15833 15836 15839 15842 15845 15847 15850 15853 15856 15859 15862 15864 15867 15870 15873 15876 15879 15882 15884 15887 15889 15892 15894 15896 15899 15901 15904 15907 15910 15913 15915 15918 15921 15924 15926 15929 15932 15934 15937 15939 15942 15945 15948 15951 15954 15957 15960 15962 15965 15968 15971 15974 15976 15979 15982 15985 15988 15991 15994 15997 16000 16003 16006 16009 16012 16015 16018 16021 16024 16026 16029 16032 16035 16038 16041 16043 16046 16048 16051 16054 16057 16060 16063 16065 16068 16071 16074 16076 16079 16082 16085 16088 16091 16094 16097 16100 16102 16105 16107 16110 16113 16116 16119 16122 16125 16128 16131 16134 16137 16139 16141 16144 16147 16150 16152 16155 16158 16161 16164 16167 16170 16173 16176 16179 16182 16185 16188 16191 16194 16197 16200 16203 16206 16209 16212 16215 16218 16221 16224 16227 16230 16233 16236 16239 16242 16245 16248 16251 16254 16257 16260 16263 16266 16269 16272 16275 16278 16281 16284 16287 16290 16293 16296 16299 16302 16305 16308 16311 16314 16317 16320 16323 16326 16329 16331 16333 16336 16339 16342 16345 16348 16351 16354 16357 16359 16362 16365 16367 16370 16373 16376 16379 16381 16384 16386 16389 16392 16395 16398 16401 16404 16407 16410 16413 16416 16419 16422 16425 16428 16431 16434 16437 16440 16443 16446 16449 16452 16455 16457 16460 16462 16465 16468 16471 16474 16477 16480 16483 16486 16489 16491 16494 16497 16500 16503 16505 16507 16510 16513 16516 16519 16521 16524 16526 16529 16532 16535 16538 16541 16544 16547 16550 16553 16556 16558 16561 16564 16567 16569 16572 16575 16578 16581 16584 16587 16590 16593 16596 16599 16602 16605 16607 16610 16613 16615 16618 16621 16624 16626 16629 16631 16634 16637 16639 16642 16644 16647 16650 16653 16656 16659 16662 16665 16667 16670 16673 16675 16678 16681 16683 16686 16689 16692 16695 16698 16701 16704 16707 16710 16713 16716 16719 16722 16725 16728 16730 16733 16736 16739 16742 16745 16747 16750 16753 16756 16759 16762 16765 16768 16771 16774 16777 16780 16783 16786 16788 16791 16794 16797 16800 16803 16806 16809 16812 16815 16818 16821 16824 16827 16830 16833 16836 16839 16842 16845 16847 16849 16851 16854 16857 16860 16862 16865 16867 16870 16873 16876 16878 16880 16882 16885 16888 16891 16894 16897 16900 16902 16905 16908 16911 16914 16917 16920 16923 16926 16929 16932 16935 16937 16940 16943 16946 16949 16952 16955 16958 16961 16964 16967 16969 16972 16974 16977 16980 16983 16986 16988 16990 16993 16996 16998 17001 17004 17007 17009 17012 17015 17018 17021 17024 17027 17030 17033 17035 17038 17041 17044 17047 17050 17053 17056 17059 17062 17064 17067 17070 17073 17075 17078 17081 17083 17086 17089 17092 17094 17096 17099 17102 17105 17108 17111 17114 17117 17120 17123 17126 17129 17132 17135 17138 17141 17144 17147 17150 17153 17156 17159 17162 17165 17168 17171 17174 17177 17180 17183 17186 17189 17192 17195 17198 17201 17204 17207 17210 17213 17216 17219 17222 17225 17228 17231 17234 17237 17240 17243 17246 17248 17251 17254 17257 17259 17262 17265 17268 17271 17274 17277 17280 17283 17286 17289 17292 17295 17297 17300 17303 17305 17308 17311 17314 17317 17320 17323 17326 17329 17332 17335 17338 17341 17344 17347 17350 17353 17356 17359 17361 17364 17367 17370 17373 17376 17379 17382 17385 17388 17391 17394 17397 17400 17403 17406 17408 17411 17414 17417 17420 17423 17426 17429 17432 17435 17438 17441 17444 17446 17449 17452 17455 17458 17461 17464 17467 17470 17472 17475 17478 17481 17484 17486 17489 17492 17495 17497 17500 17503 17506 17509 17512 17515 17518 17521 17524 17527 17530 17533 17536 17539 17542 17545 17548 17551 17554 17557 17560 17563 17566 17569 17572 17575 17578 17581 17584 17587 17590 17593 17596 17599 17602 17605 17608 17610 17613 17616 17619 17622 17625 17627 17630 17632 17635 17638 17641 17644 17647 17650 17653 17655 17658 17661 17664 17667 17670 17673 17676 17679 17682 17685 17688 17691 17694 17697 17700 17703 17706 17709 17712 17715 17718 17721 17724 17727 17730 17733 17736 17739 17742 17745 17748 17751 17754 17757 17760 17763 17766 17768 17771 17774 17776 17779 17782 17785 17788 17791 17794 17797 17800 17803 17805 17808 17811 17814 17816 17818 17821 17824 17827 17830 17832 17835 17838 17841 17843 17846 17849 17852 17855 17858 17861 17864 17867 17870 17873 17876 17879 17882 17885 17888 17891 17893 17896 17899 17902 17905 17908 17911 17914 17917 17920 17923 17926 17929 17932 17935 17938 17941 17943 17946 17949 17952 17954 17957 17960 17963 17966 17969 17972 17975 17978 17981 17984 17987 17990 17993 17996 17999 18002 18005 18007 18010 18013 18016 18019 18022 18025 18028 18030 18033 18036 18039 18042 18045 18048 18051 18054 18057 18060 18063 18065 18068 18071 18074 18076 18079 18082 18085 18088 18091 18094 18097 18100 18102 18105 18108 18111 18114 18117 18120 18123 18126 18129 18132 18135 18138 18141 18144 18147 18150 18153 18156 18159 18162 18165 18168 18171 18174 18177 18180 18183 18186 18188 18191 18194 18197 18200 18203 18206 18209 18211 18214 18217 18220 18223 18226 18228 18231 18234 18237 18240 18242 18245 18248 18251 18253 18256 18259 18261 18264 18267 18270 18273 18276 18279 18282 18284 18287 18290 18293 18296 18298 18301 18304 18307 18310 18313 18316 18319 18322 18325 18328 18330 18333 18336 18339 18342 18345 18348 18351 18354 18357 18360 18363 18366 18369 18372 18375 18378 18381 18384 18387 18389 18392 18394 18397 18400 18403 18405 18408 18411 18414 18417 18420 18423 18426 18429 18432 18435 18437 18440 18443 18446 18449 18451 18454 18457 18460 18463 18466 18469 18472 18475 18478 18481 18484 18487 18490 18493 18496 18499 18502 18505 18508 18511 18514 18517 18520 18523 18526 18529 18531 18534 18537 18540 18543 18546 18548 18551 18554 18557 18560 18563 18565 18568 18571 18574 18577 18579 18582 18584 18587 18590 18593 18596 18599 18602 18604 18606 18609 18611 18614 18617 18620 18623 18626 18629 18632 18635 18638 18640 18643 18646 18648 18651 18654 18657 18660 18663 18666 18669 18672 18675 18678 18681 18684 18687 18690 18693 18696 18698 18701 18704 18707 18710 18712 18715 18718 18721 18724 18727 18730 18733 18736 18739 18742 18745 18748 18751 18754 18757 18760 18762 18765 18768 18771 18773 18776 18779 18782 18785 18788 18790 18793 18796 18798 18801 18804 18807 18810 18813 18815 18818 18821 18824 18827 18830 18833 18835 18838 18841 18844 18847 18850 18853 18856 18859 18862 18865 18868 18871 18874 18877 18880 18883 18886 18889 18892 18895 18898 18900 18903 18906 18908 18911 18914 18917 18920 18922 18925 18928 18931 18934 18936 18939 18941 18944 18947 18949 18952 18955 18957 18960 18963 18966 18969 18972 18975 18978 18981 18983 18986 18989 18991 18994 18997 19000 19003 19006 19009 19012 19015 19018 19021 19024 19027 19030 19033 19036 19039 19042 19045 19048 19051 19054 19057 19060 19063 19066 19069 19072 19074 19077 19080 19083 19086 19088 19091 19094 19097 19099 19102 19105 19108 19111 19114 19117 19120 19123 19126 19129 19132 19135 19138 19140 19143 19146 19149 19152 19155 19158 19161 19164 19166 19169 19172 19175 19178 19181 19184 19187 19190 19193 19196 19199 19202 19205 19208 19211 19214 19217 19220 19222 19224 19227 19230 19232 19235 19237 19240 19243 19245 19248 19251 19254 19257 19260 19263 19266 19269 19272 19275 19278 19281 19284 19287 19290 19293 19296 19299 19301 19304 19307 19310 19313 19316 19318 19321 19324 19327 19330 19333 19336 19338 19341 19344 19347 19350 19353 19356 19359 19362 19365 19368 19371 19374 19377 19380 19383 19386 19389 19392 19395 19398 19401 19404 19407 19410 19413 19416 19419 19422 19425 19428 19431 19434 19437 19440 19443 19446 19449 19452 19455 19458 19461 19464 19467 19470 19473 19476 19479 19482 19485 19488 19491 19493 19496 19499 19502 19505 19508 19511 19513 19516 19518 19521 19524 19527 19530 19533 19536 19539 19542 19545 19548 19551 19554 19557 19560 19563 19566 19569 19571 19574 19577 19580 19583 19585 19587 19590 19593 19596 19599 19602 19605 19608 19611 19614 19617 19620 19623 19626 19629 19632 19635 19638 19640 19643 19646 19649 19652 19655 19658 19661 19664 19666 19669 19672 19674 19677 19680 19683 19686 19689 19692 19695 19698 19701 19704 19707 19710 19713 19716 19719 19722 19725 19728 19730 19733 19736 19739 19742 19745 19748 19751 19754 19756 19759 19762 19765 19767 19770 19773 19775 19778 19781 19784 19787 19790 19793 19796 19799 19802 19805 19808 19811 19814 19817 19820 19823 19826 19829 19832 19834 19837 19840 19843 19846 19849 19852 19855 19858 19861 19864 19867 19870 19873 19876 19879 19882 19884 19887 19890 19893 19896 19899 19902 19905 19908 19910 19913 19916 19919 19922 19925 19928 19930 19933 19936 19938 19941 19944 19946 19949 19952 19954 19957 19960 19963 19966 19968 19971 19974 19976 19979 19982 19985 19988 19990 19993 19996 19998 20001 20003 20006 20008 20011 20014 20017 20020 20023 20026 20029 20032 20035 20037 20039 20042 20045 20048 20051 20054 20056 20059 20062 20064 20066 20069 20072 20075 20078 20081 20084 20087 20090 20093 20096 20099 20102 20105 20108 20111 20114 20117 20120 20123 20126 20129 20131 20134 20137 20140 20143 20146 20149 20152 20155 20158 20161 20164 20167 20170 20173 20176 20179 20182 20185 20188 20191 20194 20197 20200 20203 20206 20209 20212 20215 20218 20221 20224 20227 20230 20232 20235 20238 20240 20242 20245 20248 20251 20253 20255 20258 20261 20264 20267 20270 20273 20276 20279 20282 20285 20288 20291 20294 20297 20300 20302 20305 20308 20311 20314 20317 20320 20323 20326 20328 20331 20334 20337 20340 20343 20346 20349 20352 20355 20358 20361 20364 20366 20369 20372 20375 20378 20380 20383 20386 20389 20392 20395 20397 20400 20402 20405 20408 20411 20414 20417 20420 20422 20425 20427 20430 20432 20435 20438 20440 20443 20446 20448 20451 20454 20457 20460 20463 20466 20469 20472 20475 20478 20481 20483 20486 20489 20492 20495 20498 20501 20504 20507 20510 20513 20516 20519 20522 20525 20527 20530 20533 20536 20539 20542 20545 20548 20551 20554 20556 20559 20562 20565 20568 20570 20573 20576 20579 20582 20585 20588 20591 20594 20597 20600 20602 20605 20608 20611 20614 20617 20620 20623 20626 20628 20631 20634 20637 20640 20642 20645 20648 20651 20653 20656 20659 20662 20665 20667 20670 20673 20676 20679 20682 20685 20688 20691 20694 20697 20700 20703 20706 20708 20711 20714 20716 20719 20722 20725 20728 20731 20734 20737 20740 20743 20746 20749 20752 20755 20758 20761 20764 20767 20769 20772 20774 20777 20780 20783 20786 20788 20791 20794 20797 20800 20803 20806 20809 20812 20815 20818 20821 20824 20827 20830 20832 20835 20838 20840 20842 20845 20848 20851 20854 20857 20860 20863 20866 20869 20872 20875 20878 20881 20884 20887 20890 20893 20896 20899 20902 20905 20908 20911 20914 20917 20920 20923 20926 20929 20932 20935 20938 20941 20944 20947 20950 20952 20955 20958 20961 20964 20966 20969 20972 20974 20977 20980 20983 20985 20988 20991 20994 20996 20999 21002 21005 21008 21011 21014 21017 21020 21022 21025 21027 21030 21032 21035 21038 21040 21043 21046 21049 21052 21055 21057 21059 21062 21064 21067 21070 21073 21076 21079 21082 21085 21088 21091 21093 21096 21099 21102 21105 21108 21111 21114 21117 21120 21123 21126 21129 21132 21135 21138 21141 21144 21146 21149 21152 21155 21158 21161 21164 21167 21170 21173 21176 21178 21181 21184 21187 21189 21192 21194 21197 21200 21203 21205 21208 21210 21212 21215 21218 21221 21224 21226 21229 21232 21235 21238 21241 21244 21247 21250 21252 21255 21258 21261 21263 21266 21269 21271 21273 21276 21278 21281 21284 21286 21289 21292 21295 21298 21301 21303 21306 21308 21311 21314 21317 21319 21322 21325 21328 21331 21334 21337 21339 21342 21345 21348 21351 21354 21357 21360 21362 21365 21368 21371 21374 21377 21380 21383 21386 21389 21392 21395 21398 21400 21403 21406 21409 21412 21415 21418 21420 21423 21426 21429 21432 21435 21438 21441 21444 21447 21450 21453 21456 21459 21462 21465 21468 21470 21473 21476 21479 21481 21484 21487 21489 21492 21495 21498 21500 21503 21505 21508 21510 21513 21516 21519 21522 21525 21528 21531 21534 21537 21540 21543 21546 21549 21552 21555 21557 21560 21563 21566 21569 21572 21575 21578 21581 21584 21587 21590 21593 21596 21599 21602 21605 21607 21610 21612 21615 21617 21619 21622 21625 21627 21630 21632 21635 21638 21641 21644 21647 21650 21653 21655 21658 21661 21664 21667 21670 21673 21676 21679 21681 21684 21686 21689 21692 21695 21698 21700 21703 21706 21709 21712 21715 21717 21720 21722 21725 21728 21731 21734 21737 21740 21742 21745 21748 21751 21754 21757 21760 21763 21766 21769 21772 21775 21777 21780 21783 21786 21789 21792 21795 21798 21801 21804 21807 21810 21813 21815 21818 21821 21824 21827 21830 21832 21835 21838 21841 21844 21847 21850 21852 21855 21858 21861 21864 21867 21870 21873 21876 21879 21882 21885 21888 21891 21894 21897 21900 21903 21906 21909 21912 21915 21918 21921 21924 21927 21930 21932 21935 21938 21941 21943 21946 21949 21952 21955 21958 21961 21964 21967 21970 21973 21976 21979 21982 21985 21988 21991 21994 21996 21999 22002 22005 22007 22010 22013 22016 22019 22021 22024 22027 22030 22033 22036 22039 22042 22045 22048 22051 22054 22057 22060 22063 22066 22069 22072 22075 22078 22081 22084 22086 22088 22091 22094 22097 22099 22102 22105 22108 22111 22113 22116 22119 22121 22124 22127 22129 22132 22135 22138 22140 22143 22146 22149 22152 22155 22158 22161 22164 22166 22169 22172 22174 22177 22180 22183 22185 22188 22191 22193 22195 22198 22201 22204 22206 22209 22211 22214 22217 22220 22223 22226 22229 22231 22233 22236 22239 22242 22245 22248 22251 22254 22256 22259 22262 22265 22268 22271 22274 22277 22280 22283 22286 22289 22292 22295 22298 22301 22304 22307 22309 22312 22315 22318 22320 22323 22326 22329 22332 22335 22338 22341 22344 22347 22350 22353 22356 22359 22362 22365 22368 22371 22374 22377 22379 22381 22384 22387 22390 22393 22396 22399 22402 22404 22407 22410 22413 22416 22419 22422 22425 22427 22430 22433 22436 22439 22442 22445 22448 22450 22453 22456 22459 22462 22465 22468 22471 22474 22477 22480 22483 22486 22489 22492 22495 22498 22501 22504 22507 22510 22513 22516 22519 22522 22525 22528 22531 22534 22536 22539 22542 22545 22548 22551 22554 22557 22560 22563 22566 22569 22572 22575 22577 22580 22583 22586 22589 22592 22594 22597 22600 22603 22605 22607 22610 22613 22616 22619 22622 22625 22628 22631 22634 22636 22639 22642 22644 22646 22648 22651 22653 22656 22659 22662 22665 22668 22670 22673 22676 22679 22682 22685 22687 22690 22693 22695 22698 22701 22704 22707 22710 22713 22716 22719 22721 22724 22726 22728 22731 22734 22737 22740 22743 22746 22749 22752 22754 22756 22759 22762 22764 22767 22770 22773 22775 22778 22781 22784 22787 22790 22793 22796 22799 22802 22805 22807 22810 22813 22816 22819 22821 22823 22826 22829 22832 22835 22838 22841 22844 22847 22850 22853 22855 22858 22861 22864 22867 22870 22873 22876 22879 22882 22885 22888 22891 22894 22897 22900 22903 22906 22909 22912 22915 22918 22921 22924 22927 22930 22933 22936 22939 22942 22945 22948 22951 22954 22957 22960 22962 22965 22968 22971 22974 22977 22980 22982 22984 22987 22990 22993 22996 22999 23002 23005 23008 23011 23014 23017 23020 23023 23026 23029 23032 23035 23038 23041 23044 23047 23050 23053 23055 23058 23061 23064 23067 23070 23073 23076 23079 23082 23085 23088 23091 23094 23097 23100 23103 23106 23109 23112 23115 23118 23121 23124 23127 23130 23133 23136 23139 23142 23145 23148 23151 23153 23156 23159 23162 23165 23168 23171 23174 23176 23179 23182 23185 23188 23191 23194 23196 23199 23202 23205 23208 23211 23214 23217 23219 23222 23224 23227 23230 23233 23235 23238 23241 23244 23247 23250 23252 23255 23258 23260 23263 23266 23269 23272 23275 23278 23281 23284 23287 23290 23293 23295 23298 23301 23304 23307 23310 23313 23316 23319 23322 23325 23328 23331 23334 23337 23340 23342 23345 23348 23351 23354 23357 23360 23363 23366 23368 23371 23374 23377 23380 23383 23386 23389 23392 23395 23398 23401 23404 23406 23409 23412 23415 23418 23421 23423 23426 23429 23432 23435 23438 23441 23444 23446 23449 23452 23455 23458 23461 23463 23466 23469 23472 23475 23478 23481 23484 23487 23489 23492 23495 23498 23501 23504 23507 23510 23513 23516 23519 23522 23525 23528 23531 23534 23536 23539 23542 23545 23548 23551 23554 23557 23560 23563 23566 23569 23572 23575 23577 23580 23583 23586 23589 23591 23594 23597 23599 23602 23605 23608 23611 23614 23617 23620 23623 23625 23628 23631 23633 23636 23639 23642 23645 23648 23651 23653 23656 23659 23662 23665 23668 23671 23674 23677 23680 23683 23686 23689 23692 23695 23698 23701 23704 23707 23710 23712 23715 23718 23721 23724 23726 23729 23732 23735 23738 23741 23744 23747 23750 23753 23756 23759 23762 23765 23768 23771 23774 23777 23780 23783 23786 23789 23792 23795 23798 23801 23804 23807 23810 23813 23816 23819 23822 23825 23828 23831 23834 23837 23840 23843 23846 23849 23852 23855 23858 23861 23864 23867 23870 23873 23876 23879 23882 23885 23888 23891 23894 23897 23900 23903 23905 23907 23910 23913 23915 23918 23921 23924 23927 23930 23932 23935 23938 23941 23944 23947 23949 23952 23955 23958 23961 23963 23966 23969 23971 23974 23977 23980 23983 23986 23989 23992 23994 23997 24000 24003 24005 24008 24011 24014 24017 24020 24023 24026 24028 24031 24034 24037 24039 24042 24044 24047 24050 24053 24056 24059 24062 24064 24066 24069 24072 24075 24077 24080 24082 24085 24088 24091 24094 24097 24099 24102 24105 24108 24111 24114 24117 24119 24122 24125 24128 24130 24133 24136 24139 24142 24145 24148 24151 24154 24157 24160 24163 24166 24168 24171 24174 24177 24180 24183 24186 24188 24191 24194 24197 24200 24202 24205 24208 24211 24214 24216 24219 24221 24224 24226 24229 24232 24235 24237 24240 24243 24246 24248 24250 24253 24256 24259 24262 24264 24267 24270 24273 24275 24278 24281 24284 24287 24290 24293 24296 24299 24302 24305 24308 24311 24314 24317 24320 24323 24325 24328 24331 24334 24337 24340 24343 24346 24349 24352 24355 24358 24361 24364 24366 24369 24372 24375 24377 24380 24383 24386 24389 24392 24394 24397 24400 24403 24406 24409 24411 24414 24417 24420 24423 24426 24429 24432 24434 24437 24440 24443 24446 24449 24452 24455 24458 24461 24463 24466 24469 24472 24475 24478 24481 24484 24486 24489 24492 24495 24498 24501 24504 24507 24510 24513 24516 24519 24522 24525 24528 24531 24533 24536 24539 24542 24545 24548 24551 24554 24557 24560 24563 24566 24569 24572 24575 24578 24581 24584 24587 24590 24593 24596 24599 24602 24605 24608 24611 24614 24617 24620 24623 24626 24629 24632 24635 24638 24641 24644 24646 24649 24652 24655 24658 24661 24664 24666 24669 24672 24675 24677 24680 24683 24686 24689 24692 24695 24697 24700 24703 24706 24708 24711 24714 24717 24720 24722 24725 24728 24731 24734 24737 24740 24743 24746 24749 24752 24755 24758 24761 24764 24767 24770 24773 24776 24779 24782 24785 24788 24791 24794 24797 24800 24803 24805 24808 24811 24814 24817 24820 24823 24826 24829 24832 24835 24838 24841 24844 24847 24850 24853 24856 24859 24862 24865 24868 24871 24874 24876 24879 24882 24885 24888 24890 24893 24896 24899 24901 24904 24907 24910 24913 24916 24918 24921 24924 24927 24930 24933 24935 24938 24941 24944 24947 24950 24953 24956 24959 24962 24965 24968 24971 24973 24976 24978 24981 24984 24987 24990 24993 24996 24999 25002 25004 25007 25010 25012 25015 25018 25021 25024 25027 25030 25033 25036 25039 25042 25045 25048 25050 25053 25056 25059 25062 25065 25067 25070 25073 25075 25078 25081 25084 25087 25090 25093 25096 25099 25102 25105 25108 25111 25114 25117 25120 25123 25126 25128 25131 25134 25136 25138 25141 25144 25146 25149 25152 25155 25158 25160 25163 25165 25167 25170 25173 25176 25179 25182 25185 25188 25191 25194 25196 25199 25202 25204 25207 25210 25213 25216 25219 25222 25225 25228 25231 25233 25236 25239 25242 25245 25248 25250 25253 25256 25258 25260 25263 25265 25268 25270 25273 25276 25279 25282 25284 25287 25289 25292 25295 25298 25301 25304 25307 25309 25312 25315 25318 25321 25324 25327 25330 25333 25336 25339 25342 25345 25348 25351 25354 25357 25360 25363 25366 25369 25372 25375 25378 25381 25384 25387 25390 25393 25396 25399 25402 25405 25408 25411 25413 25416 25419 25422 25425 25428 25430 25432 25435 25437 25440 25442 25445 25448 25451 25453 25456 25459 25462 25465 25468 25470 25473 25476 25479 25482 25485 25488 25491 25494 25496 25499 25501 25504 25507 25509 25511 25514 25516 25519 25521 25524 25527 25530 25533 25536 25539 25542 25544 25547 25550 25552 25554 25557 25560 25563 25566 25569 25571 25573 25576 25579 25581 25583 25586 25589 25592 25594 25597 25600 25603 25605 25608 25611 25614 25617 25620 25623 25626 25629 25632 25635 25638 25641 25644 25647 25650 25653 25656 25659 25662 25664 25667 25670 25672 25675 25678 25681 25684 25687 25689 25692 25695 25698 25701 25704 25707 25710 25713 25716 25719 25722 25725 25728 25731 25734 25737 25739 25742 25745 25748 25751 25754 25757 25760 25763 25766 25769 25771 25774 25777 25779 25782 25785 25788 25791 25794 25796 25799 25802 25805 25808 25811 25814 25816 25819 25822 25824 25827 25830 25833 25836 25839 25842 25845 25847 25850 25852 25855 25857 25859 25861 25863 25866 25868 25871 25874 25877 25880 25882 25884 25886 25889 25891 25894 25897 25900 25903 25905 25908 25910 25913 25916 25919 25921 25924 25927 25930 25933 25935 25938 25941 25943 25946 25949 25952 25955 25958 25961 25964 25967 25970 25973 25976 25979 25982 25985 25988 25991 25994 25997 26000 26002 26005 26008 26011 26014 26017 26019 26022 26025 26027 26030 26033 26036 26039 26042 26045 26048 26051 26054 26056 26059 26061 26064 26067 26070 26073 26076 26079 26081 26084 26087 26090 26093 26096 26099 26102 26105 26108 26111 26114 26117 26120 26123 26126 26129 26132 26135 26138 26141 26144 26147 26150 26153 26156 26159 26162 26165 26168 26171 26174 26177 26180 26183 26186 26189 26191 26194 26197 26199 26202 26205 26208 26210 26213 26216 26219 26222 26225 26228 26231 26234 26237 26240 26243 26246 26249 26252 26255 26258 26261 26264 26266 26269 26272 26275 26278 26281 26284 26287 26290 26293 26296 26298 26300 26302 26305 26308 26311 26314 26316 26319 26322 26325 26328 26331 26334 26337 26340 26343 26346 26349 26352 26355 26358 26361 26364 26367 26370 26372 26375 26378 26381 26384 26387 26390 26393 26396 26398 26401 26404 26407 26409 26412 26414 26417 26419 26422 26424 26427 26429 26432 26435 26438 26441 26444 26446 26449 26452 26454 26456 26458 26461 26463 26465 26468 26471 26474 26477 26480 26482 26484 26487 26490 26493 26495 26497 26500 26503 26506 26509 26512 26514 26517 26519 26522 26525 26528 26531 26533 26535 26538 26541 26543 26546 26548 26551 26554 26556 26559 26561 26563 26566 26569 26572 26574 26576 26579 26582 26584 26586 26588 26591 26594 26597 26599 26602 26604 26606 26609 26612 26614 26616 26619 26621 26624 26626 26629 26632 26635 26638 26641 26644 26646 26649 26652 26655 26658 26661 26664 26667 26669 26671 26674 26676 26678 26681 26684 26687 26690 26692 26695 26698 26701 26703 26706 26709 26712 26715 26718 26720 26723 26726 26728 26730 26733 26736 26739 26742 26744 26747 26750 26753 26756 26759 26761 26764 26767 26770 26773 26776 26779 26782 26784 26786 26788 26790 26793 26796 26799 26802 26805 26807 26809 26812 26815 26817 26820 26823 26826 26828 26831 26834 26837 26840 26843 26846 26848 26851 26854 26857 26860 26862 26864 26866 26869 26871 26874 26877 26879 26882 26885 26888 26891 26894 26897 26900 26903 26906 26908 26911 26914 26917 26920 26922 26925 26928 26930 26933 26936 26939 26942 26945 26948 26951 26954 26957 26960 26963 26966 26969 26972 26975 26978 26981 26984 26987 26990 26993 26996 26999 27002 27005 27008 27011 27013 27016 27019 27022 27025 27028 27031 27034 27037 27040 27043 27046 27049 27052 27055 27058 27061 27064 27066 27069 27072 27075 27078 27081 27084 27087 27089 27092 27095 27098 27101 27104 27106 27109 27112 27115 27118 27121 27124 27127 27130 27133 27136 27139 27142 27145 27148 27151 27154 27157 27160 27163 27165 27168 27171 27174 27177 27180 27183 27186 27188 27191 27194 27197 27200 27203 27206 27209 27212 27215 27218 27220 27223 27226 27229 27232 27235 27238 27241 27243 27246 27249 27252 27255 27258 27260 27263 27266 27269 27272 27275 27277 27280 27283 27286 27289 27291 27294 27297 27300 27303 27306 27309 27312 27315 27318 27321 27324 27327 27330 27333 27336 27338 27341 27344 27346 27349 27352 27355 27358 27360 27363 27366 27369 27372 27375 27378 27381 27384 27387 27389 27392 27395 27398 27400 27402 27405 27407 27410 27413 27416 27419 27422 27425 27428 27431 27434 27436 27439 27442 27444 27446 27448 27451 27454 27456 27459 27462 27464 27467 27470 27473 27476 27478 27480 27483 27486 27488 27491 27493 27496 27499 27502 27504 27507 27510 27512 27514 27517 27519 27522 27525 27528 27531 27534 27537 27540 27543 27545 27548 27551 27554 27557 27560 27563 27566 27569 27571 27574 27577 27580 27583 27586 27589 27592 27595 27598 27601 27604 27607 27610 27613 27616 27619 27622 27624 27627 27630 27633 27636 27638 27641 27644 27646 27649 27652 27655 27658 27661 27664 27667 27670 27673 27676 27679 27682 27685 27688 27690 27693 27696 27699 27701 27704 27707 27710 27712 27715 27718 27721 27724 27727 27730 27733 27736 27739 27742 27745 27748 27751 27753 27756 27759 27762 27765 27768 27771 27774 27777 27780 27783 27786 27789 27792 27794 27797 27800 27803 27806 27809 27812 27815 27818 27821 27824 27827 27830 27833 27836 27839 27842 27845 27848 27851 27853 27856 27858 27860 27863 27866 27868 27870 27872 27875 27878 27881 27883 27885 27888 27891 27894 27897 27899 27901 27904 27907 27910 27913 27916 27919 27922 27925 27928 27931 27934 27937 27940 27943 27945 27948 27951 27954 27957 27960 27962 27965 27968 27971 27974 27977 27980 27983 27986 27989 27991 27994 27997 28000 28003 28005 28008 28011 28014 28016 28019 28022 28025 28028 28031 28034 28037 28040 28042 28045 28048 28051 28054 28057 28060 28063 28066 28069 28072 28075 28077 28080 28083 28086 28089 28092 28095 28098 28101 28104 28107 28110 28113 28116 28119 28122 28125 28128 28131 28133 28136 28139 28142 28145 28148 28151 28153 28156 28159 28162 28164 28167 28170 28172 28175 28178 28181 28184 28187 28190 28193 28196 28198 28201 28204 28207 28209 28212 28215 28218 28221 28224 28227 28229 28232 28235 28238 28241 28243 28246 28248 28251 28254 28257 28260 28263 28266 28269 28272 28275 28278 28280 28283 28286 28289 28292 28295 28297 28300 28303 28306 28308 28311 28314 28317 28320 28323 28325 28328 28331 28334 28337 28340 28343 28346 28349 28352 28355 28357 28360 28363 28366 28369 28372 28374 28377 28380 28382 28385 28388 28391 28394 28397 28400 28403 28406 28409 28412 28414 28417 28420 28422 28425 28428 28431 28434 28437 28440 28442 28445 28448 28450 28453 28456 28459 28462 28465 28468 28471 28474 28477 28480 28483 28486 28489 28492 28495 28498 28501 28504 28507 28510 28513 28516 28519 28522 28525 28528 28531 28534 28537 28540 28543 28546 28549 28552 28555 28558 28561 28564 28567 28570 28573 28576 28579 28582 28585 28588 28591 28594 28597 28600 28603 28605 28608 28611 28614 28616 28619 28622 28625 28628 28631 28634 28636 28639 28642 28645 28648 28651 28654 28657 28660 28663 28666 28669 28672 28675 28678 28681 28684 28687 28690 28693 28696 28699 28702 28705 28708 28711 28714 28717 28720 28723 28725 28728 28731 28734 28736 28739 28742 28745 28748 28751 28754 28757 28760 28763 28766 28769 28772 28775 28778 28781 28784 28787 28790 28793 28796 28799 28802 28805 28808 28811 28814 28817 28820 28823 28826 28828 28831 28834 28837 28839 28842 28844 28847 28850 28853 28856 28859 28862 28865 28868 28870 28873 28876 28878 28881 28884 28887 28890 28893 28896 28899 28901 28904 28907 28910 28913 28916 28919 28922 28925 28928 28930 28933 28936 28939 28942 28945 28948 28951 28954 28957 28960 28963 28966 28969 28972 28975 28978 28981 28984 28987 28990 28993 28996 28999 29002 29005 29008 29011 29014 29017 29020 29022 29025 29028 29031 29034 29037 29040 29043 29046 29049 29052 29055 29058 29061 29064 29066 29069 29072 29075 29078 29081 29083 29085 29088 29091 29094 29097 29099 29102 29105 29108 29111 29114 29117 29119 29121 29124 29127 29130 29132 29135 29138 29140 29143 29146 29149 29152 29155 29158 29161 29164 29167 29170 29173 29176 29179 29182 29185 29188 29191 29194 29197 29200 29203 29206 29209 29211 29213 29216 29218 29221 29224 29226 29229 29232 29235 29237 29240 29243 29246 29249 29252 29255 29258 29261 29264 29267 29270 29273 29276 29279 29282 29285 29288 29291 29294 29297 29299 29302 29305 29307 29310 29313 29316 29318 29321 29324 29326 29329 29331 29334 29337 29340 29343 29346 29349 29352 29355 29358 29361 29364 29367 29370 29372 29375 29378 29381 29384 29386 29389 29392 29395 29398 29401 29404 29407 29410 29413 29416 29419 29422 29425 29428 29431 29433 29436 29439 29442 29445 29448 29451 29454 29457 29460 29462 29465 29467 29470 29473 29476 29478 29481 29484 29487 29490 29493 29496 29499 29502 29505 29508 29510 29513 29515 29518 29521 29524 29527 29530 29533 29535 29538 29541 29544 29547 29549 29552 29555 29558 29561 29563 29566 29569 29572 29575 29578 29581 29584 29587 29590 29593 29596 29599 29602 29605 29608 29611 29614 29617 29620 29622 29625 29628 29631 29634 29637 29640 29643 29646 29649 29652 29655 29658 29661 29664 29667 29670 29673 29676 29678 29680 29683 29686 29689 29692 29695 29698 29700 29703 29705 29708 29711 29714 29717 29719 29722 29725 29728 29731 29734 29737 29740 29743 29746 29749 29751 29754 29757 29760 29763 29766 29769 29771 29774 29777 29779 29781 29784 29787 29789 29792 29794 29797 29800 29803 29806 29809 29811 29813 29816 29819 29822 29825 29828 29831 29833 29836 29839 29841 29843 29845 29848 29851 29854 29857 29860 29863 29866 29868 29870 29872 29875 29878 29880 29883 29886 29889 29891 29894 29896 29899 29902 29905 29908 29911 29914 29917 29920 29922 29925 29928 29930 29933 29936 29939 29942 29945 29948 29950 29953 29955 29958 29961 29964 29967 29969 29971 29974 29977 29980 29983 29986 29989 29992 29995 29998 30001 30003 30006 30009 30012 30015 30017 30020 30023 30026 30029 30032 30035 30038 30040 30043 30046 30049 30052 30055 30057 30059 30062 30064 30067 30070 30072 30075 30078 30080 30083 30086 30089 30091 30094 30097 30100 30103 30106 30109 30111 30114 30116 30119 30121 30123 30126 30129 30132 30134 30137 30140 30143 30146 30148 30150 30153 30155 30158 30161 30164 30167 30170 30172 30174 30177 30180 30183 30185 30188 30191 30193 30196 30199 30202 30205 30208 30211 30214 30217 30220 30223 30226 30229 30232 30235 30238 30240 30243 30245 30248 30251 30254 30256 30259 30261 30264 30267 30270 30273 30276 30279 30282 30285 30288 30291 30293 30296 30299 30301 30304 30307 30310 30312 30314 30317 30320 30323 30326 30328 30331 30334 30337 30340 30343 30346 30349 30352 30355 30358 30361 30364 30367 30370 30373 
</DataArray>
<DataArray type="UInt32" Name="types" format="ascii">
5 5 5 5 5 5 5 5 5 5 5 5 3 5 5 5 5 5 5 5 5 3 5 5 5 5 5 3 5 5 3 5 5 5 3 5 5 3 5 5 5 5 5 5 5 3 5 5 5 5 5 5 3 5 5 5 5 5 5 5 5 3 5 5 5 5 3 5 5 5 5 5 5 5 5 5 5 5 3 3 5 5 5 5 5 5 5 5 5 5 3 3 5 5 5 3 5 5 5 3 5 5 5 3 5 5 5 5 5 5 5 5 3 5 5 5 5 5 5 5 5 5 5 5 5 5 5 5 5 5 5 5 5 5 5 5 5 5 3 5 5 5 5 3 5 5 5 5 5 5 5 5 5 3 3 5 5 3 5 5 5 5 3 5 3 5 5 5 5 5 5 5 5 3 5 5 5 5 5 5 5 5 5 5 3 5 5 3 5 5 3 5 5 5 5 3 5 3 5 5 5 5 5 5 5 5 5 5 5 5 5 5 5 5 5 5 5 5 5 5 5 5 5 5 5 5 5 5 5 5 5 5 5 5 5 3 5 5 3 5 3 5 5 5 5 3 5 3 3 5 5 5 5 3 5 3 5 5 3 5 5 5 5 5 5 5 5 5 5 5 5 5 5 3 5 5 5 5 5 5 5 3 5 5 5 5 5 5 5 5 5 5 5 5 5 5 5 5 5 5 5 5 5 5 5 5 5 5 3 5 5 5 5 3 5 5 5 5 5 3 5 3 5 5 5 3 5 5 5 5 5 5 5 5 5 5 5 3 5 5 5 5 5 5 5 5 5 5 5 5 5 5 5 5 5 5 5 5 5 5 5 5 5 5 5 5 5 3 5 5 5 5 3 5 5 5 5 5 5 5 3 5 5 5 5 5 5 5 5 3 5 3 5 5 3 5 5 5 5 5 5 3 5 3 5 5 5 5 5 5 5 5 5 5 5 5 3 3 5 5 5 3 3 5 5 5 5 5 5 5 3 3 5 5 5 3 5 5 5 3 5 5 5 5 3 3 5 3 5 5 5 5 3 5 5 5 5 5 5 5 5 5 5 5 5 5 5 5 5 5 5 5 5 5 5 5 5 5 5 5 5 5 5 3 5 5 5 5 5 5 5 5 5 5 5 5 5 5 5 5 5 5 5 5 5 3 5 5 5 5 5 5 5 5 5 3 5 5 5 5 3 5 5 5 3 5 5 3 5 5 5 5 5 5 5 5 5 5 3 3 3 5 5 5 5 5 5 3 5 5 5 5 5 5 5 5 3 5 5 5 5 5 5 3 5 5 5 5 5 5 5 5 5 5 5 5 5 3 5 5 3 5 5 5 5 3 5 5 3 5 5 5 5 5 5 5 5 5 5 5 5 5 5 5 5 5 5 5 5 3 5 5 5 5 5 5 3 5 5 5 3 3 5 5 5 3 5 5 5 5 5 5 5 5 5 5 5 5 3 5 5 3 5 5 5 5 3 5 3 5 5 5 5 5 5 5 5 5 5 3 5 5 5 5 5 5 5 5 5 5 3 5 5 5 5 5 5 5 5 5 5 5 5 5 5 5 5 5 3 5 5 5 5 5 5 5 5 5 5 5 5 3 3 5 5 3 5 5 5 5 3 5 5 3 5 5 5 5 5 5 3 5 5 3 5 3 5 5 5 5 3 5 3 5 5 5 5 5 5 3 5 5 5 5 3 5 5 5 3 5 5 3 5 3 5 5 5 3 5 5 5 3 5 5 5 5 5 5 5 5 5 5 3 5 3 5 3 5 5 5 3 5 5 5 5 5 5 5 3 5 5 5 5 5 5 5 5 5 5 5 5 5 5 5 3 5 5 5 5 3 5 5 5 5 3 5 5 5 5 5 3 5 5 5 5 5 5 5 5 5 5 5 5 5 5 5 5 5 5 5 5 5 5 5 5 5 5 5 5 5 5 5 5 5 5 5 5 5 5 5 5 5 5 5 5 5 5 3 5 5 5 5 5 5 3 5 5 5 5 5 5 5 5 5 5 5 5 5 5 5 3 5 5 5 5 5 3 5 5 5 5 5 5 5 3 5 5 5 5 5 5 5 5 5 5 5 5 5 5 5 5 5 5 5 5 5 5 5 3 5 5 5 5 5 5 5 5 5 5 5 5 3 5 5 5 5 5 5 5 5 5 3 5 5 5 5 5 5 5 5 5 5 3 5 5 5 5 5 5 5 5 5 5 5 3 3 5 5 5 5 5 5 5 3 5 5 5 5 3 5 5 5 5 5 5 3 5 5 5 5 5 5 5 5 5 5 3 5 5 5 5 5 5 3 5 5 5 5 5 5 5 3 5 5 3 5 3 5 5 5 5 5 5 5 3 5 5 5 5 3 5 5 5 5 5 5 5 3 5 5 5 5 3 5 5 3 5 3 5 5 5 5 5 3 5 5 5 5 3 3 5 5 5 5 5 5 5 5 5 5 5 3 5 5 5 5 5 5 3 5 5 5 5 5 5 5 5 3 5 5 5 5 5 5 5 5 5 5 5 5 5 5 3 5 5 5 3 5 5 5 5 5 5 5 5 5 5 5 5 3 5 5 5 5 5 5 5 3 5 3 5 3 5 3 5 5 5 5 5 5 5 5 3 5 5 3 5 5 3 5 5 5 5 3 5 5 5 5 5 5 5 5 3 5 3 5 3 5 5 3 5 5 5 3 5 5 5 3 5 3 5 5 5 5 5 5 5 5 5 5 3 3 5 3 5 5 3 5 5 3 5 3 5 5 5 3 5 5 5 5 5 5 5 5 5 5 5 3 5 3 5 5 5 3 5 5 5 5 3 5 5 3 5 5 5 3 5 5 5 3 5 3 3 5 5 5 5 5 5 5 5 5 3 5 5 5 5 5 5 5 5 5 5 5 5 5 5 5 3 5 5 5 5 5 5 5 5 5 5 5 3 5 3 5 5 5 5 5 5 3 5 5 5 5 5 5 3 5 5 5 5 3 5 5 5 5 3 5 5 3 5 3 5 5 5 3 3 5 5 5 5 5 5 5 5 5 5 5 5 3 5 5 5 5 5 5 5 5 5 5 5 3 3 5 5 3 5 5 5 3 3 5 5 5 5 5 5 5 5 5 5 5 5 5 3 5 5 3 5 5 5 5 5 5 5 3 5 5 5 3 5 5 5 5 5 3 5 3 5 5 5 5 5 5 5 5 5 5 3 5 5 5 5 3 3 5 5 5 5 5 5 5 5 5 5 5 5 5 5 3 5 5 5 5 5 5 5 3 5 5 5 3 5 5 5 5 5 5 5 5 3 5 5 5 5 5 5 5 5 5 5 5 5 5 3 5 5 5 5 5 5 3 5 5 3 5 5 5 5 5 5 5 5 5 5 5 5 3 5 5 5 5 5 5 3 5 5 5 5 5 5 5 5 3 5 5 5 3 5 5 5 5 3 5 5 5 5 5 5 3 5 5 5 5 5 5 3 5 5 3 5 5 5 5 3 5 5 5 5 5 3 5 5 5 5 5 5 5 5 5 3 5 5 5 3 5 3 5 5 5 5 5 5 5 5 5 5 5 5 5 5 3 5 5 5 3 5 5 5 5 5 5 5 5 5 5 5 5 5 5 5 5 3 5 5 5 5 3 5 5 5 5 5 5 3 5 5 5 5 5 5 5 5 5 5 5 3 5 5 3 5 5 5 5 5 5 5 5 5 5 3 5 5 5 5 5 5 5 5 5 5 3 5 5 5 5 5 5 5 5 5 5 5 5 5 5 3 5 5 5 3 5 3 5 5 3 5 5 5 5 5 5 5 5 5 5 5 3 5 5 5 3 5 5 5 5 5 5 5 5 5 5 5 5 5 5 5 5 5 5 3 5 5 5 5 5 5 5 5 5 5 5 5 5 5 5 5 5 3 5 3 5 5 5 5 3 3 3 5 5 5 5 5 5 5 5 5 5 5 3 5 3 5 5 3 5 3 5 5 5 5 5 5 3 5 5 3 5 5 3 5 5 5 5 5 5 3 5 3 3 5 5 5 5 5 3 5 5 3 5 5 5 5 5 5 5 5 5 5 5 5 5 5 5 5 5 5 5 5 5 5 3 5 5 5 5 5 5 5 5 5 3 5 5 5 5 5 5 3 5 5 5 5 5 5 5 5 3 5 5 5 5 3 5 5 5 5 5 5 5 5 5 5 5 3 5 5 5 5 5 5 5 5 5 5 5 5 5 5 5 5 5 5 5 5 3 5 3 5 5 5 5 5 5 5 5 5 5 5 5 5 5 5 5 5 5 5 5 5 5 5 5 5 5 3 5 5 5 3 5 5 5 5 5 5 5 5 3 5 5 5 5 3 3 5 5 3 5 5 3 3 5 5 3 5 5 5 5 5 5 3 5 5 5 5 5 5 5 5 5 5 5 5 5 5 5 5 3 5 5 5 5 3 5 5 5 5 5 5 5 5 5 5 5 5 3 5 5 3 5 5 3 3 3 5 5 5 5 5 5 5 5 3 5 3 5 5 5 5 5 5 5 5 3 5 3 5 5 5 5 3 5 3 5 5 5 3 3 5 5 5 5 5 3 5 5 3 5 5 3 3 5 5 5 5 3 5 5 3 5 3 3 5 5 5 5 5 5 5 5 5 5 5 5 5 5 5 5 3 5 5 5 5 5 5 5 5 5 5 5 5 5 5 5 3 5 3 5 5 5 5 3 5 5 5 5 5 5 3 5 3 5 5 5 5 5 5 5 3 5 5 3 5 5 5 5 5 3 3 5 5 5 5 5 5 5 5 3 3 5 5 3 3 5 5 5 5 5 5 5 5 3 5 5 5 5 3 5 5 5 5 5 5 5 5 5 3 5 3 5 5 5 3 5 5 5 5 5 5 5 5 5 5 3 5 5 5 5 3 5 3 5 5 3 3 5 5 5 5 5 5 5 5 5 5 3 5 5 5 5 5 5 5 5 5 5 5 5 5 5 5 5 5 5 5 5 5 5 5 5 5 5 5 5 5 5 5 5 5 3 5 3 5 5 5 5 5 5 5 5 5 3 5 5 3 5 5 5 5 5 5 5 5 5 5 5 5 5 5 5 5 5 5 5 3 5 5 5 5 5 5 5 5 5 5 5 5 5 5 5 5 5 5 3 5 5 5 5 5 5 5 5 5 5 3 5 5 5 5 5 5 5 5 5 5 3 5 5 5 5 5 5 5 5 5 5 5 5 5 5 5 5 3 5 5 5 5 5 5 5 5 5 5 3 5 5 5 5 3 5 5 5 5 5 5 5 5 3 5 3 5 5 5 5 5 5 5 5 5 5 5 3 5 5 5 5 5 3 5 5 5 5 5 5 5 5 5 5 5 3 5 5 3 5 5 5 3 5 5 5 5 3 5 5 5 3 5 5 5 5 5 5 5 3 5 5 5 3 5 5 5 5 5 5 5 5 5 5 5 5 5 3 5 5 3 5 5 5 5 5 5 5 5 5 3 5 5 5 5 5 5 5 5 3 5 5 5 5 3 3 5 3 5 5 5 5 5 5 3 5 5 5 5 3 5 5 3 5 5 5 5 5 5 5 5 5 5 5 5 5 3 5 5 5 5 3 5 5 3 5 5 5 5 5 3 5 5 5 5 5 5 5 5 5 5 5 5 5 5 5 5 5 3 5 5 3 5 5 5 5 5 5 3 5 5 5 5 5 5 5 5 3 5 5 5 3 5 5 5 5 5 5 5 5 3 3 5 5 5 5 3 5 5 5 3 5 5 3 5 5 5 5 5 5 5 5 5 5 5 5 5 5 5 5 5 5 3 5 5 5 5 5 5 5 5 5 5 5 5 5 5 5 3 5 5 5 5 5 5 5 5 5 5 5 3 5 5 5 5 5 5 5 5 5 5 5 5 5 5 5 5 5 5 5 5 3 5 5 5 5 5 5 3 5 5 5 5 5 5 5 5 5 5 5 5 5 5 3 5 5 3 5 5 5 5 5 5 5 5 5 5 5 5 5 3 5 5 5 5 5 5 5 5 5 5 5 5 5 5 5 5 5 5 5 5 5 5 5 5 5 5 5 5 5 5 5 5 5 5 5 3 5 5 5 5 5 5 5 5 3 5 5 5 5 5 5 5 5 5 5 5 5 5 5 5 5 5 5 5 3 3 5 5 5 5 5 5 5 5 5 5 5 5 5 5 5 5 5 5 5 5 5 5 5 5 5 5 5 5 5 5 5 5 5 5 3 5 5 3 5 5 5 5 5 5 5 5 5 5 5 5 5 3 5 5 5 3 5 5 3 5 3 5 5 3 5 5 5 5 5 5 5 3 5 5 5 5 3 5 3 3 5 5 5 5 5 5 3 3 3 5 5 5 5 5 5 3 5 5 5 5 5 5 5 5 5 5 5 3 5 3 3 5 5 5 3 5 5 3 3 5 5 5 5 5 5 5 5 5 5 5 5 5 5 3 5 5 5 5 5 5 5 5 5 5 5 5 5 5 5 5 5 5 5 5 5 3 5 3 5 5 5 5 5 5 5 5 5 5 3 5 5 5 5 5 5 5 5 5 5 5 5 5 5 5 5 5 5 5 5 5 5 5 5 5 5 5 5 5 5 5 5 5 5 5 5 5 5 5 5 5 5 5 5 5 5 5 5 3 5 3 5 3 5 5 5 5 5 5 5 5 5 5 5 5 5 5 5 5 5 5 5 3 5 5 5 5 3 5 5 5 5 5 5 5 5 3 5 5 5 5 5 5 5 5 5 5 5 5 3 5 3 5 3 5 5 5 5 5 3 5 5 3 5 5 5 3 3 5 5 5 3 5 5 5 3 5 3 5 5 5 5 5 5 5 5 5 5 5 5 5 5 3 5 3 5 5 5 5 5 5 5 5 3 5 5 5 5 5 5 5 5 5 5 3 5 5 5 5 5 5 5 5 5 5 5 5 5 5 5 5 3 5 5 5 5 5 3 5 5 5 5 3 5 3 5 5 5 3 5 5 5 5 5 5 5 5 5 5 5 5 5 5 5 5 5 5 5 5 5 5 5 5 5 5 5 5 5 5 5 5 3 3 5 3 5 5 3 5 3 5 5 5 3 5 5 5 5 5 3 5 5 5 3 5 5 3 5 5 3 5 5 5 5 5 5 5 5 5 3 5 5 5 5 5 5 5 3 5 5 5 3 5 5 3 5 5 5 5 5 5 5 5 3 3 5 5 5 5 3 5 5 3 5 5 5 5 5 5 5 5 5 5 5 5 5 5 5 5 5 3 5 5 3 5 3 5 3 5 5 5 5 5 3 5 5 3 5 3 5 5 5 5 5 3 5 5 5 3 5 5 5 3 5 5 3 5 5 5 5 3 3 5 5 5 5 5 5 5 3 3 5 5 5 3 5 5 5 5 5 5 5 5 5 5 3 5 5 5 5 5 5 5 5 3 5 5 3 5 5 5 5 5 5 5 5 5 5 5 5 5 5 5 5 5 5 3 5 3 5 5 5 5 5 5 5 5 5 5 5 5 5 5 5 5 5 5 5 5 5 5 5 5 5 5 5 5 5 5 5 5 5 5 5 5 5 5 5 5 5 5 5 5 5 5 5 5 5 5 5 3 5 5 5 5 5 5 5 5 5 5 5 5 5 5 5 5 5 5 3 5 5 5 3 5 3 5 5 5 5 5 3 5 3 5 5 5 5 5 3 3 5 5 5 5 5 5 5 5 5 5 5 5 5 5 3 3 5 5 5 5 5 5 5 5 5 5 5 3 5 3 5 3 5 5 5 3 5 3 5 5 5 5 5 5 5 5 5 5 5 5 3 3 5 5 5 5 5 5 5 5 5 5 5 5 5 5 5 5 5 5 5 5 5 5 5 5 5 5 5 5 5 3 5 5 5 3 5 5 5 5 5 5 3 5 5 5 5 5 5 5 5 5 5 5 5 5 5 5 3 5 5 5 5 5 5 5 5 5 5 5 5 5 5 5 5 5 5 5 5 5 5 3 5 5 5 3 3 5 5 5 5 5 5 5 3 5 5 5 5 5 5 5 5 3 5 5 3 5 5 3 5 5 5 5 5 5 5 3 5 5 5 5 5 5 5 5 3 5 5 5 5 5 5 5 5 5 5 5 5 5 5 5 5 5 5 5 5 5 3 5 3 5 5 5 5 5 5 5 5 5 5 5 5 5 5 5 5 5 5 5 5 5 5 5 5 5 5 5 5 5 5 3 5 5 5 5 5 5 5 5 5 3 5 5 5 5 5 5 5 5 5 5 5 5 5 5 3 5 5 5 5 5 5 5 5 5 5 5 5 5 5 5 5 5 5 5 3 5 5 5 3 5 5 5 5 5 5 5 5 5 5 5 5 5 5 5 5 5 3 5 5 5 5 5 5 5 5 3 5 5 5 5 5 5 5 5 5 5 5 5 5 5 5 5 5 5 5 5 5 5 5 5 5 5 5 5 5 3 5 5 5 3 5 5 3 5 5 5 3 5 3 5 3 3 5 5 5 5 3 3 5 5 5 5 5 3 5 5 5 3 5 5 5 5 5 5 5 5 5 5 5 5 5 5 5 5 5 5 3 5 5 5 3 5 5 5 5 5 5 5 5 5 5 5 5 5 5 5 5 5 5 5 5 3 5 5 5 5 5 5 5 5 3 5 5 5 5 3 3 5 5 5 5 5 5 5 5 5 5 5 5 5 5 5 5 5 5 5 3 5 5 5 3 5 3 5 5 3 5 5 5 5 5 5 5 3 5 5 5 3 5 5 3 5 5 5 5 5 3 3 5 5 5 5 5 5 5 5 5 5 5 3 5 5 5 3 5 5 5 3 5 3 5 5 5 5 3 5 5 5 5 5 5 5 5 5 5 5 5 5 3 5 5 5 3 5 5 5 3 5 5 5 5 5 5 5 5 5 5 5 3 5 5 5 5 5 5 5 5 5 5 5 5 5 5 5 5 5 5 5 5 5 5 5 5 5 5 5 5 5 5 5 5 5 5 5 3 5 5 5 5 5 5 5 5 5 5 5 5 5 5 5 5 5 5 5 3 5 5 5 5 5 5 3 5 5 5 5 5 3 5 5 5 5 5 5 5 5 5 5 3 5 5 5 5 5 5 5 5 5 5 5 5 3 5 5 5 5 5 5 5 5 5 5 5 5 5 5 5 5 5 5 5 5 5 5 5 5 3 5 5 5 5 5 5 5 5 5 5 5 5 5 3 5 5 5 5 5 5 5 5 5 5 5 5 5 5 5 5 5 5 5 5 5 5 5 5 5 5 5 5 5 5 3 3 5 5 5 5 5 5 5 5 5 5 5 5 5 5 5 5 5 5 5 5 5 5 5 5 5 5 5 5 3 5 5 5 3 5 5 5 5 5 3 5 5 5 5 5 5 5 5 3 5 5 5 5 5 3 5 5 5 3 5 5 5 5 3 5 5 5 5 5 5 5 5 5 5 5 3 5 5 5 5 5 5 5 5 5 5 5 5 5 5 3 5 5 5 5 5 5 5 5 3 5 5 5 5 5 5 5 5 5 5 5 5 5 5 5 5 5 5 5 5 5 5 5 5 5 5 5 3 5 5 5 5 5 5 5 5 5 5 5 3 5 5 5 5 5 5 5 5 5 5 5 5 5 5 3 5 5 5 5 5 5 5 5 3 5 5 3 5 5 5 5 3 5 5 3 5 3 5 3 5 5 3 5 5 5 5 5 5 5 5 5 5 5 5 3 3 5 5 3 5 5 5 5 5 5 5 5 5 5 5 5 3 5 5 5 5 5 5 5 5 5 5 5 5 5 5 3 5 3 5 5 5 5 5 5 3 5 5 5 5 5 5 3 5 5 5 5 3 5 3 5 5 5 3 3 5 5 3 5 3 5 5 3 5 5 5 5 5 5 5 5 5 5 5 5 3 5 5 5 5 5 5 5 3 5 5 5 5 5 5 5 5 5 5 5 5 5 3 5 3 5 3 5 3 5 3 3 3 5 5 5 3 5 5 5 3 5 5 3 3 5 5 5 3 5 5 5 5 5 5 3 5 5 5 5 5 5 5 5 5 5 5 5 5 5 5 5 5 5 3 3 5 5 5 3 3 5 5 3 5 3 5 5 5 5 5 5 5 5 3 5 5 5 5 5 5 5 5 5 5 5 3 5 5 3 3 5 5 5 3 5 5 3 5 5 5 5 5 5 5 5 5 5 3 5 3 3 5 5 3 5 3 5 5 3 3 5 5 5 5 5 5 3 5 3 5 5 3 5 5 5 5 5 5 3 5 5 5 5 5 5 5 5 5 3 5 3 5 5 5 5 5 5 3 5 5 5 5 5 5 5 5 5 5 5 5 5 5 5 5 5 5 5 5 5 5 5 5 5 5 5 5 5 5 5 5 3 5 5 5 5 5 3 5 5 5 5 5 5 3 5 5 5 5 5 5 5 5 5 5 5 5 3 5 5 5 5 5 3 5 5 5 5 5 3 5 5 5 5 5 5 5 5 5 5 5 5 5 5 5 5 5 5 5 5 3 3 5 5 5 3 5 5 5 5 5 5 5 5 5 5 5 5 5 3 5 5 3 5 5 5 5 5 5 5 5 5 5 5 5 5 5 5 5 5 5 5 5 5 5 5 5 5 5 5 5 5 5 5 5 5 5 5 5 5 5 3 5 5 5 5 5 5 5 3 5 5 5 5 5 5 5 5 5 3 5 5 5 5 5 5 5 3 5 5 3 5 3 3 5 5 3 5 5 3 5 3 5 3 5 5 5 5 5 3 5 5 5 5 5 5 3 5 5 5 5 5 5 5 5 5 5 5 3 5 5 3 5 3 5 5 5 3 5 5 5 5 5 5 5 5 5 5 5 5 3 5 5 5 5 5 5 5 5 5 3 5 5 5 5 5 3 5 5 5 3 5 3 5 5 5 3 3 3 3 5 3 5 5 5 5 5 3 5 5 5 5 5 5 5 3 5 5 5 5 5 3 3 5 5 5 5 5 5 5 5 3 5 5 5 3 3 5 5 5 5 5 5 3 5 5 5 5 5 5 5 5 3 5 5 5 5 5 5 3 5 5 5 5 5 5 5 5 5 5 5 5 5 5 5 5 3 5 5 5 3 3 5 5 5 5 5 5 3 5 5 5 3 5 5 5 5 5 5 5 5 5 5 5 5 5 5 5 5 3 5 5 5 5 3 5 5 3 5 5 5 3 3 5 5 5 5 5 5 5 5 5 5 5 3 5 5 3 5 5 5 5 5 5 5 5 5 5 5 5 5 5 5 5 5 5 5 5 5 5 5 5 5 5 5 5 5 3 5 3 5 5 5 5 5 5 5 5 5 5 5 5 5 5 5 5 5 5 5 5 5 3 5 5 5 5 5 5 5 5 5 5 5 5 5 5 5 5 5 5 5 5 5 5 5 5 5 5 5 5 5 5 5 5 5 5 5 5 5 5 5 5 5 5 5 5 5 5 3 5 5 5 5 5 5 5 5 5 5 5 5 3 3 5 5 5 5 5 5 5 3 5 5 5 5 5 5 5 5 3 3 5 5 5 3 5 5 5 5 5 5 5 5 5 5 5 5 5 5 5 5 3 5 5 5 3 5 5 5 5 5 3 5 5 5 5 5 5 5 5 5 5 3 5 5 5 3 5 5 5 3 5 5 5 5 5 5 5 5 5 5 3 5 5 5 3 5 5 5 5 3 5 5 5 5 5 5 5 3 5 5 3 5 5 5 5 5 3 5 5 5 5 5 5 3 3 5 3 3 5 5 5 5 3 3 3 5 3 5 3 5 3 5 5 3 5 3 3 5 5 3 5 5 5 3 5 5 5 5 5 5 5 5 5 5 5 5 5 5 3 5 5 3 5 5 3 5 5 5 5 3 3 5 3 5 5 5 3 5 3 3 5 3 3 5 5 5 3 5 5 5 5 5 5 5 5 5 5 3 5 5 3 5 3 5 5 5 5 5 3 5 5 3 5 5 5 3 5 3 3 5 5 5 3 5 5 5 3 5 5 3 5 5 5 5 5 5 5 5 5 5 5 5 5 5 5 5 5 5 3 5 3 5 5 3 5 5 5 5 5 3 5 5 3 5 5 5 3 5 5 5 3 5 5 5 3 5 5 5 5 5 5 5 5 5 5 5 5 5 5 5 5 5 5 5 5 5 5 5 5 5 5 5 5 5 5 5 5 5 5 5 5 5 5 5 5 5 5 5 5 5 5 5 5 5 5 5 5 5 5 5 5 5 5 5 5 5 5 5 5 5 5 5 5 5 5 5 5 5 5 5 5 5 5 5 5 5 5 5 5 3 5 5 5 5 5 5 5 5 5 5 5 5 5 3 5 5 3 5 5 5 5 5 5 5 5 5 5 3 5 3 5 5 3 3 5 5 5 5 3 5 5 5 3 3 5 3 5 5 5 5 3 5 5 5 5 5 5 5 5 5 3 5 5 5 3 5 5 5 5 5 3 5 3 5 5 5 5 3 5 5 5 5 5 5 5 3 5 5 5 5 5 5 5 5 5 5 3 5 5 5 5 5 5 5 3 3 5 3 5 5 5 5 5 5 3 5 5 5 5 5 3 5 5 5 5 5 5 3 5 3 5 3 3 5 3 5 5 5 5 3 5 5 5 3 5 5 3 5 3 5 5 5 5 5 5 5 3 5 5 5 5 3 5 5 5 5 5 5 5 5 5 5 5 5 5 5 5 5 3 5 5 5 5 5 3 5 3 5 5 5 5 5 3 5 5 5 3 5 5 5 5 5 5 5 5 3 5 3 5 5 5 5 5 5 5 5 5 5 3 3 5 5 5 3 5 5 5 5 5 5 5 5 5 5 5 5 5 5 5 5 5 5 5 5 5 5 5 5 5 5 5 5 5 5 5 5 5 5 5 5 5 5 5 5 5 5 5 5 5 5 5 5 5 5 5 5 5 5 5 5 5 5 5 3 3 5 5 5 5 5 5 5 5 3 5 5 3 5 5 5 5 3 5 3 5 5 5 5 5 5 5 5 5 5 5 5 5 5 5 5 5 5 5 5 5 5 5 3 5 3 5 5 5 5 5 5 5 5 5 3 5 5 5 5 3 3 5 5 5 5 3 5 3 5 5 5 5 5 5 5 5 5 5 3 5 5 5 3 5 5 5 5 5 5 5 5 5 5 5 5 3 5 5 3 5 5 5 3 5 3 5 5 3 5 3 5 5 5 5 5 5 5 3 5 5 3 5 5 3 5 5 5 5 5 5 5 5 5 5 5 5 5 5 5 3 5 5 5 5 5 3 5 5 5 5 5 5 5 5 5 5 5 5 5 3 5 5 5 5 5 5 5 5 5 5 5 5 5 5 5 5 5 5 5 3 3 3 5 5 5 3 5 3 5 5 5 3 3 3 5 5 5 5 5 5 3 5 5 5 5 5 5 5 5 5 5 5 3 5 5 5 5 5 5 5 5 5 5 3 5 3 5 5 5 5 3 3 5 5 3 5 5 5 3 5 5 5 5 5 5 5 5 3 5 5 5 5 5 5 5 5 5 3 5 5 5 3 5 5 3 5 5 5 3 3 5 5 5 5 5 5 5 5 5 5 5 5 5 5 5 5 5 5 5 5 5 5 5 5 5 5 5 5 5 5 5 5 5 5 5 5 5 5 5 5 5 5 5 5 5 5 5 5 5 5 3 5 5 5 3 5 5 5 5 5 5 5 5 5 5 5 5 3 5 5 3 5 5 5 5 5 5 5 5 5 5 5 5 5 5 5 5 5 5 3 5 5 5 5 5 5 5 5 5 5 5 5 5 5 5 3 5 5 5 5 5 5 5 5 5 5 5 5 3 5 5 5 5 5 5 5 5 3 5 5 5 5 3 5 5 5 3 5 5 5 5 5 5 5 5 5 5 5 5 5 5 5 5 5 5 5 5 5 5 5 5 5 5 5 5 5 5 5 5 5 5 5 5 5 3 5 5 5 5 5 3 5 3 5 5 5 5 5 5 5 3 5 5 5 5 5 5 5 5 5 5 5 5 5 5 5 5 5 5 5 5 5 5 5 5 5 5 5 5 5 5 5 5 5 5 5 5 5 3 5 5 3 5 5 5 5 5 5 5 5 5 3 5 5 5 3 3 5 5 5 5 3 5 5 5 3 5 5 5 5 5 5 5 5 5 5 5 5 5 5 5 5 3 5 5 5 5 5 5 5 5 5 5 5 5 5 5 5 5 3 5 5 5 3 5 5 5 5 5 5 5 5 5 5 5 5 5 5 5 5 5 3 5 5 5 5 5 5 5 3 5 5 5 5 5 5 5 5 5 5 5 3 5 5 5 3 5 5 5 5 5 5 5 5 3 5 5 5 5 5 5 5 5 5 5 5 5 5 5 5 5 5 5 5 5 5 5 5 5 5 5 5 5 3 5 5 5 5 5 5 5 3 5 5 5 5 5 3 5 5 5 5 3 5 5 5 3 5 5 3 5 5 5 5 5 5 5 3 5 5 5 5 3 5 5 5 5 5 5 5 5 5 5 3 5 5 5 5 5 5 5 5 5 5 5 5 5 5 5 5 5 5 5 3 5 3 5 5 5 3 5 5 5 5 5 5 5 5 5 5 3 5 5 5 5 3 5 5 5 5 5 5 5 5 5 5 5 5 5 5 5 5 5 5 5 5 5 5 5 5 5 5 3 5 5 5 5 5 3 5 5 5 5 5 3 5 5 5 5 3 5 3 5 5 5 5 5 5 3 3 5 3 5 5 5 5 5 5 5 5 5 3 5 5 3 5 5 5 5 5 5 5 5 5 5 5 5 5 5 5 5 3 5 5 5 5 3 5 5 5 5 5 5 5 5 5 5 5 5 5 5 5 5 3 5 5 5 3 5 5 5 5 5 3 5 5 3 5 5 5 5 5 3 5 5 5 5 5 5 3 5 5 5 5 5 5 5 5 5 5 5 5 5 5 5 5 5 5 5 5 5 3 5 5 3 5 5 5 5 3 5 5 5 5 3 5 3 5 5 3 5 5 3 5 5 5 5 5 5 5 5 3 5 5 3 5 5 5 5 5 5 5 5 5 5 5 5 5 5 5 5 5 5 5 5 5 5 5 5 5 5 5 3 5 5 5 5 3 5 5 5 3 5 5 5 5 5 5 5 5 5 5 5 5 5 3 5 5 5 5 5 5 5 5 3 5 5 5 5 5 5 5 5 5 5 5 5 5 5 5 5 5 5 3 3 5 5 3 5 3 5 5 3 5 5 5 5 5 5 5 5 5 5 5 5 5 5 5 5 5 5 3 5 5 5 5 5 3 5 5 5 5 5 5 3 5 5 5 5 5 5 5 5 5 5 5 5 5 5 5 5 5 5 5 5 5 5 5 5 5 5 5 5 5 5 5 5 5 5 5 5 5 5 5 5 5 5 5 5 5 5 5 5 5 5 5 3 5 5 5 5 5 5 3 5 3 5 5 5 5 5 5 5 5 5 5 5 5 5 5 5 5 5 3 5 5 5 5 3 3 5 5 5 5 5 5 5 5 5 5 5 5 5 5 5 5 5 3 5 5 5 5 5 5 5 5 3 5 5 3 5 5 5 5 5 5 5 5 5 5 5 5 5 5 5 5 5 5 3 5 5 5 5 5 5 5 5 3 5 5 5 3 5 5 3 5 5 5 5 5 5 5 5 5 5 5 5 5 5 5 5 5 5 5 3 5 5 5 5 5 5 5 5 5 5 5 5 5 5 5 5 3 5 5 5 5 5 5 5 5 3 5 5 5 5 5 5 3 5 5 3 5 5 3 5 5 3 5 5 5 5 3 5 5 3 5 5 5 5 3 5 5 3 5 3 5 3 5 5 5 5 5 5 5 5 5 3 3 5 5 5 5 5 3 5 5 3 3 5 5 5 5 5 5 5 5 5 5 5 5 5 5 5 5 5 5 5 5 5 3 5 5 5 5 5 5 5 5 5 5 5 5 5 5 5 5 5 5 5 5 5 5 5 5 5 5 5 5 5 5 5 5 5 3 5 5 3 3 5 5 5 3 3 5 5 5 5 5 5 5 5 5 5 5 5 5 5 5 3 5 5 5 5 5 5 5 5 3 5 5 5 5 5 5 5 5 5 5 5 5 3 5 5 5 5 3 5 5 5 5 5 3 5 3 5 5 5 5 5 5 3 5 3 5 3 5 5 3 5 5 3 5 5 5 5 5 5 5 5 5 5 5 3 5 5 5 5 5 5 5 5 5 5 5 5 5 5 3 5 5 5 5 5 5 5 5 5 3 5 5 5 5 3 5 5 5 5 5 5 5 5 5 5 3 5 5 5 5 5 5 5 5 3 5 5 5 5 3 5 5 5 3 5 5 5 5 3 5 5 5 5 5 5 5 5 5 5 5 5 5 3 5 5 3 5 5 5 5 5 5 5 5 5 5 5 5 5 5 5 5 5 3 5 3 5 5 5 5 3 5 5 5 5 5 5 5 5 5 5 5 5 5 5 3 5 5 3 3 5 5 5 5 5 5 5 5 5 5 5 5 5 5 5 5 5 5 5 5 5 5 5 5 5 5 5 5 5 5 5 5 5 5 5 5 3 5 5 5 5 3 5 5 3 5 5 5 3 5 5 5 3 5 5 5 5 5 5 5 5 3 5 3 5 3 5 5 3 5 5 5 5 5 3 3 5 3 5 5 5 5 5 5 5 5 5 3 5 5 5 5 5 5 5 5 5 5 5 5 5 5 5 5 5 3 5 5 5 5 5 5 5 5 5 5 3 5 5 5 3 5 3 5 5 5 3 5 3 3 5 5 5 5 3 5 5 5 5 5 5 5 5 3 5 5 5 3 5 5 3 3 5 3 5 5 3 5 5 5 5 5 3 5 3 5 5 5 3 5 5 5 5 5 5 3 5 5 5 5 5 5 5 3 5 5 5 5 5 5 5 5 5 5 5 5 3 5 5 5 5 5 5 3 5 5 5 5 5 5 5 5 5 5 5 5 5 5 5 5 3 5 5 5 3 5 5 3 5 5 5 3 5 3 5 3 5 5 5 5 5 5 5 5 5 5 5 5 5 5 5 3 5 5 5 5 5 5 5 5 5 5 5 5 5 5 5 5 3 5 3 5 3 3 5 5 3 5 3 5 5 5 5 5 5 5 3 5 5 5 5 5 5 5 5 3 5 3 5 5 5 5 3 5 5 5 5 5 3 5 3 5 5 5 5 5 5 3 5 5 5 5 5 5 5 5 5 5 5 3 5 5 5 5 5 5 5 5 5 5 5 5 3 5 5 5 5 5 3 5 5 5 5 5 5 3 5 5 5 5 5 5 5 5 5 5 5 5 5 5 5 5 5 5 5 5 5 5 5 5 5 5 3 5 5 5 3 5 5 5 5 5 5 5 5 5 5 5 5 5 5 5 5 5 3 5 5 5 3 5 5 5 5 3 5 5 5 5 5 5 5 5 5 5 5 5 5 5 5 5 5 5 5 5 5 3 3 5 5 5 3 5 5 5 5 3 5 5 3 5 5 3 5 5 5 3 5 5 5 5 5 5 5 5 3 5 5 3 5 5 5 3 5 5 3 3 5 5 5 3 5 3 5 5 5 5 5 5 3 3 5 5 5 5 5 5 5 3 5 5 5 5 5 5 5 5 5 5 5 5 5 5 5 5 5 3 5 5 5 3 5 5 5 5 5 5 5 5 5 5 5 5 5 5 5 5 5 5 5 3 3 5 5 5 5 5 5 5 3 5 5 5 5 5 5 5 3 5 5 5 5 5 5 5 3 5 5 5 5 5 5 5 5 5 5 5 5 5 5 5 5 5 5 5 5 5 5 5 5 5 5 5 5 3 5 5 5 5 5 5 5 5 5 5 5 5 5 3 5 5 5 5 5 3 5 5 5 3 3 5 5 5 5 5 5 5 5 5 3 5 5 3 3 3 5 3 5 5 5 5 5 3 5 5 5 5 5 3 5 5 3 5 5 5 5 5 5 5 5 3 5 3 3 5 5 5 5 5 5 5 5 3 3 5 5 3 5 5 5 3 5 5 5 5 5 5 5 5 5 5 3 5 5 5 5 3 3 5 5 5 5 5 5 5 5 5 5 3 5 5 5 5 5 5 5 5 5 5 5 5 5 5 5 5 5 5 5 5 5 5 5 5 5 5 5 5 5 5 5 5 5 5 5 3 5 5 5 5 5 5 3 3 5 5 5 5 5 5 5 5 5 5 5 5 5 5 5 5 5 5 5 5 5 5 5 3 5 5 5 5 5 5 5 5 5 5 5 5 5 5 5 5 5 5 5 5 5 5 5 5 5 5 5 5 5 5 5 5 3 5 5 5 5 5 5 5 3 5 5 5 5 5 5 3 5 5 5 5 5 5 5 3 5 3 5 5 5 3 5 5 5 5 5 3 5 5 3 5 5 5 5 5 5 5 5 5 5 5 3 5 5 5 5 5 5 5 5 5 5 5 5 5 5 5 3 5 5 5 5 5 5 5 5 3 5 5 5 5 5 5 5 5 5 5 5 5 3 5 5 5 5 5 3 5 5 5 5 5 5 5 3 5 5 5 5 5 3 5 5 5 5 5 5 5 5 3 5 5 5 5 5 5 5 5 5 5 5 5 5 5 5 3 5 5 5 5 5 5 5 5 5 5 5 5 5 3 5 5 5 5 3 5 5 3 5 5 5 5 5 5 5 5 3 5 5 3 5 5 5 5 5 5 3 5 5 5 5 5 5 5 5 5 5 5 5 5 5 5 5 5 5 5 3 5 5 5 5 3 5 5 5 5 5 5 5 5 5 5 5 5 5 5 5 5 5 5 5 5 5 5 5 5 5 5 5 5 5 5 5 5 5 5 5 5 5 5 5 5 5 5 5 5 5 5 5 5 5 5 5 5 5 5 5 5 5 5 5 3 3 5 5 3 5 5 5 5 5 3 5 5 5 5 5 3 5 5 5 5 3 5 5 3 5 5 5 5 5 5 5 3 5 5 5 3 5 5 5 5 5 5 5 3 5 5 5 3 5 3 5 5 5 5 5 5 3 3 5 5 5 3 5 3 5 5 5 5 5 3 5 5 5 5 5 5 3 5 5 5 3 5 5 5 5 5 5 5 5 5 5 5 5 3 5 5 5 5 5 5 3 5 5 5 5 3 5 5 5 5 3 5 3 5 3 5 5 5 3 5 5 5 3 3 5 5 5 5 3 5 5 5 3 5 5 5 5 5 5 5 5 5 5 5 5 5 5 5 5 3 5 5 5 5 5 5 5 5 5 5 5 5 5 3 5 5 5 3 5 5 5 5 5 3 5 5 5 5 5 3 5 5 5 5 5 5 5 3 5 5 5 5 5 5 5 5 5 3 5 5 5 5 5 5 5 3 5 5 5 5 5 5 5 5 5 5 5 5 5 5 5 3 5 5 5 5 5 5 5 5 5 5 5 5 5 5 5 5 5 5 5 5 5 5 5 5 5 5 5 5 5 5 5 5 5 5 5 5 5 3 5 5 5 5 5 5 3 5 5 5 3 5 5 5 5 5 5 3 5 5 5 3 5 5 5 5 3 5 5 5 5 5 5 5 5 5 5 5 5 5 5 5 5 5 5 5 5 5 5 5 5 5 5 5 3 5 5 5 5 5 5 5 5 5 5 5 5 5 5 5 5 5 5 5 5 5 5 5 3 5 5 5 5 3 5 5 5 3 5 5 5 5 5 3 5 5 5 5 5 3 5 5 5 5 5 5 5 5 5 5 5 5 3 5 3 5 5 5 5 5 5 5 5 3 5 5 3 5 5 5 5 5 5 5 5 5 5 5 5 3 5 5 5 5 5 3 5 5 3 5 5 5 5 5 5 5 5 5 5 5 5 5 5 5 5 5 3 5 5 3 3 5 5 3 5 5 5 5 3 5 3 3 5 5 5 5 5 5 5 5 5 3 5 5 3 5 5 5 5 5 5 5 5 5 3 5 5 5 5 5 3 5 5 3 3 5 3 5 3 5 5 5 5 3 5 3 5 5 5 5 5 5 3 5 5 5 5 5 5 5 5 5 5 5 5 5 5 5 5 5 5 5 5 5 5 5 5 5 5 5 5 5 5 5 5 5 5 3 5 5 5 5 5 3 3 5 3 5 3 5 5 5 3 5 5 5 5 5 3 5 5 5 5 5 5 5 5 3 5 3 5 5 3 3 5 3 5 3 5 5 5 5 5 5 5 3 5 5 3 3 5 5 5 5 5 3 3 5 5 3 3 5 5 5 3 5 5 5 3 5 5 5 5 5 5 5 5 5 5 5 5 5 5 5 5 5 5 5 3 5 5 3 5 5 5 5 5 3 5 5 5 5 5 5 5 5 5 5 5 5 5 5 5 5 3 5 5 5 5 5 5 5 5 5 5 3 5 5 3 5 5 5 5 5 3 5 5 5 5 5 5 3 5 5 3 5 5 5 5 5 5 5 3 5 3 5 3 3 3 3 5 3 5 5 5 5 3 3 3 5 3 5 5 5 5 3 5 3 5 5 5 3 5 5 5 5 3 5 5 3 5 5 5 5 5 5 5 5 5 5 5 5 5 5 5 5 5 5 5 3 5 5 5 5 5 3 5 5 3 5 5 5 5 5 5 5 5 5 3 5 3 5 5 5 5 5 5 3 5 5 5 5 5 5 5 5 5 5 5 5 5 5 5 5 5 5 5 5 5 5 5 5 5 5 5 5 5 5 5 5 5 5 5 5 3 5 5 3 5 5 5 3 5 5 5 5 5 5 5 5 5 5 5 5 5 5 5 5 5 5 3 5 5 5 5 5 5 5 5 5 5 3 3 3 5 5 5 5 3 5 5 5 5 5 5 5 5 5 5 5 5 5 5 5 5 5 5 3 5 5 5 5 5 5 5 5 3 5 5 5 3 5 3 5 3 5 3 5 3 5 5 5 5 5 3 5 5 3 3 3 5 3 3 5 5 5 5 5 3 3 5 5 5 3 3 5 5 5 5 5 3 5 3 5 5 5 5 3 3 5 5 3 5 3 5 5 3 5 3 3 5 5 5 3 3 5 5 3 3 3 5 5 5 3 5 3 3 5 5 3 3 5 3 5 3 5 5 5 5 5 5 3 5 5 5 5 5 5 5 3 3 5 3 3 5 5 5 5 3 5 5 5 3 5 5 5 5 5 3 5 5 3 3 5 5 5 5 3 5 5 5 5 5 3 5 5 5 5 5 5 5 3 3 3 3 5 5 5 5 5 3 3 5 5 3 5 5 5 3 5 5 5 5 5 5 3 5 5 5 5 3 3 3 5 3 5 5 3 5 5 5 5 5 5 5 5 5 3 5 5 5 5 3 5 5 3 5 5 5 5 5 5 5 5 5 5 5 5 5 5 5 5 5 5 5 5 5 5 5 5 5 5 5 3 5 5 5 5 5 5 5 5 5 5 5 5 5 5 5 5 5 3 5 5 5 5 5 5 5 3 5 5 5 5 5 3 5 5 5 5 5 5 5 5 5 5 5 5 5 5 5 5 5 5 5 3 5 5 5 5 5 5 5 3 5 5 5 5 5 5 5 5 5 5 3 5 5 5 5 5 5 5 3 5 5 5 5 5 3 5 5 5 5 5 3 5 5 5 5 3 5 5 5 5 5 5 5 5 5 5 5 5 5 5 5 3 5 5 3 5 5 5 5 3 5 5 5 5 5 5 5 5 5 3 5 5 5 3 3 5 3 5 5 5 5 5 5 5 5 5 3 5 5 3 3 3 5 5 3 5 5 3 5 5 5 5 3 3 5 5 3 5 3 5 5 5 3 5 5 3 3 5 3 5 5 5 5 5 5 5 5 3 5 5 5 5 5 5 5 5 3 5 5 5 5 5 5 5 5 5 5 5 5 5 5 5 5 5 3 5 5 5 5 3 5 5 3 5 5 5 5 5 5 5 5 5 5 5 5 5 5 3 5 5 5 3 5 5 5 3 5 5 5 5 5 5 5 5 5 5 5 5 5 3 5 5 5 5 5 5 5 5 5 5 5 5 5 3 5 5 5 5 5 5 5 5 5 5 5 5 5 5 5 5 5 5 5 3 5 3 3 5 5 3 3 3 5 5 5 3 3 5 5 5 5 3 3 5 5 5 5 5 5 5 5 5 5 5 5 5 5 3 5 5 5 5 5 3 5 5 5 5 5 5 5 5 5 3 5 5 5 5 3 5 5 5 3 5 5 5 5 5 5 5 5 3 5 5 5 5 5 5 5 5 5 5 5 3 5 5 5 5 5 5 5 5 5 5 5 5 5 5 5 5 5 5 3 5 5 5 5 5 5 3 5 5 5 3 5 5 3 5 5 5 5 5 5 5 5 3 5 5 5 3 5 5 5 5 5 5 3 5 5 5 5 3 5 3 5 5 5 5 5 5 5 5 5 5 3 5 5 5 5 5 3 5 5 5 3 5 5 5 5 5 3 5 5 5 5 5 5 5 5 5 5 3 5 5 5 5 5 3 5 5 3 5 5 5 5 5 5 5 5 5 5 3 5 5 3 5 5 5 5 5 5 3 5 5 3 5 5 5 5 5 5 5 5 5 5 5 5 5 5 5 5 5 5 5 5 5 5 5 5 5 5 5 5 5 5 5 5 5 5 5 5 5 5 5 5 5 5 5 5 5 5 5 5 5 5 5 3 5 5 5 3 5 5 5 5 5 5 3 5 5 5 5 5 5 5 5 5 5 5 5 5 5 5 5 5 5 5 5 5 5 5 5 5 5 5 5 5 3 5 5 5 3 5 5 5 5 5 5 5 5 5 5 5 5 5 5 5 5 5 5 5 5 5 5 5 5 5 5 5 5 5 5 3 5 5 5 3 5 3 5 5 5 5 5 5 5 5 3 5 5 3 5 5 5 5 5 5 5 3 5 5 5 5 5 5 5 5 5 3 5 5 5 5 5 5 5 5 5 5 5 5 5 5 5 5 5 5 5 5 5 5 5 5 5 5 5 5 5 5 3 5 5 5 5 5 5 5 5 5 5 5 5 5 5 3 5 5 5 5 5 3 3 5 5 5 5 3 5 5 5 5 5 5 3 3 5 5 5 3 5 5 3 5 5 5 5 5 5 5 5 5 5 5 5 5 5 5 5 5 5 5 5 5 5 5 3 3 5 3 5 5 3 5 5 5 3 5 5 5 5 5 5 5 5 5 5 5 5 5 5 5 5 5 5 5 5 3 5 5 3 5 5 5 3 5 5 3 5 3 5 5 5 5 5 5 5 5 5 5 5 5 5 3 5 5 5 5 3 5 5 5 5 5 5 5 5 5 5 5 5 5 5 5 3 5 5 5 5 5 5 5 5 5 3 5 3 5 5 5 3 5 5 5 5 5 5 5 5 5 5 3 5 3 5 5 5 5 5 5 3 5 5 5 5 3 5 5 5 5 3 5 5 5 5 5 5 5 5 5 5 5 5 5 5 5 5 5 5 5 3 5 5 5 5 5 5 5 5 5 5 5 5 5 5 5 5 5 5 3 3 5 5 5 5 5 5 3 5 3 5 5 5 5 3 5 5 5 5 5 5 5 5 5 5 3 5 5 5 5 5 5 3 5 5 3 3 5 5 3 5 3 5 5 5 5 5 3 3 5 5 5 5 5 5 3 5 5 3 3 3 5 5 5 5 5 5 5 3 3 3 5 5 3 5 5 5 3 5 3 5 5 5 5 5 5 5 5 3 5 5 3 5 5 5 5 5 5 3 5 3 5 5 5 5 3 3 5 5 5 5 5 5 5 5 5 5 3 5 5 5 5 3 5 5 5 5 5 5 5 3 5 5 5 5 5 3 3 5 3 5 5 3 5 5 3 5 5 5 3 5 5 5 5 5 5 3 5 3 5 3 3 5 5 5 3 5 5 5 5 3 3 5 3 5 5 5 5 5 3 3 5 5 5 3 5 5 3 5 5 5 5 5 5 5 5 5 5 5 5 5 5 5 3 5 3 5 5 5 3 5 3 5 5 5 5 5 5 5 5 5 5 3 5 5 3 5 5 5 3 3 5 5 5 5 3 5 5 5 5 5 5 5 5 5 5 5 5 5 5 5 
</DataArray>
</Cells>
<PointData Scalars="" Vectors="displacement," Tensors="">
<DataArray type="Float64" Name="displacement" NumberOfComponents="3" format="ascii">
1.7960920514718819e-08 -0.049996316671456743 0 -5.0444967556559111e-05 -0.045271555830644905 0 -5.7195140794021589e-07 -0.042609217742982146 0 1.7960920514718819e-08 -0.049996316671456743 0 -3.882136652754776e-05 -0.047722187845701175 0 -6.7930755513243666e-07 -0.04999488826250028 0 1.7960920514718819e-08 -0.049996316671456743 0 -3.882136652754776e-05 -0.047722187845701175 0 -5.0444967556559111e-05 -0.045271555830644905 0 -3.882136652754776e-05 -0.047722187845701175 0 -5.0444967556559111e-05 -0.045271555830644905 0 0.00021729129169043051 -0.046475364040002513 0 -5.0444967556559111e-05 -0.045271555830644905 0 -7.217798635556742e-06 -0.045163206151849836 0 0.00021729129169043051 -0.046475364040002513 0 -5.0444967556559111e-05 -0.045271555830644905 0 -5.7195140794021589e-07 -0.042609217742982146 0 -0.00030802071534979806 -0.041680444854278832 0 -0.00030802071534979806 -0.041680444854278832 0 -0.00027067079187924044 -0.039454599918003722 0 -1.0458140923755565e-06 -0.037114103881080135 0 -5.7195140794021589e-07 -0.042609217742982146 0 -0.00030802071534979806 -0.041680444854278832 0 -1.0458140923755565e-06 -0.037114103881080135 0 -0.00027067079187924044 -0.039454599918003722 0 -0.00030433610045104282 -0.04064983776799283 0 -0.00070804893158908969 -0.041202833758566558 0 -0.00030802071534979806 -0.041680444854278832 0 -0.00027067079187924044 -0.039454599918003722 0 -0.00070804893158908969 -0.041202833758566558 0 -0.00030433610045104282 -0.04064983776799283 0 -0.00070804893158908969 -0.041202833758566558 0 -0.0012680194876012983 -0.040589709538362356 0 -0.0025446974883989509 -0.035658431982252208 0 -0.0012680194876012983 -0.040589709538362356 0 -0.0021856029388833014 -0.038636035542173555 0 -0.0012742795897087583 -0.038099738811825573 0 -0.0011741789116360252 -0.040160420863322131 0 -0.00030802071534979806 -0.041680444854278832 0 -0.00070804893158908969 -0.041202833758566558 0 0.00014611753236136752 -0.043347117720075976 0 -5.0444967556559111e-05 -0.045271555830644905 0 -0.00030802071534979806 -0.041680444854278832 0 0.00014611753236136752 -0.043347117720075976 0 -0.00070804893158908969 -0.041202833758566558 0 -0.0012680194876012983 -0.040589709538362356 0 0.00014611753236136752 -0.043347117720075976 0 -5.0444967556559111e-05 -0.045271555830644905 0 0.00014611753236136752 -0.043347117720075976 0 -7.217798635556742e-06 -0.045163206151849836 0 -7.217798635556742e-06 -0.045163206151849836 0 4.3620508223413046e-05 -0.044970736869119635 0 2.3891385320374273e-05 -0.045311978390455344 0 0.00014611753236136752 -0.043347117720075976 0 -7.217798635556742e-06 -0.045163206151849836 0 4.3620508223413046e-05 -0.044970736869119635 0 -0.0012680194876012983 -0.040589709538362356 0 0.00014611753236136752 -0.043347117720075976 0 -0.0010973715232737509 -0.03882585529337991 0 0.00014611753236136752 -0.043347117720075976 0 4.3620508223413046e-05 -0.044970736869119635 0 0.00030453595727167234 -0.044958413668802592 0 -4.844398719025677e-05 -0.042910589287475195 0 -0.00031067025464146566 -0.042211943056516897 0 4.3620508223413046e-05 -0.044970736869119635 0 3.4747639074629145e-05 -0.045025630256836272 0 2.3891385320374273e-05 -0.045311978390455344 0 4.3620508223413046e-05 -0.044970736869119635 0 3.4747639074629145e-05 -0.045025630256836272 0 0.00030453595727167234 -0.044958413668802592 0 -0.0025446974883989509 -0.035658431982252208 0 -0.0021856029388833014 -0.038636035542173555 0 -0.0018869407228629053 -0.038289334054382618 0 -0.0012680194876012983 -0.040589709538362356 0 -0.0021856029388833014 -0.038636035542173555 0 -0.0010973715232737509 -0.03882585529337991 0 -0.0021856029388833014 -0.038636035542173555 0 -0.0010973715232737509 -0.03882585529337991 0 -0.0020288945815683562 -0.038147731020987848 0 -0.00031067025464146566 -0.042211943056516897 0 -0.0017019531704013519 -0.040078549379886794 0 3.4747639074629145e-05 -0.045025630256836272 0 0.00030453595727167234 -0.044958413668802592 0 -0.00013374926820370264 -0.044960362097948799 0 -0.0051923362367510984 -0.034992002586586697 0 -0.003083013408623722 -0.033274894407086232 0 -0.0029048893483686221 -0.034896405014825112 0 -0.0017019531704013519 -0.040078549379886794 0 -0.0025888276130933753 -0.035389673392801947 0 -0.0021856029388833014 -0.038636035542173555 0 -0.0020288945815683562 -0.038147731020987848 0 -0.0018869407228629053 -0.038289334054382618 0 -0.0051923362367510984 -0.034992002586586697 0 -0.0038081060540962322 -0.036561525628313732 0 -0.0029048893483686221 -0.034896405014825112 0 -0.00060862545746556815 -0.041657379058864935 0 -0.00103615404849002 -0.041199840927085861 0 -0.00048033195958733398 -0.041249780955381794 0 -0.0017019531704013519 -0.040078549379886794 0 -0.0025847004292550097 -0.038586553116483256 0 -0.00060862545746556815 -0.041657379058864935 0 -0.00048033195958733398 -0.041249780955381794 0 -0.00031597226639696973 -0.041724234528299306 0 3.4747639074629145e-05 -0.045025630256836272 0 -0.00013374926820370264 -0.044960362097948799 0 -0.00020340857156065639 -0.044692958024420429 0 -0.0017019531704013519 -0.040078549379886794 0 -0.00013782463036158757 -0.043623015247784606 0 -0.00029578228141083818 -0.042152277307938177 0 -0.00048033195958733398 -0.041249780955381794 0 -0.00063436288488120344 -0.041050773758064624 0 -0.00029578228141083818 -0.042152277307938177 0 -0.00048033195958733398 -0.041249780955381794 0 -0.00031597226639696973 -0.041724234528299306 0 -0.00048033195958733398 -0.041249780955381794 0 -0.00096050007619932949 -0.040249317078967652 0 -0.00063436288488120344 -0.041050773758064624 0 -0.00103615404849002 -0.041199840927085861 0 -0.00048033195958733398 -0.041249780955381794 0 -0.00096050007619932949 -0.040249317078967652 0 2.3891385320374273e-05 -0.045311978390455344 0 2.1999518390085575e-05 -0.043877308587965527 0 0.00055606252100191226 -0.044944831456612502 0 2.3891385320374273e-05 -0.045311978390455344 0 -0.00020340857156065639 -0.044692958024420429 0 2.1999518390085575e-05 -0.043877308587965527 0 3.4747639074629145e-05 -0.045025630256836272 0 2.3891385320374273e-05 -0.045311978390455344 0 -0.00020340857156065639 -0.044692958024420429 0 -0.00013782463036158757 -0.043623015247784606 0 7.8781295877659846e-05 -0.043543268957145768 0 -0.00029578228141083818 -0.042152277307938177 0 -0.00031597226639696973 -0.041724234528299306 0 2.1999518390085575e-05 -0.043877308587965527 0 2.1999518390085575e-05 -0.043877308587965527 0 0.00055606252100191226 -0.044944831456612502 0 0.00038084892899489055 -0.044478461335380373 0 0.00055606252100191226 -0.044944831456612502 0 0.0008530905815987115 -0.045366274951469436 0 0.0007172670143328054 -0.045459238455004089 0 0.00055606252100191226 -0.044944831456612502 0 0.0007172670143328054 -0.045459238455004089 0 0.00074936687257212535 -0.045496704053552273 0 0.0008530905815987115 -0.045366274951469436 0 0.0007172670143328054 -0.045459238455004089 0 0.00019844811018964251 -0.045949291671916984 0 6.400874070426042e-05 -0.049973336873779625 0 6.9269619389990293e-08 -0.050000253986756824 0 9.3381787134190187e-06 -0.049558823890474016 0 0.00038292720460893215 -0.047181021875869915 0 0.00020984201967581926 -0.047969448590546027 0 7.6684801441469721e-05 -0.04894615068361393 0 6.400874070426042e-05 -0.049973336873779625 0 9.3381787134190187e-06 -0.049558823890474016 0 6.9269619389990293e-08 -0.050000253986756824 0 9.3381787134190187e-06 -0.049558823890474016 0 -6.7930755513243666e-07 -0.04999488826250028 0 -3.882136652754776e-05 -0.047722187845701175 0 7.6684801441469721e-05 -0.04894615068361393 0 -6.7930755513243666e-07 -0.04999488826250028 0 7.6684801441469721e-05 -0.04894615068361393 0 9.3381787134190187e-06 -0.049558823890474016 0 -6.7930755513243666e-07 -0.04999488826250028 0 -3.882136652754776e-05 -0.047722187845701175 0 7.6684801441469721e-05 -0.04894615068361393 0 0.00021729129169043051 -0.046475364040002513 0 2.3891385320374273e-05 -0.045311978390455344 0 0.00055606252100191226 -0.044944831456612502 0 0.00021729129169043051 -0.046475364040002513 0 0.00055606252100191226 -0.044944831456612502 0 0.0008530905815987115 -0.045366274951469436 0 0.00021729129169043051 -0.046475364040002513 0 -7.217798635556742e-06 -0.045163206151849836 0 2.3891385320374273e-05 -0.045311978390455344 0 0.00021729129169043051 -0.046475364040002513 0 0.00038292720460893215 -0.047181021875869915 0 0.00026200620940697268 -0.046590329268409843 0 0.0010507453445877265 -0.027453285337093659 0 0.00069523070929378573 -0.026914858961444486 0 0.0012071208211430202 -0.024853429125381694 0 0.0010507453445877265 -0.027453285337093659 0 0.0006943314901543486 -0.028712993606468298 0 0.00092932110258155836 -0.029340944015414885 0 0.0006943314901543486 -0.028712993606468298 0 0.00069523070929378573 -0.026914858961444486 0 0.00043050484648920643 -0.029116725892116894 0 0.0010507453445877265 -0.027453285337093659 0 0.0006943314901543486 -0.028712993606468298 0 0.00069523070929378573 -0.026914858961444486 0 0.00033199647294567355 -0.027135256759838074 0 0.00070199913780950775 -0.024998138296169023 0 0.00010124297480652485 -0.025935221580638965 0 -2.2703720134559578e-05 -0.027557880507337065 0 0.00067336262407519912 -0.024608934935841324 0 0.00010124297480652485 -0.025935221580638965 0 -4.3603775740625928e-07 -0.027134841063124814 0 7.6276697625217948e-07 -0.024272261997551996 0 0.00010124297480652485 -0.025935221580638965 0 -4.3603775740625928e-07 -0.027134841063124814 0 -0.000103000737789713 -0.028349784658061795 0 0.00010124297480652485 -0.025935221580638965 0 -2.2703720134559578e-05 -0.027557880507337065 0 -0.000103000737789713 -0.028349784658061795 0 -0.000103000737789713 -0.028349784658061795 0 0.0001680179942765082 -0.029684989015288012 0 0.00015051881065906682 -0.029340278510151377 0 -2.2703720134559578e-05 -0.027557880507337065 0 -0.000103000737789713 -0.028349784658061795 0 0.00015051881065906682 -0.029340278510151377 0 -4.3603775740625928e-07 -0.027134841063124814 0 -0.000103000737789713 -0.028349784658061795 0 4.5276676977049206e-07 -0.029990397927640272 0 4.5276676977049206e-07 -0.029990397927640272 0 0.0001680179942765082 -0.029684989015288012 0 0.00011642122950532507 -0.029920014186848413 0 -0.000103000737789713 -0.028349784658061795 0 4.5276676977049206e-07 -0.029990397927640272 0 0.0001680179942765082 -0.029684989015288012 0 0.0001680179942765082 -0.029684989015288012 0 0.00015051881065906682 -0.029340278510151377 0 2.9788679036112353e-05 -0.031139827819478088 0 0.0006943314901543486 -0.028712993606468298 0 0.00049061499051565604 -0.030667332007702379 0 0.00092932110258155836 -0.029340944015414885 0 0.00029675270826500226 -0.029270238267907027 0 -2.7955508120544471e-06 -0.030869378274709983 0 0.00033199647294567355 -0.027135256759838074 0 0.00029675270826500226 -0.029270238267907027 0 0.0006943314901543486 -0.028712993606468298 0 0.00043050484648920643 -0.029116725892116894 0 0.00049061499051565604 -0.030667332007702379 0 0.00043050484648920643 -0.029116725892116894 0 0.00049061499051565604 -0.030667332007702379 0 2.9788679036112353e-05 -0.031139827819478088 0 3.015467987069963e-06 -0.030000137295545137 0 0.00030048597737601163 -0.034130489176057266 0 -1.0458140923755565e-06 -0.037114103881080135 0 0.00049061499051565604 -0.030667332007702379 0 -0.00014539551793491773 -0.031858275368016352 0 2.9788679036112353e-05 -0.031139827819478088 0 -0.00014539551793491773 -0.031858275368016352 0 -7.5297650121207581e-05 -0.032131351872148002 0 -0.0012437434811206061 -0.03208263003297461 0 -0.00014539551793491773 -0.031858275368016352 0 -7.5297650121207581e-05 -0.032131351872148002 0 2.9788679036112353e-05 -0.031139827819478088 0 -7.5297650121207581e-05 -0.032131351872148002 0 -1.8250672771243466e-05 -0.030879666454144347 0 2.9788679036112353e-05 -0.031139827819478088 0 -7.5297650121207581e-05 -0.032131351872148002 0 -1.8250672771243466e-05 -0.030879666454144347 0 -0.0008280202182198125 -0.031667648048857265 0 0.0001680179942765082 -0.029684989015288012 0 -1.8250672771243466e-05 -0.030879666454144347 0 2.9788679036112353e-05 -0.031139827819478088 0 0.0001680179942765082 -0.029684989015288012 0 -1.8250672771243466e-05 -0.030879666454144347 0 0.00011642122950532507 -0.029920014186848413 0 -3.1999911372650849e-07 -0.029995895487987256 0 6.4624177335928016e-05 -0.032128244801370887 0 6.4624177335928016e-05 -0.032128244801370887 0 -0.00028387688925728951 -0.034747688231827396 0 -1.8250672771243466e-05 -0.030879666454144347 0 0.00011642122950532507 -0.029920014186848413 0 -0.0008280202182198125 -0.031667648048857265 0 0.00030048597737601163 -0.034130489176057266 0 0.00036391603806679786 -0.037733745241024304 0 -1.0458140923755565e-06 -0.037114103881080135 0 -0.00027067079187924044 -0.039454599918003722 0 0.00036391603806679786 -0.037733745241024304 0 -1.0458140923755565e-06 -0.037114103881080135 0 -0.0012742795897087583 -0.038099738811825573 0 -0.00028387688925728951 -0.034747688231827396 0 -0.00027067079187924044 -0.039454599918003722 0 -0.00030433610045104282 -0.04064983776799283 0 0.00036391603806679786 -0.037733745241024304 0 -0.0025446974883989509 -0.035658431982252208 0 -0.0008280202182198125 -0.031667648048857265 0 -0.0010062117466024896 -0.033837659586172165 0 -7.5297650121207581e-05 -0.032131351872148002 0 -0.0008280202182198125 -0.031667648048857265 0 -0.0010062117466024896 -0.033837659586172165 0 -0.00019669504897805508 -0.032489412566340699 0 -0.0011804184014663356 -0.034106804487824161 0 -7.5297650121207581e-05 -0.032131351872148002 0 -0.0010062117466024896 -0.033837659586172165 0 -0.00082995016585352556 -0.035981362815177886 0 -0.0025446974883989509 -0.035658431982252208 0 -0.0010062117466024896 -0.033837659586172165 0 -0.00082995016585352556 -0.035981362815177886 0 -0.0025446974883989509 -0.035658431982252208 0 -0.0018869407228629053 -0.038289334054382618 0 -0.00082995016585352556 -0.035981362815177886 0 -0.0025888276130933753 -0.035389673392801947 0 -0.0011804184014663356 -0.034106804487824161 0 -0.00014539551793491773 -0.031858275368016352 0 -0.0012437434811206061 -0.03208263003297461 0 -0.0010841990576876677 -0.033276193663528401 0 -0.003083013408623722 -0.033274894407086232 0 -0.0012437434811206061 -0.03208263003297461 0 -0.0010841990576876677 -0.033276193663528401 0 -0.0010841990576876677 -0.033276193663528401 0 -0.0011879523733241116 -0.035862926258654317 0 -0.00034844593783410976 -0.034167554268321181 0 -0.0010841990576876677 -0.033276193663528401 0 -0.0029048893483686221 -0.034896405014825112 0 -0.0011879523733241116 -0.035862926258654317 0 -0.003083013408623722 -0.033274894407086232 0 -0.0010841990576876677 -0.033276193663528401 0 -0.0029048893483686221 -0.034896405014825112 0 -0.0038081060540962322 -0.036561525628313732 0 -0.0029048893483686221 -0.034896405014825112 0 -0.0011879523733241116 -0.035862926258654317 0 -0.0038081060540962322 -0.036561525628313732 0 -0.001804435260936759 -0.038832354364033837 0 -0.0011879523733241116 -0.035862926258654317 0 -0.00103615404849002 -0.041199840927085861 0 -0.00096050007619932949 -0.040249317078967652 0 -0.001804435260936759 -0.038832354364033837 0 -0.0025847004292550097 -0.038586553116483256 0 -0.0018040085451214998 -0.039073893183987657 0 -0.00096050007619932949 -0.040249317078967652 0 -0.001804435260936759 -0.038832354364033837 0 -0.0010575527065726747 -0.039926787457789138 0 -0.00062504054507626363 -0.037880249435857778 0 -0.0011879523733241116 -0.035862926258654317 0 -7.3734410641388944e-05 -0.03575839965425865 0 -0.001804435260936759 -0.038832354364033837 0 -0.00062504054507626363 -0.037880249435857778 0 -0.00080118997469731505 -0.039177441433620543 0 -0.001804435260936759 -0.038832354364033837 0 -0.00062504054507626363 -0.037880249435857778 0 -0.0011879523733241116 -0.035862926258654317 0 -0.0011879523733241116 -0.035862926258654317 0 -7.3734410641388944e-05 -0.03575839965425865 0 -0.00034844593783410976 -0.034167554268321181 0 -7.3734410641388944e-05 -0.03575839965425865 0 0.00033091035859821873 -0.033982121253060625 0 -0.00034844593783410976 -0.034167554268321181 0 -0.00062504054507626363 -0.037880249435857778 0 -7.3734410641388944e-05 -0.03575839965425865 0 5.0635117191488216e-05 -0.03753138796434391 0 -7.3734410641388944e-05 -0.03575839965425865 0 0.0006137812550574993 -0.035965215042262411 0 5.0635117191488216e-05 -0.03753138796434391 0 0.0006137812550574993 -0.035965215042262411 0 0.0013432873193012283 -0.036549292066241836 0 0.00066118946842247004 -0.037146190347773757 0 0.0006137812550574993 -0.035965215042262411 0 0.00066118946842247004 -0.037146190347773757 0 5.0635117191488216e-05 -0.03753138796434391 0 0.0006137812550574993 -0.035965215042262411 0 0.00033091035859821873 -0.033982121253060625 0 0.0013742787610375351 -0.035005392410133243 0 -7.3734410641388944e-05 -0.03575839965425865 0 0.0006137812550574993 -0.035965215042262411 0 0.00033091035859821873 -0.033982121253060625 0 0.00033091035859821873 -0.033982121253060625 0 0.00010292909638981725 -0.0325135483377176 0 0.0010439231647485548 -0.032380430029684285 0 0.00033091035859821873 -0.033982121253060625 0 -0.00034844593783410976 -0.034167554268321181 0 0.00010292909638981725 -0.0325135483377176 0 -0.0010841990576876677 -0.033276193663528401 0 -0.00034844593783410976 -0.034167554268321181 0 0.00010292909638981725 -0.0325135483377176 0 -0.00014539551793491773 -0.031858275368016352 0 -0.0010841990576876677 -0.033276193663528401 0 0.00010292909638981725 -0.0325135483377176 0 0.00049061499051565604 -0.030667332007702379 0 -0.00014539551793491773 -0.031858275368016352 0 0.00010292909638981725 -0.0325135483377176 0 0.00049061499051565604 -0.030667332007702379 0 0.00087896681314120217 -0.030768451283883839 0 0.00092932110258155836 -0.029340944015414885 0 0.00049061499051565604 -0.030667332007702379 0 0.00010292909638981725 -0.0325135483377176 0 0.0010439231647485548 -0.032380430029684285 0 0.00087896681314120217 -0.030768451283883839 0 0.0010439231647485548 -0.032380430029684285 0 0.00066014767856232344 -0.030580705195815149 0 0.00049061499051565604 -0.030667332007702379 0 0.00087896681314120217 -0.030768451283883839 0 0.0010439231647485548 -0.032380430029684285 0 0.00033091035859821873 -0.033982121253060625 0 0.0010439231647485548 -0.032380430029684285 0 0.0013742787610375351 -0.035005392410133243 0 0.0006137812550574993 -0.035965215042262411 0 0.0013742787610375351 -0.035005392410133243 0 0.0013432873193012283 -0.036549292066241836 0 0.0013742787610375351 -0.035005392410133243 0 0.0022462519496446228 -0.035938087072453252 0 0.0013432873193012283 -0.036549292066241836 0 0.0013742787610375351 -0.035005392410133243 0 0.0022462519496446228 -0.035938087072453252 0 0.0029112137086457312 -0.034627418487840247 0 0.00099259846968813813 -0.032297707397087046 0 0.0016832467881586616 -0.032613786397771981 0 0.0010439231647485548 -0.032380430029684285 0 0.0013742787610375351 -0.035005392410133243 0 0.0029112137086457312 -0.034627418487840247 0 0.00066014767856232344 -0.030580705195815149 0 0.0010633343229810794 -0.031406510329355486 0 0.00099784243393628174 -0.029754453439597026 0 0.0022462519496446228 -0.035938087072453252 0 0.0029112137086457312 -0.034627418487840247 0 0.0029784489045777567 -0.035890177493242151 0 0.0029112137086457312 -0.034627418487840247 0 0.0034594797222522603 -0.035282929670794341 0 0.0029784489045777567 -0.035890177493242151 0 0.0016832467881586616 -0.032613786397771981 0 0.0023969499150132073 -0.033394515465105072 0 0.0010633343229810794 -0.031406510329355486 0 0.00099784243393628174 -0.029754453439597026 0 0.0021260461765806897 -0.028658019427745644 0 0.00099784243393628174 -0.029754453439597026 0 0.0014010329074410713 -0.028721543248913808 0 0.0021260461765806897 -0.028658019427745644 0 0.00087896681314120217 -0.030768451283883839 0 0.00066014767856232344 -0.030580705195815149 0 0.00099784243393628174 -0.029754453439597026 0 0.00087896681314120217 -0.030768451283883839 0 0.00099784243393628174 -0.029754453439597026 0 0.00092932110258155836 -0.029340944015414885 0 0.00099784243393628174 -0.029754453439597026 0 0.00092932110258155836 -0.029340944015414885 0 0.0014010329074410713 -0.028721543248913808 0 0.0010507453445877265 -0.027453285337093659 0 0.0014010329074410713 -0.028721543248913808 0 0.0018516897751558209 -0.028044779454351177 0 0.0010507453445877265 -0.027453285337093659 0 0.00092932110258155836 -0.029340944015414885 0 0.0014010329074410713 -0.028721543248913808 0 -0.00022203276148016293 -0.032082231252780084 0 -0.00021449193942895236 -0.03207624026176268 0 -0.00020373999561852275 -0.032062783733468103 0 -0.0033925905130888353 -0.027472037985917713 0 -0.002482161816853254 -0.027612708535993638 0 -0.0034902282273021035 -0.028214533127484887 0 -0.0011680727899317828 -0.029925260765318418 0 -0.0021439988897534947 -0.030338645140008818 0 -0.0011680727899317828 -0.029925260765318418 0 0.00074359247608748514 -0.035386958718498722 0 -0.0014710952538253609 -0.03132704844081647 0 -0.00053807534177014707 -0.03263832220887819 0 3.6896210830920031e-05 -0.031286071424493467 0 -0.00022203276148016293 -0.032082231252780084 0 -0.00021449193942895236 -0.03207624026176268 0 -0.00021926803552304105 -0.032091586118497967 0 0.0014760953450955923 -0.034936158047721842 0 0.00074359247608748514 -0.035386958718498722 0 -0.00021449193942895236 -0.03207624026176268 0 -0.00020984794646054087 -0.032068755463318152 0 -0.00021926803552304105 -0.032091586118497967 0 0.0032085665833361337 -0.037687103161514447 0 0.0024429789128010207 -0.037429117516673674 0 0.0022826298980925968 -0.038224086034529509 0 -0.00020373999561852275 -0.032062783733468103 0 -0.00020984794646054087 -0.032068755463318152 0 -0.0001910054385732324 -0.03203756252834411 0 -0.00021449193942895236 -0.03207624026176268 0 -0.00020373999561852275 -0.032062783733468103 0 -0.00020984794646054087 -0.032068755463318152 0 0.0039054003219427319 -0.037422132290102203 0 0.0019701515745035583 -0.033131370258708367 0 0.0034247615978453172 -0.035740037801885755 0 0.0029053857491140576 -0.036742179514794519 0 0.0036366581764467696 -0.036498160434410377 0 0.0014760953450955923 -0.034936158047721842 0 0.0019701515745035583 -0.033131370258708367 0 0.0032085665833361337 -0.037687103161514447 0 0.0029053857491140576 -0.036742179514794519 0 0.0042448747087897075 -0.037041615393766519 0 0.0034594797222522603 -0.035282929670794341 0 0.0034247615978453172 -0.035740037801885755 0 0.0029784489045777567 -0.035890177493242151 0 0.0029784489045777567 -0.035890177493242151 0 0.0029053857491140576 -0.036742179514794519 0 0.0021885969684000473 -0.036923785206731979 0 0.0034247615978453172 -0.035740037801885755 0 0.0029784489045777567 -0.035890177493242151 0 0.0029053857491140576 -0.036742179514794519 0 0.0029053857491140576 -0.036742179514794519 0 0.0024429789128010207 -0.037429117516673674 0 0.0021885969684000473 -0.036923785206731979 0 0.0032085665833361337 -0.037687103161514447 0 0.0029053857491140576 -0.036742179514794519 0 0.0024429789128010207 -0.037429117516673674 0 0.0021885969684000473 -0.036923785206731979 0 0.0012319691499786773 -0.037551610642987926 0 0.0018344802633497111 -0.037663367624220227 0 0.0024429789128010207 -0.037429117516673674 0 0.0021885969684000473 -0.036923785206731979 0 0.0018344802633497111 -0.037663367624220227 0 0.0010771059783692134 -0.037423175443426111 0 0.0016067468415009198 -0.038251497884001326 0 0.0022462519496446228 -0.035938087072453252 0 0.0029784489045777567 -0.035890177493242151 0 0.0021885969684000473 -0.036923785206731979 0 0.0022462519496446228 -0.035938087072453252 0 0.0021885969684000473 -0.036923785206731979 0 0.0013432873193012283 -0.036549292066241836 0 0.0021885969684000473 -0.036923785206731979 0 0.0013432873193012283 -0.036549292066241836 0 0.0012319691499786773 -0.037551610642987926 0 0.0013432873193012283 -0.036549292066241836 0 0.0012319691499786773 -0.037551610642987926 0 0.00066118946842247004 -0.037146190347773757 0 0.0012319691499786773 -0.037551610642987926 0 0.00076038418688973732 -0.038260857664471036 0 0.0005288842765920163 -0.038200624805953071 0 0.0012319691499786773 -0.037551610642987926 0 0.00076038418688973732 -0.038260857664471036 0 0.00084315095599283999 -0.038223772675298057 0 0.00076038418688973732 -0.038260857664471036 0 0.00048698353857842266 -0.038372685798096107 0 0.00052870565050785892 -0.038626235024280628 0 0.00048698353857842266 -0.038372685798096107 0 0.00035134679249157274 -0.038244017579749857 0 0.00052870565050785892 -0.038626235024280628 0 0.00076038418688973732 -0.038260857664471036 0 0.00048698353857842266 -0.038372685798096107 0 0.00084315095599283999 -0.038223772675298057 0 0.00048698353857842266 -0.038372685798096107 0 0.00084315095599283999 -0.038223772675298057 0 0.00075764052167862962 -0.03836451129320971 0 0.0016067468415009198 -0.038251497884001326 0 0.00074359247608748514 -0.035386958718498722 0 0.0024429789128010207 -0.037429117516673674 0 0.0018344802633497111 -0.037663367624220227 0 0.0022826298980925968 -0.038224086034529509 0 -0.00053807534177014707 -0.03263832220887819 0 3.6896210830920031e-05 -0.031286071424493467 0 0.0017486181998612425 -0.031306692726268667 0 0.00074359247608748514 -0.035386958718498722 0 0.00082166543156692116 -0.034719436571832921 0 0.00048698353857842266 -0.038372685798096107 0 0.00075764052167862962 -0.03836451129320971 0 0.00014706143465280472 -0.038254631976621795 0 -0.0014710952538253609 -0.03132704844081647 0 3.6896210830920031e-05 -0.031286071424493467 0 0.00065105829453274556 -0.029975553791053159 0 -0.0011680727899317828 -0.029925260765318418 0 0.00085519919595929128 -0.029694760498123158 0 3.6896210830920031e-05 -0.031286071424493467 0 0.0017486181998612425 -0.031306692726268667 0 0.00065105829453274556 -0.029975553791053159 0 0.00048698353857842266 -0.038372685798096107 0 0.00014706143465280472 -0.038254631976621795 0 0.00035134679249157274 -0.038244017579749857 0 0.00014706143465280472 -0.038254631976621795 0 0.00035134679249157274 -0.038244017579749857 0 2.7258755564279405e-05 -0.035958704001970931 0 0.00035134679249157274 -0.038244017579749857 0 0.0015058216899642013 -0.03905277919875607 0 2.7258755564279405e-05 -0.035958704001970931 0 0.00082166543156692116 -0.034719436571832921 0 0.0023115160217394822 -0.032885079703739821 0 0.00035134679249157274 -0.038244017579749857 0 0.0015058216899642013 -0.03905277919875607 0 0.00052870565050785892 -0.038626235024280628 0 0.0015699376458987585 -0.039166175391989751 0 0.0043299907362847551 -0.036349046974341187 0 0.0015058216899642013 -0.03905277919875607 0 0.00022933973944939753 -0.039191252154218967 0 0.00027827690797532106 -0.039517870293974022 0 0.0015058216899642013 -0.03905277919875607 0 0.00052967037225011473 -0.038823378294249034 0 0.00022933973944939753 -0.039191252154218967 0 0.0015058216899642013 -0.03905277919875607 0 0.00052967037225011473 -0.038823378294249034 0 0.00052870565050785892 -0.038626235024280628 0 0.00076038418688973732 -0.038260857664471036 0 0.00052870565050785892 -0.038626235024280628 0 0.0005288842765920163 -0.038200624805953071 0 0.00052967037225011473 -0.038823378294249034 0 0.00052870565050785892 -0.038626235024280628 0 0.0005288842765920163 -0.038200624805953071 0 0.0005288842765920163 -0.038200624805953071 0 0.00066118946842247004 -0.037146190347773757 0 5.0635117191488216e-05 -0.03753138796434391 0 0.0012319691499786773 -0.037551610642987926 0 0.0005288842765920163 -0.038200624805953071 0 0.00066118946842247004 -0.037146190347773757 0 0.0005288842765920163 -0.038200624805953071 0 5.0635117191488216e-05 -0.03753138796434391 0 -1.6885992378493961e-05 -0.038617838169334569 0 -0.00062504054507626363 -0.037880249435857778 0 5.0635117191488216e-05 -0.03753138796434391 0 -1.6885992378493961e-05 -0.038617838169334569 0 0.00052967037225011473 -0.038823378294249034 0 0.0005288842765920163 -0.038200624805953071 0 -1.6885992378493961e-05 -0.038617838169334569 0 0.00052967037225011473 -0.038823378294249034 0 0.00022933973944939753 -0.039191252154218967 0 -1.6885992378493961e-05 -0.038617838169334569 0 -1.6885992378493961e-05 -0.038617838169334569 0 -0.00033471723693074428 -0.039285841565297915 0 -0.00080118997469731505 -0.039177441433620543 0 0.00022933973944939753 -0.039191252154218967 0 -0.00033471723693074428 -0.039285841565297915 0 -0.00027400535399197323 -0.039730649215395167 0 0.00022933973944939753 -0.039191252154218967 0 -1.6885992378493961e-05 -0.038617838169334569 0 -0.00033471723693074428 -0.039285841565297915 0 -0.00062504054507626363 -0.037880249435857778 0 -1.6885992378493961e-05 -0.038617838169334569 0 -0.00080118997469731505 -0.039177441433620543 0 -0.00080118997469731505 -0.039177441433620543 0 -0.0010575527065726747 -0.039926787457789138 0 -0.00070562577696916639 -0.040086582261163031 0 -0.001804435260936759 -0.038832354364033837 0 -0.00080118997469731505 -0.039177441433620543 0 -0.0010575527065726747 -0.039926787457789138 0 -0.00033471723693074428 -0.039285841565297915 0 -0.00080118997469731505 -0.039177441433620543 0 -0.00070562577696916639 -0.040086582261163031 0 -0.00033471723693074428 -0.039285841565297915 0 -0.00070562577696916639 -0.040086582261163031 0 -0.00027400535399197323 -0.039730649215395167 0 -0.00055208020152043233 -0.040464333535647025 0 -0.00027400535399197323 -0.039730649215395167 0 -0.00018666883876257808 -0.039996229510444611 0 -0.00070562577696916639 -0.040086582261163031 0 -0.00055208020152043233 -0.040464333535647025 0 -0.00027400535399197323 -0.039730649215395167 0 0.00022933973944939753 -0.039191252154218967 0 -0.00027400535399197323 -0.039730649215395167 0 0.00027827690797532106 -0.039517870293974022 0 -0.00027400535399197323 -0.039730649215395167 0 0.00027827690797532106 -0.039517870293974022 0 -0.00018666883876257808 -0.039996229510444611 0 0.00027827690797532106 -0.039517870293974022 0 -0.00018666883876257808 -0.039996229510444611 0 0.00026597340256547946 -0.039910039692322312 0 0.0015058216899642013 -0.03905277919875607 0 0.00026597340256547946 -0.039910039692322312 0 0.00032684735486368174 -0.040768035180943983 0 0.0015058216899642013 -0.03905277919875607 0 0.00027827690797532106 -0.039517870293974022 0 0.00026597340256547946 -0.039910039692322312 0 -0.00018666883876257808 -0.039996229510444611 0 0.00026597340256547946 -0.039910039692322312 0 -0.00021706967163017494 -0.040418247395747814 0 -0.00018666883876257808 -0.039996229510444611 0 -0.00048383609797462323 -0.040556258020123297 0 -0.00021706967163017494 -0.040418247395747814 0 -0.00048383609797462323 -0.040556258020123297 0 -0.00021706967163017494 -0.040418247395747814 0 -0.00049217670238859226 -0.040583173260910488 0 -0.00055208020152043233 -0.040464333535647025 0 -0.00018666883876257808 -0.039996229510444611 0 -0.00048383609797462323 -0.040556258020123297 0 -0.00015835153345373533 -0.040747481345474693 0 -0.00017149520113914345 -0.041097191592966646 0 -0.00049217670238859226 -0.040583173260910488 0 -0.00015835153345373533 -0.040747481345474693 0 -0.00021706967163017494 -0.040418247395747814 0 -0.00049217670238859226 -0.040583173260910488 0 0.00026597340256547946 -0.039910039692322312 0 -0.00021706967163017494 -0.040418247395747814 0 0.00032684735486368174 -0.040768035180943983 0 -0.00015835153345373533 -0.040747481345474693 0 -0.00021706967163017494 -0.040418247395747814 0 0.00032684735486368174 -0.040768035180943983 0 0.0073534818956056194 -0.033173117815856426 0 0.0075481745367372089 -0.028432990784502201 0 0.0057877689249717142 -0.030373180333741825 0 -0.00015835153345373533 -0.040747481345474693 0 0.00032684735486368174 -0.040768035180943983 0 -0.00017149520113914345 -0.041097191592966646 0 0.0073534818956056194 -0.033173117815856426 0 0.0075481745367372089 -0.028432990784502201 0 0.010358654525666623 -0.028259282867252291 0 0.0043299907362847551 -0.036349046974341187 0 0.0015435944860736248 -0.036886025973994992 0 0.0075481745367372089 -0.028432990784502201 0 0.0064574940848977046 -0.026465246407923505 0 0.005474645274052713 -0.027796330227770765 0 0.0075481745367372089 -0.028432990784502201 0 0.010358654525666623 -0.028259282867252291 0 0.0080499176761742348 -0.026129623092046517 0 0.0015435944860736248 -0.036886025973994992 0 -0.00013403854036743098 -0.042156292265781846 0 -0.0013981228536260196 -0.035159280849367508 0 -0.0013992569936486161 -0.035212544446677797 0 -0.0013186141101575724 -0.03522848304114367 0 0.0015435944860736248 -0.036886025973994992 0 -0.00096062197445896528 -0.039130692238483714 0 -0.0013511980621972125 -0.035274677103577984 0 -0.0013992569936486161 -0.035212544446677797 0 -0.0013186141101575724 -0.03522848304114367 0 -0.0013981228536260196 -0.035159280849367508 0 -0.0013186141101575724 -0.03522848304114367 0 -0.0013337703449375785 -0.035076050539331757 0 -0.0013981228536260196 -0.035159280849367508 0 -0.00142819844050421 -0.035153555028876127 0 -0.0014294513261111595 -0.035077992836884161 0 -0.0013981228536260196 -0.035159280849367508 0 -0.0013992569936486161 -0.035212544446677797 0 -0.00142819844050421 -0.035153555028876127 0 0.0018269472852060083 -0.030396283226234621 0 -0.0018062434722114517 -0.035137537614767483 0 0.0080499176761742348 -0.026129623092046517 0 0.0064574940848977046 -0.026465246407923505 0 0.0063580407679848282 -0.024382777716446709 0 0.0029563856915845216 -0.030645368066240367 0 0.0018269472852060083 -0.030396283226234621 0 0.0015435944860736248 -0.036886025973994992 0 0.0029563856915845216 -0.030645368066240367 0 0.0075481745367372089 -0.028432990784502201 0 0.0080499176761742348 -0.026129623092046517 0 0.0064574940848977046 -0.026465246407923505 0 0.0064574940848977046 -0.026465246407923505 0 0.0051573227562500953 -0.026003413261733228 0 0.005474645274052713 -0.027796330227770765 0 0.0051573227562500953 -0.026003413261733228 0 0.0041527607112422033 -0.026553985946845309 0 0.005474645274052713 -0.027796330227770765 0 0.0064574940848977046 -0.026465246407923505 0 0.0051573227562500953 -0.026003413261733228 0 0.0063580407679848282 -0.024382777716446709 0 0.0062912046500427843 -0.024652896025539505 0 0.0018269472852060083 -0.030396283226234621 0 0.0051573227562500953 -0.026003413261733228 0 0.0056905405233540329 -0.025195989804835058 0 0.0043922348435655664 -0.024722876057409887 0 0.0018269472852060083 -0.030396283226234621 0 0.0018215847666680249 -0.028905801648437153 0 0.0056905405233540329 -0.025195989804835058 0 0.0043922348435655664 -0.024722876057409887 0 0.004193421716328893 -0.023593591796048006 0 0.0043922348435655664 -0.024722876057409887 0 0.0037408272053694284 -0.025365331616324344 0 0.0034215167781079326 -0.023742758988993324 0 0.003786302660843861 -0.025549935987077076 0 0.0034111871993250734 -0.021827617926365069 0 0.0051573227562500953 -0.026003413261733228 0 0.0043922348435655664 -0.024722876057409887 0 0.0037408272053694284 -0.025365331616324344 0 0.0051573227562500953 -0.026003413261733228 0 0.0037408272053694284 -0.025365331616324344 0 0.0041527607112422033 -0.026553985946845309 0 0.0037408272053694284 -0.025365331616324344 0 0.0041527607112422033 -0.026553985946845309 0 0.0027808677418172801 -0.026538210859199395 0 0.0041527607112422033 -0.026553985946845309 0 0.004122347856030442 -0.02808585304388727 0 0.0027808677418172801 -0.026538210859199395 0 0.004122347856030442 -0.02808585304388727 0 0.0028556382526502676 -0.028562081348275481 0 0.0027808677418172801 -0.026538210859199395 0 0.004321818437684183 -0.029266241340673863 0 0.004122347856030442 -0.02808585304388727 0 0.0028556382526502676 -0.028562081348275481 0 0.0041527607112422033 -0.026553985946845309 0 0.004122347856030442 -0.02808585304388727 0 0.005474645274052713 -0.027796330227770765 0 0.004122347856030442 -0.02808585304388727 0 0.005474645274052713 -0.027796330227770765 0 0.0049807538456075398 -0.029038045504489185 0 0.0075481745367372089 -0.028432990784502201 0 0.005474645274052713 -0.027796330227770765 0 0.0057877689249717142 -0.030373180333741825 0 0.005474645274052713 -0.027796330227770765 0 0.0057877689249717142 -0.030373180333741825 0 0.0049807538456075398 -0.029038045504489185 0 0.004321818437684183 -0.029266241340673863 0 0.0057877689249717142 -0.030373180333741825 0 0.0049807538456075398 -0.029038045504489185 0 0.004321818437684183 -0.029266241340673863 0 0.004122347856030442 -0.02808585304388727 0 0.0049807538456075398 -0.029038045504489185 0 0.0057877689249717142 -0.030373180333741825 0 0.0034975952581065427 -0.034654212042565337 0 2.7258755564279405e-05 -0.035958704001970931 0 0.004321818437684183 -0.029266241340673863 0 0.0057877689249717142 -0.030373180333741825 0 0.0039254564033498699 -0.030019556732233825 0 0.0056542045581337956 -0.03052821818485248 0 0.0023115160217394822 -0.032885079703739821 0 0.0015058216899642013 -0.03905277919875607 0 0.0073534818956056194 -0.033173117815856426 0 0.0034975952581065427 -0.034654212042565337 0 0.0073534818956056194 -0.033173117815856426 0 0.0057877689249717142 -0.030373180333741825 0 0.0034975952581065427 -0.034654212042565337 0 0.0015058216899642013 -0.03905277919875607 0 0.0034975952581065427 -0.034654212042565337 0 2.7258755564279405e-05 -0.035958704001970931 0 0.0039254564033498699 -0.030019556732233825 0 0.0022574588483450821 -0.029953799216239446 0 0.0028556382526502676 -0.028562081348275481 0 0.004321818437684183 -0.029266241340673863 0 0.0039254564033498699 -0.030019556732233825 0 0.0028556382526502676 -0.028562081348275481 0 0.0017486181998612425 -0.031306692726268667 0 0.0039254564033498699 -0.030019556732233825 0 0.0022574588483450821 -0.029953799216239446 0 0.0022574588483450821 -0.029953799216239446 0 0.00065105829453274556 -0.029975553791053159 0 0.0028556382526502676 -0.028562081348275481 0 0.00085519919595929128 -0.029694760498123158 0 0.0027440049629739922 -0.02856409223365286 0 0.0017486181998612425 -0.031306692726268667 0 0.0022574588483450821 -0.029953799216239446 0 0.00065105829453274556 -0.029975553791053159 0 -0.00086577142880240026 -0.030371610723694986 0 0.0010787220724606688 -0.029199354366135084 0 -0.00028528527176951366 -0.028330119950861807 0 0.0010787220724606688 -0.029199354366135084 0 0.0010030025812035098 -0.027192604399890064 0 -0.00028528527176951366 -0.028330119950861807 0 0.0010030025812035098 -0.027192604399890064 0 -2.1228517493787836e-05 -0.025239699862210925 0 -0.00065998675931579253 -0.026909347046806597 0 0.0010030025812035098 -0.027192604399890064 0 -0.00065998675931579253 -0.026909347046806597 0 -0.00028528527176951366 -0.028330119950861807 0 0.0010787220724606688 -0.029199354366135084 0 0.0010030025812035098 -0.027192604399890064 0 0.0028556382526502676 -0.028562081348275481 0 0.0010030025812035098 -0.027192604399890064 0 0.0028556382526502676 -0.028562081348275481 0 0.0027808677418172801 -0.026538210859199395 0 0.0037408272053694284 -0.025365331616324344 0 0.0027808677418172801 -0.026538210859199395 0 0.0021302572388577456 -0.024072067403393238 0 0.0010030025812035098 -0.027192604399890064 0 0.0027808677418172801 -0.026538210859199395 0 0.0013397342424495407 -0.02561020654494699 0 0.0027808677418172801 -0.026538210859199395 0 0.0021302572388577456 -0.024072067403393238 0 0.0013397342424495407 -0.02561020654494699 0 0.0037408272053694284 -0.025365331616324344 0 0.0021302572388577456 -0.024072067403393238 0 0.0033580186397893087 -0.021672070956747204 0 0.00072350398453905772 -0.023832781196933089 0 -0.0010302824706651217 -0.02326305943168127 0 0.00055395286499361983 -0.022094712328141787 0 0.00072350398453905772 -0.023832781196933089 0 0.00055395286499361983 -0.022094712328141787 0 0.0017815303762051618 -0.02220852546700466 0 0.0021302572388577456 -0.024072067403393238 0 0.00072350398453905772 -0.023832781196933089 0 0.0017815303762051618 -0.02220852546700466 0 0.0021302572388577456 -0.024072067403393238 0 0.00072350398453905772 -0.023832781196933089 0 0.0013397342424495407 -0.02561020654494699 0 0.00072350398453905772 -0.023832781196933089 0 -2.1228517493787836e-05 -0.025239699862210925 0 0.0013397342424495407 -0.02561020654494699 0 0.0010030025812035098 -0.027192604399890064 0 -2.1228517493787836e-05 -0.025239699862210925 0 0.0013397342424495407 -0.02561020654494699 0 -2.1228517493787836e-05 -0.025239699862210925 0 -0.0010302824706651217 -0.02326305943168127 0 -0.0018337979716568271 -0.02543181568451746 0 -2.1228517493787836e-05 -0.025239699862210925 0 -0.0018337979716568271 -0.02543181568451746 0 -0.00065998675931579253 -0.026909347046806597 0 0.00072350398453905772 -0.023832781196933089 0 -2.1228517493787836e-05 -0.025239699862210925 0 -0.0010302824706651217 -0.02326305943168127 0 -0.0010302824706651217 -0.02326305943168127 0 -0.002316451435257431 -0.023826283207509895 0 -0.0018337979716568271 -0.02543181568451746 0 -0.0010302824706651217 -0.02326305943168127 0 -0.002316451435257431 -0.023826283207509895 0 -0.0027354414164913092 -0.022163249696082986 0 -0.002316451435257431 -0.023826283207509895 0 -0.0027354414164913092 -0.022163249696082986 0 -0.0037806061411328126 -0.023337622713317213 0 -0.002316451435257431 -0.023826283207509895 0 -0.0032300576876359076 -0.024668241767131983 0 -0.0037806061411328126 -0.023337622713317213 0 -0.0032300576876359076 -0.024668241767131983 0 -0.0018337979716568271 -0.02543181568451746 0 -0.0036578549231974272 -0.025920895491430625 0 -0.002316451435257431 -0.023826283207509895 0 -0.0032300576876359076 -0.024668241767131983 0 -0.0018337979716568271 -0.02543181568451746 0 -0.0028179534733944571 -0.027324280218021805 0 -0.0035481384713618503 -0.026148783902985508 0 -0.0031172044040913907 -0.026734892492031197 0 -0.003948979671603548 -0.026440159331595769 0 -0.0036578549231974272 -0.025920895491430625 0 -0.0018337979716568271 -0.02543181568451746 0 -0.0022772019836778444 -0.028357222126526842 0 -0.0036578549231974272 -0.025920895491430625 0 -0.00065998675931579253 -0.026909347046806597 0 -0.00028528527176951366 -0.028330119950861807 0 -0.0022772019836778444 -0.028357222126526842 0 -0.0018337979716568271 -0.02543181568451746 0 -0.00065998675931579253 -0.026909347046806597 0 -0.0022772019836778444 -0.028357222126526842 0 -0.0011680727899317828 -0.029925260765318418 0 -0.0028179534733944571 -0.027324280218021805 0 -0.00086577142880240026 -0.030371610723694986 0 -0.00028528527176951366 -0.028330119950861807 0 -0.0022772019836778444 -0.028357222126526842 0 -0.0033925905130888353 -0.027472037985917713 0 -0.0031172044040913907 -0.026734892492031197 0 -0.0040538705843996608 -0.026980872651372462 0 -0.0033925905130888353 -0.027472037985917713 0 -0.002482161816853254 -0.027612708535993638 0 -0.0031172044040913907 -0.026734892492031197 0 0.0010591443668187407 -0.047083854434627426 0 0.00052870483867845878 -0.045581064496118769 0 0.00080142296142268006 -0.046251142002819219 0 0.0010591443668187407 -0.047083854434627426 0 0.00052870483867845878 -0.045581064496118769 0 0.00095018349694308906 -0.045202989798624062 0 0.0010958409194743455 -0.046957597321213504 0 0.0012599493607663589 -0.047356002346337904 0 0.00052870483867845878 -0.045581064496118769 0 0.00041387144765165246 -0.04495791048659839 0 9.8328306997903388e-05 -0.044548571999936358 0 -0.00071597321997135988 -0.042605848140025222 0 -0.00031036898070819726 -0.04601762933537288 0 0.00052870483867845878 -0.045581064496118769 0 9.8328306997903388e-05 -0.044548571999936358 0 0.00076102541961157262 -0.044583921010196724 0 0.0016214628787869156 -0.049008575444505799 0 0.00085757415617614759 -0.049781427243785772 0 0.0017641891581507958 -0.049973179796528419 0 0.00052870483867845878 -0.045581064496118769 0 0.00095018349694308906 -0.045202989798624062 0 0.00076102541961157262 -0.044583921010196724 0 0.0012599493607663589 -0.047356002346337904 0 -0.00031036898070819726 -0.04601762933537288 0 0.0016214628787869156 -0.049008575444505799 0 0.00085757415617614759 -0.049781427243785772 0 0.00026553815381510622 -0.049281106419180279 0 0.00085757415617614759 -0.049781427243785772 0 0.00026553815381510622 -0.049281106419180279 0 0.00040446446786684612 -0.049908892340374038 0 0.00026553815381510622 -0.049281106419180279 0 -5.6117339578499993e-07 -0.049999354856572142 0 4.7156253761039689e-07 -0.050000053324454098 0 0.00026553815381510622 -0.049281106419180279 0 -5.6117339578499993e-07 -0.049999354856572142 0 0.00040446446786684612 -0.049908892340374038 0 0.00027287059067513579 -0.048641030016564224 0 4.7156253761039689e-07 -0.050000053324454098 0 -1.5332201192208526e-06 -0.04999259675009262 0 0.00026553815381510622 -0.049281106419180279 0 0.00027287059067513579 -0.048641030016564224 0 4.7156253761039689e-07 -0.050000053324454098 0 0.0010591443668187407 -0.047083854434627426 0 0.00026553815381510622 -0.049281106419180279 0 0.00027287059067513579 -0.048641030016564224 0 0.0010591443668187407 -0.047083854434627426 0 0.0016214628787869156 -0.049008575444505799 0 0.00026553815381510622 -0.049281106419180279 0 6.400874070426042e-05 -0.049973336873779625 0 6.9269619389990293e-08 -0.050000253986756824 0 -6.1664965204256047e-09 -0.049999886523531371 0 0.0010591443668187407 -0.047083854434627426 0 0.00027287059067513579 -0.048641030016564224 0 0.00068001974141245847 -0.047076258623031025 0 0.00027287059067513579 -0.048641030016564224 0 0.00068001974141245847 -0.047076258623031025 0 -1.5332201192208526e-06 -0.04999259675009262 0 0.00020984201967581926 -0.047969448590546027 0 1.0032770186625417e-07 -0.049999136536587274 0 0.00019844811018964251 -0.045949291671916984 0 0.00068001974141245847 -0.047076258623031025 0 -1.5332201192208526e-06 -0.04999259675009262 0 0.0007172670143328054 -0.045459238455004089 0 0.00019844811018964251 -0.045949291671916984 0 0.00068001974141245847 -0.047076258623031025 0 0.00068001974141245847 -0.047076258623031025 0 0.00074936687257212535 -0.045496704053552273 0 0.00080142296142268006 -0.046251142002819219 0 0.0007172670143328054 -0.045459238455004089 0 0.00068001974141245847 -0.047076258623031025 0 0.00074936687257212535 -0.045496704053552273 0 0.0010591443668187407 -0.047083854434627426 0 0.00068001974141245847 -0.047076258623031025 0 0.00080142296142268006 -0.046251142002819219 0 0.00074936687257212535 -0.045496704053552273 0 0.00080142296142268006 -0.046251142002819219 0 0.00041387144765165246 -0.04495791048659839 0 0.00052870483867845878 -0.045581064496118769 0 0.00080142296142268006 -0.046251142002819219 0 0.00041387144765165246 -0.04495791048659839 0 0.00074936687257212535 -0.045496704053552273 0 0.00041387144765165246 -0.04495791048659839 0 0.00038084892899489055 -0.044478461335380373 0 0.00055606252100191226 -0.044944831456612502 0 0.00074936687257212535 -0.045496704053552273 0 0.00038084892899489055 -0.044478461335380373 0 2.1999518390085575e-05 -0.043877308587965527 0 0.00038084892899489055 -0.044478461335380373 0 9.0089836782441865e-05 -0.043457059990826566 0 2.1999518390085575e-05 -0.043877308587965527 0 9.0089836782441865e-05 -0.043457059990826566 0 -0.00033778419492347319 -0.04216995267622687 0 -0.00029578228141083818 -0.042152277307938177 0 2.1999518390085575e-05 -0.043877308587965527 0 -0.00033778419492347319 -0.04216995267622687 0 9.0089836782441865e-05 -0.043457059990826566 0 -0.00033778419492347319 -0.04216995267622687 0 -0.00023609454826044353 -0.04208853323593318 0 0.00041387144765165246 -0.04495791048659839 0 0.00038084892899489055 -0.044478461335380373 0 9.0089836782441865e-05 -0.043457059990826566 0 -0.0010575527065726747 -0.039926787457789138 0 -0.00070562577696916639 -0.040086582261163031 0 -0.00071391491409149624 -0.040786732022244254 0 -0.00096050007619932949 -0.040249317078967652 0 -0.0010575527065726747 -0.039926787457789138 0 -0.00063436288488120344 -0.041050773758064624 0 -0.0010575527065726747 -0.039926787457789138 0 -0.00063436288488120344 -0.041050773758064624 0 -0.00071391491409149624 -0.040786732022244254 0 -0.00063436288488120344 -0.041050773758064624 0 -0.00033778419492347319 -0.04216995267622687 0 -0.00071391491409149624 -0.040786732022244254 0 -0.00029578228141083818 -0.042152277307938177 0 -0.00063436288488120344 -0.041050773758064624 0 -0.00033778419492347319 -0.04216995267622687 0 -0.00033778419492347319 -0.04216995267622687 0 -0.0005683951440191425 -0.041133700371056861 0 -0.00023609454826044353 -0.04208853323593318 0 -0.00033778419492347319 -0.04216995267622687 0 -0.00071391491409149624 -0.040786732022244254 0 -0.0005683951440191425 -0.041133700371056861 0 -0.00070562577696916639 -0.040086582261163031 0 -0.00055208020152043233 -0.040464333535647025 0 -0.0005683951440191425 -0.041133700371056861 0 -0.00070562577696916639 -0.040086582261163031 0 -0.00071391491409149624 -0.040786732022244254 0 -0.0005683951440191425 -0.041133700371056861 0 -0.00055208020152043233 -0.040464333535647025 0 -0.0005683951440191425 -0.041133700371056861 0 -0.00036628416611478168 -0.041331049231015514 0 -0.0005683951440191425 -0.041133700371056861 0 -0.00036628416611478168 -0.041331049231015514 0 -0.00023609454826044353 -0.04208853323593318 0 -0.00036628416611478168 -0.041331049231015514 0 -0.00023609454826044353 -0.04208853323593318 0 -0.00040913280416561391 -0.041724544083150635 0 -0.00036628416611478168 -0.041331049231015514 0 -0.00040913280416561391 -0.041724544083150635 0 -0.00025410195642644549 -0.042083171093398916 0 -0.00036628416611478168 -0.041331049231015514 0 0.00018561922129997472 -0.04205919635919108 0 -0.00025410195642644549 -0.042083171093398916 0 -0.00055208020152043233 -0.040464333535647025 0 -0.00048383609797462323 -0.040556258020123297 0 -0.00036628416611478168 -0.041331049231015514 0 -0.00044078970520459478 -0.041005582759047338 0 -0.00013403854036743098 -0.042156292265781846 0 -0.00048383609797462323 -0.040556258020123297 0 -0.00036628416611478168 -0.041331049231015514 0 -0.00049217670238859226 -0.040583173260910488 0 0.00041387144765165246 -0.04495791048659839 0 9.0089836782441865e-05 -0.043457059990826566 0 9.8328306997903388e-05 -0.044548571999936358 0 -0.00023609454826044353 -0.04208853323593318 0 -0.00040913280416561391 -0.041724544083150635 0 -0.0011483422963237974 -0.041471847281686923 0 9.0089836782441865e-05 -0.043457059990826566 0 -0.00023609454826044353 -0.04208853323593318 0 9.8328306997903388e-05 -0.044548571999936358 0 -0.00033383807370426186 -0.042405750886157868 0 -0.00071597321997135988 -0.042605848140025222 0 -0.00040913280416561391 -0.041724544083150635 0 -0.0011483422963237974 -0.041471847281686923 0 -0.00043865969625526806 -0.042377331861183656 0 -0.0018184572125694819 -0.043022687373879209 0 -0.00043865969625526806 -0.042377331861183656 0 -0.00092076544625901719 -0.044120979374288175 0 -0.0011483422963237974 -0.041471847281686923 0 -0.0018184572125694819 -0.043022687373879209 0 -0.00043865969625526806 -0.042377331861183656 0 -0.00043865969625526806 -0.042377331861183656 0 -0.00034606655256658859 -0.042420728395260038 0 -0.00025410195642644549 -0.042083171093398916 0 -0.00040913280416561391 -0.041724544083150635 0 -0.00043865969625526806 -0.042377331861183656 0 -0.00025410195642644549 -0.042083171093398916 0 -0.00043865969625526806 -0.042377331861183656 0 0.00070254469748984544 -0.04428678933828218 0 -0.00092076544625901719 -0.044120979374288175 0 0.00070254469748984544 -0.04428678933828218 0 -0.00092076544625901719 -0.044120979374288175 0 -6.8084169751125761e-05 -0.045738027261425833 0 -0.00031728660929057899 -0.042535586950341993 0 7.8251901107358917e-05 -0.043160281346780231 0 -0.00092076544625901719 -0.044120979374288175 0 -0.0014048466568199018 -0.045414447566127773 0 -0.0019705056742692077 -0.044386024216970799 0 -0.0018184572125694819 -0.043022687373879209 0 -0.00092076544625901719 -0.044120979374288175 0 -0.0019705056742692077 -0.044386024216970799 0 0.00018561922129997472 -0.04205919635919108 0 -0.00025410195642644549 -0.042083171093398916 0 1.8275792629059193e-05 -0.042389412187286528 0 -0.00034606655256658859 -0.042420728395260038 0 -0.00025410195642644549 -0.042083171093398916 0 1.8275792629059193e-05 -0.042389412187286528 0 0.00040508374872503177 -0.042347591998839994 0 0.00018561922129997472 -0.04205919635919108 0 1.8275792629059193e-05 -0.042389412187286528 0 1.8275792629059193e-05 -0.042389412187286528 0 0.00014494987238027572 -0.042653085071928422 0 -0.00018807062426005883 -0.042678675338728433 0 0.00040508374872503177 -0.042347591998839994 0 1.8275792629059193e-05 -0.042389412187286528 0 0.00014494987238027572 -0.042653085071928422 0 -0.00034606655256658859 -0.042420728395260038 0 1.8275792629059193e-05 -0.042389412187286528 0 -0.00018807062426005883 -0.042678675338728433 0 7.8251901107358917e-05 -0.043160281346780231 0 0.0010741063832735763 -0.045507447142190606 0 0.0016489428590421283 -0.046379953232852315 0 0.00043711523687351811 -0.047307444528042412 0 0.0023856086424789125 -0.04859356464760118 0 0.0010741063832735763 -0.045507447142190606 0 -0.00012257158304237412 -0.040580892811481709 0 0.00014494987238027572 -0.042653085071928422 0 -0.00018807062426005883 -0.042678675338728433 0 -7.263107059024707e-05 -0.042906069550899477 0 -0.0013186141101575724 -0.03522848304114367 0 -0.0012175886784307915 -0.035151728635964968 0 -0.0013337703449375785 -0.035076050539331757 0 -0.00096062197445896528 -0.039130692238483714 0 -0.00012257158304237412 -0.040580892811481709 0 -0.0014048466568199018 -0.045414447566127773 0 -0.001074571422288662 -0.047195104867067378 0 -0.0026926547340978095 -0.045636218194403194 0 -0.0014048466568199018 -0.045414447566127773 0 -6.8084169751125761e-05 -0.045738027261425833 0 -0.001074571422288662 -0.047195104867067378 0 -0.00092076544625901719 -0.044120979374288175 0 -0.0014048466568199018 -0.045414447566127773 0 -6.8084169751125761e-05 -0.045738027261425833 0 0.00070254469748984544 -0.04428678933828218 0 0.0016489428590421283 -0.046379953232852315 0 -6.8084169751125761e-05 -0.045738027261425833 0 0.0016489428590421283 -0.046379953232852315 0 -6.8084169751125761e-05 -0.045738027261425833 0 0.00043711523687351811 -0.047307444528042412 0 0.00043711523687351811 -0.047307444528042412 0 -0.001074571422288662 -0.047195104867067378 0 0.00087859189550529878 -0.048956967414777876 0 -0.00035058790097443088 -0.048236875009961544 0 0.00083830501937326354 -0.048975834337314395 0 -6.8084169751125761e-05 -0.045738027261425833 0 0.00043711523687351811 -0.047307444528042412 0 -0.001074571422288662 -0.047195104867067378 0 -0.00035058790097443088 -0.048236875009961544 0 -0.00081097316029396884 -0.047574856639320089 0 0.00039450981139556448 -0.049322951381541753 0 0.00024193695292290256 -0.049462234438025166 0 0.00020784664192665523 -0.049401456139948972 0 0.00039450981139556448 -0.049322951381541753 0 0.00024193695292290256 -0.049462234438025166 0 0.00027854963485496092 -0.049494335911393059 0 0.00024193695292290256 -0.049462234438025166 0 0.00016701657689168481 -0.049566435102438126 0 0.00027854963485496092 -0.049494335911393059 0 0.00024193695292290256 -0.049462234438025166 0 0.00016701657689168481 -0.049566435102438126 0 0.00015732124020873708 -0.049496089398537405 0 0.00039450981139556448 -0.049322951381541753 0 0.00020784664192665523 -0.049401456139948972 0 0.00016864512020975308 -0.049359043736031435 0 0.00016701657689168481 -0.049566435102438126 0 0.00015732124020873708 -0.049496089398537405 0 0.0001014479593899894 -0.049649176884424939 0 0.00020784664192665523 -0.049401456139948972 0 0.00015732124020873708 -0.049496089398537405 0 0.00016037224338379686 -0.049244382591621394 0 0.00024193695292290256 -0.049462234438025166 0 0.00020784664192665523 -0.049401456139948972 0 0.00015732124020873708 -0.049496089398537405 0 0.00015732124020873708 -0.049496089398537405 0 6.3044839860481225e-05 -0.049716287566814801 0 2.6996923260135211e-05 -0.049829004820333811 0 0.00015732124020873708 -0.049496089398537405 0 0.0001014479593899894 -0.049649176884424939 0 6.3044839860481225e-05 -0.049716287566814801 0 4.9664010903759318e-05 -0.049767288473084113 0 0.0001014479593899894 -0.049649176884424939 0 6.3044839860481225e-05 -0.049716287566814801 0 -2.055698343460901e-05 -0.049240274057094448 0 0.00016037224338379686 -0.049244382591621394 0 -0.0001427247353516872 -0.049038180259208135 0 -0.00081097316029396884 -0.047574856639320089 0 -0.00040218292882463608 -0.04793511551683332 0 0.0001637308206830779 -0.049538277389822465 0 -0.00012571840810799066 -0.049480828857164455 0 0.00015732124020873708 -0.049496089398537405 0 -2.055698343460901e-05 -0.049240274057094448 0 -0.00025348361689180428 -0.049203448959410034 0 -2.055698343460901e-05 -0.049240274057094448 0 -0.00025348361689180428 -0.049203448959410034 0 -0.0001427247353516872 -0.049038180259208135 0 -0.00025348361689180428 -0.049203448959410034 0 -0.0001427247353516872 -0.049038180259208135 0 -0.00033969957936167344 -0.049029154820743097 0 -0.00081097316029396884 -0.047574856639320089 0 -0.0020798478525975426 -0.044932747598956123 0 -2.7707922155625217e-05 -0.049386930778496874 0 -0.00081097316029396884 -0.047574856639320089 0 0.00015732124020873708 -0.049496089398537405 0 -2.055698343460901e-05 -0.049240274057094448 0 0.00016037224338379686 -0.049244382591621394 0 -0.0014048466568199018 -0.045414447566127773 0 -0.0026926547340978095 -0.045636218194403194 0 -0.0019705056742692077 -0.044386024216970799 0 -0.0026926547340978095 -0.045636218194403194 0 -0.0019705056742692077 -0.044386024216970799 0 -0.0029908257402863404 -0.04386366777061898 0 -0.00075671125912265993 -0.04685050827259412 0 -0.00069491753321071373 -0.04702523344229026 0 -0.00058877981369964433 -0.046966664197031813 0 -0.0018184572125694819 -0.043022687373879209 0 -0.0019705056742692077 -0.044386024216970799 0 -0.0029908257402863404 -0.04386366777061898 0 -0.00058877981369964433 -0.046966664197031813 0 -0.0006307721783930366 -0.047212143554364899 0 -0.00041774560242896931 -0.04709848566948116 0 -0.00069491753321071373 -0.04702523344229026 0 -0.00058877981369964433 -0.046966664197031813 0 -0.0006307721783930366 -0.047212143554364899 0 -0.0020798478525975426 -0.044932747598956123 0 -0.00031036898070819726 -0.04601762933537288 0 -0.00031036898070819726 -0.04601762933537288 0 3.8898007337007452e-05 -0.049206355079707297 0 -0.0018184572125694819 -0.043022687373879209 0 -0.0029908257402863404 -0.04386366777061898 0 -0.0032456513805714984 -0.042410922913347068 0 -0.0011483422963237974 -0.041471847281686923 0 -0.0018184572125694819 -0.043022687373879209 0 -0.0032456513805714984 -0.042410922913347068 0 4.0803439605710293e-10 -0.050000005963520007 0 -2.4378927324109396e-06 -0.049993302790558913 0 -2.2311827912925499e-09 -0.049999981985340593 0 9.2160829773305759e-07 -0.050001175487812223 0 3.8898007337007452e-05 -0.049206355079707297 0 -5.6117339578499993e-07 -0.049999354856572142 0 0.00040446446786684612 -0.049908892340374038 0 0.00057762674146125896 -0.050501904290813124 0 0.00085757415617614759 -0.049781427243785772 0 0.0017641891581507958 -0.049973179796528419 0 0.00057762674146125896 -0.050501904290813124 0 0.00085757415617614759 -0.049781427243785772 0 0.00040446446786684612 -0.049908892340374038 0 0.00057762674146125896 -0.050501904290813124 0 -0.00040218292882463608 -0.04793511551683332 0 3.8898007337007452e-05 -0.049206355079707297 0 -0.0001427247353516872 -0.049038180259208135 0 -0.00038352509761627429 -0.048877138522739248 0 -0.00033969957936167344 -0.049029154820743097 0 -0.00025348361689180428 -0.049203448959410034 0 -0.00033969957936167344 -0.049029154820743097 0 -0.00056963314715629827 -0.048997481390134628 0 -0.00038352509761627429 -0.048877138522739248 0 -0.00033969957936167344 -0.049029154820743097 0 -0.00056963314715629827 -0.048997481390134628 0 -2.4378927324109396e-06 -0.049993302790558913 0 -1.2547191464006597e-06 -0.049995680836570369 0 -2.2311827912925499e-09 -0.049999981985340593 0 3.8898007337007452e-05 -0.049206355079707297 0 -0.00015939211598486221 -0.049664902150605289 0 -0.00015939211598486221 -0.049664902150605289 0 1.1696119811061075e-07 -0.049999918843862665 0 -9.842663454998327e-07 -0.049998808776143509 0 -4.7185381793088963e-10 -0.049999999769638794 0 -3.7070999438940514e-10 -0.049999997871570147 0 -0.00015939211598486221 -0.049664902150605289 0 -1.1987510954590565e-07 -0.049999801555320057 0 4.2534620809773326e-08 -0.049999817691528232 0 1.8450032484068117e-05 -0.049923700481280898 0 1.2750898554031171e-08 -0.049999809728895186 0 8.0495398853765243e-06 -0.049967237862206172 0 4.2534620809773326e-08 -0.049999817691528232 0 1.8450032484068117e-05 -0.049923700481280898 0 2.6996923260135211e-05 -0.049829004820333811 0 8.0495398853765243e-06 -0.049967237862206172 0 1.8450032484068117e-05 -0.049923700481280898 0 2.6996923260135211e-05 -0.049829004820333811 0 1.8450032484068117e-05 -0.049923700481280898 0 2.9759163215184997e-05 -0.04983962858337377 0 -0.00012571840810799066 -0.049480828857164455 0 -0.00015939211598486221 -0.049664902150605289 0 4.9664010903759318e-05 -0.049767288473084113 0 2.9759163215184997e-05 -0.04983962858337377 0 1.2241818322243725e-05 -0.049890491776844605 0 6.3044839860481225e-05 -0.049716287566814801 0 2.6996923260135211e-05 -0.049829004820333811 0 2.9759163215184997e-05 -0.04983962858337377 0 4.9664010903759318e-05 -0.049767288473084113 0 6.3044839860481225e-05 -0.049716287566814801 0 2.9759163215184997e-05 -0.04983962858337377 0 1.8450032484068117e-05 -0.049923700481280898 0 2.9759163215184997e-05 -0.04983962858337377 0 1.2750898554031171e-08 -0.049999809728895186 0 2.9759163215184997e-05 -0.04983962858337377 0 1.2750898554031171e-08 -0.049999809728895186 0 1.2241818322243725e-05 -0.049890491776844605 0 1.2750898554031171e-08 -0.049999809728895186 0 1.2241818322243725e-05 -0.049890491776844605 0 -2.6370498456036527e-08 -0.049999899628893334 0 4.9664010903759318e-05 -0.049767288473084113 0 1.2241818322243725e-05 -0.049890491776844605 0 6.7894516264873852e-05 -0.049764971834465342 0 1.2241818322243725e-05 -0.049890491776844605 0 6.7894516264873852e-05 -0.049764971834465342 0 5.1593690193905201e-05 -0.049845667109377254 0 1.2241818322243725e-05 -0.049890491776844605 0 1.3844461931295262e-05 -0.049920777605642445 0 5.1593690193905201e-05 -0.049845667109377254 0 3.1972936693561147e-05 -0.04991660911246356 0 1.3844461931295262e-05 -0.049920777605642445 0 5.1593690193905201e-05 -0.049845667109377254 0 1.2241818322243725e-05 -0.049890491776844605 0 1.3844461931295262e-05 -0.049920777605642445 0 -2.6370498456036527e-08 -0.049999899628893334 0 1.3844461931295262e-05 -0.049920777605642445 0 -2.6370498456036527e-08 -0.049999899628893334 0 4.2124078091849661e-06 -0.04995922941287019 0 0.00016701657689168481 -0.049566435102438126 0 0.00014878580843190537 -0.049649221161381686 0 0.00027854963485496092 -0.049494335911393059 0 0.00026883299027008419 -0.049648895473271892 0 0.00014878580843190537 -0.049649221161381686 0 0.00027854963485496092 -0.049494335911393059 0 0.00016701657689168481 -0.049566435102438126 0 0.0001014479593899894 -0.049649176884424939 0 0.00014878580843190537 -0.049649221161381686 0 0.00026883299027008419 -0.049648895473271892 0 0.00014878580843190537 -0.049649221161381686 0 0.00012994304910217985 -0.049778326136514256 0 0.00014878580843190537 -0.049649221161381686 0 6.7894516264873852e-05 -0.049764971834465342 0 0.00012994304910217985 -0.049778326136514256 0 0.0001014479593899894 -0.049649176884424939 0 0.00014878580843190537 -0.049649221161381686 0 6.7894516264873852e-05 -0.049764971834465342 0 4.9664010903759318e-05 -0.049767288473084113 0 0.0001014479593899894 -0.049649176884424939 0 6.7894516264873852e-05 -0.049764971834465342 0 3.1972936693561147e-05 -0.04991660911246356 0 5.1593690193905201e-05 -0.049845667109377254 0 7.9201642012578831e-05 -0.049940595388756871 0 5.1593690193905201e-05 -0.049845667109377254 0 0.00012994304910217985 -0.049778326136514256 0 7.9201642012578831e-05 -0.049940595388756871 0 6.7894516264873852e-05 -0.049764971834465342 0 5.1593690193905201e-05 -0.049845667109377254 0 0.00012994304910217985 -0.049778326136514256 0 0.00026883299027008419 -0.049648895473271892 0 0.00019508671006456893 -0.049864153238745733 0 0.00034975802724062049 -0.049828089835064378 0 0.00019508671006456893 -0.049864153238745733 0 0.00012994304910217985 -0.049778326136514256 0 7.9201642012578831e-05 -0.049940595388756871 0 0.00026883299027008419 -0.049648895473271892 0 0.00019508671006456893 -0.049864153238745733 0 0.00012994304910217985 -0.049778326136514256 0 0.00019508671006456893 -0.049864153238745733 0 0.00022262598787748292 -0.05001732438137891 0 0.00034975802724062049 -0.049828089835064378 0 0.00019508671006456893 -0.049864153238745733 0 0.00022262598787748292 -0.05001732438137891 0 7.9201642012578831e-05 -0.049940595388756871 0 7.9201642012578831e-05 -0.049940595388756871 0 3.8335027464246356e-05 -0.05000984551984234 0 4.2124078091849661e-06 -0.04995922941287019 0 0.00022262598787748292 -0.05001732438137891 0 7.9201642012578831e-05 -0.049940595388756871 0 3.8335027464246356e-05 -0.05000984551984234 0 0.0002746770219894307 -0.049216006618872703 0 0.00078400090521140743 -0.049198137806951266 0 0.00038123614495261417 -0.049562952013856527 0 0.00066315322251668876 -0.050045067622793739 0 0.00024590685951607837 -0.049496137441127207 0 0.0012243232880586961 -0.048428959956830497 0 0.0002746770219894307 -0.049216006618872703 0 0.00078400090521140743 -0.049198137806951266 0 0.0012243232880586961 -0.048428959956830497 0 0.00078400090521140743 -0.049198137806951266 0 0.0014665095620140414 -0.049061939358105038 0 -2.6370498456036527e-08 -0.049999899628893334 0 4.2124078091849661e-06 -0.04995922941287019 0 2.6554341654724642e-08 -0.049999953881161012 0 3.1972936693561147e-05 -0.04991660911246356 0 1.3844461931295262e-05 -0.049920777605642445 0 4.2124078091849661e-06 -0.04995922941287019 0 3.1972936693561147e-05 -0.04991660911246356 0 7.9201642012578831e-05 -0.049940595388756871 0 4.2124078091849661e-06 -0.04995922941287019 0 3.8335027464246356e-05 -0.05000984551984234 0 4.2124078091849661e-06 -0.04995922941287019 0 2.3353609869518891e-06 -0.049975161573226817 0 3.8335027464246356e-05 -0.05000984551984234 0 2.3353609869518891e-06 -0.049975161573226817 0 -1.3367454262324126e-05 -0.049911179466660752 0 2.3353609869518891e-06 -0.049975161573226817 0 2.6554341654724642e-08 -0.049999953881161012 0 -1.3367454262324126e-05 -0.049911179466660752 0 4.2124078091849661e-06 -0.04995922941287019 0 2.3353609869518891e-06 -0.049975161573226817 0 2.6554341654724642e-08 -0.049999953881161012 0 2.6554341654724642e-08 -0.049999953881161012 0 -1.3367454262324126e-05 -0.049911179466660752 0 -2.885552494838182e-08 -0.049999828338324809 0 -1.3367454262324126e-05 -0.049911179466660752 0 -2.885552494838182e-08 -0.049999828338324809 0 3.1935537698150285e-05 -0.049952160266926809 0 -2.885552494838182e-08 -0.049999828338324809 0 3.1935537698150285e-05 -0.049952160266926809 0 2.4179137092081485e-05 -0.049999283380995553 0 8.6825743001733879e-05 -0.049997305495000831 0 0.00013311157715218219 -0.049937929842136325 0 0.00022220186402516207 -0.049977925957003747 0 0.00013311157715218219 -0.049937929842136325 0 0.00022813135395412655 -0.049931327399834469 0 0.00022220186402516207 -0.049977925957003747 0 3.1935537698150285e-05 -0.049952160266926809 0 8.6825743001733879e-05 -0.049997305495000831 0 2.4179137092081485e-05 -0.049999283380995553 0 3.1935537698150285e-05 -0.049952160266926809 0 8.6825743001733879e-05 -0.049997305495000831 0 0.00013311157715218219 -0.049937929842136325 0 3.1935537698150285e-05 -0.049952160266926809 0 0.00013311157715218219 -0.049937929842136325 0 8.9719264879066203e-05 -0.049876651141305128 0 0.00013311157715218219 -0.049937929842136325 0 0.00020054415527168891 -0.049866097314056793 0 8.9719264879066203e-05 -0.049876651141305128 0 0.00013311157715218219 -0.049937929842136325 0 0.00020054415527168891 -0.049866097314056793 0 0.00022813135395412655 -0.049931327399834469 0 0.0002746770219894307 -0.049216006618872703 0 -1.3367454262324126e-05 -0.049911179466660752 0 0.00017788793892703031 -0.049706011576293715 0 -1.3367454262324126e-05 -0.049911179466660752 0 0.00017788793892703031 -0.049706011576293715 0 8.9719264879066203e-05 -0.049876651141305128 0 0.00024590685951607837 -0.049496137441127207 0 -2.0533482926919413e-05 -0.049889656104522263 0 0.00020054415527168891 -0.049866097314056793 0 0.00017788793892703031 -0.049706011576293715 0 8.9719264879066203e-05 -0.049876651141305128 0 -1.3367454262324126e-05 -0.049911179466660752 0 3.1935537698150285e-05 -0.049952160266926809 0 8.9719264879066203e-05 -0.049876651141305128 0 0.0002746770219894307 -0.049216006618872703 0 0.00017788793892703031 -0.049706011576293715 0 0.00038123614495261417 -0.049562952013856527 0 0.00078400090521140743 -0.049198137806951266 0 0.00038123614495261417 -0.049562952013856527 0 0.00068494878143434378 -0.04962322450763125 0 0.00068494878143434378 -0.04962322450763125 0 0.00050280854411534663 -0.049912641118504228 0 0.00059578041619540363 -0.050042116514498684 0 0.00038123614495261417 -0.049562952013856527 0 0.00068494878143434378 -0.04962322450763125 0 0.00043776011027139736 -0.049823141730965206 0 0.00068494878143434378 -0.04962322450763125 0 0.00043776011027139736 -0.049823141730965206 0 0.00050280854411534663 -0.049912641118504228 0 0.00043776011027139736 -0.049823141730965206 0 0.00030764627449660992 -0.049799485559309076 0 0.00037162146163281052 -0.049856853420463698 0 0.00043776011027139736 -0.049823141730965206 0 0.00037162146163281052 -0.049856853420463698 0 0.00042463504979991026 -0.04984718678597104 0 0.00044403124765549854 -0.047359924154564928 0 0.00020732884927397713 -0.046897130044624598 0 0.00017788793892703031 -0.049706011576293715 0 0.00038123614495261417 -0.049562952013856527 0 0.00030764627449660992 -0.049799485559309076 0 0.00020054415527168891 -0.049866097314056793 0 0.00017788793892703031 -0.049706011576293715 0 0.00030764627449660992 -0.049799485559309076 0 0.00038123614495261417 -0.049562952013856527 0 0.00043776011027139736 -0.049823141730965206 0 0.00030764627449660992 -0.049799485559309076 0 0.00078400090521140743 -0.049198137806951266 0 0.00068494878143434378 -0.04962322450763125 0 0.0014665095620140414 -0.049061939358105038 0 -0.0005129159324248826 -0.043269687105797698 0 0.00086732155578101756 -0.041068552831971056 0 0.00068494878143434378 -0.04962322450763125 0 0.00059578041619540363 -0.050042116514498684 0 0.0014665095620140414 -0.049061939358105038 0 -0.00024106283414898809 -0.033908460544857071 0 -0.00042314605063599627 -0.033852246029330145 0 -0.00033587243516758157 -0.03405620336954715 0 -0.0029215388836607618 -0.047887935472777948 0 -0.0025884046785763079 -0.047467283440334844 0 -0.0054431417644028868 -0.044640661384548488 0 -0.0005129159324248826 -0.043269687105797698 0 -0.0031812292925440687 -0.038745541558172607 0 -0.00024106283414898809 -0.033908460544857071 0 -0.00036682097194086196 -0.033717946949492567 0 -0.00042314605063599627 -0.033852246029330145 0 0.00039093341564095166 -0.049930371888505742 0 0.00022220186402516207 -0.049977925957003747 0 0.00012225995860295298 -0.050050768289170981 0 -0.0011747792248078324 -0.048034453866932711 0 0.00046030056251722846 -0.050002433168101566 0 0.00031724000918312691 -0.049933395868077046 0 0.00029731284147812859 -0.049898146673738895 0 0.00036711929509585016 -0.049896088924426457 0 0.00027135976682506378 -0.049938382334846605 0 0.00031724000918312691 -0.049933395868077046 0 0.00029731284147812859 -0.049898146673738895 0 0.00027135976682506378 -0.049938382334846605 0 0.00022813135395412655 -0.049931327399834469 0 0.00029731284147812859 -0.049898146673738895 0 0.00020054415527168891 -0.049866097314056793 0 0.00030764627449660992 -0.049799485559309076 0 0.00029731284147812859 -0.049898146673738895 0 0.00020054415527168891 -0.049866097314056793 0 0.00022813135395412655 -0.049931327399834469 0 0.00029731284147812859 -0.049898146673738895 0 0.00029731284147812859 -0.049898146673738895 0 0.00037162146163281052 -0.049856853420463698 0 0.00036711929509585016 -0.049896088924426457 0 0.00030764627449660992 -0.049799485559309076 0 0.00029731284147812859 -0.049898146673738895 0 0.00037162146163281052 -0.049856853420463698 0 0.00042463504979991026 -0.04984718678597104 0 0.00036711929509585016 -0.049896088924426457 0 0.00039093341564095166 -0.049930371888505742 0 0.00037162146163281052 -0.049856853420463698 0 0.00042463504979991026 -0.04984718678597104 0 0.00036711929509585016 -0.049896088924426457 0 -0.00017638637838243059 -0.04586749751810365 0 -0.00066862001638893468 -0.045227347573329683 0 -0.00030458319489263679 -0.044764327137840947 0 0.00020732884927397713 -0.046897130044624598 0 -0.0011747792248078324 -0.048034453866932711 0 0.00020732884927397713 -0.046897130044624598 0 -0.0005129159324248826 -0.043269687105797698 0 -0.0005129159324248826 -0.043269687105797698 0 -0.0011747792248078324 -0.048034453866932711 0 0.00031724000918312691 -0.049933395868077046 0 0.00036711929509585016 -0.049896088924426457 0 0.00039093341564095166 -0.049930371888505742 0 0.00031724000918312691 -0.049933395868077046 0 0.00039093341564095166 -0.049930371888505742 0 0.00022220186402516207 -0.049977925957003747 0 0.00027135976682506378 -0.049938382334846605 0 0.00031724000918312691 -0.049933395868077046 0 0.00022220186402516207 -0.049977925957003747 0 0.00027135976682506378 -0.049938382334846605 0 0.00022813135395412655 -0.049931327399834469 0 0.00022220186402516207 -0.049977925957003747 0 -0.0011288741599240917 -0.052380624937124219 0 -0.00046028867238827293 -0.049662656274900033 0 -0.0020359830380118718 -0.048303683801255624 0 -0.0011288741599240917 -0.052380624937124219 0 -0.00046028867238827293 -0.049662656274900033 0 0.0010986126259590755 -0.048896248711841804 0 -0.0011747792248078324 -0.048034453866932711 0 -0.0026205047163167217 -0.045873322807430075 0 -0.00046028867238827293 -0.049662656274900033 0 -0.0020359830380118718 -0.048303683801255624 0 2.8782125603155766e-06 -0.048861207236214579 0 -0.0020359830380118718 -0.048303683801255624 0 2.8782125603155766e-06 -0.048861207236214579 0 0.0010048898599394204 -0.048144815394731942 0 -0.00046028867238827293 -0.049662656274900033 0 2.8782125603155766e-06 -0.048861207236214579 0 0.0010986126259590755 -0.048896248711841804 0 2.8782125603155766e-06 -0.048861207236214579 0 0.0010048898599394204 -0.048144815394731942 0 0.0010986126259590755 -0.048896248711841804 0 -0.003104699455417971 -0.042760402015377529 0 -0.0054431417644028868 -0.044640661384548488 0 -0.00545340882488482 -0.040945764560461624 0 -0.0025884046785763079 -0.047467283440334844 0 -0.003104699455417971 -0.042760402015377529 0 -0.0054431417644028868 -0.044640661384548488 0 -0.003104699455417971 -0.042760402015377529 0 -0.00545340882488482 -0.040945764560461624 0 -0.0035023995587999172 -0.037910103817029715 0 -0.0054431417644028868 -0.044640661384548488 0 -0.00545340882488482 -0.040945764560461624 0 -0.0080905145670384839 -0.04130919825327771 0 -0.0026205047163167217 -0.045873322807430075 0 -0.0033095083026121112 -0.039208115226473286 0 0.0010048898599394204 -0.048144815394731942 0 -0.0011143510425214312 -0.044076852301089875 0 0.00019295335022612598 -0.038347341286157431 0 -0.0020359830380118718 -0.048303683801255624 0 -0.0011143510425214312 -0.044076852301089875 0 -0.0032238271230181745 -0.040977079394101494 0 -0.0020359830380118718 -0.048303683801255624 0 0.0010048898599394204 -0.048144815394731942 0 -0.0011143510425214312 -0.044076852301089875 0 0.00077883064868729962 -0.04847750902191765 0 0.00044569389381270282 -0.048598657956172499 0 0.0010986126259590755 -0.048896248711841804 0 0.00077883064868729962 -0.04847750902191765 0 0.00044569389381270282 -0.048598657956172499 0 0.00079120008782487231 -0.04894217870185992 0 0.0010048898599394204 -0.048144815394731942 0 0.00077883064868729962 -0.04847750902191765 0 0.00079120008782487231 -0.04894217870185992 0 0.00032407731173385784 -0.049274947384905912 0 0.00046030056251722846 -0.050002433168101566 0 2.1584309640889425e-05 -0.050017549170970378 0 2.7715334093357747e-05 -0.050014402844148827 0 5.842434729037002e-05 -0.050024841971941979 0 2.1584309640889425e-05 -0.050017549170970378 0 4.9716093375154214e-08 -0.050000092163122414 0 -1.2641786392267325e-08 -0.049999984470376235 0 2.1584309640889425e-05 -0.050017549170970378 0 4.9716093375154214e-08 -0.050000092163122414 0 2.7715334093357747e-05 -0.050014402844148827 0 -2.885552494838182e-08 -0.049999828338324809 0 4.9716093375154214e-08 -0.050000092163122414 0 2.4179137092081485e-05 -0.049999283380995553 0 2.7715334093357747e-05 -0.050014402844148827 0 2.4179137092081485e-05 -0.049999283380995553 0 5.842434729037002e-05 -0.050024841971941979 0 4.9716093375154214e-08 -0.050000092163122414 0 2.7715334093357747e-05 -0.050014402844148827 0 2.4179137092081485e-05 -0.049999283380995553 0 8.6825743001733879e-05 -0.049997305495000831 0 0.00012225995860295298 -0.050050768289170981 0 5.842434729037002e-05 -0.050024841971941979 0 2.1584309640889425e-05 -0.050017549170970378 0 0.00012225995860295298 -0.050050768289170981 0 5.842434729037002e-05 -0.050024841971941979 0 8.6825743001733879e-05 -0.049997305495000831 0 2.4179137092081485e-05 -0.049999283380995553 0 5.842434729037002e-05 -0.050024841971941979 0 8.6825743001733879e-05 -0.049997305495000831 0 0.00022220186402516207 -0.049977925957003747 0 0.00012225995860295298 -0.050050768289170981 0 0.0010048898599394204 -0.048144815394731942 0 0.00077883064868729962 -0.04847750902191765 0 0.0010986126259590755 -0.048896248711841804 0 -0.0007039969709630989 -0.033570630730106743 0 -0.00061825995966284714 -0.03360885122864838 0 -0.00071508924359869116 -0.033619523019276315 0 -0.0007039969709630989 -0.033570630730106743 0 -0.00071508924359869116 -0.033619523019276315 0 -0.00076414300727006151 -0.033537938496277758 0 -6.4721918743862864e-06 -0.033175897664385508 0 -0.00098450612030432988 -0.033666956994349101 0 -0.00045082554438491499 -0.0332579905826672 0 -0.00076414300727006151 -0.033537938496277758 0 -0.00072673960079853127 -0.033209179323085737 0 -0.00045082554438491499 -0.0332579905826672 0 -0.00072673960079853127 -0.033209179323085737 0 -0.00047854103860871044 -0.032999082620273679 0 -6.4721918743862864e-06 -0.033175897664385508 0 -0.0031586649589023111 -0.033767838578385861 0 -0.00045082554438491499 -0.0332579905826672 0 -0.00016410600667276685 -0.032963752655355137 0 -0.00047854103860871044 -0.032999082620273679 0 -0.00051374176087914752 -0.033569476731673244 0 -0.00061825995966284714 -0.03360885122864838 0 -0.00061106550314369602 -0.03347915312804383 0 -0.0007039969709630989 -0.033570630730106743 0 -0.00061825995966284714 -0.03360885122864838 0 -0.00061106550314369602 -0.03347915312804383 0 -0.00545340882488482 -0.040945764560461624 0 -0.0080905145670384839 -0.04130919825327771 0 -0.0071620079760001225 -0.037949133028683052 0 -0.0043987787710421562 -0.037631303561764022 0 -0.0031586649589023111 -0.033767838578385861 0 -0.00051374176087914752 -0.033569476731673244 0 -0.00051299110252538919 -0.033683735937398353 0 -0.00061825995966284714 -0.03360885122864838 0 -0.00036682097194086196 -0.033717946949492567 0 -0.00051374176087914752 -0.033569476731673244 0 -0.00051299110252538919 -0.033683735937398353 0 -0.0031812292925440687 -0.038745541558172607 0 -0.0043987787710421562 -0.037631303561764022 0 -0.00051299110252538919 -0.033683735937398353 0 -0.00061825995966284714 -0.03360885122864838 0 -0.00060922227821331705 -0.033728819493600834 0 -0.00036682097194086196 -0.033717946949492567 0 -0.00051299110252538919 -0.033683735937398353 0 -0.00042314605063599627 -0.033852246029330145 0 -0.00051299110252538919 -0.033683735937398353 0 -0.00060922227821331705 -0.033728819493600834 0 -0.00042314605063599627 -0.033852246029330145 0 -0.00042314605063599627 -0.033852246029330145 0 -0.00033587243516758157 -0.03405620336954715 0 -0.00050706345306279874 -0.034041188471647117 0 -0.00060922227821331705 -0.033728819493600834 0 -0.00042314605063599627 -0.033852246029330145 0 -0.00050706345306279874 -0.034041188471647117 0 -0.00060922227821331705 -0.033728819493600834 0 -0.0008130030502181497 -0.033903223387576391 0 -0.00050706345306279874 -0.034041188471647117 0 -0.00060922227821331705 -0.033728819493600834 0 -0.00078839245705694672 -0.033692153459519765 0 -0.0008130030502181497 -0.033903223387576391 0 -0.00060922227821331705 -0.033728819493600834 0 -0.00071508924359869116 -0.033619523019276315 0 -0.00078839245705694672 -0.033692153459519765 0 -0.00061825995966284714 -0.03360885122864838 0 -0.00060922227821331705 -0.033728819493600834 0 -0.00071508924359869116 -0.033619523019276315 0 -0.00071508924359869116 -0.033619523019276315 0 -0.00078839245705694672 -0.033692153459519765 0 -0.00076414300727006151 -0.033537938496277758 0 -0.00078839245705694672 -0.033692153459519765 0 -0.00082160995793742215 -0.03369011057777932 0 -0.00081834076796945742 -0.033616557956975546 0 -0.00082160995793742215 -0.03369011057777932 0 -0.0008130030502181497 -0.033903223387576391 0 -0.00082764119081143355 -0.033688062826470043 0 -0.00078839245705694672 -0.033692153459519765 0 -0.00082160995793742215 -0.03369011057777932 0 -0.0008130030502181497 -0.033903223387576391 0 -0.0008130030502181497 -0.033903223387576391 0 -0.00065008944745548495 -0.034291913550030868 0 -0.00098170192273562833 -0.034531947914040559 0 -0.00077188199625046914 -0.034535688937577469 0 -0.00091967311903372252 -0.034705393164430831 0 -0.00065026000752297231 -0.034714930382851651 0 -0.00065008944745548495 -0.034291913550030868 0 -0.00077188199625046914 -0.034535688937577469 0 -0.00065026000752297231 -0.034714930382851651 0 -0.00065008944745548495 -0.034291913550030868 0 -0.00077188199625046914 -0.034535688937577469 0 -0.00098170192273562833 -0.034531947914040559 0 -0.00077188199625046914 -0.034535688937577469 0 -0.00098170192273562833 -0.034531947914040559 0 -0.00091967311903372252 -0.034705393164430831 0 -0.00098170192273562833 -0.034531947914040559 0 -0.0011385569504709266 -0.034788829972209535 0 -0.00091967311903372252 -0.034705393164430831 0 -0.0008130030502181497 -0.033903223387576391 0 -0.00098170192273562833 -0.034531947914040559 0 -0.0013942641699039857 -0.034781328194036606 0 -0.00090042540973805268 -0.033988067553967924 0 -0.00093553004338802739 -0.033954484305153 0 -0.0008130030502181497 -0.033903223387576391 0 -0.00085869981909260503 -0.033563293397731724 0 -0.00082764119081143355 -0.033688062826470043 0 -0.00098170192273562833 -0.034531947914040559 0 -0.0013942641699039857 -0.034781328194036606 0 -0.0011385569504709266 -0.034788829972209535 0 -0.00085869981909260503 -0.033563293397731724 0 -0.00082764119081143355 -0.033688062826470043 0 -0.00081385227269571779 -0.033593297525559569 0 -0.00033587243516758157 -0.03405620336954715 0 -0.00050706345306279874 -0.034041188471647117 0 -0.00042532301237760726 -0.034449300338828127 0 -0.0008130030502181497 -0.033903223387576391 0 -0.00065008944745548495 -0.034291913550030868 0 -0.00050706345306279874 -0.034041188471647117 0 -0.00065008944745548495 -0.034291913550030868 0 -0.00050706345306279874 -0.034041188471647117 0 -0.00042532301237760726 -0.034449300338828127 0 0.00047586322865000185 -0.042131355757258744 0 -0.00022910271611893275 -0.035027392096847118 0 -0.00065008944745548495 -0.034291913550030868 0 -0.00042532301237760726 -0.034449300338828127 0 -0.00065026000752297231 -0.034714930382851651 0 0.0012243232880586961 -0.048428959956830497 0 0.0014665095620140414 -0.049061939358105038 0 0.0024896404449359327 -0.047669318067317307 0 0.00022262598787748292 -0.05001732438137891 0 0.00060180172571649385 -0.049945556223650246 0 0.00034975802724062049 -0.049828089835064378 0 0.00066315322251668876 -0.050045067622793739 0 0.00047586322865000185 -0.042131355757258744 0 0.00086732155578101756 -0.041068552831971056 0 0.00047586322865000185 -0.042131355757258744 0 0.00060180172571649385 -0.049945556223650246 0 0.00034975802724062049 -0.049828089835064378 0 0.00052976170130880715 -0.049600734932337721 0 0.00026883299027008419 -0.049648895473271892 0 0.00034975802724062049 -0.049828089835064378 0 0.00052976170130880715 -0.049600734932337721 0 0.00060180172571649385 -0.049945556223650246 0 0.00052976170130880715 -0.049600734932337721 0 0.0010458360410374686 -0.049696726838146806 0 0.00047586322865000185 -0.042131355757258744 0 0.00015828156428656376 -0.042707967666009379 0 -0.00049392414160334978 -0.035097908684548644 0 -0.00064997133015310695 -0.035109184556424373 0 -0.00061898698493334763 -0.035252382736959846 0 0.00052976170130880715 -0.049600734932337721 0 0.00087859189550529878 -0.048956967414777876 0 0.0010458360410374686 -0.049696726838146806 0 0.00052976170130880715 -0.049600734932337721 0 0.00087859189550529878 -0.048956967414777876 0 0.00043137752570025881 -0.049394456300555126 0 0.00039450981139556448 -0.049322951381541753 0 0.00087859189550529878 -0.048956967414777876 0 0.00043137752570025881 -0.049394456300555126 0 0.00026883299027008419 -0.049648895473271892 0 0.00052976170130880715 -0.049600734932337721 0 0.00043137752570025881 -0.049394456300555126 0 0.00026883299027008419 -0.049648895473271892 0 0.00043137752570025881 -0.049394456300555126 0 0.00027854963485496092 -0.049494335911393059 0 0.00039450981139556448 -0.049322951381541753 0 0.00043137752570025881 -0.049394456300555126 0 0.00027854963485496092 -0.049494335911393059 0 -0.0013942641699039857 -0.034781328194036606 0 -0.0013043276722700637 -0.034900370601047524 0 -0.0013337703449375785 -0.035076050539331757 0 -0.0013043276722700637 -0.034900370601047524 0 -0.0010360334085965386 -0.035091658946788305 0 -0.00098980498391999967 -0.035825393787397707 0 -0.0013942641699039857 -0.034781328194036606 0 -0.0013043276722700637 -0.034900370601047524 0 -0.0011385569504709266 -0.034788829972209535 0 -0.0013043276722700637 -0.034900370601047524 0 -0.0011385569504709266 -0.034788829972209535 0 -0.0010360334085965386 -0.035091658946788305 0 -0.00091967311903372252 -0.034705393164430831 0 -0.00065026000752297231 -0.034714930382851651 0 -0.0010360334085965386 -0.035091658946788305 0 -0.00022910271611893275 -0.035027392096847118 0 -0.0010893618466378005 -0.035150683657035171 0 -0.0011385569504709266 -0.034788829972209535 0 -0.00091967311903372252 -0.034705393164430831 0 -0.0010360334085965386 -0.035091658946788305 0 -0.00064997133015310695 -0.035109184556424373 0 -0.00061898698493334763 -0.035252382736959846 0 -0.0010360334085965386 -0.035091658946788305 0 0.00015828156428656376 -0.042707967666009379 0 -0.00012257158304237412 -0.040580892811481709 0 0.00043711523687351811 -0.047307444528042412 0 0.00087859189550529878 -0.048956967414777876 0 0.0023856086424789125 -0.04859356464760118 0 0.00087859189550529878 -0.048956967414777876 0 0.0010458360410374686 -0.049696726838146806 0 0.0023856086424789125 -0.04859356464760118 0 -0.00061898698493334763 -0.035252382736959846 0 -0.0010360334085965386 -0.035091658946788305 0 -0.00098980498391999967 -0.035825393787397707 0 -0.0013043276722700637 -0.034900370601047524 0 -0.0012175886784307915 -0.035151728635964968 0 -0.0013337703449375785 -0.035076050539331757 0 -0.0019100932021832405 -0.032924331910491669 0 -0.00012257158304237412 -0.040580892811481709 0 -0.0013981228536260196 -0.035159280849367508 0 -0.0013337703449375785 -0.035076050539331757 0 -0.0014294513261111595 -0.035077992836884161 0 -0.00093553004338802739 -0.033954484305153 0 -0.0018062434722114517 -0.035137537614767483 0 -0.0013942641699039857 -0.034781328194036606 0 -0.0013337703449375785 -0.035076050539331757 0 -0.0014294513261111595 -0.035077992836884161 0 -0.00082003205112892461 -0.03346639118839307 0 -0.00082105615762159093 -0.033529701730181986 0 -0.00079643537369076666 -0.033510548783789736 0 -0.00085869981909260503 -0.033563293397731724 0 -0.00082003205112892461 -0.03346639118839307 0 -0.00082105615762159093 -0.033529701730181986 0 -0.00082003205112892461 -0.03346639118839307 0 -0.00079643537369076666 -0.033510548783789736 0 -0.00077370627615659323 -0.033469148973639937 0 -0.00075248218651102078 -0.033372357603138871 0 -0.00082003205112892461 -0.03346639118839307 0 -0.00077370627615659323 -0.033469148973639937 0 -0.00075248218651102078 -0.033372357603138871 0 -0.00077370627615659323 -0.033469148973639937 0 -0.00075054268161189668 -0.033479828833893749 0 0.0043922348435655664 -0.024722876057409887 0 0.004193421716328893 -0.023593591796048006 0 0.0034215167781079326 -0.023742758988993324 0 -0.00075054268161189668 -0.033479828833893749 0 -0.00082039658239557126 -0.033405067803666005 0 -0.0011716928460268978 -0.0334731152865234 0 0.004193421716328893 -0.023593591796048006 0 0.0034215167781079326 -0.023742758988993324 0 0.0030216218125846067 -0.02234796919363256 0 -0.00075054268161189668 -0.033479828833893749 0 -0.00078284127299790406 -0.033450822394930115 0 -0.00082039658239557126 -0.033405067803666005 0 0.0018215847666680249 -0.028905801648437153 0 0.0013611255018636792 -0.024896728126514507 0 -0.00079643537369076666 -0.033510548783789736 0 -0.00077370627615659323 -0.033469148973639937 0 -0.00078284127299790406 -0.033450822394930115 0 -0.00077370627615659323 -0.033469148973639937 0 -0.00075054268161189668 -0.033479828833893749 0 -0.00078284127299790406 -0.033450822394930115 0 -0.00079643537369076666 -0.033510548783789736 0 -0.00078284127299790406 -0.033450822394930115 0 -0.0008123937644325469 -0.033468509787800638 0 -0.00078284127299790406 -0.033450822394930115 0 -0.0008123937644325469 -0.033468509787800638 0 -0.00081406581446025151 -0.033365140068932458 0 -0.0008123937644325469 -0.033468509787800638 0 -0.00081406581446025151 -0.033365140068932458 0 -0.00083522435307925537 -0.033420277317780696 0 -0.00082039658239557126 -0.033405067803666005 0 -0.00079299075788803318 -0.033197027123636771 0 -0.0011716928460268978 -0.0334731152865234 0 -0.00082039658239557126 -0.033405067803666005 0 -0.00081406581446025151 -0.033365140068932458 0 -0.00079299075788803318 -0.033197027123636771 0 -0.00078284127299790406 -0.033450822394930115 0 -0.00082039658239557126 -0.033405067803666005 0 -0.00081406581446025151 -0.033365140068932458 0 -0.00081406581446025151 -0.033365140068932458 0 -0.00079299075788803318 -0.033197027123636771 0 -0.00083416279900444079 -0.033372083803946705 0 -0.00079299075788803318 -0.033197027123636771 0 -0.00083416279900444079 -0.033372083803946705 0 -0.00079594702314049817 -0.033440666701201952 0 -0.000788923461804531 -0.03295824294910718 0 -0.00073675002273361923 -0.032856895834665396 0 -0.00081406581446025151 -0.033365140068932458 0 -0.00083416279900444079 -0.033372083803946705 0 -0.00083522435307925537 -0.033420277317780696 0 -0.00083416279900444079 -0.033372083803946705 0 -0.00083522435307925537 -0.033420277317780696 0 -0.00084608003662817524 -0.033450016216705111 0 -0.00083416279900444079 -0.033372083803946705 0 -0.00079594702314049817 -0.033440666701201952 0 -0.00084608003662817524 -0.033450016216705111 0 -0.0008123937644325469 -0.033468509787800638 0 -0.00083522435307925537 -0.033420277317780696 0 -0.00084868247420422874 -0.033489885674100675 0 -0.0008123937644325469 -0.033468509787800638 0 -0.00083055734740427429 -0.033543935415077032 0 -0.00084868247420422874 -0.033489885674100675 0 -0.00083522435307925537 -0.033420277317780696 0 -0.00084868247420422874 -0.033489885674100675 0 -0.00084608003662817524 -0.033450016216705111 0 -0.0008123937644325469 -0.033468509787800638 0 -0.00083055734740427429 -0.033543935415077032 0 -0.00081263761147634065 -0.033540310946160792 0 -0.00083055734740427429 -0.033543935415077032 0 -0.00081816946877086478 -0.033602245181246014 0 -0.00081263761147634065 -0.033540310946160792 0 -0.00083055734740427429 -0.033543935415077032 0 -0.00081816946877086478 -0.033602245181246014 0 -0.00081834076796945742 -0.033616557956975546 0 -0.00082160995793742215 -0.03369011057777932 0 -0.00081816946877086478 -0.033602245181246014 0 -0.00081834076796945742 -0.033616557956975546 0 -0.00082160995793742215 -0.03369011057777932 0 -0.00081816946877086478 -0.033602245181246014 0 -0.00081385227269571779 -0.033593297525559569 0 -0.00082160995793742215 -0.03369011057777932 0 -0.00082764119081143355 -0.033688062826470043 0 -0.00081385227269571779 -0.033593297525559569 0 -0.00081816946877086478 -0.033602245181246014 0 -0.00081385227269571779 -0.033593297525559569 0 -0.00081263761147634065 -0.033540310946160792 0 -0.00085869981909260503 -0.033563293397731724 0 -0.00082105615762159093 -0.033529701730181986 0 -0.00081385227269571779 -0.033593297525559569 0 -0.00082105615762159093 -0.033529701730181986 0 -0.00079643537369076666 -0.033510548783789736 0 -0.00081385227269571779 -0.033593297525559569 0 -0.00079643537369076666 -0.033510548783789736 0 -0.0008123937644325469 -0.033468509787800638 0 -0.00081263761147634065 -0.033540310946160792 0 -0.00079643537369076666 -0.033510548783789736 0 -0.00081385227269571779 -0.033593297525559569 0 -0.00081263761147634065 -0.033540310946160792 0 -0.0013085484012939641 -0.019477566910959535 0 -0.0026834856829408924 -0.01956950302574997 0 -0.0010302824706651217 -0.02326305943168127 0 -0.0027354414164913092 -0.022163249696082986 0 -0.001311062351557937 -0.019545074461985838 0 -0.0027354414164913092 -0.022163249696082986 0 -0.001311062351557937 -0.019545074461985838 0 -0.0043971987597522131 -0.021345491722147319 0 -0.001311062351557937 -0.019545074461985838 0 0.00033198830625692192 -0.020227322950970121 0 0.00055395286499361983 -0.022094712328141787 0 -0.0010302824706651217 -0.02326305943168127 0 -0.001311062351557937 -0.019545074461985838 0 0.00055395286499361983 -0.022094712328141787 0 -0.001311062351557937 -0.019545074461985838 0 0.00033198830625692192 -0.020227322950970121 0 0.00055075975643759209 -0.018931050719542417 0 0.0015544277689426718 -0.020513486881587412 0 0.0024282209142666637 -0.018845671500816518 0 0.00055075975643759209 -0.018931050719542417 0 0.0015544277689426718 -0.020513486881587412 0 0.00033198830625692192 -0.020227322950970121 0 0.00055075975643759209 -0.018931050719542417 0 0.0015544277689426718 -0.020513486881587412 0 0.00033198830625692192 -0.020227322950970121 0 0.00055395286499361983 -0.022094712328141787 0 0.0015544277689426718 -0.020513486881587412 0 0.00055395286499361983 -0.022094712328141787 0 0.0017815303762051618 -0.02220852546700466 0 0.0015544277689426718 -0.020513486881587412 0 0.0033580186397893087 -0.021672070956747204 0 0.0017815303762051618 -0.02220852546700466 0 0.0021302572388577456 -0.024072067403393238 0 0.0033580186397893087 -0.021672070956747204 0 0.0017815303762051618 -0.02220852546700466 0 0.0015544277689426718 -0.020513486881587412 0 0.0033580186397893087 -0.021672070956747204 0 0.0024282209142666637 -0.018845671500816518 0 0.0034111871993250734 -0.021827617926365069 0 0.0013611255018636792 -0.024896728126514507 0 0.0013611255018636792 -0.024896728126514507 0 -0.00097635661226417908 -0.028424944825330124 0 0.0003029043140218452 -0.024148369877425996 0 2.7110825370226893e-05 -0.02357023484801422 0 -0.00010319311127709526 -0.02370897708153849 0 -0.00079299075788803318 -0.033197027123636771 0 -0.0011716928460268978 -0.0334731152865234 0 -0.0018995442267193627 -0.031916416268959781 0 0.0013611255018636792 -0.024896728126514507 0 0.00016272669646807587 -0.020124423983775949 0 0.0003029043140218452 -0.024148369877425996 0 8.207387264612875e-05 -0.023469232125155007 0 2.7110825370226893e-05 -0.02357023484801422 0 -0.00079299075788803318 -0.033197027123636771 0 -0.00073953608586791147 -0.031471517559257249 0 -0.0018995442267193627 -0.031916416268959781 0 2.7110825370226893e-05 -0.02357023484801422 0 -0.00017920065930299197 -0.023357518667248136 0 -5.0543246695858268e-05 -0.023380615347627906 0 2.7110825370226893e-05 -0.02357023484801422 0 -0.00010319311127709526 -0.02370897708153849 0 -0.00053588115616835233 -0.023159765262710099 0 0.00021551868437175026 -0.023780753331671813 0 -0.00029434964926333641 -0.021529915970676428 0 0.0011021720767983511 -0.01767772776038409 0 -0.00028752225318374634 -0.017962305036971889 0 1.066061196351171e-05 -0.016792657953696163 0 8.207387264612875e-05 -0.023469232125155007 0 2.7110825370226893e-05 -0.02357023484801422 0 -5.0543246695858268e-05 -0.023380615347627906 0 0.00016272669646807587 -0.020124423983775949 0 -0.00029434964926333641 -0.021529915970676428 0 0.0024282209142666637 -0.018845671500816518 0 0.0011021720767983511 -0.01767772776038409 0 0.00055075975643759209 -0.018931050719542417 0 0.0011021720767983511 -0.01767772776038409 0 0.00055075975643759209 -0.018931050719542417 0 -0.00028752225318374634 -0.017962305036971889 0 -0.001311062351557937 -0.019545074461985838 0 -0.00028752225318374634 -0.017962305036971889 0 -0.0010212797272720734 -0.018208741147314338 0 -0.001311062351557937 -0.019545074461985838 0 0.00055075975643759209 -0.018931050719542417 0 -0.00028752225318374634 -0.017962305036971889 0 -0.00028752225318374634 -0.017962305036971889 0 -0.00081210908462164757 -0.016771612757462036 0 1.066061196351171e-05 -0.016792657953696163 0 -0.00028752225318374634 -0.017962305036971889 0 -0.00081210908462164757 -0.016771612757462036 0 -0.0010212797272720734 -0.018208741147314338 0 -0.00073812978709929136 -0.016678496774394935 0 -4.411640362201699e-05 -0.016185232500831363 0 -0.00081210908462164757 -0.016771612757462036 0 -0.0010212797272720734 -0.018208741147314338 0 -0.0015043702859077238 -0.018486930293957916 0 -0.001311062351557937 -0.019545074461985838 0 -0.0010212797272720734 -0.018208741147314338 0 -0.0015043702859077238 -0.018486930293957916 0 -0.00061721814474233953 -0.020022801743921008 0 0.0010258407298469807 -0.0204243391568452 0 -0.00031930937041778351 -0.023188637436413657 0 -0.00033031718495810726 -0.023031484387830484 0 -0.00043302139266077988 -0.023074530453441083 0 0.00027736182718607734 -0.022248715342664632 0 0.0010258407298469807 -0.0204243391568452 0 -0.00081210908462164757 -0.016771612757462036 0 -0.00074331279538540076 -0.017151595168354614 0 0.00068243572299770718 -0.016727808488015156 0 -0.00031930937041778351 -0.023188637436413657 0 -0.00024246338391495777 -0.023205251594831406 0 -0.00020574885365825968 -0.023294216996927217 0 -0.00081210908462164757 -0.016771612757462036 0 -0.00074331279538540076 -0.017151595168354614 0 1.066061196351171e-05 -0.016792657953696163 0 -0.00031930937041778351 -0.023188637436413657 0 -0.00018294096403316987 -0.023334745160710432 0 -0.00020574885365825968 -0.023294216996927217 0 -0.00061721814474233953 -0.020022801743921008 0 -0.00029434964926333641 -0.021529915970676428 0 -0.00017920065930299197 -0.023357518667248136 0 -0.00020574885365825968 -0.023294216996927217 0 -0.00016036813286989757 -0.023251954361149366 0 -0.00029434964926333641 -0.021529915970676428 0 9.839879364683807e-05 -0.02239845258293062 0 -0.00024246338391495777 -0.023205251594831406 0 -0.00020209152529756104 -0.023134403242565552 0 -0.00016036813286989757 -0.023251954361149366 0 -0.00024246338391495777 -0.023205251594831406 0 -0.00020574885365825968 -0.023294216996927217 0 -0.00016036813286989757 -0.023251954361149366 0 -0.00020209152529756104 -0.023134403242565552 0 -0.00017573387235833733 -0.023053401165650914 0 -0.00033031718495810726 -0.023031484387830484 0 -0.00031930937041778351 -0.023188637436413657 0 -0.00020209152529756104 -0.023134403242565552 0 -0.00033031718495810726 -0.023031484387830484 0 -0.00031930937041778351 -0.023188637436413657 0 -0.00024246338391495777 -0.023205251594831406 0 -0.00020209152529756104 -0.023134403242565552 0 -0.00020209152529756104 -0.023134403242565552 0 -4.5928904148028844e-05 -0.023183613314168825 0 -0.00016036813286989757 -0.023251954361149366 0 -0.001450278109977241 -0.026086945371841894 0 -0.0010435664391009862 -0.024421578372079381 0 -4.5928904148028844e-05 -0.023183613314168825 0 -0.00011124404476039414 -0.022993319725396307 0 -0.00017573387235833733 -0.023053401165650914 0 -0.00020209152529756104 -0.023134403242565552 0 -4.5928904148028844e-05 -0.023183613314168825 0 -0.00017573387235833733 -0.023053401165650914 0 -0.0027059373476530733 -0.029266481265173831 0 -0.0017347769049119496 -0.027979154249766398 0 -0.0034582794109340171 -0.02618428347416837 0 -4.5928904148028844e-05 -0.023183613314168825 0 -0.00016036813286989757 -0.023251954361149366 0 -5.0543246695858268e-05 -0.023380615347627906 0 -0.00097635661226417908 -0.028424944825330124 0 -0.001450278109977241 -0.026086945371841894 0 8.207387264612875e-05 -0.023469232125155007 0 -4.5928904148028844e-05 -0.023183613314168825 0 -5.0543246695858268e-05 -0.023380615347627906 0 -0.00017920065930299197 -0.023357518667248136 0 -0.00016036813286989757 -0.023251954361149366 0 -5.0543246695858268e-05 -0.023380615347627906 0 -0.00073953608586791147 -0.031471517559257249 0 -0.0018995442267193627 -0.031916416268959781 0 -0.0018104598459342655 -0.030145896589912086 0 -0.00073675002273361923 -0.032856895834665396 0 -0.0010807394157561815 -0.029266103203100594 0 -0.0018995442267193627 -0.031916416268959781 0 -0.0027059373476530733 -0.029266481265173831 0 -0.0018104598459342655 -0.030145896589912086 0 -0.00073953608586791147 -0.031471517559257249 0 -0.0018104598459342655 -0.030145896589912086 0 -0.00090224846368891986 -0.029300135061940326 0 -0.0015851594332688254 -0.029887192226566987 0 -0.0010807394157561815 -0.029266103203100594 0 -0.0027059373476530733 -0.029266481265173831 0 -0.00067305363682786589 -0.029136767177393379 0 -0.0017347769049119496 -0.027979154249766398 0 -0.0010807394157561815 -0.029266103203100594 0 -0.00040307083507500421 -0.024077505636519201 0 -0.0027059373476530733 -0.029266481265173831 0 -0.0018104598459342655 -0.030145896589912086 0 -0.00067305363682786589 -0.029136767177393379 0 -0.00067305363682786589 -0.029136767177393379 0 -0.0017347769049119496 -0.027979154249766398 0 -0.00092937774215404764 -0.026579320194613242 0 -0.0017347769049119496 -0.027979154249766398 0 -0.00092937774215404764 -0.026579320194613242 0 -0.0034582794109340171 -0.02618428347416837 0 -0.00040307083507500421 -0.024077505636519201 0 -0.0010435664391009862 -0.024421578372079381 0 -0.00027760268388354409 -0.023023238837367718 0 0.00031201646393388911 -0.0237029753700192 0 0.0006719365084849328 -0.02314806193068164 0 -0.00022229884821113908 -0.023815238666443046 0 -6.8090692451615653e-05 -0.024208841122857708 0 -0.00053198724771532843 -0.024088069977998464 0 -0.00027760268388354409 -0.023023238837367718 0 -6.8090692451615653e-05 -0.024208841122857708 0 0.00031201646393388911 -0.0237029753700192 0 -0.00040307083507500421 -0.024077505636519201 0 -9.5310150404532504e-05 -0.023906309046355049 0 0.00031201646393388911 -0.0237029753700192 0 0.00057429597469112279 -0.02354303073939781 0 0.0006719365084849328 -0.02314806193068164 0 -6.8090692451615653e-05 -0.024208841122857708 0 0.00031201646393388911 -0.0237029753700192 0 0.00074776434447412147 -0.024069837999526372 0 0.00031201646393388911 -0.0237029753700192 0 0.00057429597469112279 -0.02354303073939781 0 0.00074776434447412147 -0.024069837999526372 0 0.00074776434447412147 -0.024069837999526372 0 0.0008278479280070005 -0.02361301009755427 0 0.0010850901861938504 -0.023528206272295706 0 0.00057429597469112279 -0.02354303073939781 0 0.00074776434447412147 -0.024069837999526372 0 0.0008278479280070005 -0.02361301009755427 0 0.00057429597469112279 -0.02354303073939781 0 0.0008278479280070005 -0.02361301009755427 0 0.0008180916382962653 -0.023413059805562873 0 0.00057429597469112279 -0.02354303073939781 0 0.0008180916382962653 -0.023413059805562873 0 0.00068721124019434756 -0.023248883071624718 0 0.0008278479280070005 -0.02361301009755427 0 0.0008180916382962653 -0.023413059805562873 0 0.0009475108807495456 -0.023444426845155474 0 0.00066708744450512652 -0.02316861410183986 0 0.00068721124019434756 -0.023248883071624718 0 0.001029182921973573 -0.023230561765834094 0 0.00057429597469112279 -0.02354303073939781 0 0.0006719365084849328 -0.02314806193068164 0 0.00068721124019434756 -0.023248883071624718 0 -0.0010435664391009862 -0.024421578372079381 0 0.00052092215152245262 -0.022766538859815021 0 0.0008180916382962653 -0.023413059805562873 0 0.00068721124019434756 -0.023248883071624718 0 0.001029182921973573 -0.023230561765834094 0 -0.0010435664391009862 -0.024421578372079381 0 -0.00097762843965571431 -0.024255605565010611 0 -0.00017573387235833733 -0.023053401165650914 0 -0.00020952006208428125 -0.022974008616542588 0 -0.00033031718495810726 -0.023031484387830484 0 0.00052092215152245262 -0.022766538859815021 0 0.00027736182718607734 -0.022248715342664632 0 -0.00011124404476039414 -0.022993319725396307 0 -0.00017573387235833733 -0.023053401165650914 0 -0.00020952006208428125 -0.022974008616542588 0 0.00066708744450512652 -0.02316861410183986 0 0.0011474932519068217 -0.023153297736981077 0 0.001029182921973573 -0.023230561765834094 0 0.0011585572376687915 -0.023098632361951289 0 0.001029182921973573 -0.023230561765834094 0 0.0010850901861938504 -0.023528206272295706 0 0.00052092215152245262 -0.022766538859815021 0 0.00066883931435128736 -0.022782864860823857 0 0.001029182921973573 -0.023230561765834094 0 0.0009475108807495456 -0.023444426845155474 0 0.0010850901861938504 -0.023528206272295706 0 0.00074776434447412147 -0.024069837999526372 0 0.0010850901861938504 -0.023528206272295706 0 0.0014263576413228579 -0.023644548356199908 0 0.0008180916382962653 -0.023413059805562873 0 0.001029182921973573 -0.023230561765834094 0 0.0009475108807495456 -0.023444426845155474 0 0.0011585572376687915 -0.023098632361951289 0 0.0014263576413228579 -0.023644548356199908 0 0.0019786026473670713 -0.022855251394748338 0 0.0008278479280070005 -0.02361301009755427 0 0.0009475108807495456 -0.023444426845155474 0 0.0010850901861938504 -0.023528206272295706 0 0.0011585572376687915 -0.023098632361951289 0 0.0010850901861938504 -0.023528206272295706 0 0.0014263576413228579 -0.023644548356199908 0 0.0014263576413228579 -0.023644548356199908 0 0.0019786026473670713 -0.022855251394748338 0 0.0021855619481883051 -0.023676387172950435 0 0.00052092215152245262 -0.022766538859815021 0 0.0017849273033783419 -0.022492111475737705 0 -3.4928960205428225e-05 -0.021951850730598226 0 0.0014594149255837522 -0.022167089700451271 0 0.0012100437082573296 -0.021256805740654815 0 0.0014594149255837522 -0.022167089700451271 0 0.0012100437082573296 -0.021256805740654815 0 0.0024311732629172409 -0.021574762428595438 0 -0.00076414300727006151 -0.033537938496277758 0 -0.00084947899254100606 -0.033534171425426924 0 -0.00087321076180982803 -0.033426549257838799 0 -0.00084947899254100606 -0.033534171425426924 0 -0.00087226423569242834 -0.033478173008909914 0 -0.00087321076180982803 -0.033426549257838799 0 -0.00076414300727006151 -0.033537938496277758 0 -0.00081834076796945742 -0.033616557956975546 0 -0.00084947899254100606 -0.033534171425426924 0 -0.00078839245705694672 -0.033692153459519765 0 -0.00076414300727006151 -0.033537938496277758 0 -0.00081834076796945742 -0.033616557956975546 0 -0.00083055734740427429 -0.033543935415077032 0 -0.00084947899254100606 -0.033534171425426924 0 -0.00084868247420422874 -0.033489885674100675 0 -0.00083055734740427429 -0.033543935415077032 0 -0.00081834076796945742 -0.033616557956975546 0 -0.00084947899254100606 -0.033534171425426924 0 -0.00084947899254100606 -0.033534171425426924 0 -0.00084868247420422874 -0.033489885674100675 0 -0.00087226423569242834 -0.033478173008909914 0 -0.00084868247420422874 -0.033489885674100675 0 -0.00087226423569242834 -0.033478173008909914 0 -0.00084608003662817524 -0.033450016216705111 0 -0.00079594702314049817 -0.033440666701201952 0 -0.0008531619052887209 -0.033436729078115512 0 -0.0008605216208243051 -0.033455466309449532 0 -0.00079594702314049817 -0.033440666701201952 0 -0.00084608003662817524 -0.033450016216705111 0 -0.0008605216208243051 -0.033455466309449532 0 -0.00087226423569242834 -0.033478173008909914 0 -0.00084608003662817524 -0.033450016216705111 0 -0.0008605216208243051 -0.033455466309449532 0 -0.00065667346977211008 -0.023853642773361113 0 -0.00077783756029638424 -0.023807072906149859 0 -0.00074526757669173655 -0.023813868537041261 0 -0.00065667346977211008 -0.023853642773361113 0 -0.00067445907515714307 -0.023865816736282613 0 -0.00074526757669173655 -0.023813868537041261 0 -0.0010807394157561815 -0.029266103203100594 0 -0.0007731898759947536 -0.028480982988344897 0 -0.0008531619052887209 -0.033436729078115512 0 -0.0008605216208243051 -0.033455466309449532 0 -0.00092124866713412588 -0.033392277873870876 0 -0.00087226423569242834 -0.033478173008909914 0 -0.00092124866713412588 -0.033392277873870876 0 -0.00087321076180982803 -0.033426549257838799 0 -0.00087226423569242834 -0.033478173008909914 0 -0.0008605216208243051 -0.033455466309449532 0 -0.00092124866713412588 -0.033392277873870876 0 -0.00022229884821113908 -0.023815238666443046 0 -0.00074526757669173655 -0.023813868537041261 0 -0.00053198724771532843 -0.024088069977998464 0 -0.00040307083507500421 -0.024077505636519201 0 -0.00073339338579780304 -0.023795394955410946 0 -0.00077783756029638424 -0.023807072906149859 0 -0.00074526757669173655 -0.023813868537041261 0 -0.00053198724771532843 -0.024088069977998464 0 -6.8090692451615653e-05 -0.024208841122857708 0 -0.00053198724771532843 -0.024088069977998464 0 -0.00039692172042197284 -0.024699482343121516 0 -0.00053198724771532843 -0.024088069977998464 0 -0.00094638177490715238 -0.024511632862578524 0 -0.00039692172042197284 -0.024699482343121516 0 -0.00077783756029638424 -0.023807072906149859 0 -0.00053198724771532843 -0.024088069977998464 0 -0.00094638177490715238 -0.024511632862578524 0 -0.0007731898759947536 -0.028480982988344897 0 -0.0012763477833845087 -0.028793749746822278 0 -0.00077783756029638424 -0.023807072906149859 0 -0.00094638177490715238 -0.024511632862578524 0 -0.0016233951199203483 -0.024406351857768224 0 -0.00092124866713412588 -0.033392277873870876 0 -0.0009124946114354547 -0.033175961956431514 0 -0.00087321076180982803 -0.033426549257838799 0 -0.00076414300727006151 -0.033537938496277758 0 -0.00087321076180982803 -0.033426549257838799 0 -0.00072673960079853127 -0.033209179323085737 0 -0.0009124946114354547 -0.033175961956431514 0 -0.00087321076180982803 -0.033426549257838799 0 -0.00072673960079853127 -0.033209179323085737 0 -0.0009124946114354547 -0.033175961956431514 0 -0.00072673960079853127 -0.033209179323085737 0 -0.00074541626540965513 -0.032847950453232182 0 -0.0012763477833845087 -0.028793749746822278 0 -0.0016698665937963976 -0.029186283819871286 0 -0.0025959682408913634 -0.025259594089584357 0 -0.0015700690814358226 -0.025513780919545752 0 -0.0024493026791951112 -0.026338214524807176 0 -0.0016233951199203483 -0.024406351857768224 0 -0.0025959682408913634 -0.025259594089584357 0 -0.0015700690814358226 -0.025513780919545752 0 -0.00094638177490715238 -0.024511632862578524 0 -0.0016233951199203483 -0.024406351857768224 0 -0.0015700690814358226 -0.025513780919545752 0 -0.00094638177490715238 -0.024511632862578524 0 -0.0015700690814358226 -0.025513780919545752 0 -0.00075812721198500815 -0.025432015488665961 0 -0.00094638177490715238 -0.024511632862578524 0 -0.00039692172042197284 -0.024699482343121516 0 -0.00075812721198500815 -0.025432015488665961 0 -0.00018966442895950085 -0.025417881298702781 0 -0.00075812721198500815 -0.025432015488665961 0 -0.00037176110751132316 -0.02623995244342997 0 -0.00039692172042197284 -0.024699482343121516 0 -0.00018966442895950085 -0.025417881298702781 0 -0.00075812721198500815 -0.025432015488665961 0 -0.00075812721198500815 -0.025432015488665961 0 -0.00037176110751132316 -0.02623995244342997 0 -0.00093861728377097134 -0.026639908286375295 0 -0.0015700690814358226 -0.025513780919545752 0 -0.00075812721198500815 -0.025432015488665961 0 -0.00093861728377097134 -0.026639908286375295 0 -0.00037176110751132316 -0.02623995244342997 0 6.2408803795919435e-05 -0.026657602435587516 0 -0.00053449635714348099 -0.027229690388918083 0 -0.00037176110751132316 -0.02623995244342997 0 -0.00093861728377097134 -0.026639908286375295 0 -0.00053449635714348099 -0.027229690388918083 0 -0.00093861728377097134 -0.026639908286375295 0 -0.0012193625549049107 -0.027822010360594968 0 -0.00053449635714348099 -0.027229690388918083 0 -0.0022395364375970969 -0.027168686807615982 0 -0.0016755572934129639 -0.026547239941559917 0 -0.0012193625549049107 -0.027822010360594968 0 -0.00093861728377097134 -0.026639908286375295 0 -0.0016755572934129639 -0.026547239941559917 0 -0.0012193625549049107 -0.027822010360594968 0 -0.0022395364375970969 -0.027168686807615982 0 -0.0024493026791951112 -0.026338214524807176 0 -0.00309219151230939 -0.027363901045008257 0 -0.0022395364375970969 -0.027168686807615982 0 -0.0026107636737028699 -0.027780891498877858 0 -0.00309219151230939 -0.027363901045008257 0 -0.0022395364375970969 -0.027168686807615982 0 -0.0024493026791951112 -0.026338214524807176 0 -0.0016755572934129639 -0.026547239941559917 0 -0.0015700690814358226 -0.025513780919545752 0 -0.0024493026791951112 -0.026338214524807176 0 -0.0016755572934129639 -0.026547239941559917 0 -0.0015700690814358226 -0.025513780919545752 0 -0.00093861728377097134 -0.026639908286375295 0 -0.0016755572934129639 -0.026547239941559917 0 0.0014294363159683158 -0.024557185208035282 0 0.0018130692190274982 -0.025468441562555465 0 0.0022472394444324174 -0.024713281085242834 0 0.0018130692190274982 -0.025468441562555465 0 0.0024579466782151962 -0.025456751162095875 0 0.0022472394444324174 -0.024713281085242834 0 0.0014263576413228579 -0.023644548356199908 0 0.0021855619481883051 -0.023676387172950435 0 0.0014294363159683158 -0.024557185208035282 0 0.0021855619481883051 -0.023676387172950435 0 0.0014294363159683158 -0.024557185208035282 0 0.0022472394444324174 -0.024713281085242834 0 0.00074776434447412147 -0.024069837999526372 0 0.0014263576413228579 -0.023644548356199908 0 0.0014294363159683158 -0.024557185208035282 0 0.00074776434447412147 -0.024069837999526372 0 0.0014294363159683158 -0.024557185208035282 0 0.00075083795403890405 -0.02496802864305353 0 0.0014294363159683158 -0.024557185208035282 0 0.0011042168097233857 -0.025591085403165643 0 0.0018130692190274982 -0.025468441562555465 0 0.0014294363159683158 -0.024557185208035282 0 0.00075083795403890405 -0.02496802864305353 0 0.0011042168097233857 -0.025591085403165643 0 0.00075083795403890405 -0.02496802864305353 0 0.00017317347939617569 -0.024828897368159325 0 0.00034749123658368706 -0.025757663468302428 0 0.00075083795403890405 -0.02496802864305353 0 0.00034749123658368706 -0.025757663468302428 0 0.0011042168097233857 -0.025591085403165643 0 0.00074776434447412147 -0.024069837999526372 0 0.00075083795403890405 -0.02496802864305353 0 0.00017317347939617569 -0.024828897368159325 0 -0.00039692172042197284 -0.024699482343121516 0 -0.00018966442895950085 -0.025417881298702781 0 0.00017317347939617569 -0.024828897368159325 0 -6.8090692451615653e-05 -0.024208841122857708 0 0.00074776434447412147 -0.024069837999526372 0 0.00017317347939617569 -0.024828897368159325 0 -6.8090692451615653e-05 -0.024208841122857708 0 -0.00039692172042197284 -0.024699482343121516 0 0.00017317347939617569 -0.024828897368159325 0 -0.00018966442895950085 -0.025417881298702781 0 0.00017317347939617569 -0.024828897368159325 0 0.00034749123658368706 -0.025757663468302428 0 -0.00018966442895950085 -0.025417881298702781 0 -0.00037176110751132316 -0.02623995244342997 0 0.00034749123658368706 -0.025757663468302428 0 -0.00037176110751132316 -0.02623995244342997 0 0.00034749123658368706 -0.025757663468302428 0 6.2408803795919435e-05 -0.026657602435587516 0 0.00034749123658368706 -0.025757663468302428 0 6.2408803795919435e-05 -0.026657602435587516 0 0.00073037230496653929 -0.02663971276776993 0 6.2408803795919435e-05 -0.026657602435587516 0 0.00073037230496653929 -0.02663971276776993 0 0.00018985528328356512 -0.027302666580157436 0 0.00034749123658368706 -0.025757663468302428 0 0.00073037230496653929 -0.02663971276776993 0 0.0011042168097233857 -0.025591085403165643 0 0.0011042168097233857 -0.025591085403165643 0 0.0015904725740511318 -0.026347613005187315 0 0.0018130692190274982 -0.025468441562555465 0 0.00073037230496653929 -0.02663971276776993 0 0.0011042168097233857 -0.025591085403165643 0 0.0015904725740511318 -0.026347613005187315 0 0.00073037230496653929 -0.02663971276776993 0 0.0015904725740511318 -0.026347613005187315 0 0.0013227917838353549 -0.026964274779315109 0 0.0015904725740511318 -0.026347613005187315 0 0.0019048771005381246 -0.027196619797252276 0 0.0023452871814191654 -0.026534884786209051 0 0.0015904725740511318 -0.026347613005187315 0 0.0021599882551597768 -0.025967096798121366 0 0.0023452871814191654 -0.026534884786209051 0 0.0015904725740511318 -0.026347613005187315 0 0.0021599882551597768 -0.025967096798121366 0 0.0018130692190274982 -0.025468441562555465 0 0.0021599882551597768 -0.025967096798121366 0 0.0018130692190274982 -0.025468441562555465 0 0.0024579466782151962 -0.025456751162095875 0 0.0012406958201213803 -0.027746464405447563 0 0.0019492271567598982 -0.028001203692822437 0 0.0019048771005381246 -0.027196619797252276 0 0.0019871157712434764 -0.028008820733121043 0 0.002340521021431076 -0.027562439251668944 0 0.0019048771005381246 -0.027196619797252276 0 0.0010877509030413806 -0.027643867247220448 0 0.0019871157712434764 -0.028008820733121043 0 0.0015904725740511318 -0.026347613005187315 0 0.0019048771005381246 -0.027196619797252276 0 0.0013227917838353549 -0.026964274779315109 0 0.00073037230496653929 -0.02663971276776993 0 0.0013227917838353549 -0.026964274779315109 0 0.0010877509030413806 -0.027643867247220448 0 0.0019048771005381246 -0.027196619797252276 0 0.0013227917838353549 -0.026964274779315109 0 0.0010877509030413806 -0.027643867247220448 0 0.0013656543830111504 -0.027847577255332604 0 0.00062727439471048428 -0.027574681084615735 0 0.00062799754248430058 -0.028256913985090799 0 0.0012406958201213803 -0.027746464405447563 0 0.00038647783580638665 -0.027446695500955746 0 0.00073037230496653929 -0.02663971276776993 0 0.0010877509030413806 -0.027643867247220448 0 0.00018985528328356512 -0.027302666580157436 0 0.00062727439471048428 -0.027574681084615735 0 0.00062799754248430058 -0.028256913985090799 0 -0.0001324394982168378 -0.028070025235967754 0 0.00062799754248430058 -0.028256913985090799 0 0.00053664686725367469 -0.028751122588238927 0 0.0011355825639157199 -0.028437639170035434 0 0.00053664686725367469 -0.028751122588238927 0 0.0011355825639157199 -0.028437639170035434 0 0.0011418896529442192 -0.028763519399489793 0 0.0013656543830111504 -0.027847577255332604 0 0.00062799754248430058 -0.028256913985090799 0 0.0011355825639157199 -0.028437639170035434 0 0.0013656543830111504 -0.027847577255332604 0 0.0011355825639157199 -0.028437639170035434 0 0.0015783065580131908 -0.02828270718741567 0 0.0013656543830111504 -0.027847577255332604 0 0.0015783065580131908 -0.02828270718741567 0 0.0019871157712434764 -0.028008820733121043 0 0.0011355825639157199 -0.028437639170035434 0 0.0015783065580131908 -0.02828270718741567 0 0.0016046396594903488 -0.028638945434514399 0 0.0011355825639157199 -0.028437639170035434 0 0.0016046396594903488 -0.028638945434514399 0 0.0011418896529442192 -0.028763519399489793 0 0.0015783065580131908 -0.02828270718741567 0 0.0016046396594903488 -0.028638945434514399 0 0.0019114800503843366 -0.028429993829573189 0 0.0015783065580131908 -0.02828270718741567 0 0.0019114800503843366 -0.028429993829573189 0 0.0019871157712434764 -0.028008820733121043 0 -0.0014702594015932754 -0.028204384964486729 0 -0.0012193625549049107 -0.027822010360594968 0 -0.0012243750493578227 -0.028477101403784007 0 -0.0012193625549049107 -0.027822010360594968 0 -0.00082507788023624806 -0.02820103336335705 0 -0.0012243750493578227 -0.028477101403784007 0 -0.0014702594015932754 -0.028204384964486729 0 -0.0016688616813422185 -0.028078822901709027 0 -0.0017202852248854891 -0.028506096763080014 0 -0.0014702594015932754 -0.028204384964486729 0 -0.0012243750493578227 -0.028477101403784007 0 -0.0017202852248854891 -0.028506096763080014 0 -0.0021083894558867155 -0.02791359258922033 0 -0.0012887314485104625 -0.027873923703657693 0 -0.0022395364375970969 -0.027168686807615982 0 -0.0026107636737028699 -0.027780891498877858 0 -0.0012193625549049107 -0.027822010360594968 0 -0.0014702594015932754 -0.028204384964486729 0 -0.0016688616813422185 -0.028078822901709027 0 -0.0012193625549049107 -0.027822010360594968 0 -0.0012193625549049107 -0.027822010360594968 0 -0.00053449635714348099 -0.027229690388918083 0 -0.00082507788023624806 -0.02820103336335705 0 0.00062727439471048428 -0.027574681084615735 0 -0.00053449635714348099 -0.027229690388918083 0 -0.0001324394982168378 -0.028070025235967754 0 6.2408803795919435e-05 -0.026657602435587516 0 0.00018985528328356512 -0.027302666580157436 0 -0.00053449635714348099 -0.027229690388918083 0 0.00038647783580638665 -0.027446695500955746 0 -0.00048042009046885654 -0.027219779783736294 0 -0.00053449635714348099 -0.027229690388918083 0 -0.0001324394982168378 -0.028070025235967754 0 -0.00082507788023624806 -0.02820103336335705 0 -0.0001324394982168378 -0.028070025235967754 0 -0.00082507788023624806 -0.02820103336335705 0 -0.00068283387572673569 -0.02860811597387667 0 -0.0001324394982168378 -0.028070025235967754 0 -0.00068283387572673569 -0.02860811597387667 0 -9.215334527800856e-05 -0.028731034860113278 0 0.00062799754248430058 -0.028256913985090799 0 0.00053664686725367469 -0.028751122588238927 0 -9.215334527800856e-05 -0.028731034860113278 0 0.00062799754248430058 -0.028256913985090799 0 -0.0001324394982168378 -0.028070025235967754 0 -9.215334527800856e-05 -0.028731034860113278 0 0.00053664686725367469 -0.028751122588238927 0 -0.00024349577986105376 -0.029143190681077052 0 -0.00030622893059143488 -0.029614470683726728 0 0.00053664686725367469 -0.028751122588238927 0 -9.215334527800856e-05 -0.028731034860113278 0 -0.00024349577986105376 -0.029143190681077052 0 0.00054466439271666652 -0.028747304638782934 0 -7.9025383771097779e-06 -0.029342821184264942 0 -0.00068283387572673569 -0.02860811597387667 0 -0.00061602649916991296 -0.029148292464239473 0 -0.0010019389476406302 -0.028931960453347873 0 -0.00068283387572673569 -0.02860811597387667 0 -9.215334527800856e-05 -0.028731034860113278 0 -0.00061602649916991296 -0.029148292464239473 0 -9.215334527800856e-05 -0.028731034860113278 0 -0.00024349577986105376 -0.029143190681077052 0 -0.00061602649916991296 -0.029148292464239473 0 -0.00024349577986105376 -0.029143190681077052 0 -0.00061602649916991296 -0.029148292464239473 0 -0.00062490502433469196 -0.029448331079247936 0 -0.00061602649916991296 -0.029148292464239473 0 -0.0010012223968270573 -0.029433722179473543 0 -0.00062490502433469196 -0.029448331079247936 0 -0.00061602649916991296 -0.029148292464239473 0 -0.0010019389476406302 -0.028931960453347873 0 -0.0010012223968270573 -0.029433722179473543 0 -0.0010019389476406302 -0.028931960453347873 0 -0.001437566979520901 -0.029021921282454816 0 -0.0010012223968270573 -0.029433722179473543 0 -0.00068283387572673569 -0.02860811597387667 0 -0.0010019389476406302 -0.028931960453347873 0 -0.0012243750493578227 -0.028477101403784007 0 -0.00082507788023624806 -0.02820103336335705 0 -0.00068283387572673569 -0.02860811597387667 0 -0.0012243750493578227 -0.028477101403784007 0 -0.0010019389476406302 -0.028931960453347873 0 -0.0012243750493578227 -0.028477101403784007 0 -0.001437566979520901 -0.029021921282454816 0 -0.0012243750493578227 -0.028477101403784007 0 -0.001437566979520901 -0.029021921282454816 0 -0.0017202852248854891 -0.028506096763080014 0 -0.001437566979520901 -0.029021921282454816 0 -0.0010012223968270573 -0.029433722179473543 0 -0.0012905274325534703 -0.029621045102396687 0 -0.001437566979520901 -0.029021921282454816 0 -0.0017734415941234251 -0.029461641221006182 0 -0.0012905274325534703 -0.029621045102396687 0 -0.001437566979520901 -0.029021921282454816 0 -0.0019934212135423327 -0.028958617814463902 0 -0.0017734415941234251 -0.029461641221006182 0 -0.0019934212135423327 -0.028958617814463902 0 -0.0023966545835984844 -0.029267992214938029 0 -0.0017734415941234251 -0.029461641221006182 0 -0.0019934212135423327 -0.028958617814463902 0 -0.0021415711322269521 -0.028651164699489962 0 -0.0023075149132522153 -0.028839723771652913 0 -0.0019934212135423327 -0.028958617814463902 0 -0.0023075149132522153 -0.028839723771652913 0 -0.0023966545835984844 -0.029267992214938029 0 -0.001437566979520901 -0.029021921282454816 0 -0.0019934212135423327 -0.028958617814463902 0 -0.0017202852248854891 -0.028506096763080014 0 -0.0019934212135423327 -0.028958617814463902 0 -0.0017202852248854891 -0.028506096763080014 0 -0.0021415711322269521 -0.028651164699489962 0 -0.0017202852248854891 -0.028506096763080014 0 -0.0021415711322269521 -0.028651164699489962 0 -0.0019495675338848828 -0.028366364303114153 0 -0.0021415711322269521 -0.028651164699489962 0 -0.0022176049389779546 -0.028429382158625834 0 -0.0019495675338848828 -0.028366364303114153 0 -0.0022176049389779546 -0.028429382158625834 0 -0.0019495675338848828 -0.028366364303114153 0 -0.0021179505653325442 -0.028236782579958885 0 -0.0016688616813422185 -0.028078822901709027 0 -0.0017202852248854891 -0.028506096763080014 0 -0.0019495675338848828 -0.028366364303114153 0 -0.0021083894558867155 -0.02791359258922033 0 -0.0026656436232777702 -0.027980309980484504 0 -0.0016688616813422185 -0.028078822901709027 0 -0.0019495675338848828 -0.028366364303114153 0 -0.0021179505653325442 -0.028236782579958885 0 -0.0024791803154773657 -0.028564382449211095 0 -0.0023732541499809552 -0.028599680912322911 0 -0.0024216519966904367 -0.028383159144064279 0 -0.0024791803154773657 -0.028564382449211095 0 -0.0024216519966904367 -0.028383159144064279 0 -0.0024902411480735385 -0.028510689974895313 0 -0.0022176049389779546 -0.028429382158625834 0 -0.0023732541499809552 -0.028599680912322911 0 -0.0024216519966904367 -0.028383159144064279 0 -0.0022176049389779546 -0.028429382158625834 0 -0.0021179505653325442 -0.028236782579958885 0 -0.0024216519966904367 -0.028383159144064279 0 -0.0021415711322269521 -0.028651164699489962 0 -0.0022176049389779546 -0.028429382158625834 0 -0.0023732541499809552 -0.028599680912322911 0 -0.0021415711322269521 -0.028651164699489962 0 -0.0023732541499809552 -0.028599680912322911 0 -0.0023075149132522153 -0.028839723771652913 0 -0.0023732541499809552 -0.028599680912322911 0 -0.0025356484726426895 -0.028800100162863523 0 -0.0023075149132522153 -0.028839723771652913 0 -0.0024791803154773657 -0.028564382449211095 0 -0.0023732541499809552 -0.028599680912322911 0 -0.0025356484726426895 -0.028800100162863523 0 -0.0024791803154773657 -0.028564382449211095 0 -0.0025356484726426895 -0.028800100162863523 0 -0.0025673371164386394 -0.028591008343161452 0 -0.0030156004087295886 -0.043846053746795871 0 -0.0032137660109343167 -0.044723591725881709 0 -0.0034575398537288432 -0.043893462073066054 0 -0.0025356484726426895 -0.028800100162863523 0 -0.0023075149132522153 -0.028839723771652913 0 -0.0023966545835984844 -0.029267992214938029 0 -0.0031915422726502911 -0.035114329691740859 0 -0.0023615463669456327 -0.037241119058585063 0 -0.0025627104040418722 -0.044675519098266468 0 -0.0032137660109343167 -0.044723591725881709 0 -0.0028037301460330671 -0.044988206431534637 0 -0.0030156004087295886 -0.043846053746795871 0 -0.0025627104040418722 -0.044675519098266468 0 -0.0032137660109343167 -0.044723591725881709 0 -0.0012853217426092337 -0.048830090078095835 0 -0.00076916687979397926 -0.049001910894552282 0 -0.0010671977290962061 -0.04796081798883705 0 -0.002206224969576614 -0.048218702489648442 0 -0.0012853217426092337 -0.048830090078095835 0 -0.0010671977290962061 -0.04796081798883705 0 -0.002206224969576614 -0.048218702489648442 0 -0.0012853217426092337 -0.048830090078095835 0 -0.0013746720085180569 -0.049477476019569804 0 -0.00076916687979397926 -0.049001910894552282 0 -1.936318345469836e-05 -0.048748863199780917 0 -0.0010671977290962061 -0.04796081798883705 0 -0.00076916687979397926 -0.049001910894552282 0 -0.00038067608927132274 -0.049382408975058273 0 -0.00078088754290821867 -0.049582154291671766 0 -0.00076916687979397926 -0.049001910894552282 0 -0.0010588264951717562 -0.049252397518321597 0 -0.00078088754290821867 -0.049582154291671766 0 -0.0010588264951717562 -0.049252397518321597 0 -0.0013746720085180569 -0.049477476019569804 0 -0.00078088754290821867 -0.049582154291671766 0 -0.0027206800681232107 -0.04617792855840424 0 -0.0023246466000698372 -0.047670815049822471 0 -0.0012853217426092337 -0.048830090078095835 0 -0.00076916687979397926 -0.049001910894552282 0 -0.0010588264951717562 -0.049252397518321597 0 -0.0012853217426092337 -0.048830090078095835 0 -0.0010588264951717562 -0.049252397518321597 0 -0.0013746720085180569 -0.049477476019569804 0 -1.4414492248379441e-05 -0.05001029057894333 0 2.2648986502959753e-07 -0.049999421859902603 0 -7.4890859126054646e-08 -0.050000186733808349 0 -0.00076916687979397926 -0.049001910894552282 0 -1.936318345469836e-05 -0.048748863199780917 0 -0.00038067608927132274 -0.049382408975058273 0 -1.936318345469836e-05 -0.048748863199780917 0 -0.00038067608927132274 -0.049382408975058273 0 -0.00010457885720943192 -0.049500883372993999 0 -0.00038067608927132274 -0.049382408975058273 0 -0.00010457885720943192 -0.049500883372993999 0 -0.00017413217318260489 -0.049704834475758269 0 -0.00010457885720943192 -0.049500883372993999 0 -6.6858160863035609e-05 -0.049779068431625537 0 -0.00017413217318260489 -0.049704834475758269 0 -1.4414492248379441e-05 -0.05001029057894333 0 2.2648986502959753e-07 -0.049999421859902603 0 1.570247177014457e-05 -0.049974102924149624 0 -0.00010457885720943192 -0.049500883372993999 0 -6.6858160863035609e-05 -0.049779068431625537 0 1.570247177014457e-05 -0.049974102924149624 0 -1.936318345469836e-05 -0.048748863199780917 0 -0.00010457885720943192 -0.049500883372993999 0 1.570247177014457e-05 -0.049974102924149624 0 -8.6958708015462166e-05 -0.049332157176079444 0 3.4326581559484817e-05 -0.049892789924740236 0 1.570247177014457e-05 -0.049974102924149624 0 -6.4764891338079129e-05 -0.049884474686733946 0 -1.0455377786569587e-07 -0.049999856461875714 0 2.2648986502959753e-07 -0.049999421859902603 0 1.570247177014457e-05 -0.049974102924149624 0 -1.0455377786569587e-07 -0.049999856461875714 0 -6.6858160863035609e-05 -0.049779068431625537 0 1.570247177014457e-05 -0.049974102924149624 0 -6.4764891338079129e-05 -0.049884474686733946 0 -6.6858160863035609e-05 -0.049779068431625537 0 -6.4764891338079129e-05 -0.049884474686733946 0 -0.00017413217318260489 -0.049704834475758269 0 -6.4764891338079129e-05 -0.049884474686733946 0 -0.00034078570285023046 -0.04976976122661652 0 -0.00023479446175139952 -0.049987597603248286 0 -0.00034078570285023046 -0.04976976122661652 0 -0.00023479446175139952 -0.049987597603248286 0 -0.00053856691075001206 -0.049880628053389976 0 -6.4764891338079129e-05 -0.049884474686733946 0 -0.00017413217318260489 -0.049704834475758269 0 -0.00034078570285023046 -0.04976976122661652 0 -0.00038067608927132274 -0.049382408975058273 0 -0.00017413217318260489 -0.049704834475758269 0 -0.00034078570285023046 -0.04976976122661652 0 -0.00023479446175139952 -0.049987597603248286 0 -0.00044512842729940364 -0.050019657242405549 0 -0.00027850765865844283 -0.050064538655016491 0 -6.4764891338079129e-05 -0.049884474686733946 0 -0.00023479446175139952 -0.049987597603248286 0 -1.0455377786569587e-07 -0.049999856461875714 0 -0.00023479446175139952 -0.049987597603248286 0 -1.0455377786569587e-07 -0.049999856461875714 0 -0.00012692677892827656 -0.050070523298437163 0 -0.0031915422726502911 -0.035114329691740859 0 -0.0021809694921343715 -0.041691738341538845 0 -0.0023246466000698372 -0.047670815049822471 0 -0.0021809694921343715 -0.041691738341538845 0 -0.0013746720085180569 -0.049477476019569804 0 -0.00078088754290821867 -0.049582154291671766 0 -0.00088086735708754174 -0.049985455245345638 0 -0.0030156004087295886 -0.043846053746795871 0 -0.0034575398537288432 -0.043893462073066054 0 -0.00362722537381989 -0.042935017199977381 0 -0.00078088754290821867 -0.049582154291671766 0 -0.00053856691075001206 -0.049880628053389976 0 -0.00088086735708754174 -0.049985455245345638 0 -0.00038067608927132274 -0.049382408975058273 0 -0.00034078570285023046 -0.04976976122661652 0 -0.00078088754290821867 -0.049582154291671766 0 -0.00034078570285023046 -0.04976976122661652 0 -0.00078088754290821867 -0.049582154291671766 0 -0.00053856691075001206 -0.049880628053389976 0 -0.00053856691075001206 -0.049880628053389976 0 -0.00044512842729940364 -0.050019657242405549 0 -0.00088086735708754174 -0.049985455245345638 0 -0.00044512842729940364 -0.050019657242405549 0 -0.00088086735708754174 -0.049985455245345638 0 -0.00037002413433033201 -0.050147151134524018 0 -0.0021809694921343715 -0.041691738341538845 0 0.0006683707065850736 -0.050484405730556195 0 -0.00023479446175139952 -0.049987597603248286 0 -0.00053856691075001206 -0.049880628053389976 0 -0.00044512842729940364 -0.050019657242405549 0 -0.0024791803154773657 -0.028564382449211095 0 -0.0025673371164386394 -0.028591008343161452 0 -0.0024902411480735385 -0.028510689974895313 0 -0.0025673371164386394 -0.028591008343161452 0 -0.0024775353520079106 -0.028534826563765981 0 -0.002201943069516227 -0.02848522572106324 0 -0.0025673371164386394 -0.028591008343161452 0 -0.0024775353520079106 -0.028534826563765981 0 -0.0024902411480735385 -0.028510689974895313 0 -0.0021809694921343715 -0.041691738341538845 0 -0.00093548635969757882 -0.037995723835563586 0 -0.00039374164661045574 -0.047287246967665168 0 0.00052248088942315988 -0.048438213588905418 0 0.00019639662330953373 -0.048997364782800361 0 -0.00044512842729940364 -0.050019657242405549 0 -0.00037002413433033201 -0.050147151134524018 0 -0.00027850765865844283 -0.050064538655016491 0 -0.002201943069516227 -0.02848522572106324 0 -0.0024514391668009144 -0.029277538892932511 0 0.00019295335022612598 -0.038347341286157431 0 0.00019639662330953373 -0.048997364782800361 0 0.00083199924241755872 -0.049363234415078387 0 0.00063912413497986716 -0.04935020017587545 0 0.00052248088942315988 -0.048438213588905418 0 0.00019639662330953373 -0.048997364782800361 0 0.00083199924241755872 -0.049363234415078387 0 -0.0024514391668009144 -0.029277538892932511 0 -0.0036910737426593585 -0.032135194612428947 0 -0.0072213821292927485 -0.034317910189965585 0 -0.002360517697643622 -0.029259702761375763 0 -0.005468105393334006 -0.031603809728130559 0 -0.0024514391668009144 -0.029277538892932511 0 -0.002615266791539951 -0.028787056355225989 0 -0.0026667002785393532 -0.028673003108031874 0 -0.0024775353520079106 -0.028534826563765981 0 -0.002615266791539951 -0.028787056355225989 0 -0.0025155344028859519 -0.028728262435413956 0 -0.0024514391668009144 -0.029277538892932511 0 -0.002615266791539951 -0.028787056355225989 0 -0.0025155344028859519 -0.028728262435413956 0 -0.0024775353520079106 -0.028534826563765981 0 -0.002201943069516227 -0.02848522572106324 0 -0.0025155344028859519 -0.028728262435413956 0 -0.002201943069516227 -0.02848522572106324 0 -0.0024514391668009144 -0.029277538892932511 0 -0.0025155344028859519 -0.028728262435413956 0 -1.0455377786569587e-07 -0.049999856461875714 0 -0.00012692677892827656 -0.050070523298437163 0 7.474377369934879e-08 -0.050000611155012767 0 -0.00037002413433033201 -0.050147151134524018 0 -0.00012692677892827656 -0.050070523298437163 0 -0.00027850765865844283 -0.050064538655016491 0 -0.00037002413433033201 -0.050147151134524018 0 -0.00012692677892827656 -0.050070523298437163 0 -5.4959706405823864e-05 -0.050084262845148352 0 -0.00023479446175139952 -0.049987597603248286 0 -0.00012692677892827656 -0.050070523298437163 0 -0.00027850765865844283 -0.050064538655016491 0 -0.00012692677892827656 -0.050070523298437163 0 -5.4959706405823864e-05 -0.050084262845148352 0 4.023108630117608e-05 -0.050007633469110926 0 0.0006683707065850736 -0.050484405730556195 0 0.00016725706106765088 -0.049443494630523804 0 -0.00012692677892827656 -0.050070523298437163 0 7.474377369934879e-08 -0.050000611155012767 0 4.023108630117608e-05 -0.050007633469110926 0 -5.4959706405823864e-05 -0.050084262845148352 0 4.023108630117608e-05 -0.050007633469110926 0 0.00023259365364585504 -0.049829828815420578 0 7.474377369934879e-08 -0.050000611155012767 0 4.023108630117608e-05 -0.050007633469110926 0 -1.6954130381344606e-07 -0.049998253150722316 0 4.023108630117608e-05 -0.050007633469110926 0 0.00023259365364585504 -0.049829828815420578 0 -1.6954130381344606e-07 -0.049998253150722316 0 0.00083199924241755872 -0.049363234415078387 0 0.00063518546935505691 -0.04953206852841352 0 0.00072252243757774972 -0.049466819283090088 0 0.00083199924241755872 -0.049363234415078387 0 0.00023259365364585504 -0.049829828815420578 0 0.00063518546935505691 -0.04953206852841352 0 0.00016725706106765088 -0.049443494630523804 0 0.00030027617132652999 -0.049848238151473045 0 0.00083199924241755872 -0.049363234415078387 0 0.00063912413497986716 -0.04935020017587545 0 0.00072252243757774972 -0.049466819283090088 0 0.00063518546935505691 -0.04953206852841352 0 0.00076248607725558836 -0.049413027639676012 0 0.00072252243757774972 -0.049466819283090088 0 0.00063518546935505691 -0.04953206852841352 0 0.00076248607725558836 -0.049413027639676012 0 0.00079120008782487231 -0.04894217870185992 0 0.00044569389381270282 -0.048598657956172499 0 0.00079120008782487231 -0.04894217870185992 0 0.00044385105945667807 -0.049377771163904974 0 0.00023259365364585504 -0.049829828815420578 0 0.00063518546935505691 -0.04953206852841352 0 0.00044385105945667807 -0.049377771163904974 0 0.00063518546935505691 -0.04953206852841352 0 0.00079120008782487231 -0.04894217870185992 0 0.00044385105945667807 -0.049377771163904974 0 0.00044569389381270282 -0.048598657956172499 0 0.00044385105945667807 -0.049377771163904974 0 -1.6954130381344606e-07 -0.049998253150722316 0 0.00032407731173385784 -0.049274947384905912 0 1.1451478784812246e-08 -0.049999786433242467 0 0.00023259365364585504 -0.049829828815420578 0 0.00044385105945667807 -0.049377771163904974 0 -1.6954130381344606e-07 -0.049998253150722316 0 -0.0036910737426593585 -0.032135194612428947 0 -0.0054579238203032454 -0.035656771595142453 0 -0.0035023995587999172 -0.037910103817029715 0 -0.0037401887774006987 -0.032669933216428117 0 -0.0033095083026121112 -0.039208115226473286 0 -0.0036910737426593585 -0.032135194612428947 0 -0.0054579238203032454 -0.035656771595142453 0 -0.0072213821292927485 -0.034317910189965585 0 -0.00093548635969757882 -0.037995723835563586 0 0.00046153515388593183 -0.04408627227824137 0 -0.0036910737426593585 -0.032135194612428947 0 0.00019295335022612598 -0.038347341286157431 0 -0.0032238271230181745 -0.040977079394101494 0 -0.0024514391668009144 -0.029277538892932511 0 -0.0036910737426593585 -0.032135194612428947 0 0.00019295335022612598 -0.038347341286157431 0 0.00019639662330953373 -0.048997364782800361 0 0.00063912413497986716 -0.04935020017587545 0 0.00087672615237094809 -0.049505688670329069 0 0.00063912413497986716 -0.04935020017587545 0 0.00072252243757774972 -0.049466819283090088 0 0.00087672615237094809 -0.049505688670329069 0 0.00076248607725558836 -0.049413027639676012 0 0.00072252243757774972 -0.049466819283090088 0 0.00087672615237094809 -0.049505688670329069 0 -0.0011143510425214312 -0.044076852301089875 0 0.00019295335022612598 -0.038347341286157431 0 -0.0032238271230181745 -0.040977079394101494 0 0.0010048898599394204 -0.048144815394731942 0 0.00079120008782487231 -0.04894217870185992 0 0.00087672615237094809 -0.049505688670329069 0 0.0010259862796510983 -0.047785422009603 0 0.00046153515388593183 -0.04408627227824137 0 0.00076248607725558836 -0.049413027639676012 0 0.00079120008782487231 -0.04894217870185992 0 0.00087672615237094809 -0.049505688670329069 0 -0.00545340882488482 -0.040945764560461624 0 -0.0035023995587999172 -0.037910103817029715 0 -0.0071620079760001225 -0.037949133028683052 0 -0.0054579238203032454 -0.035656771595142453 0 -0.0035023995587999172 -0.037910103817029715 0 -0.0071620079760001225 -0.037949133028683052 0 -0.0080905145670384839 -0.04130919825327771 0 -0.0071620079760001225 -0.037949133028683052 0 -0.010731264157656805 -0.037855083705719578 0 -0.005468105393334006 -0.031603809728130559 0 -0.0031586649589023111 -0.033767838578385861 0 -0.0071620079760001225 -0.037949133028683052 0 -0.0072213821292927485 -0.034317910189965585 0 -0.010731264157656805 -0.037855083705719578 0 -0.0054579238203032454 -0.035656771595142453 0 -0.0071620079760001225 -0.037949133028683052 0 -0.0072213821292927485 -0.034317910189965585 0 -0.0026667002785393532 -0.028673003108031874 0 -0.0028613203200140874 -0.028657754222767343 0 -0.0028109626846317668 -0.028471755014589022 0 -0.0026667002785393532 -0.028673003108031874 0 -0.0028613203200140874 -0.028657754222767343 0 -0.0028881345776981563 -0.028943714623038616 0 -0.0028613203200140874 -0.028657754222767343 0 -0.0028881345776981563 -0.028943714623038616 0 -0.0030748163836620815 -0.028688470515105348 0 -0.0028613203200140874 -0.028657754222767343 0 -0.0030748163836620815 -0.028688470515105348 0 -0.0030195607278878604 -0.028399748961717361 0 -0.0028613203200140874 -0.028657754222767343 0 -0.0028109626846317668 -0.028471755014589022 0 -0.0030195607278878604 -0.028399748961717361 0 -0.0031586649589023111 -0.033767838578385861 0 -0.0016317881800518512 -0.030747044321101903 0 -0.00074541626540965513 -0.032847950453232182 0 -0.00047854103860871044 -0.032999082620273679 0 -0.00030838119196878244 -0.032741304186190527 0 -0.00016410600667276685 -0.032963752655355137 0 -0.00047854103860871044 -0.032999082620273679 0 -0.00030838119196878244 -0.032741304186190527 0 -0.00074541626540965513 -0.032847950453232182 0 -0.00030838119196878244 -0.032741304186190527 0 -0.00046922962488000802 -0.032504526927319248 0 -0.00072673960079853127 -0.033209179323085737 0 -0.00074541626540965513 -0.032847950453232182 0 -0.00047854103860871044 -0.032999082620273679 0 -0.0016698665937963976 -0.029186283819871286 0 -0.0022864391455506318 -0.028635247187238418 0 -0.0025959682408913634 -0.025259594089584357 0 -0.0024493026791951112 -0.026338214524807176 0 -0.0037925278945334716 -0.026351867119805257 0 -0.0030748163836620815 -0.028688470515105348 0 -0.0033083011313187042 -0.028255997987393023 0 -0.0030195607278878604 -0.028399748961717361 0 -0.0016317881800518512 -0.030747044321101903 0 -0.0022864391455506318 -0.028635247187238418 0 -0.0033083011313187042 -0.028255997987393023 0 -0.0031771846424179504 -0.028098421437001524 0 -0.0030195607278878604 -0.028399748961717361 0 -0.0022864391455506318 -0.028635247187238418 0 -0.0026200769043969183 -0.028595662535760454 0 -0.003256294172085544 -0.028131264058278184 0 -0.0031771846424179504 -0.028098421437001524 0 -0.003172362428878743 -0.027815110528065221 0 -0.003256294172085544 -0.028131264058278184 0 -0.00309219151230939 -0.027363901045008257 0 -0.003172362428878743 -0.027815110528065221 0 -0.0031771846424179504 -0.028098421437001524 0 -0.003039675714446691 -0.0280401930943679 0 -0.0030195607278878604 -0.028399748961717361 0 -0.0031771846424179504 -0.028098421437001524 0 -0.003172362428878743 -0.027815110528065221 0 -0.003039675714446691 -0.0280401930943679 0 -0.0024493026791951112 -0.026338214524807176 0 -0.0037925278945334716 -0.026351867119805257 0 -0.00309219151230939 -0.027363901045008257 0 -0.0022864391455506318 -0.028635247187238418 0 -0.0035539960715597263 -0.026901002934019227 0 -0.0026107636737028699 -0.027780891498877858 0 -0.00309219151230939 -0.027363901045008257 0 -0.0032439858342088079 -0.027697664083249703 0 -0.003172362428878743 -0.027815110528065221 0 -0.0032439858342088079 -0.027697664083249703 0 -0.003039675714446691 -0.0280401930943679 0 -0.00309219151230939 -0.027363901045008257 0 -0.003172362428878743 -0.027815110528065221 0 -0.0032439858342088079 -0.027697664083249703 0 -0.0032439858342088079 -0.027697664083249703 0 -0.0028335120395539841 -0.028072371088633117 0 -0.003039675714446691 -0.0280401930943679 0 -0.0026656436232777702 -0.027980309980484504 0 -0.0026337733745304703 -0.028233141572344946 0 -0.0024892793418433111 -0.028478516233096548 0 -0.0026337733745304703 -0.028233141572344946 0 -0.0024775353520079106 -0.028534826563765981 0 -0.002615266791539951 -0.028787056355225989 0 -0.0028335120395539841 -0.028072371088633117 0 -0.0024775353520079106 -0.028534826563765981 0 -0.0024216519966904367 -0.028383159144064279 0 -0.0024902411480735385 -0.028510689974895313 0 -0.002615266791539951 -0.028787056355225989 0 -0.0028335120395539841 -0.028072371088633117 0 -0.0028109626846317668 -0.028471755014589022 0 -0.002615266791539951 -0.028787056355225989 0 -0.0026667002785393532 -0.028673003108031874 0 -0.0028109626846317668 -0.028471755014589022 0 -0.0028335120395539841 -0.028072371088633117 0 -0.003039675714446691 -0.0280401930943679 0 -0.0028109626846317668 -0.028471755014589022 0 -0.003039675714446691 -0.0280401930943679 0 -0.0028109626846317668 -0.028471755014589022 0 -0.0030195607278878604 -0.028399748961717361 0 -0.0013760315908816199 -0.0033234609575946887 0 -0.0012014041424907587 -0.0026906129531426861 0 -0.0018271698985204746 -0.0025689990891840978 0 -0.0022060004941031283 -0.0031069697889676276 0 -0.0018271698985204746 -0.0025689990891840978 0 -0.0024855051048696159 -0.0022767295916767873 0 -0.0013760315908816199 -0.0033234609575946887 0 -0.0022060004941031283 -0.0031069697889676276 0 -0.0018271698985204746 -0.0025689990891840978 0 -0.0018271698985204746 -0.0025689990891840978 0 -0.0024855051048696159 -0.0022767295916767873 0 -0.0022300261310872777 -0.0018423161821303909 0 -0.0018271698985204746 -0.0025689990891840978 0 -0.0017955011160527244 -0.0019791674799757809 0 -0.0021077680980754825 -0.0019702441530714274 0 -0.0018474841975594332 -0.0025140709620575324 0 -0.0022071721325961301 -0.0018980035835445799 0 -0.0018271698985204746 -0.0025689990891840978 0 -0.0014180997692928774 -0.0021900214293966917 0 -0.0017955011160527244 -0.0019791674799757809 0 -0.0012014041424907587 -0.0026906129531426861 0 -0.0018271698985204746 -0.0025689990891840978 0 -0.0014180997692928774 -0.0021900214293966917 0 -0.0012014041424907587 -0.0026906129531426861 0 -0.0014180997692928774 -0.0021900214293966917 0 -0.0008458846297681933 -0.0021933650735756014 0 -0.0014180997692928774 -0.0021900214293966917 0 -0.0008458846297681933 -0.0021933650735756014 0 -0.0013116934382295614 -0.0018442585833858076 0 -0.0012014041424907587 -0.0026906129531426861 0 -0.0008458846297681933 -0.0021933650735756014 0 -0.00049250462335685436 -0.0032314647430212516 0 0.00017231613030815218 -0.0045538755377579707 0 8.1926158042148326e-05 -0.0044675823348824615 0 -1.1920595785306706e-05 -0.0044436300499541021 0 -0.00040919978660920037 -0.0031973462676596685 0 -0.00024781035046290121 -0.003910882259004724 0 0.00017231613030815218 -0.0045538755377579707 0 0.00011546723057288393 -0.0045369552433304761 0 8.1926158042148326e-05 -0.0044675823348824615 0 8.9347961074879548e-05 -0.0044491190264846006 0 8.1926158042148326e-05 -0.0044675823348824615 0 0.00014468281443870054 -0.0044418233191722634 0 0.00011546723057288393 -0.0045369552433304761 0 8.9347961074879548e-05 -0.0044491190264846006 0 8.1926158042148326e-05 -0.0044675823348824615 0 8.1926158042148326e-05 -0.0044675823348824615 0 0.00014468281443870054 -0.0044418233191722634 0 -1.1920595785306706e-05 -0.0044436300499541021 0 0.00014468281443870054 -0.0044418233191722634 0 -1.1920595785306706e-05 -0.0044436300499541021 0 0.00022941412475560279 -0.0045570645935695091 0 -0.0013760315908816199 -0.0033234609575946887 0 -0.0012014041424907587 -0.0026906129531426861 0 -0.00049250462335685436 -0.0032314647430212516 0 -0.00049250462335685436 -0.0032314647430212516 0 -0.001023915352368046 -0.0041089136283622464 0 -0.00022554209579244268 -0.0046246540908232055 0 -0.0013760315908816199 -0.0033234609575946887 0 -0.00049250462335685436 -0.0032314647430212516 0 -0.001023915352368046 -0.0041089136283622464 0 -0.00024781035046290121 -0.003910882259004724 0 -0.00020340406294287733 -0.0045498957432404093 0 -1.1920595785306706e-05 -0.0044436300499541021 0 -0.00022554209579244268 -0.0046246540908232055 0 0.00022941412475560279 -0.0045570645935695091 0 -0.001023915352368046 -0.0041089136283622464 0 -0.00022554209579244268 -0.0046246540908232055 0 -0.0012298678374837882 -0.0051414360120552813 0 -0.0017679601862507007 -0.0040403423600255456 0 -0.002037949073369954 -0.0047555940615495495 0 -0.0012298678374837882 -0.0051414360120552813 0 -0.001023915352368046 -0.0041089136283622464 0 -0.0017679601862507007 -0.0040403423600255456 0 -0.0012298678374837882 -0.0051414360120552813 0 -0.0013760315908816199 -0.0033234609575946887 0 -0.001023915352368046 -0.0041089136283622464 0 -0.0017679601862507007 -0.0040403423600255456 0 -0.0022060004941031283 -0.0031069697889676276 0 -0.0017679601862507007 -0.0040403423600255456 0 -0.0026688855719344067 -0.0037816644802035767 0 -0.0013760315908816199 -0.0033234609575946887 0 -0.0022060004941031283 -0.0031069697889676276 0 -0.0017679601862507007 -0.0040403423600255456 0 -0.0017679601862507007 -0.0040403423600255456 0 -0.0026688855719344067 -0.0037816644802035767 0 -0.002037949073369954 -0.0047555940615495495 0 -0.0026688855719344067 -0.0037816644802035767 0 -0.002037949073369954 -0.0047555940615495495 0 -0.002690306218921057 -0.0050123826064388706 0 -0.0034674998570863491 -0.0041593520125627432 0 -0.0026688855719344067 -0.0037816644802035767 0 -0.002690306218921057 -0.0050123826064388706 0 -0.0035049569464754137 -0.0029835817038736715 0 -0.0026688855719344067 -0.0037816644802035767 0 -0.0029197569954524669 -0.0026153910664771201 0 -0.0034674998570863491 -0.0041593520125627432 0 -0.0035049569464754137 -0.0029835817038736715 0 -0.0026688855719344067 -0.0037816644802035767 0 -0.0044949217918723271 -0.0021597439360103977 0 -0.0044762406601856338 -0.00251062969458725 0 -0.0045199138609722756 -0.0022406456000310091 0 -0.0044949217918723271 -0.0021597439360103977 0 -0.0045199138609722756 -0.0022406456000310091 0 -0.0045169627997848393 -0.002065583947252468 0 -0.0038768322406384269 -0.0032877042910110449 0 -0.0042775757643616829 -0.0026993594104956797 0 -0.0043097164612272689 -0.0024085053927423816 0 -0.0044949217918723271 -0.0021597439360103977 0 -0.0044762406601856338 -0.00251062969458725 0 -0.0035049569464754137 -0.0029835817038736715 0 -0.0041143230922070506 -0.0032356595896843557 0 -0.0040642854251464657 -0.0023883704969032051 0 -0.0034674998570863491 -0.0041593520125627432 0 -0.0035049569464754137 -0.0029835817038736715 0 -0.0041143230922070506 -0.0032356595896843557 0 -0.0042775757643616829 -0.0026993594104956797 0 -0.0044838422656736116 -0.002255193937066937 0 -0.0040642854251464657 -0.0023883704969032051 0 -0.0042524397495695195 -0.0018692786345844235 0 -0.00449634313267712 -0.0021677534905488074 0 -0.0041143230922070506 -0.0032356595896843557 0 -0.0040642854251464657 -0.0023883704969032051 0 -0.00449634313267712 -0.0021677534905488074 0 -0.0035049569464754137 -0.0029835817038736715 0 -0.0040642854251464657 -0.0023883704969032051 0 -0.0036255152345328057 -0.0020779957569498657 0 -0.0036255152345328057 -0.0020779957569498657 0 -0.0042524397495695195 -0.0018692786345844235 0 -0.0038463067562238694 -0.0016208083484657171 0 -0.0040642854251464657 -0.0023883704969032051 0 -0.0036255152345328057 -0.0020779957569498657 0 -0.0042524397495695195 -0.0018692786345844235 0 -0.0022060004941031283 -0.0031069697889676276 0 -0.0029197569954524669 -0.0026153910664771201 0 -0.0024855051048696159 -0.0022767295916767873 0 -0.0022060004941031283 -0.0031069697889676276 0 -0.0026688855719344067 -0.0037816644802035767 0 -0.0029197569954524669 -0.0026153910664771201 0 -0.0035049569464754137 -0.0029835817038736715 0 -0.0036255152345328057 -0.0020779957569498657 0 -0.0029197569954524669 -0.0026153910664771201 0 -0.0036255152345328057 -0.0020779957569498657 0 -0.0029197569954524669 -0.0026153910664771201 0 -0.0030071944377585928 -0.0019510058305966043 0 -0.0029197569954524669 -0.0026153910664771201 0 -0.0030071944377585928 -0.0019510058305966043 0 -0.0024855051048696159 -0.0022767295916767873 0 -0.0030071944377585928 -0.0019510058305966043 0 -0.0024855051048696159 -0.0022767295916767873 0 -0.0026587475048790994 -0.001747267114805206 0 -0.0024855051048696159 -0.0022767295916767873 0 -0.0026587475048790994 -0.001747267114805206 0 -0.0022300261310872777 -0.0018423161821303909 0 -0.0016543867311706374 -0.0011331909575192094 0 -0.0022071721325961301 -0.0018980035835445799 0 -0.0026587475048790994 -0.001747267114805206 0 -0.0026001977864814362 -0.0012688839889412645 0 -0.0022300261310872777 -0.0018423161821303909 0 -0.0026587475048790994 -0.001747267114805206 0 -0.0029773679104184406 -0.0015445747645543445 0 -0.0026001977864814362 -0.0012688839889412645 0 -0.0030071944377585928 -0.0019510058305966043 0 -0.0026587475048790994 -0.001747267114805206 0 -0.0029773679104184406 -0.0015445747645543445 0 -0.0030071944377585928 -0.0019510058305966043 0 -0.0034056137339604879 -0.0015762965704038824 0 -0.0029773679104184406 -0.0015445747645543445 0 -0.0036255152345328057 -0.0020779957569498657 0 -0.0030071944377585928 -0.0019510058305966043 0 -0.0034056137339604879 -0.0015762965704038824 0 -0.0034056137339604879 -0.0015762965704038824 0 -0.0029773679104184406 -0.0015445747645543445 0 -0.0031861566330965612 -0.0011902039731031358 0 -0.0034056137339604879 -0.0015762965704038824 0 -0.0031861566330965612 -0.0011902039731031358 0 -0.0036979982149322041 -0.0011416886819356146 0 -0.0026296858346116989 -0.00025430764378309704 0 -0.00036497580103628491 0.0004983944841511753 0 -0.0018075324634636042 -0.00053129918826664993 0 -0.002493631055494504 -0.00038121357681348693 0 -0.0014919757041778584 -1.1606081695315715e-05 0 -0.0025836945668837822 -0.00084145466311876264 0 -0.0026296858346116989 -0.00025430764378309704 0 -0.00052329289685041345 -0.00088597028231802283 0 -0.00051519794434552561 -0.00082869621222681563 0 -0.00055130076986454365 -0.00081849845217101132 0 -0.0016543867311706374 -0.0011331909575192094 0 -0.00036497580103628491 0.0004983944841511753 0 -0.0018075324634636042 -0.00053129918826664993 0 -0.0011250709365583133 -0.00068207147875400803 0 -0.0014919757041778584 -1.1606081695315715e-05 0 -0.0025836945668837822 -0.00084145466311876264 0 -0.0016543867311706374 -0.0011331909575192094 0 -0.0029773679104184406 -0.0015445747645543445 0 -0.0031861566330965612 -0.0011902039731031358 0 -0.0026001977864814362 -0.0012688839889412645 0 -0.0042524397495695195 -0.0018692786345844235 0 -0.0041525206040543897 -0.0016333621745624237 0 -0.0038463067562238694 -0.0016208083484657171 0 -0.0041525206040543897 -0.0016333621745624237 0 -0.0041922319799672031 -0.001432873261717292 0 -0.0042953813914990823 -0.0016162169748692129 0 -0.0042524397495695195 -0.0018692786345844235 0 -0.0041525206040543897 -0.0016333621745624237 0 -0.0042953813914990823 -0.0016162169748692129 0 -0.0041525206040543897 -0.0016333621745624237 0 -0.0038463067562238694 -0.0016208083484657171 0 -0.0041922319799672031 -0.001432873261717292 0 -0.0036255152345328057 -0.0020779957569498657 0 -0.0034056137339604879 -0.0015762965704038824 0 -0.0038463067562238694 -0.0016208083484657171 0 -0.0034056137339604879 -0.0015762965704038824 0 -0.0038463067562238694 -0.0016208083484657171 0 -0.0036979982149322041 -0.0011416886819356146 0 -0.00094291237283160626 0.0018249212255667486 0 -0.0013253682453786548 0.0018786944630524785 0 -0.0010652382884255398 0.0020502433248677453 0 -0.0026296858346116989 -0.00025430764378309704 0 -0.002842587744512771 0.00031787089744251255 0 -0.0038463067562238694 -0.0016208083484657171 0 -0.0036979982149322041 -0.0011416886819356146 0 -0.0041922319799672031 -0.001432873261717292 0 -0.0038639724875330706 -0.0013211473414530088 0 -0.0041391686409178834 -0.0012790940103917414 0 -0.0041922319799672031 -0.001432873261717292 0 -0.0026296858346116989 -0.00025430764378309704 0 -0.0046487431841669329 -0.0016645686389148769 0 -0.0013423639790027765 0.002148574963550432 0 -0.0010652382884255398 0.0020502433248677453 0 -0.00093431796308578565 0.0023018180818077326 0 -0.0013253682453786548 0.0018786944630524785 0 -0.0013423639790027765 0.002148574963550432 0 -0.001752695617914319 0.0019605343228087362 0 -0.0009227796175854939 0.00238183326586673 0 -0.0010113876923594559 0.0022932861740290284 0 -0.0013253682453786548 0.0018786944630524785 0 -0.0013423639790027765 0.002148574963550432 0 -0.0010652382884255398 0.0020502433248677453 0 -0.0010652382884255398 0.0020502433248677453 0 -0.00080694318712524484 0.0020930732880614011 0 -0.00093431796308578565 0.0023018180818077326 0 -0.00094291237283160626 0.0018249212255667486 0 -0.0010652382884255398 0.0020502433248677453 0 -0.00080694318712524484 0.0020930732880614011 0 -0.00093431796308578565 0.0023018180818077326 0 -0.00062685991880317396 0.0022445278408062068 0 -0.00094828268644157421 0.0023906758415944574 0 0.0010657455988660833 -2.6502699500914113e-05 0 0.0010347845700176422 0.00022388520910822355 0 -0.00093431796308578565 0.0023018180818077326 0 -0.00091969930881851563 0.0023796704876974826 0 -0.00094828268644157421 0.0023906758415944574 0 -0.00086266920464862231 0.0024685313437256633 0 -0.00093431796308578565 0.0023018180818077326 0 -0.00089145378139728157 0.0023831111742874905 0 -0.00093431796308578565 0.0023018180818077326 0 -0.00089145378139728157 0.0023831111742874905 0 -0.00091969930881851563 0.0023796704876974826 0 -0.00089145378139728157 0.0023831111742874905 0 -0.00091969930881851563 0.0023796704876974826 0 -0.00085024599833164382 0.0023913389751728364 0 -0.00091969930881851563 0.0023796704876974826 0 -0.00085024599833164382 0.0023913389751728364 0 -0.00083005916103543289 0.0023556169866326584 0 -0.00089145378139728157 0.0023831111742874905 0 -0.00085024599833164382 0.0023913389751728364 0 -0.00079063689868066173 0.0024284404286583484 0 -0.00086266920464862231 0.0024685313437256633 0 -0.00089145378139728157 0.0023831111742874905 0 -0.00079063689868066173 0.0024284404286583484 0 9.5554531966936647e-05 0.00018131051417864366 0 0.00032159966943878744 0.00026575137215535904 0 0.00060324977742136463 -0.0002330489713166446 0 0.00037863975650560415 -0.00026848817591014837 0 0.0010657455988660833 -2.6502699500914113e-05 0 0.0015475732561331724 -0.00023335449317942722 0 0.0021806553370630304 -0.00074630802337487517 0 0.0016166384458385337 -0.00079616767410961543 0 0.00037863975650560415 -0.00026848817591014837 0 5.7423320447358233e-05 -0.0013962507273038976 0 0.0015475732561331724 -0.00023335449317942722 0 0.0016166384458385337 -0.00079616767410961543 0 0.00098710529389093964 -0.00044395464874284079 0 4.1549052359717932e-05 -0.00031759352286365696 0 0.00037863975650560415 -0.00026848817591014837 0 -0.00051519794434552561 -0.00082869621222681563 0 -0.00052701438105445797 -0.00081603193032665018 0 -0.0004909778993722444 -0.00080424922012426955 0 -0.00051519794434552561 -0.00082869621222681563 0 -0.00053021531210704041 -0.00081219828639021209 0 -0.00055130076986454365 -0.00081849845217101132 0 0.00037863975650560415 -0.00026848817591014837 0 -0.00036497580103628491 0.0004983944841511753 0 -0.00080694318712524484 0.0020930732880614011 0 -0.00093431796308578565 0.0023018180818077326 0 -0.00062685991880317396 0.0022445278408062068 0 -0.00094291237283160626 0.0018249212255667486 0 -0.00080694318712524484 0.0020930732880614011 0 -0.00048466873330330464 0.0020185755412235585 0 -0.00080694318712524484 0.0020930732880614011 0 -0.00048466873330330464 0.0020185755412235585 0 -0.00062685991880317396 0.0022445278408062068 0 -0.00036497580103628491 0.0004983944841511753 0 0.0010657455988660833 -2.6502699500914113e-05 0 0.0024646596771747977 -0.0014234480247959109 0 0.0031451907795526507 -0.0020696990283328408 0 0.0027640530945779009 -0.002001353348726666 0 0.0021806553370630304 -0.00074630802337487517 0 0.0020234903941881498 -0.001496631761027982 0 0.0016166384458385337 -0.00079616767410961543 0 0.0021806553370630304 -0.00074630802337487517 0 0.0020234903941881498 -0.001496631761027982 0 0.0026504057714011398 -0.0015781110460360512 0 0.0010657455988660833 -2.6502699500914113e-05 0 0.0028548005719876116 -0.0020329017470506047 0 0.0020234903941881498 -0.001496631761027982 0 0.0016166384458385337 -0.00079616767410961543 0 0.0014083031396395565 -0.0013201424194620298 0 0.00092770347464106537 -0.0017063100698731523 0 5.7423320447358233e-05 -0.0013962507273038976 0 0.0016166384458385337 -0.00079616767410961543 0 0.0014083031396395565 -0.0013201424194620298 0 0.00098710529389093964 -0.00044395464874284079 0 7.286270797454102e-05 -0.0020356186467816438 0 -0.0002346915012540514 -0.0021671256524531069 0 0.00020364985444564111 -0.0023632229593261661 0 0.00043102745634943503 -0.0021108661634970851 0 7.286270797454102e-05 -0.0020356186467816438 0 0.00021802523624176565 -0.0016640252609935006 0 0.00043102745634943503 -0.0021108661634970851 0 7.286270797454102e-05 -0.0020356186467816438 0 0.00020364985444564111 -0.0023632229593261661 0 7.286270797454102e-05 -0.0020356186467816438 0 -0.00032639585808410588 -0.0018715278444752562 0 0.00021802523624176565 -0.0016640252609935006 0 7.286270797454102e-05 -0.0020356186467816438 0 -0.0002346915012540514 -0.0021671256524531069 0 -0.00032639585808410588 -0.0018715278444752562 0 -0.00063012857073507626 -0.0014150868653584573 0 -0.0015159084466753524 -0.0014189125665244591 0 -0.00074546086374026712 -0.0018861804103414549 0 -0.00063012857073507626 -0.0014150868653584573 0 -0.00055149645950597998 -0.001043524985028188 0 -0.0015159084466753524 -0.0014189125665244591 0 -0.00063012857073507626 -0.0014150868653584573 0 -0.0004080589219324285 -0.0015191844763934855 0 -0.00055149645950597998 -0.001043524985028188 0 -0.00063012857073507626 -0.0014150868653584573 0 -0.00038379986220152555 -0.0014884773939813714 0 -0.00074546086374026712 -0.0018861804103414549 0 -0.00050662897802337926 -0.0015495526691564744 0 -0.00035970848822317758 -0.001648068643873768 0 -0.00035970848822317758 -0.001648068643873768 0 -0.00049425383323757285 -0.0033956064675249573 0 -0.00035997940108449788 -0.0061127291166892042 0 -0.00017817316636161532 -0.0067154312522562697 0 -5.8972205322682864e-05 -0.0062276397112475323 0 -0.00049425383323757285 -0.0033956064675249573 0 -0.00029571056983717086 -0.003777022875246529 0 -0.0004612177273489244 -0.0026202759590252247 0 -0.00044435631794058437 -0.0025565643045912237 0 -0.00049170939300644087 -0.0025233323889952771 0 -0.0004612177273489244 -0.0026202759590252247 0 -0.00044435631794058437 -0.0025565643045912237 0 -0.00038885595262729813 -0.0025845010464726962 0 -0.00049425383323757285 -0.0033956064675249573 0 5.7423320447358233e-05 -0.0013962507273038976 0 -0.0024195919182456111 -0.0013859088142506421 0 -0.002045507210452695 -0.001575322985745664 0 -0.0018321442883996743 -0.0015173222233329155 0 -0.00052329289685041345 -0.00088597028231802283 0 -0.00051519794434552561 -0.00082869621222681563 0 -0.0004635890847791096 -0.00090431829170725523 0 5.7423320447358233e-05 -0.0013962507273038976 0 -0.00088001170851417527 -0.0016765124891308619 0 -0.00051519794434552561 -0.00082869621222681563 0 -0.0004909778993722444 -0.00080424922012426955 0 -0.0004635890847791096 -0.00090431829170725523 0 -0.0016543867311706374 -0.0011331909575192094 0 -0.0011450360483990865 -0.0016011684593367056 0 -0.0004909778993722444 -0.00080424922012426955 0 -0.0004635890847791096 -0.00090431829170725523 0 -0.00045741966622085581 -0.00090309237401108152 0 -0.00044435631794058437 -0.0025565643045912237 0 -0.00038885595262729813 -0.0025845010464726962 0 -0.00043464926545711712 -0.0024989980531565964 0 -0.00044435631794058437 -0.0025565643045912237 0 -0.00049170939300644087 -0.0025233323889952771 0 -0.00043464926545711712 -0.0024989980531565964 0 -0.00029571056983717086 -0.003777022875246529 0 -0.00088001170851417527 -0.0016765124891308619 0 -0.0011444391165800639 -0.0013239038077532148 0 -0.0015491139370765615 -0.0016177378945342435 0 -0.0017680894494914289 -0.0014935852979667034 0 -0.0008458846297681933 -0.0021933650735756014 0 -0.0011444391165800639 -0.0013239038077532148 0 -0.0013116934382295614 -0.0018442585833858076 0 -0.0015491139370765615 -0.0016177378945342435 0 -0.0015492609392311798 -0.0018718505018489842 0 -0.0017635611001535704 -0.0016583108031270272 0 -0.0011444391165800639 -0.0013239038077532148 0 -0.0015491139370765615 -0.0016177378945342435 0 -0.0013116934382295614 -0.0018442585833858076 0 -0.0014180997692928774 -0.0021900214293966917 0 -0.0013116934382295614 -0.0018442585833858076 0 -0.0015492609392311798 -0.0018718505018489842 0 -0.0014180997692928774 -0.0021900214293966917 0 -0.0015492609392311798 -0.0018718505018489842 0 -0.0017955011160527244 -0.0019791674799757809 0 -0.0015491139370765615 -0.0016177378945342435 0 -0.0013116934382295614 -0.0018442585833858076 0 -0.0015492609392311798 -0.0018718505018489842 0 -0.0015492609392311798 -0.0018718505018489842 0 -0.0017955011160527244 -0.0019791674799757809 0 -0.0017635611001535704 -0.0016583108031270272 0 -0.0024195919182456111 -0.0013859088142506421 0 -0.0021077680980754825 -0.0019702441530714274 0 -0.002045507210452695 -0.001575322985745664 0 -0.0017955011160527244 -0.0019791674799757809 0 -0.0021077680980754825 -0.0019702441530714274 0 -0.002045507210452695 -0.001575322985745664 0 -0.0017955011160527244 -0.0019791674799757809 0 -0.002045507210452695 -0.001575322985745664 0 -0.0017635611001535704 -0.0016583108031270272 0 -0.0017506349836903907 -0.0016824441488768201 0 -0.0011450360483990865 -0.0016011684593367056 0 -0.002045507210452695 -0.001575322985745664 0 -0.001830003025461594 -0.0015123077175395838 0 -0.0017635611001535704 -0.0016583108031270272 0 -0.0011450360483990865 -0.0016011684593367056 0 -0.00088001170851417527 -0.0016765124891308619 0 -0.001830003025461594 -0.0015123077175395838 0 -0.0017680894494914289 -0.0014935852979667034 0 -0.0017635611001535704 -0.0016583108031270272 0 -0.0015491139370765615 -0.0016177378945342435 0 -0.0017680894494914289 -0.0014935852979667034 0 -0.0017635611001535704 -0.0016583108031270272 0 0.00011546723057288393 -0.0045369552433304761 0 8.9347961074879548e-05 -0.0044491190264846006 0 0.00013407429500531629 -0.0046869961789228719 0 9.2256533001644901e-05 -0.0040856197560621256 0 0.00040874228379577689 -0.0050673808968429443 0 0.00092193470560567199 -0.0056811467699573424 0 0.00074114594770655626 -0.0048698595583079587 0 0.00013407429500531629 -0.0046869961789228719 0 0.00074114594770655626 -0.0048698595583079587 0 0.00076394531566626269 -0.0042705999904130319 0 0.0014634448609317941 -0.0052526616567328318 0 0.00092193470560567199 -0.0056811467699573424 0 0.00074114594770655626 -0.0048698595583079587 0 0.0014634448609317941 -0.0052526616567328318 0 0.00017231613030815218 -0.0045538755377579707 0 0.00011546723057288393 -0.0045369552433304761 0 0.00013407429500531629 -0.0046869961789228719 0 -0.00040919978660920037 -0.0031973462676596685 0 -0.00029571056983717086 -0.003777022875246529 0 0.00017231613030815218 -0.0045538755377579707 0 -8.5331581609189229e-06 -0.0046256109035305859 0 0.00013407429500531629 -0.0046869961789228719 0 -8.5331581609189229e-06 -0.0046256109035305859 0 0.00013407429500531629 -0.0046869961789228719 0 0.00076394531566626269 -0.0042705999904130319 0 -0.00029571056983717086 -0.003777022875246529 0 0.00071039969333143264 -0.009936232719941861 0 -0.00017817316636161532 -0.0067154312522562697 0 0.0004148237448569947 -0.0065957440754257106 0 0.00026009631185551827 -0.0062810889088275651 0 0.00074114594770655626 -0.0048698595583079587 0 0.00013407429500531629 -0.0046869961789228719 0 0.00076394531566626269 -0.0042705999904130319 0 0.00082736527642160353 -0.014535267180917107 0 0.00027432626805213857 -0.013420112117189969 0 0.0013533871417138171 -0.01351504086062009 0 0.00071039969333143264 -0.009936232719941861 0 0.00048943024674120918 -0.010220491785267242 0 0.00027432626805213857 -0.013420112117189969 0 0.0009004997316892421 -0.012760303552479573 0 0.0013533871417138171 -0.01351504086062009 0 -0.00017817316636161532 -0.0067154312522562697 0 0.00026009631185551827 -0.0062810889088275651 0 -5.8972205322682864e-05 -0.0062276397112475323 0 -0.00035997940108449788 -0.0061127291166892042 0 -5.8972205322682864e-05 -0.0062276397112475323 0 0.00010331510504308175 -0.005965280431946449 0 -0.00049425383323757285 -0.0033956064675249573 0 -0.00029336135352975409 -0.0066945532937224229 0 0.00026009631185551827 -0.0062810889088275651 0 -5.8972205322682864e-05 -0.0062276397112475323 0 0.00010331510504308175 -0.005965280431946449 0 0.00048943024674120918 -0.010220491785267242 0 -0.00029336135352975409 -0.0066945532937224229 0 -0.00029336135352975409 -0.0066945532937224229 0 0.001006563261840062 -0.0095929727845837486 0 -0.00027994884730406363 -0.012280110675936765 0 0.0009004997316892421 -0.012760303552479573 0 0.001075304864190304 -0.011817685659298565 0 0.00027432626805213857 -0.013420112117189969 0 -0.00027994884730406363 -0.012280110675936765 0 0.0009004997316892421 -0.012760303552479573 0 0.0020779460802834624 -0.012768109341416915 0 0.0024295887759744343 -0.011342603837221662 0 0.001075304864190304 -0.011817685659298565 0 0.0009004997316892421 -0.012760303552479573 0 0.0020779460802834624 -0.012768109341416915 0 0.001075304864190304 -0.011817685659298565 0 0.0009004997316892421 -0.012760303552479573 0 0.0020779460802834624 -0.012768109341416915 0 0.0013533871417138171 -0.01351504086062009 0 0.00082736527642160353 -0.014535267180917107 0 0.0013533871417138171 -0.01351504086062009 0 0.0026675717372054543 -0.014100857406861768 0 0.0020779460802834624 -0.012768109341416915 0 0.0013533871417138171 -0.01351504086062009 0 0.0026675717372054543 -0.014100857406861768 0 0.0026675717372054543 -0.014100857406861768 0 0.0039670996266096027 -0.013029477401393286 0 0.0039736367940412338 -0.014740931936775852 0 0.0020779460802834624 -0.012768109341416915 0 0.0026675717372054543 -0.014100857406861768 0 0.0039670996266096027 -0.013029477401393286 0 0.0030257559897404816 -0.016653302972607888 0 0.001512283661058034 -0.013560194664413973 0 0.0020779460802834624 -0.012768109341416915 0 0.0039670996266096027 -0.013029477401393286 0 0.0024295887759744343 -0.011342603837221662 0 0.0020340482307628048 -0.019724180250311824 0 0.0016920099288662406 -0.018468317858329086 0 0.00044598351118747977 -0.017991381774156358 0 0.0023741959968061974 -0.018683904402509853 0 0.0020340482307628048 -0.019724180250311824 0 0.0016920099288662406 -0.018468317858329086 0 0.0020340482307628048 -0.019724180250311824 0 0.0031211343127890397 -0.019165763621773722 0 0.0036763762652286358 -0.019955113745788844 0 0.0023741959968061974 -0.018683904402509853 0 0.0020340482307628048 -0.019724180250311824 0 0.0031211343127890397 -0.019165763621773722 0 0.0040648198096949213 -0.019108436226169097 0 0.0034487476267830047 -0.018348634680185723 0 0.0040227375782368414 -0.01849601805302048 0 0.0040648198096949213 -0.019108436226169097 0 0.0044252349226525309 -0.018507118668514285 0 0.0040227375782368414 -0.01849601805302048 0 0.0040648198096949213 -0.019108436226169097 0 0.0031211343127890397 -0.019165763621773722 0 0.0034487476267830047 -0.018348634680185723 0 0.0023741959968061974 -0.018683904402509853 0 0.0031211343127890397 -0.019165763621773722 0 0.0034487476267830047 -0.018348634680185723 0 0.0040648198096949213 -0.019108436226169097 0 0.0036763762652286358 -0.019955113745788844 0 0.0044718381056182629 -0.019826692555883187 0 0.0040648198096949213 -0.019108436226169097 0 0.0031211343127890397 -0.019165763621773722 0 0.0036763762652286358 -0.019955113745788844 0 0.0020340482307628048 -0.019724180250311824 0 0.0036763762652286358 -0.019955113745788844 0 0.003606375930297662 -0.02138528165641241 0 0.0036763762652286358 -0.019955113745788844 0 0.003606375930297662 -0.02138528165641241 0 0.0042751449305367464 -0.020542333336134196 0 0.0036763762652286358 -0.019955113745788844 0 0.0044718381056182629 -0.019826692555883187 0 0.0042751449305367464 -0.020542333336134196 0 0.0039670996266096027 -0.013029477401393286 0 0.0039736367940412338 -0.014740931936775852 0 0.0054798169970525189 -0.014745758947750275 0 0.0030257559897404816 -0.016653302972607888 0 0.0046938620262470167 -0.017563603314529993 0 0.0039736367940412338 -0.014740931936775852 0 0.0047966970882859505 -0.015601342943591744 0 0.0039406258247272298 -0.016219300528340464 0 0.0039736367940412338 -0.014740931936775852 0 0.0047966970882859505 -0.015601342943591744 0 0.0054798169970525189 -0.014745758947750275 0 0.0047966970882859505 -0.015601342943591744 0 0.0054798169970525189 -0.014745758947750275 0 0.0060262476659708819 -0.016184550127675688 0 0.0047966970882859505 -0.015601342943591744 0 0.0060262476659708819 -0.016184550127675688 0 0.0049847521955427958 -0.016594451160614466 0 0.0060262476659708819 -0.016184550127675688 0 0.0049847521955427958 -0.016594451160614466 0 0.005890690922951039 -0.017212349777824917 0 0.0047966970882859505 -0.015601342943591744 0 0.0049847521955427958 -0.016594451160614466 0 0.0039406258247272298 -0.016219300528340464 0 0.0049847521955427958 -0.016594451160614466 0 0.0039406258247272298 -0.016219300528340464 0 0.0045738337291294775 -0.017234129772998659 0 0.0039406258247272298 -0.016219300528340464 0 0.0029489167357890237 -0.016743009868911918 0 0.0026972635002973934 -0.015448385355303719 0 0.0029489167357890237 -0.016743009868911918 0 0.0017543282712786899 -0.01642511595573113 0 0.0026972635002973934 -0.015448385355303719 0 0.0039406258247272298 -0.016219300528340464 0 0.0029489167357890237 -0.016743009868911918 0 0.0037662901959451527 -0.01739373279194905 0 0.0008256853962205575 -0.014565779652661525 0 0.0017543282712786899 -0.01642511595573113 0 0.0026972635002973934 -0.015448385355303719 0 0.00071039969333143264 -0.009936232719941861 0 0.0017073402807569274 -0.010972873933370087 0 0.0008256853962205575 -0.014565779652661525 0 0.0026675717372054543 -0.014100857406861768 0 0.0026972635002973934 -0.015448385355303719 0 0.00071039969333143264 -0.009936232719941861 0 0.0023506326380179849 -0.015092730548905609 0 0.0039736367940412338 -0.014740931936775852 0 0.0039406258247272298 -0.016219300528340464 0 0.0026972635002973934 -0.015448385355303719 0 0.0026675717372054543 -0.014100857406861768 0 0.0039736367940412338 -0.014740931936775852 0 0.0026972635002973934 -0.015448385355303719 0 0.0019871157712434764 -0.028008820733121043 0 0.002252973437194365 -0.028522389822147162 0 0.0027205870440859263 -0.027835856930416351 0 0.0019114800503843366 -0.028429993829573189 0 0.0019871157712434764 -0.028008820733121043 0 0.002252973437194365 -0.028522389822147162 0 0.0017128271779508937 -0.028217970205472814 0 0.0021771258176567668 -0.027800510723353211 0 0.0022197744226260508 -0.028292593639817669 0 0.0021771258176567668 -0.027800510723353211 0 0.0022561217598799583 -0.027338364936510238 0 0.0016912472444114643 -0.027222172915139582 0 0.0019967870244563682 -0.028346417034038226 0 0.0022284386098941713 -0.027491627054296582 0 0.0017128271779508937 -0.028217970205472814 0 0.0021771258176567668 -0.027800510723353211 0 0.0016912472444114643 -0.027222172915139582 0 0.0021771258176567668 -0.027800510723353211 0 0.0024449487901805015 -0.027974176853226184 0 0.0028399477530793083 -0.027404388654886241 0 0.0021771258176567668 -0.027800510723353211 0 0.0022561217598799583 -0.027338364936510238 0 0.0028399477530793083 -0.027404388654886241 0 0.0021771258176567668 -0.027800510723353211 0 0.0022197744226260508 -0.028292593639817669 0 0.0024449487901805015 -0.027974176853226184 0 0.0022197744226260508 -0.028292593639817669 0 0.0024449487901805015 -0.027974176853226184 0 0.0025681623385847372 -0.028324023564291236 0 0.0024449487901805015 -0.027974176853226184 0 0.0026169093616237732 -0.028205858353648722 0 0.0025681623385847372 -0.028324023564291236 0 0.0031471543104599126 -0.024308673374538063 0 0.0027505515105585004 -0.027274883699578655 0 0.0040648198096949213 -0.019108436226169097 0 0.0045626899980127054 -0.019178614770240472 0 0.0044252349226525309 -0.018507118668514285 0 0.0050968646866488684 -0.019121703530294239 0 0.0045626899980127054 -0.019178614770240472 0 0.0044252349226525309 -0.018507118668514285 0 0.0040648198096949213 -0.019108436226169097 0 0.0045626899980127054 -0.019178614770240472 0 0.0044718381056182629 -0.019826692555883187 0 0.0050968646866488684 -0.019121703530294239 0 0.0045626899980127054 -0.019178614770240472 0 0.0044718381056182629 -0.019826692555883187 0 0.0031471543104599126 -0.024308673374538063 0 0.0039734913065943333 -0.024473645170735317 0 0.003606375930297662 -0.02138528165641241 0 0.0050784847150720774 -0.020943097381676254 0 0.0042751449305367464 -0.020542333336134196 0 0.0044718381056182629 -0.019826692555883187 0 0.0050784847150720774 -0.020943097381676254 0 0.0042751449305367464 -0.020542333336134196 0 0.0024449487901805015 -0.027974176853226184 0 0.0026169093616237732 -0.028205858353648722 0 0.0028399477530793083 -0.027404388654886241 0 0.0050968646866488684 -0.019121703530294239 0 0.0044718381056182629 -0.019826692555883187 0 0.0050784847150720774 -0.020943097381676254 0 0.0039734913065943333 -0.024473645170735317 0 0.0043693194504076296 -0.022661171758850112 0 0.0028399477530793083 -0.027404388654886241 0 0.0029702763576696387 -0.026215009329280323 0 0.0026074780519721704 -0.026493325080680821 0 0.003606375930297662 -0.02138528165641241 0 0.0050784847150720774 -0.020943097381676254 0 0.0050889540273468242 -0.022988059743231291 0 0.0046938620262470167 -0.017563603314529993 0 0.0043693194504076296 -0.022661171758850112 0 0.0054798169970525189 -0.014745758947750275 0 0.0060262476659708819 -0.016184550127675688 0 0.0070237274797145168 -0.01654605575054895 0 0.0058501025946145089 -0.015524585542678071 0 0.0055321804371105728 -0.021233564359246275 0 0.0060262476659708819 -0.016184550127675688 0 0.0070237274797145168 -0.01654605575054895 0 0.0070215089780341329 -0.017578832453356827 0 0.0060262476659708819 -0.016184550127675688 0 0.0068517328313398521 -0.017386819944208428 0 0.005890690922951039 -0.017212349777824917 0 0.0029899498954488873 -0.0261931834541289 0 0.0027851059435597481 -0.025987672527242434 0 0.0029936848047048843 -0.025659513306923485 0 0.0043693194504076296 -0.022661171758850112 0 0.0055321804371105728 -0.021233564359246275 0 0.0043693194504076296 -0.022661171758850112 0 0.0043272502057769982 -0.024277355279703199 0 0.0026074780519721704 -0.026493325080680821 0 0.0025019181069084358 -0.026117567399441641 0 0.0022094473529627231 -0.026432297728016838 0 0.0029702763576696387 -0.026215009329280323 0 0.0026074780519721704 -0.026493325080680821 0 0.0027851059435597481 -0.025987672527242434 0 0.0026074780519721704 -0.026493325080680821 0 0.0025019181069084358 -0.026117567399441641 0 0.0027851059435597481 -0.025987672527242434 0 0.0025019181069084358 -0.026117567399441641 0 0.0027851059435597481 -0.025987672527242434 0 0.0025912660975548488 -0.025802425588596217 0 0.0022094473529627231 -0.026432297728016838 0 0.0018793290738077439 -0.025944166416525714 0 0.0023225875414612674 -0.025864360620084747 0 0.0025019181069084358 -0.026117567399441641 0 0.0022094473529627231 -0.026432297728016838 0 0.0023225875414612674 -0.025864360620084747 0 0.0026074780519721704 -0.026493325080680821 0 0.0022094473529627231 -0.026432297728016838 0 0.0023135498786130875 -0.026927194453855871 0 0.0028399477530793083 -0.027404388654886241 0 0.0026074780519721704 -0.026493325080680821 0 0.0023135498786130875 -0.026927194453855871 0 0.0022561217598799583 -0.027338364936510238 0 0.0028399477530793083 -0.027404388654886241 0 0.0023135498786130875 -0.026927194453855871 0 0.0022561217598799583 -0.027338364936510238 0 0.0023135498786130875 -0.026927194453855871 0 0.0016912472444114643 -0.027222172915139582 0 0.0022094473529627231 -0.026432297728016838 0 0.0023135498786130875 -0.026927194453855871 0 0.0016912472444114643 -0.027222172915139582 0 0.0027205870440859263 -0.027835856930416351 0 0.0027387852470359755 -0.02713633955077939 0 0.0031487137283736201 -0.026822958131586864 0 0.0022284386098941713 -0.027491627054296582 0 0.002400585719818606 -0.026422803337294427 0 0.0022094473529627231 -0.026432297728016838 0 0.0016912472444114643 -0.027222172915139582 0 0.0018793290738077439 -0.025944166416525714 0 0.0019048771005381246 -0.027196619797252276 0 0.0027387852470359755 -0.02713633955077939 0 0.0023452871814191654 -0.026534884786209051 0 0.0019048771005381246 -0.027196619797252276 0 0.0027387852470359755 -0.02713633955077939 0 0.002340521021431076 -0.027562439251668944 0 0.0019871157712434764 -0.028008820733121043 0 0.0027205870440859263 -0.027835856930416351 0 0.002340521021431076 -0.027562439251668944 0 0.0027205870440859263 -0.027835856930416351 0 0.0027387852470359755 -0.02713633955077939 0 0.002340521021431076 -0.027562439251668944 0 0.0024579466782151962 -0.025456751162095875 0 0.0026232596774300857 -0.025980691864074871 0 0.0030018178841573957 -0.025600210838655449 0 0.0024579466782151962 -0.025456751162095875 0 0.0030018178841573957 -0.025600210838655449 0 0.0028491894255468398 -0.025018442040278335 0 0.0021599882551597768 -0.025967096798121366 0 0.0024579466782151962 -0.025456751162095875 0 0.0026232596774300857 -0.025980691864074871 0 0.0026232596774300857 -0.025980691864074871 0 0.0023452871814191654 -0.026534884786209051 0 0.0032033270268300197 -0.026246119331033033 0 0.0021599882551597768 -0.025967096798121366 0 0.0026232596774300857 -0.025980691864074871 0 0.0023452871814191654 -0.026534884786209051 0 0.0027387852470359755 -0.02713633955077939 0 0.0023452871814191654 -0.026534884786209051 0 0.0032033270268300197 -0.026246119331033033 0 0.002400585719818606 -0.026422803337294427 0 0.0035923366718561773 -0.025007675471492595 0 0.0027937999747590968 -0.027035424744575549 0 0.0030471981051625524 -0.026319499262928463 0 0.0027387852470359755 -0.02713633955077939 0 0.0031487137283736201 -0.026822958131586864 0 0.0029590258317346236 -0.026272153685325966 0 0.0031487137283736201 -0.026822958131586864 0 0.0029590258317346236 -0.026272153685325966 0 0.00342925523495462 -0.025646134359082001 0 0.0030471981051625524 -0.026319499262928463 0 0.0036693410732469723 -0.025003852815702523 0 0.0032033270268300197 -0.026246119331033033 0 0.0030018178841573957 -0.025600210838655449 0 0.0036436423448983381 -0.025190084881527824 0 0.0029590258317346236 -0.026272153685325966 0 0.00342925523495462 -0.025646134359082001 0 0.0032051650185566461 -0.025361002807855713 0 0.0026232596774300857 -0.025980691864074871 0 0.0032033270268300197 -0.026246119331033033 0 0.0030018178841573957 -0.025600210838655449 0 0.0035923366718561773 -0.025007675471492595 0 0.0036693410732469723 -0.025003852815702523 0 0.0035923366718561773 -0.025007675471492595 0 0.0055321804371105728 -0.021233564359246275 0 0.0048280113680697675 -0.023857197737746749 0 0.0050129806017657087 -0.023871877660129753 0 0.005122180152589955 -0.024101175899088913 0 0.0050129806017657087 -0.023871877660129753 0 0.0051223589263582068 -0.023815375451513167 0 0.0049760703127471355 -0.023632456436185337 0 0.0048280113680697675 -0.023857197737746749 0 0.0050129806017657087 -0.023871877660129753 0 0.0049760703127471355 -0.023632456436185337 0 0.0018793290738077439 -0.025944166416525714 0 0.0021911061248288824 -0.024634006152011393 0 0.0023580422243289693 -0.025405249444276475 0 0.0021911061248288824 -0.024634006152011393 0 0.0023580422243289693 -0.025405249444276475 0 0.0029936848047048843 -0.025659513306923485 0 0.0018793290738077439 -0.025944166416525714 0 0.0023580422243289693 -0.025405249444276475 0 0.0023225875414612674 -0.025864360620084747 0 0.0023580422243289693 -0.025405249444276475 0 0.0023225875414612674 -0.025864360620084747 0 0.0025912660975548488 -0.025802425588596217 0 0.0027851059435597481 -0.025987672527242434 0 0.0025912660975548488 -0.025802425588596217 0 0.0029936848047048843 -0.025659513306923485 0 0.0023580422243289693 -0.025405249444276475 0 0.0025912660975548488 -0.025802425588596217 0 0.0029936848047048843 -0.025659513306923485 0 0.0025019181069084358 -0.026117567399441641 0 0.0023225875414612674 -0.025864360620084747 0 0.0025912660975548488 -0.025802425588596217 0 0.0068517328313398521 -0.017386819944208428 0 0.0060312628349718711 -0.018073168652255386 0 0.005890690922951039 -0.017212349777824917 0 0.0060312628349718711 -0.018073168652255386 0 0.006717049885683158 -0.019041284021060506 0 0.0054515799879980243 -0.018850760554885923 0 0.0050129806017657087 -0.023871877660129753 0 0.005122180152589955 -0.024101175899088913 0 0.0051223589263582068 -0.023815375451513167 0 0.0055321804371105728 -0.021233564359246275 0 0.0059600749928361355 -0.021308700850009448 0 0.0068517328313398521 -0.017386819944208428 0 0.0060312628349718711 -0.018073168652255386 0 0.006717049885683158 -0.019041284021060506 0 0.0051223589263582068 -0.023815375451513167 0 0.0053277732774803053 -0.023330453079351408 0 0.0050880500890619377 -0.023528892967869093 0 0.0059600749928361355 -0.021308700850009448 0 0.0058133373193036313 -0.021817877629837893 0 0.006717049885683158 -0.019041284021060506 0 0.0059146931372530704 -0.019762720903695036 0 0.0054515799879980243 -0.018850760554885923 0 0.006717049885683158 -0.019041284021060506 0 0.0059146931372530704 -0.019762720903695036 0 0.0063750401825867558 -0.02043475176633186 0 0.0053277732774803053 -0.023330453079351408 0 0.0050306651307806677 -0.022711079335135366 0 0.0055260216951698036 -0.021408075743645828 0 0.0059146931372530704 -0.019762720903695036 0 0.0058692096756962327 -0.020371258428611583 0 0.0063750401825867558 -0.02043475176633186 0 0.0058692096756962327 -0.020371258428611583 0 0.0063750401825867558 -0.02043475176633186 0 0.0057657967272803316 -0.020894642012357224 0 0.0053277732774803053 -0.023330453079351408 0 0.0047816060319936854 -0.02323525146840489 0 0.0050880500890619377 -0.023528892967869093 0 0.0053277732774803053 -0.023330453079351408 0 0.0050306651307806677 -0.022711079335135366 0 0.0047816060319936854 -0.02323525146840489 0 0.0043788436383703968 -0.023636800177236544 0 0.0045830111552281573 -0.022682943297486519 0 0.0044286216345727466 -0.02330797543737953 0 0.0047816060319936854 -0.02323525146840489 0 0.00459376996678544 -0.022492901084814422 0 0.0050306651307806677 -0.022711079335135366 0 0.0047816060319936854 -0.02323525146840489 0 0.00459376996678544 -0.022492901084814422 0 0.0044697019126414541 -0.024597588576060009 0 0.0047816060319936854 -0.02323525146840489 0 0.0041744639009787731 -0.024221980147223605 0 0.0035923366718561773 -0.025007675471492595 0 0.0050509775467201508 -0.022920584553959903 0 0.0044286216345727466 -0.02330797543737953 0 0.0047816060319936854 -0.02323525146840489 0 0.0041744639009787731 -0.024221980147223605 0 0.0048280113680697675 -0.023857197737746749 0 0.0047816060319936854 -0.02323525146840489 0 0.0049760703127471355 -0.023632456436185337 0 0.0047816060319936854 -0.02323525146840489 0 0.0050880500890619377 -0.023528892967869093 0 0.0049760703127471355 -0.023632456436185337 0 0.0051223589263582068 -0.023815375451513167 0 0.0050880500890619377 -0.023528892967869093 0 0.0049760703127471355 -0.023632456436185337 0 0.0043326125105002241 -0.024140063142287491 0 0.0040076480143497774 -0.025348611171672562 0 0.002993607250613766 -0.024152319044280918 0 0.0043788436383703968 -0.023636800177236544 0 0.0036693410732469723 -0.025003852815702523 0 0.0036436423448983381 -0.025190084881527824 0 0.002993607250613766 -0.024152319044280918 0 0.0028491894255468398 -0.025018442040278335 0 0.0036693410732469723 -0.025003852815702523 0 0.0031086216840962061 -0.024323749703592717 0 0.0030018178841573957 -0.025600210838655449 0 0.0036436423448983381 -0.025190084881527824 0 0.0028491894255468398 -0.025018442040278335 0 0.0043326125105002241 -0.024140063142287491 0 0.0035758301384693583 -0.023077722863345255 0 0.00459376996678544 -0.022492901084814422 0 0.0043326125105002241 -0.024140063142287491 0 0.002993607250613766 -0.024152319044280918 0 0.0035758301384693583 -0.023077722863345255 0 0.002993607250613766 -0.024152319044280918 0 0.0029268793710557702 -0.023320431411725004 0 0.0035758301384693583 -0.023077722863345255 0 0.0021855619481883051 -0.023676387172950435 0 0.002993607250613766 -0.024152319044280918 0 0.0022472394444324174 -0.024713281085242834 0 0.0021855619481883051 -0.023676387172950435 0 0.002993607250613766 -0.024152319044280918 0 0.0029268793710557702 -0.023320431411725004 0 0.002993607250613766 -0.024152319044280918 0 0.0022472394444324174 -0.024713281085242834 0 0.0028491894255468398 -0.025018442040278335 0 0.0024579466782151962 -0.025456751162095875 0 0.0022472394444324174 -0.024713281085242834 0 0.0028491894255468398 -0.025018442040278335 0 0.0032153902379895346 -0.01801813706206205 0 0.004321369910987913 -0.018861580496351775 0 0.0043110738530446951 -0.019930892442861434 0 0.0027149386821917637 -0.018254108138972536 0 0.0043746159224991171 -0.018244868838450019 0 0.0038518530938035766 -0.019074031505137829 0 0.0019705360703900685 -0.011519623683088525 0 0.0047551051454217267 -0.019490852893516767 0 0.00014468281443870054 -0.0044418233191722634 0 0.00039494332634620118 -0.0043633284310070552 0 0.00022941412475560279 -0.0045570645935695091 0 0.0029489167357890237 -0.016743009868911918 0 0.0017543282712786899 -0.01642511595573113 0 0.0027149386821917637 -0.018254108138972536 0 8.9347961074879548e-05 -0.0044491190264846006 0 0.00014468281443870054 -0.0044418233191722634 0 0.00039494332634620118 -0.0043633284310070552 0 0.00092193470560567199 -0.0056811467699573424 0 0.0014634448609317941 -0.0052526616567328318 0 0.0022480019248769557 -0.0068370263571839772 0 9.2256533001644901e-05 -0.0040856197560621256 0 0.0019705360703900685 -0.011519623683088525 0 0.0017073402807569274 -0.010972873933370087 0 0.0019705360703900685 -0.011519623683088525 0 0.0029489167357890237 -0.016743009868911918 0 0.0027149386821917637 -0.018254108138972536 0 0.0037662901959451527 -0.01739373279194905 0 0.0027149386821917637 -0.018254108138972536 0 0.0037662901959451527 -0.01739373279194905 0 0.0043746159224991171 -0.018244868838450019 0 0.0039406258247272298 -0.016219300528340464 0 0.0037662901959451527 -0.01739373279194905 0 0.0045738337291294775 -0.017234129772998659 0 0.0045738337291294775 -0.017234129772998659 0 0.0052474050036822309 -0.017746502138083008 0 0.0043746159224991171 -0.018244868838450019 0 0.0037662901959451527 -0.01739373279194905 0 0.0045738337291294775 -0.017234129772998659 0 0.0043746159224991171 -0.018244868838450019 0 0.0049847521955427958 -0.016594451160614466 0 0.0045738337291294775 -0.017234129772998659 0 0.0052474050036822309 -0.017746502138083008 0 0.0049847521955427958 -0.016594451160614466 0 0.005890690922951039 -0.017212349777824917 0 0.0052474050036822309 -0.017746502138083008 0 0.0060312628349718711 -0.018073168652255386 0 0.005890690922951039 -0.017212349777824917 0 0.0052474050036822309 -0.017746502138083008 0 0.0060312628349718711 -0.018073168652255386 0 0.0052474050036822309 -0.017746502138083008 0 0.0054515799879980243 -0.018850760554885923 0 0.0052474050036822309 -0.017746502138083008 0 0.0054515799879980243 -0.018850760554885923 0 0.0043746159224991171 -0.018244868838450019 0 0.0054515799879980243 -0.018850760554885923 0 0.0043746159224991171 -0.018244868838450019 0 0.0047306508202677022 -0.019029975621807731 0 0.0043746159224991171 -0.018244868838450019 0 0.0047306508202677022 -0.019029975621807731 0 0.0038518530938035766 -0.019074031505137829 0 0.0050615567581239525 -0.019723750888269571 0 0.0054489309998096884 -0.020345733537899112 0 0.0043110738530446951 -0.019930892442861434 0 0.004321369910987913 -0.018861580496351775 0 0.0050615567581239525 -0.019723750888269571 0 0.0043110738530446951 -0.019930892442861434 0 0.0047551051454217267 -0.019490852893516767 0 0.0046949743175587269 -0.019439910871008628 0 0.0047306508202677022 -0.019029975621807731 0 0.0038518530938035766 -0.019074031505137829 0 0.0050615567581239525 -0.019723750888269571 0 0.0059146931372530704 -0.019762720903695036 0 0.0054515799879980243 -0.018850760554885923 0 0.0050615567581239525 -0.019723750888269571 0 0.0059146931372530704 -0.019762720903695036 0 0.0050615567581239525 -0.019723750888269571 0 0.0054489309998096884 -0.020345733537899112 0 0.0054515799879980243 -0.018850760554885923 0 0.0047306508202677022 -0.019029975621807731 0 0.0050615567581239525 -0.019723750888269571 0 0.0054489309998096884 -0.020345733537899112 0 0.0055707538822219608 -0.020961571264418267 0 0.0057657967272803316 -0.020894642012357224 0 0.0059146931372530704 -0.019762720903695036 0 0.0058692096756962327 -0.020371258428611583 0 0.0054489309998096884 -0.020345733537899112 0 0.0058692096756962327 -0.020371258428611583 0 0.0054489309998096884 -0.020345733537899112 0 0.0057657967272803316 -0.020894642012357224 0 0.0026110407302151516 -0.0122446145082045 0 0.0036495190437563661 -0.013246370056716764 0 0.0054489309998096884 -0.020345733537899112 0 0.0043110738530446951 -0.019930892442861434 0 0.0055707538822219608 -0.020961571264418267 0 0.0005209460572411246 -0.0049577126693087321 0 0.00095348073980087544 -0.004714402195581723 0 0.0017196811087297607 -0.0056109013132366525 0 0.0005209460572411246 -0.0049577126693087321 0 0.00095348073980087544 -0.004714402195581723 0 0.00022941412475560279 -0.0045570645935695091 0 0.0019705360703900685 -0.011519623683088525 0 0.0026110407302151516 -0.0122446145082045 0 0.00039494332634620118 -0.0043633284310070552 0 0.00095348073980087544 -0.004714402195581723 0 0.00022941412475560279 -0.0045570645935695091 0 -0.00022554209579244268 -0.0046246540908232055 0 0.0005209460572411246 -0.0049577126693087321 0 0.00022941412475560279 -0.0045570645935695091 0 -0.00022554209579244268 -0.0046246540908232055 0 0.0005209460572411246 -0.0049577126693087321 0 0.00038331072957829702 -0.0055226005647485933 0 0.00038331072957829702 -0.0055226005647485933 0 0.00027494690824766098 -0.0066603641943611515 0 -0.0004975783271598638 -0.0058188192317943704 0 0.00038331072957829702 -0.0055226005647485933 0 0.0011228979608618073 -0.0063611098366293372 0 0.00027494690824766098 -0.0066603641943611515 0 0.00038331072957829702 -0.0055226005647485933 0 0.0011228979608618073 -0.0063611098366293372 0 0.0017196811087297607 -0.0056109013132366525 0 0.0005209460572411246 -0.0049577126693087321 0 0.00038331072957829702 -0.0055226005647485933 0 0.0017196811087297607 -0.0056109013132366525 0 0.0055707538822219608 -0.020961571264418267 0 0.0057657967272803316 -0.020894642012357224 0 0.0058611158022238621 -0.02078488577810577 0 0.0036495190437563661 -0.013246370056716764 0 0.0045034823798812884 -0.013335558117919069 0 0.0055707538822219608 -0.020961571264418267 0 0.0065042895567460676 -0.019794912427891713 0 0.0058611158022238621 -0.02078488577810577 0 0.0011228979608618073 -0.0063611098366293372 0 0.0017196811087297607 -0.0056109013132366525 0 0.0025933088277705417 -0.0069993818194369894 0 0.0012442458773067222 -0.007583949156690078 0 0.0025933088277705417 -0.0069993818194369894 0 0.0021646421249644603 -0.0088717212283424395 0 0.0011228979608618073 -0.0063611098366293372 0 0.0012442458773067222 -0.007583949156690078 0 0.0025933088277705417 -0.0069993818194369894 0 0.0025933088277705417 -0.0069993818194369894 0 0.0021646421249644603 -0.0088717212283424395 0 0.0035292299003581848 -0.008973487889926985 0 0.0012442458773067222 -0.007583949156690078 0 0.0021646421249644603 -0.0088717212283424395 0 0.0013175951281071319 -0.0091540233924336592 0 0.0012442458773067222 -0.007583949156690078 0 0.00027380883561699715 -0.0078588418099232137 0 0.0013175951281071319 -0.0091540233924336592 0 0.00027380883561699715 -0.0078588418099232137 0 0.00027494690824766098 -0.0066603641943611515 0 -0.00039214959033080204 -0.0068306625172383558 0 0.0011228979608618073 -0.0063611098366293372 0 0.0012442458773067222 -0.007583949156690078 0 0.00027494690824766098 -0.0066603641943611515 0 0.0012442458773067222 -0.007583949156690078 0 0.00027380883561699715 -0.0078588418099232137 0 0.00027494690824766098 -0.0066603641943611515 0 0.0014594149255837522 -0.022167089700451271 0 0.0024311732629172409 -0.021574762428595438 0 0.0029967401640157579 -0.022402185683971624 0 0.0012100437082573296 -0.021256805740654815 0 0.0024311732629172409 -0.021574762428595438 0 0.0024631981782838792 -0.020572465836833718 0 0.0024311732629172409 -0.021574762428595438 0 0.0039701016969465363 -0.021482518125043041 0 0.0024631981782838792 -0.020572465836833718 0 0.0017849273033783419 -0.022492111475737705 0 0.0029036735239147062 -0.022474636580123612 0 0.0019786026473670713 -0.022855251394748338 0 0.0021855619481883051 -0.023676387172950435 0 0.0029967401640157579 -0.022402185683971624 0 0.0021855619481883051 -0.023676387172950435 0 0.0029268793710557702 -0.023320431411725004 0 0.0029967401640157579 -0.022402185683971624 0 0.0029967401640157579 -0.022402185683971624 0 0.0035758301384693583 -0.023077722863345255 0 0.0039079141218456327 -0.022220064326231283 0 0.0029268793710557702 -0.023320431411725004 0 0.0029967401640157579 -0.022402185683971624 0 0.0035758301384693583 -0.023077722863345255 0 0.0035758301384693583 -0.023077722863345255 0 0.0039079141218456327 -0.022220064326231283 0 0.00459376996678544 -0.022492901084814422 0 0.0039079141218456327 -0.022220064326231283 0 0.0039701016969465363 -0.021482518125043041 0 0.0045414019875648472 -0.02194512566407145 0 0.0034777428394365197 -0.020820580568664749 0 0.0010258407298469807 -0.0204243391568452 0 0.0024311732629172409 -0.021574762428595438 0 0.0029967401640157579 -0.022402185683971624 0 0.0039701016969465363 -0.021482518125043041 0 0.0029967401640157579 -0.022402185683971624 0 0.0039079141218456327 -0.022220064326231283 0 0.0039701016969465363 -0.021482518125043041 0 0.0034777428394365197 -0.020820580568664749 0 0.0050753548698593172 -0.021587005762693127 0 0.0039701016969465363 -0.021482518125043041 0 0.0045414019875648472 -0.02194512566407145 0 0.0052343040044657953 -0.021542385096327346 0 0.0027842039721752681 -0.020341706412568585 0 0.0051123916762430026 -0.020497309263504539 0 0.0041002490405547725 -0.018962483708119232 0 0.0027842039721752681 -0.020341706412568585 0 0.0052343040044657953 -0.021542385096327346 0 0.0051123916762430026 -0.020497309263504539 0 0.0051123916762430026 -0.020497309263504539 0 0.0053756130931218622 -0.019672285430667125 0 0.0041002490405547725 -0.018962483708119232 0 0.0039079141218456327 -0.022220064326231283 0 0.0045414019875648472 -0.02194512566407145 0 0.00459376996678544 -0.022492901084814422 0 0.0045414019875648472 -0.02194512566407145 0 0.00459376996678544 -0.022492901084814422 0 0.0050011708808510138 -0.022110346093813377 0 0.0050306651307806677 -0.022711079335135366 0 0.00459376996678544 -0.022492901084814422 0 0.0050011708808510138 -0.022110346093813377 0 0.0050306651307806677 -0.022711079335135366 0 0.0050011708808510138 -0.022110346093813377 0 0.0055260216951698036 -0.021408075743645828 0 0.0045414019875648472 -0.02194512566407145 0 0.0050011708808510138 -0.022110346093813377 0 0.0052343040044657953 -0.021542385096327346 0 0.0063750401825867558 -0.02043475176633186 0 0.0057657967272803316 -0.020894642012357224 0 0.0055260216951698036 -0.021408075743645828 0 0.0055260216951698036 -0.021408075743645828 0 0.0052343040044657953 -0.021542385096327346 0 0.0051123916762430026 -0.020497309263504539 0 0.0057657967272803316 -0.020894642012357224 0 0.0055260216951698036 -0.021408075743645828 0 0.0058611158022238621 -0.02078488577810577 0 0.0058133373193036313 -0.021817877629837893 0 0.0056031326329648058 -0.021382830758964588 0 0.0050011708808510138 -0.022110346093813377 0 0.0055260216951698036 -0.021408075743645828 0 0.0052343040044657953 -0.021542385096327346 0 0.0065042895567460676 -0.019794912427891713 0 0.0058611158022238621 -0.02078488577810577 0 0.0053756130931218622 -0.019672285430667125 0 0.0055260216951698036 -0.021408075743645828 0 0.0058611158022238621 -0.02078488577810577 0 0.0051123916762430026 -0.020497309263504539 0 0.0058611158022238621 -0.02078488577810577 0 0.0051123916762430026 -0.020497309263504539 0 0.0053756130931218622 -0.019672285430667125 0 0.0065042895567460676 -0.019794912427891713 0 0.0053756130931218622 -0.019672285430667125 0 0.0052584445608622153 -0.0184271968705731 0 0.0065042895567460676 -0.019794912427891713 0 0.0052584445608622153 -0.0184271968705731 0 0.0059790688636693172 -0.016519393738333638 0 0.0045034823798812884 -0.013335558117919069 0 0.0046551148994341323 -0.01274982605626033 0 0.0053756130931218622 -0.019672285430667125 0 0.0052584445608622153 -0.0184271968705731 0 0.0041002490405547725 -0.018962483708119232 0 0.0052584445608622153 -0.0184271968705731 0 0.0059790688636693172 -0.016519393738333638 0 0.0038681760300103541 -0.016945818880028239 0 0.0059790688636693172 -0.016519393738333638 0 0.0038681760300103541 -0.016945818880028239 0 0.0037096342959831571 -0.015001950754027937 0 0.0052584445608622153 -0.0184271968705731 0 0.0038681760300103541 -0.016945818880028239 0 0.0041002490405547725 -0.018962483708119232 0 0.0038681760300103541 -0.016945818880028239 0 0.0041002490405547725 -0.018962483708119232 0 0.0022327224885915582 -0.018010142529110471 0 0.0027842039721752681 -0.020341706412568585 0 0.0022327224885915582 -0.018010142529110471 0 0.0005495426491622928 -0.018955521505241588 0 0.0027842039721752681 -0.020341706412568585 0 0.0041002490405547725 -0.018962483708119232 0 0.0022327224885915582 -0.018010142529110471 0 0.0022298143476905175 -0.017744020294391396 0 0.00068243572299770718 -0.016727808488015156 0 0.0023701570533842878 -0.015617625451544727 0 0.0036709251790689778 -0.017065087006687785 0 0.0023529457334737487 -0.017780181511348327 0 0.0038681760300103541 -0.016945818880028239 0 0.0022298143476905175 -0.017744020294391396 0 0.0023701570533842878 -0.015617625451544727 0 -0.00074331279538540076 -0.017151595168354614 0 0.00068243572299770718 -0.016727808488015156 0 0.00078929104158306838 -0.018402176842319772 0 0.0022298143476905175 -0.017744020294391396 0 0.00068243572299770718 -0.016727808488015156 0 0.00078929104158306838 -0.018402176842319772 0 0.0023529457334737487 -0.017780181511348327 0 0.0010258407298469807 -0.0204243391568452 0 0.00068243572299770718 -0.016727808488015156 0 0.0012083058907946202 -0.013868775398581152 0 0.0023701570533842878 -0.015617625451544727 0 -0.00081210908462164757 -0.016771612757462036 0 0.00068243572299770718 -0.016727808488015156 0 0.0012083058907946202 -0.013868775398581152 0 0.0012083058907946202 -0.013868775398581152 0 0.0023701570533842878 -0.015617625451544727 0 0.0030566128234685514 -0.013736933633056229 0 0.0023701570533842878 -0.015617625451544727 0 0.0030566128234685514 -0.013736933633056229 0 0.0037096342959831571 -0.015001950754027937 0 -4.411640362201699e-05 -0.016185232500831363 0 0.0019318507257950943 -0.015351463522382265 0 0.0012083058907946202 -0.013868775398581152 0 0.0030566128234685514 -0.013736933633056229 0 0.0038306456653376675 -0.012753353844203818 0 0.0030566128234685514 -0.013736933633056229 0 0.0041224852897562489 -0.012657024714754848 0 0.0038306456653376675 -0.012753353844203818 0 0.0059790688636693172 -0.016519393738333638 0 0.0041224852897562489 -0.012657024714754848 0 0.0037096342959831571 -0.015001950754027937 0 0.0030566128234685514 -0.013736933633056229 0 0.0041224852897562489 -0.012657024714754848 0 0.0037096342959831571 -0.015001950754027937 0 0.0038681760300103541 -0.016945818880028239 0 0.0023701570533842878 -0.015617625451544727 0 0.0037096342959831571 -0.015001950754027937 0 0.0035292299003581848 -0.008973487889926985 0 0.0041224852897562489 -0.012657024714754848 0 0.0027278429228341813 -0.010366130927818176 0 0.0046551148994341323 -0.01274982605626033 0 0.004199942475102178 -0.012574700376083934 0 0.0041224852897562489 -0.012657024714754848 0 0.002861659756617045 -0.011980731048969977 0 0.0027278429228341813 -0.010366130927818176 0 0.0041224852897562489 -0.012657024714754848 0 0.002861659756617045 -0.011980731048969977 0 0.0031205767690051386 -0.013301364394793649 0 0.002861659756617045 -0.011980731048969977 0 0.0031205767690051386 -0.013301364394793649 0 0.0021249810348614073 -0.013495773593852671 0 0.0031205767690051386 -0.013301364394793649 0 0.0023672592662013952 -0.01414586005946809 0 0.0021249810348614073 -0.013495773593852671 0 0.0024371585098358402 -0.01515464606353298 0 0.00081896383890410257 -0.015748235171475933 0 0.0026540298341364973 -0.014794778322068127 0 0.0023672592662013952 -0.01414586005946809 0 0.0024371585098358402 -0.01515464606353298 0 0.0021718518494865295 -0.0145076023451903 0 -0.0025119076048035188 -0.019212238259063492 0 -0.0014569182450571388 -0.019210067852360031 0 0.0031205767690051386 -0.013301364394793649 0 0.0023672592662013952 -0.01414586005946809 0 0.0024371585098358402 -0.01515464606353298 0 0.0024371585098358402 -0.01515464606353298 0 0.0021718518494865295 -0.0145076023451903 0 0.0026540298341364973 -0.014794778322068127 0 0.002375709336058616 -0.015204586900707674 0 0.0019318507257950943 -0.015351463522382265 0 0.0024371585098358402 -0.01515464606353298 0 0.00081896383890410257 -0.015748235171475933 0 0.00025341749786672124 -0.017921157363791955 0 0.0041224852897562489 -0.012657024714754848 0 0.0031205767690051386 -0.013301364394793649 0 0.0038306456653376675 -0.012753353844203818 0 0.0031205767690051386 -0.013301364394793649 0 0.0024371585098358402 -0.01515464606353298 0 0.0038306456653376675 -0.012753353844203818 0 -0.0015043702859077238 -0.018486930293957916 0 0.00025341749786672124 -0.017921157363791955 0 -0.001288759512617226 -0.017867869266847247 0 -0.0025119076048035188 -0.019212238259063492 0 -0.0026834856829408924 -0.01956950302574997 0 -0.0061437751668482884 -0.022702641599799084 0 -0.0043971987597522131 -0.021345491722147319 0 -0.0051876570985706326 -0.023264247434953301 0 0.00081896383890410257 -0.015748235171475933 0 0.00025341749786672124 -0.017921157363791955 0 -0.001288759512617226 -0.017867869266847247 0 -0.0027354414164913092 -0.022163249696082986 0 -0.0043971987597522131 -0.021345491722147319 0 -0.0037806061411328126 -0.023337622713317213 0 -0.001311062351557937 -0.019545074461985838 0 -0.0015043702859077238 -0.018486930293957916 0 -0.001288759512617226 -0.017867869266847247 0 0.00018192635970877208 -0.0091727439575736164 0 0.001216777461154245 -0.010232523932825466 0 0.00063441859731670216 -0.010486530866333261 0 -0.00014593206958792495 -0.0096463409510672109 0 -0.00095664615418683866 -0.0093075383240528078 0 0.00018192635970877208 -0.0091727439575736164 0 0.00063441859731670216 -0.010486530866333261 0 -0.00052216668526551709 -0.0096646490902203529 0 0.00027380883561699715 -0.0078588418099232137 0 0.00018192635970877208 -0.0091727439575736164 0 -0.00079185230278525488 -0.0078298977464574988 0 0.00027380883561699715 -0.0078588418099232137 0 0.00018192635970877208 -0.0091727439575736164 0 0.0013175951281071319 -0.0091540233924336592 0 0.00018192635970877208 -0.0091727439575736164 0 0.0013175951281071319 -0.0091540233924336592 0 0.001216777461154245 -0.010232523932825466 0 0.0021646421249644603 -0.0088717212283424395 0 0.0013175951281071319 -0.0091540233924336592 0 0.0019748189773415351 -0.010462607073995918 0 0.0013175951281071319 -0.0091540233924336592 0 0.0019748189773415351 -0.010462607073995918 0 0.001216777461154245 -0.010232523932825466 0 0.0021646421249644603 -0.0088717212283424395 0 0.0027278429228341813 -0.010366130927818176 0 0.0019748189773415351 -0.010462607073995918 0 0.0021646421249644603 -0.0088717212283424395 0 0.0035292299003581848 -0.008973487889926985 0 0.0027278429228341813 -0.010366130927818176 0 0.002861659756617045 -0.011980731048969977 0 0.0019748189773415351 -0.010462607073995918 0 0.0018228887268721987 -0.011351968569133442 0 0.0028943759261063594 -0.012151803306432243 0 0.00098252832834262618 -0.011028685132992941 0 0.002861659756617045 -0.011980731048969977 0 0.0027278429228341813 -0.010366130927818176 0 0.0019748189773415351 -0.010462607073995918 0 0.0019748189773415351 -0.010462607073995918 0 0.001216777461154245 -0.010232523932825466 0 0.0018228887268721987 -0.011351968569133442 0 0.001216777461154245 -0.010232523932825466 0 0.0018228887268721987 -0.011351968569133442 0 0.00063441859731670216 -0.010486530866333261 0 0.00098252832834262618 -0.011028685132992941 0 -0.00014593206958792495 -0.0096463409510672109 0 -0.00029378120119673853 -0.0090887504342319833 0 -0.00040905965792167984 -0.0091510911373105259 0 -0.00088474342679538767 -0.0089785270964387841 0 0.00098252832834262618 -0.011028685132992941 0 0.00035539291148352554 -0.011325973318602498 0 0.00096262946679739783 -0.013482507594893537 0 0.0015731719189622155 -0.013979818574689903 0 0.00069587496921627362 -0.014261535529290624 0 0.002861659756617045 -0.011980731048969977 0 0.0012411788857201855 -0.013260822005612585 0 0.0021249810348614073 -0.013495773593852671 0 0.00096262946679739783 -0.013482507594893537 0 0.0021249810348614073 -0.013495773593852671 0 0.0015731719189622155 -0.013979818574689903 0 0.0012411788857201855 -0.013260822005612585 0 0.00096262946679739783 -0.013482507594893537 0 0.0021249810348614073 -0.013495773593852671 0 0.0021249810348614073 -0.013495773593852671 0 0.0020755045628416506 -0.01405135714700121 0 0.0015731719189622155 -0.013979818574689903 0 0.0023672592662013952 -0.01414586005946809 0 0.0021249810348614073 -0.013495773593852671 0 0.0020755045628416506 -0.01405135714700121 0 0.0023672592662013952 -0.01414586005946809 0 0.0020755045628416506 -0.01405135714700121 0 0.0021718518494865295 -0.0145076023451903 0 0.0020755045628416506 -0.01405135714700121 0 0.0015731719189622155 -0.013979818574689903 0 0.0021718518494865295 -0.0145076023451903 0 0.0015731719189622155 -0.013979818574689903 0 0.0021718518494865295 -0.0145076023451903 0 0.0011478180967856117 -0.014545919163592866 0 0.0021718518494865295 -0.0145076023451903 0 0.0011478180967856117 -0.014545919163592866 0 0.00076127143640315515 -0.01541856260806012 0 0.0015731719189622155 -0.013979818574689903 0 0.00069587496921627362 -0.014261535529290624 0 0.0011478180967856117 -0.014545919163592866 0 0.00069587496921627362 -0.014261535529290624 0 0.0011478180967856117 -0.014545919163592866 0 0.00034853491172776914 -0.014864413682624729 0 0.00069587496921627362 -0.014261535529290624 0 -0.00031414825544034345 -0.014485905433737711 0 0.00034853491172776914 -0.014864413682624729 0 0.00096262946679739783 -0.013482507594893537 0 0.00069587496921627362 -0.014261535529290624 0 -0.00031414825544034345 -0.014485905433737711 0 0.00035539291148352554 -0.011325973318602498 0 -0.00065625421324639786 -0.011961720312371775 0 -0.00040905965792167984 -0.0091510911373105259 0 -0.00098210409705617552 -0.0094488782879447175 0 -0.00088474342679538767 -0.0089785270964387841 0 -0.00088474342679538767 -0.0089785270964387841 0 -0.0014328930217775886 -0.009315616013621273 0 -0.001466035714598804 -0.0089122640236608004 0 -0.00098210409705617552 -0.0094488782879447175 0 -0.00088474342679538767 -0.0089785270964387841 0 -0.0014328930217775886 -0.009315616013621273 0 -0.00065625421324639786 -0.011961720312371775 0 -0.0013318182485936153 -0.012510694128689928 0 -0.00098210409705617552 -0.0094488782879447175 0 -0.0014328930217775886 -0.009315616013621273 0 -0.0015301297557252398 -0.0098107844735035744 0 -0.0014328930217775886 -0.009315616013621273 0 -0.001785571586134436 -0.0095406175976224944 0 -0.0015301297557252398 -0.0098107844735035744 0 -0.0014328930217775886 -0.009315616013621273 0 -0.001785571586134436 -0.0095406175976224944 0 -0.0018754080523114623 -0.0091994193472568955 0 -0.001785571586134436 -0.0095406175976224944 0 -0.0022155827509091862 -0.0095419671425804441 0 -0.0018754080523114623 -0.0091994193472568955 0 -0.0018754080523114623 -0.0091994193472568955 0 -0.001466035714598804 -0.0089122640236608004 0 -0.0017747113392051167 -0.0089554490389022346 0 -0.0014328930217775886 -0.009315616013621273 0 -0.0018754080523114623 -0.0091994193472568955 0 -0.001466035714598804 -0.0089122640236608004 0 -0.0035172222766573624 -0.0090926861149136923 0 -0.0032223893101885983 -0.0087770521442062602 0 -0.0036787850548209845 -0.0087728108964041599 0 -0.0035172222766573624 -0.0090926861149136923 0 -0.0035502122388389092 -0.0094722052679920635 0 -0.0031293590644418394 -0.0092957605502223088 0 -0.0031293590644418394 -0.0092957605502223088 0 -0.0026438778787995351 -0.0091411067277071371 0 -0.0032223893101885983 -0.0087770521442062602 0 -0.0035172222766573624 -0.0090926861149136923 0 -0.0031293590644418394 -0.0092957605502223088 0 -0.0032223893101885983 -0.0087770521442062602 0 -0.0022155827509091862 -0.0095419671425804441 0 -0.0018754080523114623 -0.0091994193472568955 0 -0.0026438778787995351 -0.0091411067277071371 0 -0.0031293590644418394 -0.0092957605502223088 0 -0.0026438778787995351 -0.0091411067277071371 0 -0.0026845491501789197 -0.0096233022538171707 0 -0.0022155827509091862 -0.0095419671425804441 0 -0.0026438778787995351 -0.0091411067277071371 0 -0.0026845491501789197 -0.0096233022538171707 0 -0.0018754080523114623 -0.0091994193472568955 0 -0.002179239828197167 -0.0091098716843023633 0 -0.0017747113392051167 -0.0089554490389022346 0 -0.0018754080523114623 -0.0091994193472568955 0 -0.0026438778787995351 -0.0091411067277071371 0 -0.0027798984171674155 -0.0082467001345985849 0 -0.0026438778787995351 -0.0091411067277071371 0 -0.0027798984171674155 -0.0082467001345985849 0 -0.0032223893101885983 -0.0087770521442062602 0 -0.0019195004537450391 -0.009162249460971033 0 -0.002488147672217304 -0.0086779258773411021 0 -0.0027798984171674155 -0.0082467001345985849 0 -0.0032223893101885983 -0.0087770521442062602 0 -0.0036058258555775971 -0.0082990005768669335 0 -0.0032223893101885983 -0.0087770521442062602 0 -0.0036058258555775971 -0.0082990005768669335 0 -0.0036787850548209845 -0.0087728108964041599 0 -0.0027798984171674155 -0.0082467001345985849 0 -0.0036058258555775971 -0.0082990005768669335 0 -0.0036788140566200462 -0.0075094795524524227 0 -0.002179239828197167 -0.0091098716843023633 0 -0.0022333668906601538 -0.0084411624119142947 0 -0.0033503346743243242 -0.0081809251194536661 0 -0.002488147672217304 -0.0086779258773411021 0 -0.0035317727637106137 -0.0078245959295477827 0 -0.0022333668906601538 -0.0084411624119142947 0 -0.0018938462593314086 -0.0076375098991087196 0 -0.0017747113392051167 -0.0089554490389022346 0 -0.002179239828197167 -0.0091098716843023633 0 -0.0022333668906601538 -0.0084411624119142947 0 -0.0017747113392051167 -0.0089554490389022346 0 -0.0033503346743243242 -0.0081809251194536661 0 -0.0029883823463657914 -0.006278924122727624 0 -0.0037532604889456826 -0.006818281301738424 0 -0.0018938462593314086 -0.0076375098991087196 0 -0.0033503346743243242 -0.0081809251194536661 0 -0.0029883823463657914 -0.006278924122727624 0 -0.0022333668906601538 -0.0084411624119142947 0 -0.0018938462593314086 -0.0076375098991087196 0 -0.0033503346743243242 -0.0081809251194536661 0 0.00018192635970877208 -0.0091727439575736164 0 -0.0010157848401844403 -0.0087369166545225689 0 -0.00052216668526551709 -0.0096646490902203529 0 -0.00095664615418683866 -0.0093075383240528078 0 -0.0017088498298964735 -0.0090043852977561966 0 -0.0010157848401844403 -0.0087369166545225689 0 -0.00052216668526551709 -0.0096646490902203529 0 -0.0017747113392051167 -0.0089554490389022346 0 -0.0018938462593314086 -0.0076375098991087196 0 -0.0010157848401844403 -0.0087369166545225689 0 -0.0017747113392051167 -0.0089554490389022346 0 -0.0018938462593314086 -0.0076375098991087196 0 -0.0010157848401844403 -0.0087369166545225689 0 -0.00079185230278525488 -0.0078298977464574988 0 0.00018192635970877208 -0.0091727439575736164 0 -0.0010157848401844403 -0.0087369166545225689 0 -0.00079185230278525488 -0.0078298977464574988 0 0.00027380883561699715 -0.0078588418099232137 0 -0.00079185230278525488 -0.0078298977464574988 0 -0.00039214959033080204 -0.0068306625172383558 0 -0.00039214959033080204 -0.0068306625172383558 0 -0.0013207371646074592 -0.0061685651570539566 0 -0.0004975783271598638 -0.0058188192317943704 0 0.00027494690824766098 -0.0066603641943611515 0 -0.00039214959033080204 -0.0068306625172383558 0 -0.0004975783271598638 -0.0058188192317943704 0 -0.00079185230278525488 -0.0078298977464574988 0 -0.00039214959033080204 -0.0068306625172383558 0 -0.0013207371646074592 -0.0061685651570539566 0 -0.0018938462593314086 -0.0076375098991087196 0 -0.00079185230278525488 -0.0078298977464574988 0 -0.0013207371646074592 -0.0061685651570539566 0 -0.0018938462593314086 -0.0076375098991087196 0 -0.0013207371646074592 -0.0061685651570539566 0 -0.0029883823463657914 -0.006278924122727624 0 -0.0029883823463657914 -0.006278924122727624 0 -0.002665424673995605 -0.0039958997984328136 0 -0.0044646858963365357 -0.0041020847646674593 0 -0.0013775924955420013 -0.0059949832124658736 0 -0.0023013750323886677 -0.0048821548639294355 0 -0.0013207371646074592 -0.0061685651570539566 0 -0.0029883823463657914 -0.006278924122727624 0 -0.002665424673995605 -0.0039958997984328136 0 -0.0013207371646074592 -0.0061685651570539566 0 -0.001876344534433959 -0.0056972854974410309 0 -0.0012298678374837882 -0.0051414360120552813 0 -0.0023013750323886677 -0.0048821548639294355 0 -0.003280153965306073 -0.0039229754026424762 0 -0.001876344534433959 -0.0056972854974410309 0 -0.002037949073369954 -0.0047555940615495495 0 -0.002690306218921057 -0.0050123826064388706 0 -0.001876344534433959 -0.0056972854974410309 0 -0.002037949073369954 -0.0047555940615495495 0 -0.0012298678374837882 -0.0051414360120552813 0 -0.0013207371646074592 -0.0061685651570539566 0 -0.0012298678374837882 -0.0051414360120552813 0 -0.0004975783271598638 -0.0058188192317943704 0 -0.00022554209579244268 -0.0046246540908232055 0 -0.0012298678374837882 -0.0051414360120552813 0 -0.0004975783271598638 -0.0058188192317943704 0 -0.00022554209579244268 -0.0046246540908232055 0 0.00038331072957829702 -0.0055226005647485933 0 -0.0004975783271598638 -0.0058188192317943704 0 -0.0044497789336221732 -0.0027657840303529739 0 -0.0044762406601856338 -0.00251062969458725 0 -0.004451351206425912 -0.0029770681851375544 0 -0.0044497789336221732 -0.0027657840303529739 0 -0.004451351206425912 -0.0029770681851375544 0 -0.0044396413174157771 -0.0032374841739506396 0 -0.0044497789336221732 -0.0027657840303529739 0 -0.0045199138609722756 -0.0022406456000310091 0 -0.0044803268892571625 -0.0024094992941036775 0 -0.0044497789336221732 -0.0027657840303529739 0 -0.0044762406601856338 -0.00251062969458725 0 -0.0045199138609722756 -0.0022406456000310091 0 -0.0043097164612272689 -0.0024085053927423816 0 -0.0044762406601856338 -0.00251062969458725 0 -0.004451351206425912 -0.0029770681851375544 0 -0.0038768322406384269 -0.0032877042910110449 0 -0.003280153965306073 -0.0039229754026424762 0 -0.0043097164612272689 -0.0024085053927423816 0 -0.0038976918395771188 -0.002829417604774725 0 -0.004451351206425912 -0.0029770681851375544 0 -0.002665424673995605 -0.0039958997984328136 0 -0.0038976918395771188 -0.002829417604774725 0 -0.0044646858963365357 -0.0041020847646674593 0 -0.004451351206425912 -0.0029770681851375544 0 -0.0044646858963365357 -0.0041020847646674593 0 -0.0044396413174157771 -0.0032374841739506396 0 -0.0038976918395771188 -0.002829417604774725 0 -0.004451351206425912 -0.0029770681851375544 0 -0.0044646858963365357 -0.0041020847646674593 0 -0.0044646858963365357 -0.0041020847646674593 0 -0.0044573265821632917 -0.0033218008973845115 0 -0.0044396413174157771 -0.0032374841739506396 0 -0.0029883823463657914 -0.006278924122727624 0 -0.0044646858963365357 -0.0041020847646674593 0 -0.0039663700133864138 -0.0060760715155544244 0 -0.0044646858963365357 -0.0041020847646674593 0 -0.0039663700133864138 -0.0060760715155544244 0 -0.0048059900493810839 -0.0067275716818151667 0 -0.0039663700133864138 -0.0060760715155544244 0 -0.0037532604889456826 -0.006818281301738424 0 -0.0048059900493810839 -0.0067275716818151667 0 -0.0029883823463657914 -0.006278924122727624 0 -0.0039663700133864138 -0.0060760715155544244 0 -0.0037532604889456826 -0.006818281301738424 0 -0.0044646858963365357 -0.0041020847646674593 0 -0.0044573265821632917 -0.0033218008973845115 0 -0.004893833074364036 -0.0027395112570860226 0 -0.0045241136821191127 -0.0040779038769445568 0 -0.0048728556926117307 -0.0047947388389935723 0 -0.0044646858963365357 -0.0041020847646674593 0 -0.0048059900493810839 -0.0067275716818151667 0 -0.0049410317706144249 -0.0068636600078424911 0 -0.0044573265821632917 -0.0033218008973845115 0 -0.004893833074364036 -0.0027395112570860226 0 -0.0045326725260628493 -0.0029670937149022924 0 -0.004893833074364036 -0.0027395112570860226 0 -0.0046350053567502068 -0.0027704819993522745 0 -0.0045326725260628493 -0.0029670937149022924 0 -0.0046350053567502068 -0.0027704819993522745 0 -0.0045326725260628493 -0.0029670937149022924 0 -0.0043665258931328468 -0.0027369354979230897 0 -0.0045326725260628493 -0.0029670937149022924 0 -0.0043454512381314748 -0.0029369289064685293 0 -0.0043665258931328468 -0.0027369354979230897 0 -0.0043454512381314748 -0.0029369289064685293 0 -0.0043307495404276974 -0.0026890468954880813 0 -0.0043665258931328468 -0.0027369354979230897 0 -0.0044573265821632917 -0.0033218008973845115 0 -0.0045326725260628493 -0.0029670937149022924 0 -0.0043454512381314748 -0.0029369289064685293 0 -0.0044497789336221732 -0.0027657840303529739 0 -0.0043454512381314748 -0.0029369289064685293 0 -0.0044396413174157771 -0.0032374841739506396 0 -0.0044573265821632917 -0.0033218008973845115 0 -0.0043454512381314748 -0.0029369289064685293 0 -0.0044396413174157771 -0.0032374841739506396 0 -0.0044497789336221732 -0.0027657840303529739 0 -0.0043454512381314748 -0.0029369289064685293 0 -0.004392626527283317 -0.0025316886968065025 0 -0.0044497789336221732 -0.0027657840303529739 0 -0.0044803268892571625 -0.0024094992941036775 0 -0.004392626527283317 -0.0025316886968065025 0 -0.0043454512381314748 -0.0029369289064685293 0 -0.0043307495404276974 -0.0026890468954880813 0 -0.004392626527283317 -0.0025316886968065025 0 -0.0043397314953573891 -0.0025809524078353858 0 -0.0043307495404276974 -0.0026890468954880813 0 -0.004392626527283317 -0.0025316886968065025 0 -0.00160338847649894 0.0085905016518419523 0 -0.0042446579371117534 0.0084217122061375892 0 -0.0030983069472649734 0.0092195435199708894 0 -0.0028444085780422916 0.0031828215089797921 0 -0.0048729596238278302 0.0011660406814558671 0 -0.0043397314953573891 -0.0025809524078353858 0 -0.0043307495404276974 -0.0026890468954880813 0 -0.0043588001691742062 -0.0026780278580400469 0 -0.0043307495404276974 -0.0026890468954880813 0 -0.0043665258931328468 -0.0027369354979230897 0 -0.0043588001691742062 -0.0026780278580400469 0 -0.0043665258931328468 -0.0027369354979230897 0 -0.0041365546108433592 -0.0021675809782933089 0 -0.0044434198659554953 -0.0021710398176950983 0 -0.0049956230222879157 -0.0026773123569914267 0 -0.0048729596238278302 0.0011660406814558671 0 -0.0040456402273711892 -0.0021669765966220614 0 -0.0042641744758124527 -0.0015692831390990778 0 -0.0044434198659554953 -0.0021710398176950983 0 -0.0048729596238278302 0.0011660406814558671 0 -0.0045034850933592177 0.00021578482974468348 0 -0.0030983069472649734 0.0092195435199708894 0 -0.0038309164012420194 0.010026672815515773 0 -0.0027209301605790573 0.0098458785878440605 0 -0.0042446579371117534 0.0084217122061375892 0 -0.0030983069472649734 0.0092195435199708894 0 -0.0038309164012420194 0.010026672815515773 0 -0.0048729596238278302 0.0011660406814558671 0 -0.0038037491587459434 0.0045108125255843342 0 -0.0042641744758124527 -0.0015692831390990778 0 -0.0037398796020824557 -0.0011162269254121912 0 -0.0047559047201696644 -0.0011217535480583867 0 -0.0040456402273711892 -0.0021669765966220614 0 -0.0042641744758124527 -0.0015692831390990778 0 -0.0037398796020824557 -0.0011162269254121912 0 -0.0037398796020824557 -0.0011162269254121912 0 -0.0047559047201696644 -0.0011217535480583867 0 -0.0042116666797077582 -0.00038505708280897112 0 -0.0038309164012420194 0.010026672815515773 0 -0.0032798995110439448 0.0106383492628596 0 -0.0027209301605790573 0.0098458785878440605 0 -0.0038309164012420194 0.010026672815515773 0 -0.0032798995110439448 0.0106383492628596 0 -0.0034126517790720669 0.011508967343914414 0 -0.002512813176595804 0.010517220327688613 0 -0.0017092667402043244 0.010323160986500575 0 -0.0023427337403098048 0.011263551862956727 0 -0.00160338847649894 0.0085905016518419523 0 -0.0017092667402043244 0.010323160986500575 0 -0.0027209301605790573 0.0098458785878440605 0 -0.0032798995110439448 0.0106383492628596 0 -0.002512813176595804 0.010517220327688613 0 -0.0027209301605790573 0.0098458785878440605 0 -0.002512813176595804 0.010517220327688613 0 -0.0017092667402043244 0.010323160986500575 0 -0.0027209301605790573 0.0098458785878440605 0 -0.00160338847649894 0.0085905016518419523 0 -0.0030983069472649734 0.0092195435199708894 0 -0.0027209301605790573 0.0098458785878440605 0 -0.0033503346743243242 -0.0081809251194536661 0 -0.0037532604889456826 -0.006818281301738424 0 -0.0048059900493810839 -0.0067275716818151667 0 -0.0035317727637106137 -0.0078245959295477827 0 -0.004710343752400625 -0.0068066744451302967 0 -0.0036788140566200462 -0.0075094795524524227 0 -0.0048059900493810839 -0.0067275716818151667 0 -0.0045083695104203934 -0.0074362199581293259 0 -0.0049410317706144249 -0.0068636600078424911 0 -0.0045083695104203934 -0.0074362199581293259 0 -0.0048075840816202238 -0.0079117768724727422 0 -0.004893833074364036 -0.0027395112570860226 0 -0.0046482453850795269 -0.0022957961161657885 0 -0.0047559047201696644 -0.0011217535480583867 0 -0.0048728556926117307 -0.0047947388389935723 0 -0.0047292992753366556 -0.0042248232499483744 0 -0.0046482453850795269 -0.0022957961161657885 0 -0.0044434198659554953 -0.0021710398176950983 0 -0.0047559047201696644 -0.0011217535480583867 0 -0.004893833074364036 -0.0027395112570860226 0 -0.0046350053567502068 -0.0027704819993522745 0 -0.0046482453850795269 -0.0022957961161657885 0 -0.0048059900493810839 -0.0067275716818151667 0 -0.0049410317706144249 -0.0068636600078424911 0 -0.0045083695104203934 -0.0074362199581293259 0 -0.0046350053567502068 -0.0027704819993522745 0 -0.0043665258931328468 -0.0027369354979230897 0 -0.0045544009853271412 -0.0025831001347252254 0 -0.0046350053567502068 -0.0027704819993522745 0 -0.0046482453850795269 -0.0022957961161657885 0 -0.0045544009853271412 -0.0025831001347252254 0 -0.0043665258931328468 -0.0027369354979230897 0 -0.0045544009853271412 -0.0025831001347252254 0 -0.0044434198659554953 -0.0021710398176950983 0 -0.0046482453850795269 -0.0022957961161657885 0 -0.0045544009853271412 -0.0025831001347252254 0 -0.0044434198659554953 -0.0021710398176950983 0 -0.0042641744758124527 -0.0015692831390990778 0 -0.0044434198659554953 -0.0021710398176950983 0 -0.0047559047201696644 -0.0011217535480583867 0 -0.0048075840816202238 -0.0079117768724727422 0 -0.0042486365713030726 -0.0080540101737182467 0 -0.0044947718372928972 -0.0084753039670118074 0 -0.0045083695104203934 -0.0074362199581293259 0 -0.0048075840816202238 -0.0079117768724727422 0 -0.0042486365713030726 -0.0080540101737182467 0 -0.0036058258555775971 -0.0082990005768669335 0 -0.0036788140566200462 -0.0075094795524524227 0 -0.0042486365713030726 -0.0080540101737182467 0 -0.0036788140566200462 -0.0075094795524524227 0 -0.0045083695104203934 -0.0074362199581293259 0 -0.0042486365713030726 -0.0080540101737182467 0 -0.0036787850548209845 -0.0087728108964041599 0 -0.0040907690593333804 -0.0085933502506913353 0 -0.0039337397555325587 -0.0091028006034307701 0 -0.0036058258555775971 -0.0082990005768669335 0 -0.0036787850548209845 -0.0087728108964041599 0 -0.0040907690593333804 -0.0085933502506913353 0 -0.0036058258555775971 -0.0082990005768669335 0 -0.0042486365713030726 -0.0080540101737182467 0 -0.0040907690593333804 -0.0085933502506913353 0 -0.0042486365713030726 -0.0080540101737182467 0 -0.0040907690593333804 -0.0085933502506913353 0 -0.0044947718372928972 -0.0084753039670118074 0 -0.0048075840816202238 -0.0079117768724727422 0 -0.0044947718372928972 -0.0084753039670118074 0 -0.0048715745279338052 -0.0088869522696171828 0 -0.0047559047201696644 -0.0011217535480583867 0 -0.0043566470943829563 0.00090851711908401561 0 -0.0042116666797077582 -0.00038505708280897112 0 -0.0047292992753366556 -0.0042248232499483744 0 -0.004834772689711552 -0.0052421203883562468 0 -0.0040907690593333804 -0.0085933502506913353 0 -0.0044947718372928972 -0.0084753039670118074 0 -0.0043951254993271401 -0.0089314765414246246 0 -0.0044947718372928972 -0.0084753039670118074 0 -0.0048715745279338052 -0.0088869522696171828 0 -0.0043951254993271401 -0.0089314765414246246 0 -0.0048715745279338052 -0.0088869522696171828 0 -0.00460277233953129 -0.0093234302962893808 0 -0.0050011348169812456 -0.0097713500365400139 0 -0.0048715745279338052 -0.0088869522696171828 0 -0.00460277233953129 -0.0093234302962893808 0 -0.0043951254993271401 -0.0089314765414246246 0 -0.00460277233953129 -0.0093234302962893808 0 -0.0043009552271921301 -0.0093401514945383526 0 -0.0043951254993271401 -0.0089314765414246246 0 -0.0040907690593333804 -0.0085933502506913353 0 -0.0043951254993271401 -0.0089314765414246246 0 -0.0039337397555325587 -0.0091028006034307701 0 -0.0043009552271921301 -0.0093401514945383526 0 -0.0043951254993271401 -0.0089314765414246246 0 -0.0039337397555325587 -0.0091028006034307701 0 -0.0043009552271921301 -0.0093401514945383526 0 -0.0039337397555325587 -0.0091028006034307701 0 -0.0039495293572045778 -0.0095854974990406509 0 -0.0035172222766573624 -0.0090926861149136923 0 -0.0035502122388389092 -0.0094722052679920635 0 -0.0039337397555325587 -0.0091028006034307701 0 -0.0035502122388389092 -0.0094722052679920635 0 -0.0039337397555325587 -0.0091028006034307701 0 -0.0039495293572045778 -0.0095854974990406509 0 -0.0035172222766573624 -0.0090926861149136923 0 -0.0036787850548209845 -0.0087728108964041599 0 -0.0039337397555325587 -0.0091028006034307701 0 -0.0026083737674518705 0.012276494996172843 0 -0.0023427337403098048 0.011263551862956727 0 -0.0034302025668240207 0.011581907837206099 0 -0.0026083737674518705 0.012276494996172843 0 -0.001808617956939749 0.012298798166863403 0 -0.0023427337403098048 0.011263551862956727 0 -0.001808617956939749 0.012298798166863403 0 -0.0023427337403098048 0.011263551862956727 0 -0.0011805945300053492 0.011537548175402033 0 -0.0017092667402043244 0.010323160986500575 0 -0.0023427337403098048 0.011263551862956727 0 -0.0011805945300053492 0.011537548175402033 0 -0.0032798995110439448 0.0106383492628596 0 -0.002512813176595804 0.010517220327688613 0 -0.0023427337403098048 0.011263551862956727 0 -0.0043566470943829563 0.00090851711908401561 0 -0.0042116666797077582 -0.00038505708280897112 0 -0.003909233135649743 0.00052399584675628366 0 -0.0036856087147709537 0.010963240654034355 0 -0.0035154338496388654 0.0076268874551436517 0 -0.0032798995110439448 0.0106383492628596 0 -0.0023427337403098048 0.011263551862956727 0 -0.0034302025668240207 0.011581907837206099 0 -0.0038037491587459434 0.0045108125255843342 0 -0.0035154338496388654 0.0076268874551436517 0 -0.0034142686400395012 7.244874723716099e-05 0 -0.003909233135649743 0.00052399584675628366 0 -0.0036470684736191377 0.0015057017290779349 0 -0.0034142686400395012 7.244874723716099e-05 0 -0.0042116666797077582 -0.00038505708280897112 0 -0.003909233135649743 0.00052399584675628366 0 -0.0037398796020824557 -0.0011162269254121912 0 -0.0034142686400395012 7.244874723716099e-05 0 -0.0042116666797077582 -0.00038505708280897112 0 -0.0043566470943829563 0.00090851711908401561 0 -0.0036470684736191377 0.0015057017290779349 0 -0.0038748375247898274 0.0029491132242859841 0 -0.004834772689711552 -0.0052421203883562468 0 -0.0036909986334561344 0.0024090124282989955 0 -0.0035154338496388654 0.0076268874551436517 0 -0.0029444532744556462 0.013585782591606357 0 -0.0035154338496388654 0.0076268874551436517 0 -0.0041241650215334512 0.0074688141805076573 0 -0.0039247289542873676 0.0092946276126402196 0 -0.0044029550534583333 0.012197949055924832 0 -0.0031562027977960669 0.012468397260584721 0 -0.0043566470943829563 0.00090851711908401561 0 -0.003909233135649743 0.00052399584675628366 0 -0.0036470684736191377 0.0015057017290779349 0 -0.0026083737674518705 0.012276494996172843 0 -0.0034302025668240207 0.011581907837206099 0 -0.0029092244575593877 0.013580827310306194 0 -0.0029092244575593877 0.013580827310306194 0 -0.0022572245597664142 0.0129034079549368 0 -0.0017046056669235399 0.013454009308087312 0 -0.0026083737674518705 0.012276494996172843 0 -0.0029092244575593877 0.013580827310306194 0 -0.0022572245597664142 0.0129034079549368 0 -0.0026083737674518705 0.012276494996172843 0 -0.001808617956939749 0.012298798166863403 0 -0.0022572245597664142 0.0129034079549368 0 -0.001808617956939749 0.012298798166863403 0 -0.0022572245597664142 0.0129034079549368 0 -0.0017046056669235399 0.013454009308087312 0 -0.001808617956939749 0.012298798166863403 0 -0.0017046056669235399 0.013454009308087312 0 -0.000762646880147347 0.012780325952853677 0 -0.0029092244575593877 0.013580827310306194 0 -0.0017046056669235399 0.013454009308087312 0 -0.0017904464386332209 0.014413656345260277 0 -0.0017046056669235399 0.013454009308087312 0 -0.0017904464386332209 0.014413656345260277 0 -0.0007187400199553883 0.014169274913962939 0 -0.0029092244575593877 0.013580827310306194 0 -0.0017904464386332209 0.014413656345260277 0 -0.002529036580273627 0.015497372107089116 0 -0.0029444532744556462 0.013585782591606357 0 -0.00259815255098539 0.01506988662439286 0 -0.0017904464386332209 0.014413656345260277 0 -0.002529036580273627 0.015497372107089116 0 -0.00098872704969418974 0.015442378504794654 0 -0.0041241650215334512 0.0074688141805076573 0 -0.0036909986334561344 0.0024090124282989955 0 -0.0031562027977960669 0.012468397260584721 0 -0.002529036580273627 0.015497372107089116 0 -0.0047755220544517763 0.014962628142240022 0 -0.0044029550534583333 0.012197949055924832 0 -0.0031562027977960669 0.012468397260584721 0 -0.0047755220544517763 0.014962628142240022 0 -0.0036909986334561344 0.0024090124282989955 0 -0.0025846223932877734 0.012958146970658252 0 -0.0050011348169812456 -0.0097713500365400139 0 -0.0048559905839991157 -0.010457409452384115 0 -0.0045493208797187665 -0.01010438678553956 0 -0.0036909986334561344 0.0024090124282989955 0 -0.0033065210955878703 -0.0050392440051442496 0 -0.0018196779221281521 0.00075885089255116756 0 -0.00205738001296581 0.0025060672541343931 0 -0.0010675746468642318 0.0036359896494163233 0 -0.002529036580273627 0.015497372107089116 0 -0.0047755220544517763 0.014962628142240022 0 -0.0038119921446393827 0.018818165653294274 0 -0.002529036580273627 0.015497372107089116 0 -0.0017030771719874446 0.016933738846351232 0 -0.0038119921446393827 0.018818165653294274 0 -0.002529036580273627 0.015497372107089116 0 -0.0017030771719874446 0.016933738846351232 0 -0.00098872704969418974 0.015442378504794654 0 -0.0038119921446393827 0.018818165653294274 0 -0.0012356275566820908 0.018251855767113852 0 -0.0009662905863176784 0.020437581401455841 0 -0.0017030771719874446 0.016933738846351232 0 -0.0038119921446393827 0.018818165653294274 0 -0.0012356275566820908 0.018251855767113852 0 -0.0033065210955878703 -0.0050392440051442496 0 -0.0024929536659436648 -0.0038681089400755529 0 -0.00205738001296581 0.0025060672541343931 0 -0.0010675746468642318 0.0036359896494163233 0 -0.0023518267448218513 0.0042805437305504894 0 -0.0010675746468642318 0.0036359896494163233 0 -0.002126351023585187 0.0043536588625113825 0 -0.0023518267448218513 0.0042805437305504894 0 -0.0025846223932877734 0.012958146970658252 0 0.00070036398301498751 0.011870743788002987 0 -0.0010675746468642318 0.0036359896494163233 0 -0.002126351023585187 0.0043536588625113825 0 -0.00031637286996405992 0.0066996597143796468 0 -0.002126351023585187 0.0043536588625113825 0 -0.0025270119598674269 0.0053010959246526899 0 -0.00031637286996405992 0.0066996597143796468 0 -0.0021474978346231999 -0.0033516551113045093 0 -0.0024929536659436648 -0.0038681089400755529 0 -0.0038119921446393827 0.018818165653294274 0 -0.0029401417115425938 0.022491571287758652 0 -0.0009662905863176784 0.020437581401455841 0 0.0023193853039231598 -0.017883660317131841 0 0.001905351261072348 -0.017511980665097914 0 0.0024957552825482453 -0.017276972965294637 0 0.001905351261072348 -0.017511980665097914 0 0.0024957552825482453 -0.017276972965294637 0 0.0018032899936087864 -0.016977370810004496 0 -0.0018697588184559818 -0.0098643989973181672 0 -7.66923599631313e-05 -0.0087146906748912043 0 0.0001019107099561758 -0.0098035581768145027 0 0.0023193853039231598 -0.017883660317131841 0 0.0024957552825482453 -0.017276972965294637 0 0.0030794378996404598 -0.017378891819090247 0 0.0024957552825482453 -0.017276972965294637 0 0.0030794378996404598 -0.017378891819090247 0 0.0027172700390090928 -0.017018335065961294 0 1.9281357737525035e-05 -0.014244707552393134 0 -5.2323222973408475e-05 -0.0060883875555901232 0 -0.002126351023585187 0.0043536588625113825 0 -0.0025270119598674269 0.0053010959246526899 0 -0.0023598679167714486 0.004276545879524426 0 -5.2323222973408475e-05 -0.0060883875555901232 0 -0.0024929536659436648 -0.0038681089400755529 0 -0.0024929536659436648 -0.0038681089400755529 0 -0.0033607567768455982 -0.010837009581434702 0 -0.0047226137610928594 -0.011087742283217466 0 -0.0041134983096769691 -0.010979595291938232 0 -0.0043445508425235908 -0.010510110765728661 0 -0.0048559905839991157 -0.010457409452384115 0 -0.0047226137610928594 -0.011087742283217466 0 -0.0043445508425235908 -0.010510110765728661 0 -0.0018697588184559818 -0.0098643989973181672 0 0.0001019107099561758 -0.0098035581768145027 0 -0.0017793448684587912 -0.010403956161703002 0 -0.0018697588184559818 -0.0098643989973181672 0 -0.0017793448684587912 -0.010403956161703002 0 -0.0035972760049276563 -0.011022096016898826 0 0.0023193853039231598 -0.017883660317131841 0 0.001905351261072348 -0.017511980665097914 0 0.0014923956241887017 -0.018323229849543335 0 -0.0033607567768455982 -0.010837009581434702 0 -0.0016602371535540104 -0.013988714366420515 0 -0.0041134983096769691 -0.010979595291938232 0 -0.0038156963265056705 -0.010435927456739484 0 -0.0043445508425235908 -0.010510110765728661 0 -0.0041134983096769691 -0.010979595291938232 0 -0.0038156963265056705 -0.010435927456739484 0 -0.0034595653034737374 -0.010883406528317319 0 1.9281357737525035e-05 -0.014244707552393134 0 -0.0016602371535540104 -0.013988714366420515 0 -0.0038156963265056705 -0.010435927456739484 0 -0.0041286137200638269 -0.01004959351686935 0 -0.0043445508425235908 -0.010510110765728661 0 -0.0038156963265056705 -0.010435927456739484 0 -0.0041286137200638269 -0.01004959351686935 0 -0.0036091705935855931 -0.0099220504163346247 0 -0.0048559905839991157 -0.010457409452384115 0 -0.0043445508425235908 -0.010510110765728661 0 -0.0045493208797187665 -0.01010438678553956 0 -0.0041286137200638269 -0.01004959351686935 0 -0.0043445508425235908 -0.010510110765728661 0 -0.0045493208797187665 -0.01010438678553956 0 -0.00460277233953129 -0.0093234302962893808 0 -0.0050011348169812456 -0.0097713500365400139 0 -0.0044294649281894048 -0.0096763148931890228 0 -0.0050011348169812456 -0.0097713500365400139 0 -0.0045493208797187665 -0.01010438678553956 0 -0.0044294649281894048 -0.0096763148931890228 0 -0.0041286137200638269 -0.01004959351686935 0 -0.0045493208797187665 -0.01010438678553956 0 -0.0044294649281894048 -0.0096763148931890228 0 -0.00460277233953129 -0.0093234302962893808 0 -0.0043009552271921301 -0.0093401514945383526 0 -0.0044294649281894048 -0.0096763148931890228 0 -0.0041286137200638269 -0.01004959351686935 0 -0.0036091705935855931 -0.0099220504163346247 0 -0.0039495293572045778 -0.0095854974990406509 0 -0.0041286137200638269 -0.01004959351686935 0 -0.0044294649281894048 -0.0096763148931890228 0 -0.0039495293572045778 -0.0095854974990406509 0 -0.0043009552271921301 -0.0093401514945383526 0 -0.0044294649281894048 -0.0096763148931890228 0 -0.0039495293572045778 -0.0095854974990406509 0 -0.0035502122388389092 -0.0094722052679920635 0 -0.0036091705935855931 -0.0099220504163346247 0 -0.0039495293572045778 -0.0095854974990406509 0 -0.0035502122388389092 -0.0094722052679920635 0 -0.0036091705935855931 -0.0099220504163346247 0 -0.0031522159926260186 -0.0097679149757892887 0 -0.0035502122388389092 -0.0094722052679920635 0 -0.0031293590644418394 -0.0092957605502223088 0 -0.0031522159926260186 -0.0097679149757892887 0 -0.0036091705935855931 -0.0099220504163346247 0 -0.0031522159926260186 -0.0097679149757892887 0 -0.0031956004579775364 -0.010236832080423079 0 -0.0031522159926260186 -0.0097679149757892887 0 -0.0027660880234367251 -0.010010961090384433 0 -0.0031956004579775364 -0.010236832080423079 0 -0.0031293590644418394 -0.0092957605502223088 0 -0.0031522159926260186 -0.0097679149757892887 0 -0.0026845491501789197 -0.0096233022538171707 0 -0.0031522159926260186 -0.0097679149757892887 0 -0.0026845491501789197 -0.0096233022538171707 0 -0.0027660880234367251 -0.010010961090384433 0 -0.0022155827509091862 -0.0095419671425804441 0 -0.0026845491501789197 -0.0096233022538171707 0 -0.0024229931454441151 -0.0098767477509305156 0 -0.0024229931454441151 -0.0098767477509305156 0 -0.0027660880234367251 -0.010010961090384433 0 -0.0024185509007342131 -0.010385206776716895 0 -0.0026845491501789197 -0.0096233022538171707 0 -0.0024229931454441151 -0.0098767477509305156 0 -0.0027660880234367251 -0.010010961090384433 0 -0.0016223137082464741 -0.015557425699931137 0 -0.0015859838576047179 -0.015629577286841636 0 -0.0017846136510011122 -0.015613899471920397 0 -0.0021899549738425383 -0.012875732149194494 0 -0.0016602371535540104 -0.013988714366420515 0 -0.0027660880234367251 -0.010010961090384433 0 -0.0024185509007342131 -0.010385206776716895 0 -0.0031956004579775364 -0.010236832080423079 0 -0.0038156963265056705 -0.010435927456739484 0 -0.0031956004579775364 -0.010236832080423079 0 -0.0034595653034737374 -0.010883406528317319 0 -0.0024185509007342131 -0.010385206776716895 0 -0.0031956004579775364 -0.010236832080423079 0 -0.0034595653034737374 -0.010883406528317319 0 -0.0038156963265056705 -0.010435927456739484 0 -0.0036091705935855931 -0.0099220504163346247 0 -0.0031956004579775364 -0.010236832080423079 0 -0.0010451396088099526 -0.015382403113702999 0 -0.0012072151363636458 -0.015202362723393904 0 -0.00080499309615891812 -0.015315436962675249 0 -0.0010451396088099526 -0.015382403113702999 0 -0.0012072151363636458 -0.015202362723393904 0 -0.0011493311396807936 -0.015438693612661597 0 -0.0010451396088099526 -0.015382403113702999 0 -0.0010076971280085149 -0.015561328972230594 0 -0.00080499309615891812 -0.015315436962675249 0 -0.0012072151363636458 -0.015202362723393904 0 -0.0013053123712274495 -0.015496560204965419 0 -0.0011493311396807936 -0.015438693612661597 0 -0.001785571586134436 -0.0095406175976224944 0 -0.0015301297557252398 -0.0098107844735035744 0 -0.0020660826015087815 -0.0098631658083941295 0 -0.0021899549738425383 -0.012875732149194494 0 -0.0013318182485936153 -0.012510694128689928 0 -0.0024185509007342131 -0.010385206776716895 0 -0.0015301297557252398 -0.0098107844735035744 0 -0.0020660826015087815 -0.0098631658083941295 0 -0.0012072151363636458 -0.015202362723393904 0 -0.0014269213845254473 -0.015487023627199059 0 -0.0013053123712274495 -0.015496560204965419 0 -0.001785571586134436 -0.0095406175976224944 0 -0.0022155827509091862 -0.0095419671425804441 0 -0.0020660826015087815 -0.0098631658083941295 0 -0.0022155827509091862 -0.0095419671425804441 0 -0.0024229931454441151 -0.0098767477509305156 0 -0.0020660826015087815 -0.0098631658083941295 0 -0.0024229931454441151 -0.0098767477509305156 0 -0.0024185509007342131 -0.010385206776716895 0 -0.0020660826015087815 -0.0098631658083941295 0 -0.0015859838576047179 -0.015629577286841636 0 -0.0013053123712274495 -0.015496560204965419 0 -0.00099570165920611102 -0.015597235574468488 0 -0.00037989521640495146 -0.017490994446897969 0 -0.0011563646971163649 -0.017519060144206251 0 -0.0016223137082464741 -0.015557425699931137 0 -0.0012072151363636458 -0.015202362723393904 0 -0.0014269213845254473 -0.015487023627199059 0 -0.0016223137082464741 -0.015557425699931137 0 -0.0015859838576047179 -0.015629577286841636 0 -0.0014269213845254473 -0.015487023627199059 0 -0.0015859838576047179 -0.015629577286841636 0 -0.0014269213845254473 -0.015487023627199059 0 -0.0013053123712274495 -0.015496560204965419 0 -0.0009959937061106369 -0.018927731231330323 0 -0.00087217913357404489 -0.018341581159630086 0 -0.001305231577382401 -0.018267032646222786 0 0.0001920582937304435 -0.018612714708887999 0 -0.0009959937061106369 -0.018927731231330323 0 -0.00049797235114196735 -0.018428602828557007 0 -0.0013053123712274495 -0.015496560204965419 0 -0.0011493311396807936 -0.015438693612661597 0 -0.00099570165920611102 -0.015597235574468488 0 -0.0009959937061106369 -0.018927731231330323 0 -0.00087217913357404489 -0.018341581159630086 0 -0.00049797235114196735 -0.018428602828557007 0 -0.00098017325647970768 -0.015626795004786139 0 -0.0010076971280085149 -0.015561328972230594 0 -0.00080499309615891812 -0.015315436962675249 0 -0.0011563646971163649 -0.017519060144206251 0 -0.0012115147078152024 -0.017327113585628141 0 -0.0011493311396807936 -0.015438693612661597 0 -0.00099570165920611102 -0.015597235574468488 0 -0.0010076971280085149 -0.015561328972230594 0 -0.0010451396088099526 -0.015382403113702999 0 -0.0011493311396807936 -0.015438693612661597 0 -0.0010076971280085149 -0.015561328972230594 0 -0.00087217913357404489 -0.018341581159630086 0 -0.00049797235114196735 -0.018428602828557007 0 -0.00068391840242919028 -0.017720111924805475 0 -0.00087217913357404489 -0.018341581159630086 0 -0.00068391840242919028 -0.017720111924805475 0 -0.001305231577382401 -0.018267032646222786 0 -0.00054654473949489527 -0.017532229066236794 0 -0.001412890341590415 -0.019381786389066982 0 -0.00049797235114196735 -0.018428602828557007 0 -3.8579146441264284e-05 -0.017920618765464479 0 -0.00068391840242919028 -0.017720111924805475 0 0.0001920582937304435 -0.018612714708887999 0 -0.00049797235114196735 -0.018428602828557007 0 3.7565029995122431e-05 -0.018277325119367908 0 -0.00049797235114196735 -0.018428602828557007 0 3.7565029995122431e-05 -0.018277325119367908 0 -3.8579146441264284e-05 -0.017920618765464479 0 3.7565029995122431e-05 -0.018277325119367908 0 -3.8579146441264284e-05 -0.017920618765464479 0 0.00050979206030867853 -0.018142865561140538 0 -3.8579146441264284e-05 -0.017920618765464479 0 -0.00068391840242919028 -0.017720111924805475 0 -0.00013741823302565939 -0.01713793754104314 0 -3.8579146441264284e-05 -0.017920618765464479 0 0.00061489468962152584 -0.017492384288619951 0 -0.00013741823302565939 -0.01713793754104314 0 -0.00068391840242919028 -0.017720111924805475 0 -0.0007802483563517556 -0.016900937770161946 0 -0.0016278106138632388 -0.01745005435644444 0 -0.00068391840242919028 -0.017720111924805475 0 -0.0007802483563517556 -0.016900937770161946 0 -0.00013741823302565939 -0.01713793754104314 0 0.0014923956241887017 -0.018323229849543335 0 0.00098345652606448794 -0.017878650817600053 0 0.0013168936683549753 -0.017542268593329365 0 0.0014923956241887017 -0.018323229849543335 0 0.00050979206030867853 -0.018142865561140538 0 0.00098345652606448794 -0.017878650817600053 0 0.0001920582937304435 -0.018612714708887999 0 0.0014923956241887017 -0.018323229849543335 0 0.00050979206030867853 -0.018142865561140538 0 -0.00037989521640495146 -0.017490994446897969 0 -0.0016602371535540104 -0.013988714366420515 0 0.0001920582937304435 -0.018612714708887999 0 3.7565029995122431e-05 -0.018277325119367908 0 0.00050979206030867853 -0.018142865561140538 0 0.00050979206030867853 -0.018142865561140538 0 0.00061489468962152584 -0.017492384288619951 0 0.00098345652606448794 -0.017878650817600053 0 -3.8579146441264284e-05 -0.017920618765464479 0 0.00050979206030867853 -0.018142865561140538 0 0.00061489468962152584 -0.017492384288619951 0 0.001905351261072348 -0.017511980665097914 0 0.0014923956241887017 -0.018323229849543335 0 0.0013168936683549753 -0.017542268593329365 0 0.00061489468962152584 -0.017492384288619951 0 0.0013168936683549753 -0.017542268593329365 0 0.001119098854069451 -0.0170105247072121 0 0.00061489468962152584 -0.017492384288619951 0 0.00098345652606448794 -0.017878650817600053 0 0.0013168936683549753 -0.017542268593329365 0 0.001905351261072348 -0.017511980665097914 0 0.0013168936683549753 -0.017542268593329365 0 0.0018032899936087864 -0.016977370810004496 0 0.0013168936683549753 -0.017542268593329365 0 0.001119098854069451 -0.0170105247072121 0 0.0018032899936087864 -0.016977370810004496 0 0.001119098854069451 -0.0170105247072121 0 0.0011204200977984449 -0.016370278776299908 0 0.0018032899936087864 -0.016977370810004496 0 0.001119098854069451 -0.0170105247072121 0 0.00054547543722214013 -0.016475906735460556 0 0.0011204200977984449 -0.016370278776299908 0 0.00061489468962152584 -0.017492384288619951 0 0.001119098854069451 -0.0170105247072121 0 0.00054547543722214013 -0.016475906735460556 0 0.00061489468962152584 -0.017492384288619951 0 0.00054547543722214013 -0.016475906735460556 0 -0.00013741823302565939 -0.01713793754104314 0 0.00054547543722214013 -0.016475906735460556 0 0.00020153554445506534 -0.01583887442392887 0 2.8237657998283428e-05 -0.015522623307136926 0 0.00054547543722214013 -0.016475906735460556 0 0.00020153554445506534 -0.01583887442392887 0 0.0011204200977984449 -0.016370278776299908 0 0.0011204200977984449 -0.016370278776299908 0 0.0010562892089395735 -0.015710011089380027 0 0.0020164854951005024 -0.016207214161126839 0 0.00020153554445506534 -0.01583887442392887 0 0.0011204200977984449 -0.016370278776299908 0 0.0010562892089395735 -0.015710011089380027 0 0.0011204200977984449 -0.016370278776299908 0 0.0018032899936087864 -0.016977370810004496 0 0.0020164854951005024 -0.016207214161126839 0 -0.0007802483563517556 -0.016900937770161946 0 -0.00013741823302565939 -0.01713793754104314 0 -0.00037374493454405197 -0.016428226045841397 0 0.00054547543722214013 -0.016475906735460556 0 -0.00013741823302565939 -0.01713793754104314 0 -0.00037374493454405197 -0.016428226045841397 0 0.00020153554445506534 -0.01583887442392887 0 2.8237657998283428e-05 -0.015522623307136926 0 4.0033181666923612e-05 -0.015627879695603534 0 0.0005256598682675819 -0.016400464535594652 0 -3.845112039882262e-05 -0.016013565688425359 0 -0.0007802483563517556 -0.016900937770161946 0 -0.00037374493454405197 -0.016428226045841397 0 -0.0010720515491629196 -0.016381009832863083 0 -3.845112039882262e-05 -0.016013565688425359 0 -0.0001085966032786742 -0.01569502774292451 0 2.8237657998283428e-05 -0.015522623307136926 0 0.00046343437438965099 -0.015629958559152911 0 0.0012355972861898591 -0.015060864397659903 0 2.8237657998283428e-05 -0.015522623307136926 0 0.00046343437438965099 -0.015629958559152911 0 4.0033181666923612e-05 -0.015627879695603534 0 0.00046343437438965099 -0.015629958559152911 0 0.00058223282872735488 -0.016243518699259323 0 0.0012129898431591959 -0.015928471164806581 0 0.00046343437438965099 -0.015629958559152911 0 0.00011372968863724539 -0.015763083208637532 0 0.00058223282872735488 -0.016243518699259323 0 0.00046343437438965099 -0.015629958559152911 0 0.00011372968863724539 -0.015763083208637532 0 4.0033181666923612e-05 -0.015627879695603534 0 0.00020153554445506534 -0.01583887442392887 0 4.0033181666923612e-05 -0.015627879695603534 0 -7.5313108077006182e-05 -0.015587260965693996 0 0.00011372968863724539 -0.015763083208637532 0 4.0033181666923612e-05 -0.015627879695603534 0 -7.5313108077006182e-05 -0.015587260965693996 0 0.00011372968863724539 -0.015763083208637532 0 -7.5313108077006182e-05 -0.015587260965693996 0 -0.00022823838290881866 -0.015688077288385838 0 -7.5313108077006182e-05 -0.015587260965693996 0 -0.00022823838290881866 -0.015688077288385838 0 -0.00010794459492283087 -0.015326323186558997 0 -0.00022823838290881866 -0.015688077288385838 0 -0.0010045298468835783 -0.014741063391371321 0 -1.3415082353303394e-05 -0.016856826521407013 0 -0.00022823838290881866 -0.015688077288385838 0 0.0005027323902894482 -0.016835111526107394 0 -1.3415082353303394e-05 -0.016856826521407013 0 -0.00022823838290881866 -0.015688077288385838 0 0.00058223282872735488 -0.016243518699259323 0 0.0005027323902894482 -0.016835111526107394 0 0.00011372968863724539 -0.015763083208637532 0 -0.00022823838290881866 -0.015688077288385838 0 0.00058223282872735488 -0.016243518699259323 0 0.00058223282872735488 -0.016243518699259323 0 0.0013851693026072688 -0.017231350711726743 0 0.0005027323902894482 -0.016835111526107394 0 0.0010562892089395735 -0.015710011089380027 0 0.00072521184624052548 -0.014628578674881945 0 0.0023048637855383738 -0.01514552924435216 0 0.0010562892089395735 -0.015710011089380027 0 -0.00010794459492283087 -0.015326323186558997 0 0.00072521184624052548 -0.014628578674881945 0 0.0010562892089395735 -0.015710011089380027 0 0.0023048637855383738 -0.01514552924435216 0 0.0020164854951005024 -0.016207214161126839 0 0.00020153554445506534 -0.01583887442392887 0 -7.5313108077006182e-05 -0.015587260965693996 0 -0.00010794459492283087 -0.015326323186558997 0 0.00020153554445506534 -0.01583887442392887 0 0.0010562892089395735 -0.015710011089380027 0 -0.00010794459492283087 -0.015326323186558997 0 -0.00022823838290881866 -0.015688077288385838 0 -0.00010794459492283087 -0.015326323186558997 0 -0.0010045298468835783 -0.014741063391371321 0 -0.00010794459492283087 -0.015326323186558997 0 -0.0010045298468835783 -0.014741063391371321 0 0.00072521184624052548 -0.014628578674881945 0 0.00072521184624052548 -0.014628578674881945 0 0.0023048637855383738 -0.01514552924435216 0 0.0022654828091358994 -0.012763311766575931 0 -0.0010045298468835783 -0.014741063391371321 0 0.00072521184624052548 -0.014628578674881945 0 0.00010075473176521351 -0.012606128139523826 0 0.0023048637855383738 -0.01514552924435216 0 0.0041957842253116792 -0.013923826925541833 0 0.0022654828091358994 -0.012763311766575931 0 0.0023048637855383738 -0.01514552924435216 0 0.0032548815242128539 -0.015812062894151796 0 0.0041957842253116792 -0.013923826925541833 0 0.0023048637855383738 -0.01514552924435216 0 0.0032548815242128539 -0.015812062894151796 0 0.0020164854951005024 -0.016207214161126839 0 0.0034029738531135756 -0.0062688426869290138 0 0.0038574152639443515 -0.0049006406780617738 0 0.0034857196173763783 0.0037865168502552024 0 0.0032189804863408588 0.0038464977845699198 0 0.0033622407296486603 0.0036002575502551855 0 0.0032930658608102551 0.0038971123722316447 0 0.0034857196173763783 0.0037865168502552024 0 0.0032189804863408588 0.0038464977845699198 0 0.0032189804863408588 0.0038464977845699198 0 0.0030499551429153384 0.0038062660241499824 0 0.0031666482133120744 0.003927353896845627 0 0.0025852219919639961 0.0048817316823078407 0 0.0029634364203131084 0.0040833409157281031 0 0.0030499551429153384 0.0038062660241499824 0 0.0031666482133120744 0.003927353896845627 0 0.0030231257461138688 0.0039182365116698604 0 0.0031666482133120744 0.003927353896845627 0 0.003109687592221085 0.0039843110954785495 0 0.0030231257461138688 0.0039182365116698604 0 0.0030314773404000622 0.0040305207229984277 0 0.003109687592221085 0.0039843110954785495 0 0.0030231257461138688 0.0039182365116698604 0 0.0032930658608102551 0.0038971123722316447 0 0.0032189804863408588 0.0038464977845699198 0 0.0031666482133120744 0.003927353896845627 0 0.0031666482133120744 0.003927353896845627 0 0.0032094909943315782 0.0039616488572597293 0 0.003152987493256959 0.0039967442297577189 0 0.0032094909943315782 0.0039616488572597293 0 0.003152987493256959 0.0039967442297577189 0 0.0031426158363758241 0.0040368196027755461 0 0.0032930658608102551 0.0038971123722316447 0 0.0031666482133120744 0.003927353896845627 0 0.0032094909943315782 0.0039616488572597293 0 0.0031418041855963024 0.0041028814996685575 0 0.003130164456989418 0.0040460945539494055 0 0.0029196248570886249 0.0041307145953500416 0 0.0030465943759227137 0.0058240241761545204 0 0.0011902990293150991 0.015910014057424506 0 0.0030314773404000622 0.0040305207229984277 0 0.003109687592221085 0.0039843110954785495 0 0.003130164456989418 0.0040460945539494055 0 0.003109687592221085 0.0039843110954785495 0 0.003152987493256959 0.0039967442297577189 0 0.003130164456989418 0.0040460945539494055 0 0.0031666482133120744 0.003927353896845627 0 0.003109687592221085 0.0039843110954785495 0 0.003152987493256959 0.0039967442297577189 0 0.003152987493256959 0.0039967442297577189 0 0.0031426158363758241 0.0040368196027755461 0 0.003130164456989418 0.0040460945539494055 0 0.0030465943759227137 0.0058240241761545204 0 0.0029147368206238625 0.0047402569709015458 0 0.00070036398301498751 0.011870743788002987 0 0.0011902990293150991 0.015910014057424506 0 -0.0029401417115425938 0.022491571287758652 0 -0.0009662905863176784 0.020437581401455841 0 -0.00065606380347058891 0.022291888748700719 0 0.00042574918786939951 0.011999107950830385 0 0.00023640762210851575 0.011157381086346339 0 0.0025176625654561714 0.012723644246141282 0 0.0030465943759227137 0.0058240241761545204 0 0.00070036398301498751 0.011870743788002987 0 0.0032094909943315782 0.0039616488572597293 0 0.0031426158363758241 0.0040368196027755461 0 0.0032275707889858154 0.0039360114068192108 0 0.0049797223411812992 0.0033502455596059921 0 0.0045416601020375055 0.0014057836328918844 0 -0.00066954358543350905 0.0014319544650376013 0 -5.2323222973408475e-05 -0.0060883875555901232 0 0.00070036398301498751 0.011870743788002987 0 0.0030465943759227137 0.0058240241761545204 0 0.0025092841930141798 -0.0048690886874347894 0 -0.00017655952782496859 -0.0015280870717389505 0 0.0045416601020375055 0.0014057836328918844 0 -0.00066954358543350905 0.0014319544650376013 0 0.0030794378996404598 -0.017378891819090247 0 0.0030033561199049436 -0.016846487303072599 0 0.0027172700390090928 -0.017018335065961294 0 -5.2323222973408475e-05 -0.0060883875555901232 0 0.0025092841930141798 -0.0048690886874347894 0 0.0024957552825482453 -0.017276972965294637 0 0.0025914029258613273 -0.016730805667532787 0 0.0027172700390090928 -0.017018335065961294 0 0.0030033561199049436 -0.016846487303072599 0 0.0025914029258613273 -0.016730805667532787 0 0.0027172700390090928 -0.017018335065961294 0 0.0024957552825482453 -0.017276972965294637 0 0.0025914029258613273 -0.016730805667532787 0 0.0018032899936087864 -0.016977370810004496 0 0.0025914029258613273 -0.016730805667532787 0 0.0018032899936087864 -0.016977370810004496 0 0.0020164854951005024 -0.016207214161126839 0 0.0032548815242128539 -0.015812062894151796 0 0.0025914029258613273 -0.016730805667532787 0 0.0020164854951005024 -0.016207214161126839 0 0.0032548815242128539 -0.015812062894151796 0 0.0030033561199049436 -0.016846487303072599 0 0.0025914029258613273 -0.016730805667532787 0 0.0034029738531135756 -0.0062688426869290138 0 0.0025092841930141798 -0.0048690886874347894 0 0.0032930658608102551 0.0038971123722316447 0 0.0032094909943315782 0.0039616488572597293 0 0.0032275707889858154 0.0039360114068192108 0 -0.0031172044040913907 -0.026734892492031197 0 -0.0040538705843996608 -0.026980872651372462 0 -0.003948979671603548 -0.026440159331595769 0 -0.0040538705843996608 -0.026980872651372462 0 -0.0047884143030121357 -0.026623500262997129 0 -0.003948979671603548 -0.026440159331595769 0 -0.0047884143030121357 -0.026623500262997129 0 -0.0055353812868964734 -0.027426166429035545 0 -0.0044664312589284827 -0.027718921343631596 0 -0.0040538705843996608 -0.026980872651372462 0 -0.0047884143030121357 -0.026623500262997129 0 -0.0044664312589284827 -0.027718921343631596 0 -0.0047884143030121357 -0.026623500262997129 0 -0.0050180063745868643 -0.0257870975182811 0 -0.0055864196701203217 -0.026294852383485359 0 -0.0047884143030121357 -0.026623500262997129 0 -0.0050180063745868643 -0.0257870975182811 0 -0.004389215884044546 -0.025861755658243942 0 -0.0047884143030121357 -0.026623500262997129 0 -0.004389215884044546 -0.025861755658243942 0 -0.003948979671603548 -0.026440159331595769 0 -0.004389215884044546 -0.025861755658243942 0 -0.003948979671603548 -0.026440159331595769 0 -0.0036578549231974272 -0.025920895491430625 0 -0.0032300576876359076 -0.024668241767131983 0 -0.0036578549231974272 -0.025920895491430625 0 -0.0043653844735445134 -0.024820738454577992 0 -0.004389215884044546 -0.025861755658243942 0 -0.0036578549231974272 -0.025920895491430625 0 -0.0043653844735445134 -0.024820738454577992 0 -0.0032300576876359076 -0.024668241767131983 0 -0.0043653844735445134 -0.024820738454577992 0 -0.0037806061411328126 -0.023337622713317213 0 -0.0043653844735445134 -0.024820738454577992 0 -0.0037806061411328126 -0.023337622713317213 0 -0.0051876570985706326 -0.023264247434953301 0 -0.0043971987597522131 -0.021345491722147319 0 -0.0037806061411328126 -0.023337622713317213 0 -0.0051876570985706326 -0.023264247434953301 0 -0.0051876570985706326 -0.023264247434953301 0 -0.0055077523033841081 -0.024228671259226758 0 -0.0061787948844965503 -0.023140004512855999 0 -0.0043653844735445134 -0.024820738454577992 0 -0.0051876570985706326 -0.023264247434953301 0 -0.0055077523033841081 -0.024228671259226758 0 -0.0054249333232073661 -0.025662438748576457 0 -0.004327036675198283 -0.024827336522694515 0 -0.0050180063745868643 -0.0257870975182811 0 -0.004389215884044546 -0.025861755658243942 0 -0.0043653844735445134 -0.024820738454577992 0 -0.0053872374999935678 -0.025248653880168528 0 -0.0043653844735445134 -0.024820738454577992 0 -0.0055077523033841081 -0.024228671259226758 0 -0.0053872374999935678 -0.025248653880168528 0 -0.0055077523033841081 -0.024228671259226758 0 -0.0064009691928567309 -0.024704294435448422 0 -0.0063126660251320472 -0.022117996271147793 0 -0.0061787948844965503 -0.023140004512855999 0 -0.0056433286981144208 -0.022480221306016332 0 -0.0063058587656413187 -0.023245686380469567 0 -0.006239639163811931 -0.023225673224070809 0 -0.0055077523033841081 -0.024228671259226758 0 -0.0064009691928567309 -0.024704294435448422 0 -0.0061787948844965503 -0.023140004512855999 0 -0.0061437751668482884 -0.022702641599799084 0 -0.0051876570985706326 -0.023264247434953301 0 -0.0061787948844965503 -0.023140004512855999 0 -0.0061787948844965503 -0.023140004512855999 0 -0.0057493181587487899 -0.023022300016575906 0 -0.0056433286981144208 -0.022480221306016332 0 -0.0061437751668482884 -0.022702641599799084 0 -0.0061787948844965503 -0.023140004512855999 0 -0.0057493181587487899 -0.023022300016575906 0 -0.0061437751668482884 -0.022702641599799084 0 -0.0052564839606477655 -0.023295119206390921 0 -0.0057493181587487899 -0.023022300016575906 0 -0.0052564839606477655 -0.023295119206390921 0 -0.0057493181587487899 -0.023022300016575906 0 -0.005156402382491156 -0.022744235749830446 0 -0.0057493181587487899 -0.023022300016575906 0 -0.005156402382491156 -0.022744235749830446 0 -0.0056433286981144208 -0.022480221306016332 0 -0.0056433286981144208 -0.022480221306016332 0 -0.0054912116873039414 -0.021509915923843083 0 -0.0047762323605502312 -0.021937451650531924 0 -0.0063126660251320472 -0.022117996271147793 0 -0.0056433286981144208 -0.022480221306016332 0 -0.0054912116873039414 -0.021509915923843083 0 -0.005156402382491156 -0.022744235749830446 0 -0.0056433286981144208 -0.022480221306016332 0 -0.0047762323605502312 -0.021937451650531924 0 -0.0054912116873039414 -0.021509915923843083 0 -0.0053528446382701787 -0.020418014593905239 0 -0.0044928778169199103 -0.02082170040270883 0 -0.0054912116873039414 -0.021509915923843083 0 -0.0063093761744766937 -0.021151945676560313 0 -0.0053528446382701787 -0.020418014593905239 0 -0.0063058587656413187 -0.023245686380469567 0 -0.0049248703930967639 -0.024493328063528986 0 -0.0063126660251320472 -0.022117996271147793 0 -0.0054912116873039414 -0.021509915923843083 0 -0.0063093761744766937 -0.021151945676560313 0 -0.0053872374999935678 -0.025248653880168528 0 -0.0064009691928567309 -0.024704294435448422 0 -0.0064253844305506352 -0.025963148720261238 0 -0.0054249333232073661 -0.025662438748576457 0 -0.0049248703930967639 -0.024493328063528986 0 -0.0027661139974004766 -0.024625705275582759 0 -0.0014140215277422593 -0.023665832733789166 0 -0.0026749258460173407 -0.022751108027190606 0 -0.0047884143030121357 -0.026623500262997129 0 -0.0055864196701203217 -0.026294852383485359 0 -0.0055353812868964734 -0.027426166429035545 0 -0.0049248703930967639 -0.024493328063528986 0 -0.004422165834101632 -0.025585862978726979 0 -0.0049248703930967639 -0.024493328063528986 0 -0.003152841389412409 -0.021799126669329937 0 -0.003152841389412409 -0.021799126669329937 0 -0.0025884560892359132 -0.021492823870734725 0 -0.0053528446382701787 -0.020418014593905239 0 -0.0044928778169199103 -0.02082170040270883 0 -0.0043717962632541379 -0.019686387918563811 0 -0.0044928778169199103 -0.02082170040270883 0 -0.0033049693778021394 -0.020054764911539895 0 -0.0043717962632541379 -0.019686387918563811 0 -0.0044928778169199103 -0.02082170040270883 0 -0.0033049693778021394 -0.020054764911539895 0 -0.0036403477214264979 -0.021311386384865932 0 -0.0033049693778021394 -0.020054764911539895 0 -0.0036403477214264979 -0.021311386384865932 0 -0.0027150812639445583 -0.021014925159259821 0 -0.0054912116873039414 -0.021509915923843083 0 -0.0044928778169199103 -0.02082170040270883 0 -0.0047762323605502312 -0.021937451650531924 0 -0.0044928778169199103 -0.02082170040270883 0 -0.0036403477214264979 -0.021311386384865932 0 -0.0047762323605502312 -0.021937451650531924 0 -0.0047762323605502312 -0.021937451650531924 0 -0.0045150098095777854 -0.022615209365735408 0 -0.0038281038669431234 -0.022148232920959316 0 -0.005156402382491156 -0.022744235749830446 0 -0.0047762323605502312 -0.021937451650531924 0 -0.0045150098095777854 -0.022615209365735408 0 -0.0014569182450571388 -0.019210067852360031 0 -0.00069671164437876782 -0.017956545853952021 0 -0.0052564839606477655 -0.023295119206390921 0 -0.005156402382491156 -0.022744235749830446 0 -0.0045150098095777854 -0.022615209365735408 0 0.0029215764026289345 -0.013571646734999296 0 -0.00069671164437876782 -0.017956545853952021 0 0.0021718518494865295 -0.0145076023451903 0 0.0026540298341364973 -0.014794778322068127 0 0.0011842606503596289 -0.015373598341170802 0 -0.0052564839606477655 -0.023295119206390921 0 -0.0045150098095777854 -0.022615209365735408 0 -0.0035634624937115333 -0.022940841711956657 0 0.0011478180967856117 -0.014545919163592866 0 0.00034853491172776914 -0.014864413682624729 0 0.00076127143640315515 -0.01541856260806012 0 -0.0035634624937115333 -0.022940841711956657 0 -0.0038281038669431234 -0.022148232920959316 0 -0.0026470714490837029 -0.022138095953751755 0 -0.0036403477214264979 -0.021311386384865932 0 -0.0038281038669431234 -0.022148232920959316 0 -0.0026470714490837029 -0.022138095953751755 0 -0.0036403477214264979 -0.021311386384865932 0 -0.0047762323605502312 -0.021937451650531924 0 -0.0038281038669431234 -0.022148232920959316 0 -0.0045150098095777854 -0.022615209365735408 0 -0.0035634624937115333 -0.022940841711956657 0 -0.0038281038669431234 -0.022148232920959316 0 -0.00079143748522205598 -0.018398682605255491 0 -0.0011630462025453657 -0.018733959688220586 0 -0.0012466705116781784 -0.018538537390275486 0 -0.00069671164437876782 -0.017956545853952021 0 -0.0023645874733730855 -0.020953203054050951 0 -0.0011630462025453657 -0.018733959688220586 0 -0.0012466705116781784 -0.018538537390275486 0 -0.0014260307491543683 -0.0187418969439519 0 -0.00069671164437876782 -0.017956545853952021 0 -0.00057119327246268003 -0.016935084227511537 0 0.00034853491172776914 -0.014864413682624729 0 0.00076127143640315515 -0.01541856260806012 0 -0.00020981829802582555 -0.01554359507635643 0 -0.00031414825544034345 -0.014485905433737711 0 0.00034853491172776914 -0.014864413682624729 0 -0.00020981829802582555 -0.01554359507635643 0 -0.00031414825544034345 -0.014485905433737711 0 -0.00020981829802582555 -0.01554359507635643 0 -0.00080499309615891812 -0.015315436962675249 0 -0.00031414825544034345 -0.014485905433737711 0 -0.0012072151363636458 -0.015202362723393904 0 -0.00080499309615891812 -0.015315436962675249 0 -0.0011563646971163649 -0.017519060144206251 0 -0.00057119327246268003 -0.016935084227511537 0 -0.00098017325647970768 -0.015626795004786139 0 -0.00020981829802582555 -0.01554359507635643 0 -0.00080499309615891812 -0.015315436962675249 0 -0.0011563646971163649 -0.017519060144206251 0 -0.001412890341590415 -0.019381786389066982 0 -0.0016935269602001899 -0.018667136956434155 0 -0.0012466705116781784 -0.018538537390275486 0 -0.0014260307491543683 -0.0187418969439519 0 -0.0011630462025453657 -0.018733959688220586 0 -0.0014260307491543683 -0.0187418969439519 0 -0.0015254764621021339 -0.019051963010319174 0 -0.0016935269602001899 -0.018667136956434155 0 -0.0014260307491543683 -0.0187418969439519 0 -0.0015254764621021339 -0.019051963010319174 0 -0.0023645874733730855 -0.020953203054050951 0 -0.001412890341590415 -0.019381786389066982 0 -0.001412890341590415 -0.019381786389066982 0 -0.0019628293823672517 -0.01897027799630387 0 -0.0017421057270500125 -0.021340980088010171 0 -0.0027150812639445583 -0.021014925159259821 0 -0.0022451467251605505 -0.020234104116797432 0 -0.0036403477214264979 -0.021311386384865932 0 -0.0026470714490837029 -0.022138095953751755 0 -0.0027150812639445583 -0.021014925159259821 0 -0.0026470714490837029 -0.022138095953751755 0 -0.0017421057270500125 -0.021340980088010171 0 -0.0027150812639445583 -0.021014925159259821 0 -0.0033049693778021394 -0.020054764911539895 0 -0.0027150812639445583 -0.021014925159259821 0 -0.0022451467251605505 -0.020234104116797432 0 -0.00068391840242919028 -0.017720111924805475 0 -0.0012749499446867358 -0.018248786449208788 0 -0.0016278106138632388 -0.01745005435644444 0 -0.00088693853886581231 -0.016698156938785194 0 -0.0015821225116967445 -0.017287728009505555 0 -0.0007802483563517556 -0.016900937770161946 0 -0.0016278106138632388 -0.01745005435644444 0 -0.0019918136574323415 -0.016639452917994298 0 -0.0007802483563517556 -0.016900937770161946 0 -0.0014236953858655769 -0.016651740931763245 0 -0.0012339875772678993 -0.01654301381863546 0 -0.0019628293823672517 -0.01897027799630387 0 -0.0015821225116967445 -0.017287728009505555 0 -0.0033049693778021394 -0.020054764911539895 0 -0.002734225650628007 -0.019115513539278428 0 -0.0033734898788646221 -0.018967694200049061 0 -0.0033049693778021394 -0.020054764911539895 0 -0.0022451467251605505 -0.020234104116797432 0 -0.002734225650628007 -0.019115513539278428 0 -0.0015821225116967445 -0.017287728009505555 0 0.00034786387864662135 -0.018660226965650915 0 0.0018248072869716506 -0.016015959462748693 0 -0.0001085966032786742 -0.01569502774292451 0 -0.0013870646091115291 -0.016539721457374909 0 -0.0013927993543278066 -0.01642635207738281 0 -0.0012339875772678993 -0.01654301381863546 0 -0.0015331585235729881 -0.016316826916625005 0 -0.0013927993543278066 -0.01642635207738281 0 -0.0010720515491629196 -0.016381009832863083 0 -0.0014236953858655769 -0.016651740931763245 0 -0.0013870646091115291 -0.016539721457374909 0 -0.0012339875772678993 -0.01654301381863546 0 0.0031426170510321949 -0.015203183625938213 0 0.0012355972861898591 -0.015060864397659903 0 0.002063860445203361 -0.015788230145457067 0 -0.0015821225116967445 -0.017287728009505555 0 5.5315718324695957e-05 -0.016207831079636543 0 -0.0014236953858655769 -0.016651740931763245 0 -0.0013870646091115291 -0.016539721457374909 0 -0.0014771583243370875 -0.016483169929222361 0 -0.00071505716354319055 -0.017433493880089353 0 -0.00050442069899637022 -0.017889754646454092 0 -7.1618245025782424e-05 -0.017587246136854078 0 5.5315718324695957e-05 -0.016207831079636543 0 0.00034786387864662135 -0.018660226965650915 0 -0.0013870646091115291 -0.016539721457374909 0 -0.0014771583243370875 -0.016483169929222361 0 -0.0013927993543278066 -0.01642635207738281 0 5.5315718324695957e-05 -0.016207831079636543 0 -0.00061668589265637629 -0.016532408701096585 0 5.5315718324695957e-05 -0.016207831079636543 0 0.0018248072869716506 -0.016015959462748693 0 -0.0014569064601401955 -0.016473932341202601 0 -0.0015331585235729881 -0.016316826916625005 0 -0.0013927993543278066 -0.01642635207738281 0 -0.0007802483563517556 -0.016900937770161946 0 -0.0012339875772678993 -0.01654301381863546 0 -0.0010720515491629196 -0.016381009832863083 0 -0.0013927993543278066 -0.01642635207738281 0 -0.0012339875772678993 -0.01654301381863546 0 -0.0010720515491629196 -0.016381009832863083 0 0.00046343437438965099 -0.015629958559152911 0 0.0012355972861898591 -0.015060864397659903 0 0.0012129898431591959 -0.015928471164806581 0 0.0012355972861898591 -0.015060864397659903 0 0.0012129898431591959 -0.015928471164806581 0 0.002063860445203361 -0.015788230145457067 0 0.0012129898431591959 -0.015928471164806581 0 0.0019978008005256702 -0.01657697594994267 0 0.002063860445203361 -0.015788230145457067 0 0.0012129898431591959 -0.015928471164806581 0 0.0012190422081697207 -0.01647137034125468 0 0.0019978008005256702 -0.01657697594994267 0 0.00058223282872735488 -0.016243518699259323 0 0.0012129898431591959 -0.015928471164806581 0 0.0012190422081697207 -0.01647137034125468 0 0.0012190422081697207 -0.01647137034125468 0 0.0019978008005256702 -0.01657697594994267 0 0.0013851693026072688 -0.017231350711726743 0 0.0019978008005256702 -0.01657697594994267 0 0.0013851693026072688 -0.017231350711726743 0 0.0023438056605591651 -0.017795940956630025 0 0.00058223282872735488 -0.016243518699259323 0 0.0012190422081697207 -0.01647137034125468 0 0.0013851693026072688 -0.017231350711726743 0 0.0019978008005256702 -0.01657697594994267 0 0.0030269224157017335 -0.017224444951131061 0 0.0023438056605591651 -0.017795940956630025 0 0.0019978008005256702 -0.01657697594994267 0 0.0030269224157017335 -0.017224444951131061 0 0.0028131879589683431 -0.016315279003693416 0 0.0019978008005256702 -0.01657697594994267 0 0.0028131879589683431 -0.016315279003693416 0 0.002063860445203361 -0.015788230145457067 0 0.0031426170510321949 -0.015203183625938213 0 0.0028131879589683431 -0.016315279003693416 0 0.002063860445203361 -0.015788230145457067 0 0.0039099991496355894 -0.01566818760993556 0 0.0039245016824864185 -0.016791929620466078 0 0.0047562684445761443 -0.016246057145306598 0 0.0018248072869716506 -0.016015959462748693 0 0.0040021829574981311 -0.016621783093393894 0 0.0033701834331696474 -0.015556589352690367 0 0.0039099991496355894 -0.01566818760993556 0 0.0039245016824864185 -0.016791929620466078 0 0.0031426170510321949 -0.015203183625938213 0 0.0028131879589683431 -0.016315279003693416 0 0.0039245016824864185 -0.016791929620466078 0 0.0039099991496355894 -0.01566818760993556 0 0.0047562684445761443 -0.016246057145306598 0 0.0044793085589144048 -0.015396704132732088 0 0.0030269224157017335 -0.017224444951131061 0 0.0028131879589683431 -0.016315279003693416 0 0.0039245016824864185 -0.016791929620466078 0 0.0039245016824864185 -0.016791929620466078 0 0.0038911177149184811 -0.017795652157766701 0 0.0050732273503891062 -0.01776846142025602 0 0.0030269224157017335 -0.017224444951131061 0 0.0039245016824864185 -0.016791929620466078 0 0.0038911177149184811 -0.017795652157766701 0 0.0030269224157017335 -0.017224444951131061 0 0.0038911177149184811 -0.017795652157766701 0 0.0031884728534462958 -0.018192674693359012 0 0.0050732273503891062 -0.01776846142025602 0 0.0056733919996629538 -0.016828656403706087 0 0.006460659500075636 -0.017503814612022054 0 0.0039245016824864185 -0.016791929620466078 0 0.0050732273503891062 -0.01776846142025602 0 0.0047562684445761443 -0.016246057145306598 0 0.0050732273503891062 -0.01776846142025602 0 0.0056733919996629538 -0.016828656403706087 0 0.0047562684445761443 -0.016246057145306598 0 0.0056733919996629538 -0.016828656403706087 0 0.0047562684445761443 -0.016246057145306598 0 0.0053900669224069084 -0.015870339701970403 0 0.0047562684445761443 -0.016246057145306598 0 0.0053900669224069084 -0.015870339701970403 0 0.0044793085589144048 -0.015396704132732088 0 0.0053900669224069084 -0.015870339701970403 0 0.0054641670283095663 -0.014914194324712048 0 0.0044793085589144048 -0.015396704132732088 0 0.0054641670283095663 -0.014914194324712048 0 0.0044793085589144048 -0.015396704132732088 0 0.0035477229643897734 -0.01447206059504454 0 0.0039099991496355894 -0.01566818760993556 0 0.0044793085589144048 -0.015396704132732088 0 0.0036928526589498985 -0.015198335648159847 0 0.0031774467295386114 -0.017573010256410393 0 0.00034786387864662135 -0.018660226965650915 0 0.0032830313865320048 -0.0155557078633297 0 0.0039099991496355894 -0.01566818760993556 0 0.0036928526589498985 -0.015198335648159847 0 0.0018248072869716506 -0.016015959462748693 0 0.0035482478842960917 -0.016021267069853358 0 0.0029643323426354162 -0.014882568450224506 0 0.0032830313865320048 -0.0155557078633297 0 0.0036928526589498985 -0.015198335648159847 0 0.0044793085589144048 -0.015396704132732088 0 0.0036928526589498985 -0.015198335648159847 0 0.0035477229643897734 -0.01447206059504454 0 0.0029643323426354162 -0.014882568450224506 0 0.0036928526589498985 -0.015198335648159847 0 0.0035477229643897734 -0.01447206059504454 0 -0.0033049693778021394 -0.020054764911539895 0 -0.0033734898788646221 -0.018967694200049061 0 -0.0043717962632541379 -0.019686387918563811 0 0.00034786387864662135 -0.018660226965650915 0 -0.0025884560892359132 -0.021492823870734725 0 -0.00067001444055714418 -0.021312653503330361 0 -8.2888364582656786e-05 -0.022697194004136643 0 -0.0014302423164011672 -0.02237081365407188 0 -0.00067001444055714418 -0.021312653503330361 0 0.0012337509491241682 -0.021724650439909825 0 -8.2888364582656786e-05 -0.022697194004136643 0 -0.0014140215277422593 -0.023665832733789166 0 -8.2888364582656786e-05 -0.022697194004136643 0 -0.0014302423164011672 -0.02237081365407188 0 -0.0014140215277422593 -0.023665832733789166 0 -0.0014302423164011672 -0.02237081365407188 0 -0.0026749258460173407 -0.022751108027190606 0 -0.0055353812868964734 -0.027426166429035545 0 -0.0055048985643792554 -0.028515483698058383 0 -0.0044664312589284827 -0.027718921343631596 0 -0.0014302423164011672 -0.02237081365407188 0 -0.0026749258460173407 -0.022751108027190606 0 -0.0025783018057840058 -0.020899981581135207 0 -0.004422165834101632 -0.025585862978726979 0 -2.2455706347456007e-05 -0.023272855374428896 0 0.0054641670283095663 -0.014914194324712048 0 0.0073687188459740875 -0.015420648931605186 0 0.0063674888184758038 -0.016034975607689163 0 0.0031774467295386114 -0.017573010256410393 0 -2.2455706347456007e-05 -0.023272855374428896 0 -0.00067001444055714418 -0.021312653503330361 0 -0.0014302423164011672 -0.02237081365407188 0 -0.0025783018057840058 -0.020899981581135207 0 0.0053900669224069084 -0.015870339701970403 0 0.0054641670283095663 -0.014914194324712048 0 0.0063674888184758038 -0.016034975607689163 0 0.0056733919996629538 -0.016828656403706087 0 0.0063674888184758038 -0.016034975607689163 0 0.006460659500075636 -0.017503814612022054 0 0.0063674888184758038 -0.016034975607689163 0 0.006460659500075636 -0.017503814612022054 0 0.0073828832653109978 -0.016675731073949668 0 0.0056733919996629538 -0.016828656403706087 0 0.0053900669224069084 -0.015870339701970403 0 0.0063674888184758038 -0.016034975607689163 0 0.0050732273503891062 -0.01776846142025602 0 0.006460659500075636 -0.017503814612022054 0 0.0063930525878942409 -0.018615756868343214 0 0.006460659500075636 -0.017503814612022054 0 0.0073999830195161246 -0.017957373607792544 0 0.0063930525878942409 -0.018615756868343214 0 0.0062024596220472241 -0.024128421578372791 0 0.0028647892419303737 -0.031606289375255482 0 0.0029405969844720891 -0.025506623445221838 0 0.002583155932912667 -0.026706581640529026 0 0.0012767057797318767 -0.026500055606507793 0 0.0029405969844720891 -0.025506623445221838 0 0.002583155932912667 -0.026706581640529026 0 0.0028506353748903703 -0.02679920082926162 0 0.0062024596220472241 -0.024128421578372791 0 0.0050634020974144453 -0.021077860150837346 0 0.006460659500075636 -0.017503814612022054 0 0.0073999830195161246 -0.017957373607792544 0 0.0073828832653109978 -0.016675731073949668 0 0.0073687188459740875 -0.015420648931605186 0 0.0063674888184758038 -0.016034975607689163 0 0.0073828832653109978 -0.016675731073949668 0 0.0027700639353713426 -0.027898781727088734 0 0.0024633891659070943 -0.027343601521530154 0 0.0011826905634749255 -0.027558587125631171 0 0.0027700639353713426 -0.027898781727088734 0 0.0028506353748903703 -0.02679920082926162 0 0.0024633891659070943 -0.027343601521530154 0 0.002583155932912667 -0.026706581640529026 0 0.0028506353748903703 -0.02679920082926162 0 0.0024633891659070943 -0.027343601521530154 0 -2.2455706347456007e-05 -0.023272855374428896 0 0.0050634020974144453 -0.021077860150837346 0 0.0033880637107638078 -0.026165868527499563 0 -0.0010971663715552775 -0.029309050775985352 0 0.002583155932912667 -0.026706581640529026 0 0.00099918968967487379 -0.02781653496935375 0 0.0012767057797318767 -0.026500055606507793 0 0.002583155932912667 -0.026706581640529026 0 0.0024633891659070943 -0.027343601521530154 0 0.0011826905634749255 -0.027558587125631171 0 0.0087641352042028033 -0.033815680631351555 0 0.0050104866137133715 -0.03561302521399607 0 0.005829671778836195 -0.03360090552192934 0 0.0050104866137133715 -0.03561302521399607 0 0.005829671778836195 -0.03360090552192934 0 0.0041359084383897392 -0.034626704018993003 0 0.0034594797222522603 -0.035282929670794341 0 0.0034247615978453172 -0.035740037801885755 0 0.0041359084383897392 -0.034626704018993003 0 0.0050104866137133715 -0.03561302521399607 0 0.0041359084383897392 -0.034626704018993003 0 0.0036366581764467696 -0.036498160434410377 0 0.0034247615978453172 -0.035740037801885755 0 0.0041359084383897392 -0.034626704018993003 0 0.0036366581764467696 -0.036498160434410377 0 0.00099918968967487379 -0.02781653496935375 0 0.0012767057797318767 -0.026500055606507793 0 -0.0003866007042956657 -0.027540471028992257 0 0.0028647892419303737 -0.031606289375255482 0 0.0019701515745035583 -0.033131370258708367 0 -0.0010971663715552775 -0.029309050775985352 0 0.0019701515745035583 -0.033131370258708367 0 -0.0034902282273021035 -0.028214533127484887 0 -0.0044585656880175078 -0.028791313005238781 0 -0.0044664312589284827 -0.027718921343631596 0 -0.00020373999561852275 -0.032062783733468103 0 -0.00018055463453787207 -0.032019004072029331 0 -0.0001910054385732324 -0.03203756252834411 0 -0.0021439988897534947 -0.030338645140008818 0 -0.0010971663715552775 -0.029309050775985352 0 -2.2455706347456007e-05 -0.023272855374428896 0 -0.0010971663715552775 -0.029309050775985352 0 -0.0055048985643792554 -0.028515483698058383 0 -0.0044585656880175078 -0.028791313005238781 0 -0.0044664312589284827 -0.027718921343631596 0 -0.0033925905130888353 -0.027472037985917713 0 -0.0040538705843996608 -0.026980872651372462 0 -0.0044664312589284827 -0.027718921343631596 0 -0.0033925905130888353 -0.027472037985917713 0 -0.0034902282273021035 -0.028214533127484887 0 -0.0044664312589284827 -0.027718921343631596 0 0.0018516897751558209 -0.028044779454351177 0 0.0024862058797300783 -0.028050619214898841 0 0.0021260461765806897 -0.028658019427745644 0 0.0014010329074410713 -0.028721543248913808 0 0.0018516897751558209 -0.028044779454351177 0 0.0021260461765806897 -0.028658019427745644 0 0.0024862058797300783 -0.028050619214898841 0 0.0029668445471806742 -0.028583831789348223 0 0.0035291415830892379 -0.027525310830499382 0 0.0024862058797300783 -0.028050619214898841 0 0.0035291415830892379 -0.027525310830499382 0 0.0021927557820191901 -0.026932506907783666 0 0.0018516897751558209 -0.028044779454351177 0 0.0024862058797300783 -0.028050619214898841 0 0.0021927557820191901 -0.026932506907783666 0 0.004931420619541528 -0.026684594098188161 0 0.0024371897428250603 -0.028331818185295097 0 0.0070238489852970151 -0.024601130066810844 0 0.0021260461765806897 -0.028658019427745644 0 0.0064544498715421016 -0.02775294004811673 0 0.0024862058797300783 -0.028050619214898841 0 0.0029668445471806742 -0.028583831789348223 0 0.0021260461765806897 -0.028658019427745644 0 0.0010633343229810794 -0.031406510329355486 0 0.0021260461765806897 -0.028658019427745644 0 0.0030158714875343274 -0.031562927828232536 0 0.0021260461765806897 -0.028658019427745644 0 0.0030158714875343274 -0.031562927828232536 0 0.0045523414039187193 -0.030249636399986752 0 0.0023969499150132073 -0.033394515465105072 0 0.0041210151595477999 -0.034590386609641387 0 0.0010633343229810794 -0.031406510329355486 0 0.0041359084383897392 -0.034626704018993003 0 0.0030158714875343274 -0.031562927828232536 0 0.0041359084383897392 -0.034626704018993003 0 0.0030158714875343274 -0.031562927828232536 0 0.0048306540647446092 -0.032242563682662491 0 0.005829671778836195 -0.03360090552192934 0 0.0048306540647446092 -0.032242563682662491 0 0.0065973774953739508 -0.031352747988737918 0 0.005829671778836195 -0.03360090552192934 0 0.0041359084383897392 -0.034626704018993003 0 0.0048306540647446092 -0.032242563682662491 0 0.0030158714875343274 -0.031562927828232536 0 0.0048306540647446092 -0.032242563682662491 0 0.0045523414039187193 -0.030249636399986752 0 0.0048306540647446092 -0.032242563682662491 0 0.0065973774953739508 -0.031352747988737918 0 0.0045523414039187193 -0.030249636399986752 0 0.0065973774953739508 -0.031352747988737918 0 0.0045523414039187193 -0.030249636399986752 0 0.0064544498715421016 -0.02775294004811673 0 0.0021260461765806897 -0.028658019427745644 0 0.0045523414039187193 -0.030249636399986752 0 0.0064544498715421016 -0.02775294004811673 0 0.0065973774953739508 -0.031352747988737918 0 0.0064544498715421016 -0.02775294004811673 0 0.0090290912660164705 -0.029959926789857084 0 0.0088381628168844959 -0.025493239574579728 0 0.008398658941928162 -0.02439311824533015 0 0.0064544498715421016 -0.02775294004811673 0 0.0090290912660164705 -0.029959926789857084 0 0.0081883068756569821 -0.024376563005551532 0 0.0062024596220472241 -0.024128421578372791 0 0.0088381628168844959 -0.025493239574579728 0 0.0087641352042028033 -0.033815680631351555 0 0.0065973774953739508 -0.031352747988737918 0 0.0090290912660164705 -0.029959926789857084 0 0.0087641352042028033 -0.033815680631351555 0 0.005829671778836195 -0.03360090552192934 0 0.0065973774953739508 -0.031352747988737918 0 0.0087844600663452982 -0.01791269725852665 0 0.0087403225064598272 -0.020401462777457371 0 0.0069872201545819503 -0.018872915387626591 0 0.0062024596220472241 -0.024128421578372791 0 0.007361023748717904 -0.018474626019748735 0 0.0087403225064598272 -0.020401462777457371 0 0.0069872201545819503 -0.018872915387626591 0 0.006882549705929668 -0.020109878539244029 0 0.0069872201545819503 -0.018872915387626591 0 0.006882549705929668 -0.020109878539244029 0 0.0053124858200677529 -0.0194823891644785 0 0.0087403225064598272 -0.020401462777457371 0 0.006882549705929668 -0.020109878539244029 0 0.0065634989671873112 -0.021744791597469573 0 0.006882549705929668 -0.020109878539244029 0 0.0065634989671873112 -0.021744791597469573 0 0.0053124858200677529 -0.0194823891644785 0 0.0087403225064598272 -0.020401462777457371 0 0.0065634989671873112 -0.021744791597469573 0 0.0081883068756569821 -0.024376563005551532 0 0.0065634989671873112 -0.021744791597469573 0 0.0071144692533795274 -0.023176142489430042 0 0.0081883068756569821 -0.024376563005551532 0 0.0065634989671873112 -0.021744791597469573 0 0.0071144692533795274 -0.023176142489430042 0 0.0056588348659843057 -0.022214984854043204 0 0.0071144692533795274 -0.023176142489430042 0 0.0073562933624199602 -0.023682558324790316 0 0.0056588348659843057 -0.022214984854043204 0 0.0071144692533795274 -0.023176142489430042 0 0.0081883068756569821 -0.024376563005551532 0 0.0073562933624199602 -0.023682558324790316 0 0.0070238489852970151 -0.024601130066810844 0 0.0081883068756569821 -0.024376563005551532 0 0.0073562933624199602 -0.023682558324790316 0 0.004931420619541528 -0.026684594098188161 0 0.0063346170155867349 -0.026031761496158504 0 0.0070238489852970151 -0.024601130066810844 0 0.0064544498715421016 -0.02775294004811673 0 0.0081883068756569821 -0.024376563005551532 0 0.0029668445471806742 -0.028583831789348223 0 0.0035291415830892379 -0.027525310830499382 0 0.004585794970185123 -0.028118433321477346 0 0.0035291415830892379 -0.027525310830499382 0 0.004585794970185123 -0.028118433321477346 0 0.0047527625504020874 -0.027118403932781619 0 0.004585794970185123 -0.028118433321477346 0 0.0059348861210252127 -0.027639808153036162 0 0.0047527625504020874 -0.027118403932781619 0 0.0032401434978121145 -0.023846609123811514 0 0.0020577084298189418 -0.02396214056003363 0 0.0073562933624199602 -0.023682558324790316 0 0.0042782111230811803 -0.023426118383529343 0 0.0045315165851311677 -0.022445868230653879 0 0.0063346170155867349 -0.026031761496158504 0 0.0032401434978121145 -0.023846609123811514 0 -0.00023197587012547337 -0.021060978360163806 0 0.0007008666597670502 -0.021121831322831703 0 0.00020108112212537758 -0.020768582246179567 0 0.0033863875650474058 -0.022314112438141093 0 0.0030779839344409238 -0.022152061103698925 0 0.0026193352644581086 -0.0221831858195762 0 0.0032401434978121145 -0.023846609123811514 0 0.0014896481653795396 -0.02157914913340285 0 0.0032401434978121145 -0.023846609123811514 0 0.0031668018825943209 -0.022693982971686281 0 0.0042782111230811803 -0.023426118383529343 0 0.0030779839344409238 -0.022152061103698925 0 0.0045315165851311677 -0.022445868230653879 0 0.0045315165851311677 -0.022445868230653879 0 0.0039263373619551588 -0.021457832437488968 0 0.0056588348659843057 -0.022214984854043204 0 0.0030779839344409238 -0.022152061103698925 0 0.0045315165851311677 -0.022445868230653879 0 0.0039263373619551588 -0.021457832437488968 0 0.0030779839344409238 -0.022152061103698925 0 0.0039263373619551588 -0.021457832437488968 0 0.0026891691609517597 -0.020994055531510302 0 0.0039263373619551588 -0.021457832437488968 0 0.0034496795152864036 -0.020272721480861317 0 0.0026891691609517597 -0.020994055531510302 0 0.0073562933624199602 -0.023682558324790316 0 0.0045315165851311677 -0.022445868230653879 0 0.0056588348659843057 -0.022214984854043204 0 0.0039263373619551588 -0.021457832437488968 0 0.0056588348659843057 -0.022214984854043204 0 0.0045613291663983528 -0.020601895906240522 0 0.0065634989671873112 -0.021744791597469573 0 0.0056588348659843057 -0.022214984854043204 0 0.0045613291663983528 -0.020601895906240522 0 0.0065634989671873112 -0.021744791597469573 0 0.0053124858200677529 -0.0194823891644785 0 0.0045613291663983528 -0.020601895906240522 0 0.0053124858200677529 -0.0194823891644785 0 0.0040058785570424764 -0.01911289860717456 0 0.0045613291663983528 -0.020601895906240522 0 0.007361023748717904 -0.018474626019748735 0 0.0052544565256661731 -0.019539387058349823 0 0.0050732273503891062 -0.01776846142025602 0 0.0063930525878942409 -0.018615756868343214 0 0.0053124858200677529 -0.0194823891644785 0 0.0050732273503891062 -0.01776846142025602 0 0.0053124858200677529 -0.0194823891644785 0 0.0040058785570424764 -0.01911289860717456 0 0.0038911177149184811 -0.017795652157766701 0 0.0050732273503891062 -0.01776846142025602 0 0.0040058785570424764 -0.01911289860717456 0 0.0040058785570424764 -0.01911289860717456 0 0.0027277470705663466 -0.019190072276476972 0 0.0031884728534462958 -0.018192674693359012 0 0.0038911177149184811 -0.017795652157766701 0 0.0040058785570424764 -0.01911289860717456 0 0.0031884728534462958 -0.018192674693359012 0 0.0040058785570424764 -0.01911289860717456 0 0.0034496795152864036 -0.020272721480861317 0 0.0027277470705663466 -0.019190072276476972 0 0.0040058785570424764 -0.01911289860717456 0 0.0045613291663983528 -0.020601895906240522 0 0.0034496795152864036 -0.020272721480861317 0 0.0039263373619551588 -0.021457832437488968 0 0.0045613291663983528 -0.020601895906240522 0 0.0034496795152864036 -0.020272721480861317 0 0.0034496795152864036 -0.020272721480861317 0 0.002704989876322061 -0.020117927114998928 0 0.0027277470705663466 -0.019190072276476972 0 0.002704989876322061 -0.020117927114998928 0 0.0027277470705663466 -0.019190072276476972 0 0.0019916058627946097 -0.019972433087116482 0 0.0027277470705663466 -0.019190072276476972 0 0.0023438056605591651 -0.017795940956630025 0 0.0031884728534462958 -0.018192674693359012 0 0.0027277470705663466 -0.019190072276476972 0 0.0023438056605591651 -0.017795940956630025 0 0.0017897584736790021 -0.018535054257956846 0 0.0030269224157017335 -0.017224444951131061 0 0.0023438056605591651 -0.017795940956630025 0 0.0031884728534462958 -0.018192674693359012 0 0.0013851693026072688 -0.017231350711726743 0 0.0017897584736790021 -0.018535054257956846 0 0.00083248596486905596 -0.018073246175279112 0 0.0013851693026072688 -0.017231350711726743 0 0.0023438056605591651 -0.017795940956630025 0 0.0017897584736790021 -0.018535054257956846 0 0.0027277470705663466 -0.019190072276476972 0 0.0017897584736790021 -0.018535054257956846 0 0.0019916058627946097 -0.019972433087116482 0 0.0017897584736790021 -0.018535054257956846 0 0.0012395560088338659 -0.019303444525435934 0 0.00083248596486905596 -0.018073246175279112 0 0.0017897584736790021 -0.018535054257956846 0 0.0019916058627946097 -0.019972433087116482 0 0.0012395560088338659 -0.019303444525435934 0 0.0019916058627946097 -0.019972433087116482 0 0.001763593326823924 -0.020929173441014148 0 0.0010608583885708086 -0.020414483848668803 0 0.0019916058627946097 -0.019972433087116482 0 0.0012395560088338659 -0.019303444525435934 0 0.0010608583885708086 -0.020414483848668803 0 0.001763593326823924 -0.020929173441014148 0 0.0010608583885708086 -0.020414483848668803 0 0.0010428222940089063 -0.021249766097066556 0 0.0019916058627946097 -0.019972433087116482 0 0.001763593326823924 -0.020929173441014148 0 0.0026891691609517597 -0.020994055531510302 0 0.002704989876322061 -0.020117927114998928 0 0.0019916058627946097 -0.019972433087116482 0 0.0026891691609517597 -0.020994055531510302 0 0.0034496795152864036 -0.020272721480861317 0 0.002704989876322061 -0.020117927114998928 0 0.0026891691609517597 -0.020994055531510302 0 0.001763593326823924 -0.020929173441014148 0 0.0026891691609517597 -0.020994055531510302 0 0.0024066928558484912 -0.021631138654533064 0 0.0030779839344409238 -0.022152061103698925 0 0.0026891691609517597 -0.020994055531510302 0 0.0024066928558484912 -0.021631138654533064 0 0.0030779839344409238 -0.022152061103698925 0 0.0024066928558484912 -0.021631138654533064 0 0.0026193352644581086 -0.0221831858195762 0 0.0024066928558484912 -0.021631138654533064 0 0.0026193352644581086 -0.0221831858195762 0 0.0018127507126483998 -0.021538974714322489 0 0.0026193352644581086 -0.0221831858195762 0 0.0018127507126483998 -0.021538974714322489 0 0.0013002408853934509 -0.021543424620334678 0 0.0018127507126483998 -0.021538974714322489 0 0.0013002408853934509 -0.021543424620334678 0 0.0010428222940089063 -0.021249766097066556 0 0.001763593326823924 -0.020929173441014148 0 0.0018127507126483998 -0.021538974714322489 0 0.0010428222940089063 -0.021249766097066556 0 0.001763593326823924 -0.020929173441014148 0 0.0024066928558484912 -0.021631138654533064 0 0.0018127507126483998 -0.021538974714322489 0 0.0013002408853934509 -0.021543424620334678 0 0.00096475419249983125 -0.021123376966719287 0 0.0011492328078180865 -0.021519816249509226 0 0.0014896481653795396 -0.02157914913340285 0 0.0015278158737227039 -0.021547822432076726 0 0.0013002408853934509 -0.021543424620334678 0 0.0011492328078180865 -0.021519816249509226 0 0.00099305299195078488 -0.021645531731601254 0 0.0010781750101247747 -0.020856789209169807 0 0.0011877082931541025 -0.021021976970715894 0 0.0007008666597670502 -0.021121831322831703 0 0.0013002408853934509 -0.021543424620334678 0 0.00096475419249983125 -0.021123376966719287 0 0.0007008666597670502 -0.021121831322831703 0 0.00096475419249983125 -0.021123376966719287 0 0.00050845300331698359 -0.020718804535035704 0 0.0007008666597670502 -0.021121831322831703 0 0.00050845300331698359 -0.020718804535035704 0 0.00020108112212537758 -0.020768582246179567 0 0.00050845300331698359 -0.020718804535035704 0 0.00061541502622556666 -0.01983916881028755 0 0.00018056286788025242 -0.020391768135808203 0 0.00050845300331698359 -0.020718804535035704 0 0.00018056286788025242 -0.020391768135808203 0 0.00020108112212537758 -0.020768582246179567 0 0.00096475419249983125 -0.021123376966719287 0 0.00050845300331698359 -0.020718804535035704 0 0.00061541502622556666 -0.01983916881028755 0 0.00096475419249983125 -0.021123376966719287 0 0.00061541502622556666 -0.01983916881028755 0 0.001633792268315881 -0.019091542688367498 0 0.00061541502622556666 -0.01983916881028755 0 0.00014675591391947093 -0.018086975317387677 0 -0.00022395005784394643 -0.019859653429859084 0 0.00061541502622556666 -0.01983916881028755 0 0.001633792268315881 -0.019091542688367498 0 0.00014675591391947093 -0.018086975317387677 0 0.0011877082931541025 -0.021021976970715894 0 0.00092110297061527753 -0.014724659588733761 0 0.001633792268315881 -0.019091542688367498 0 0.00048527853202590929 -0.016196416596047539 0 0.0025147798524017824 -0.01650238879065484 0 0.00048527853202590929 -0.016196416596047539 0 6.1161905816505421e-06 -0.012832089958658689 0 0.0025147798524017824 -0.01650238879065484 0 5.6095628500563143e-07 -0.012826972500394345 0 0.00092110297061527753 -0.014724659588733761 0 0.00048527853202590929 -0.016196416596047539 0 0.00014675591391947093 -0.018086975317387677 0 -1.7968176260800043e-06 -0.015688545965650794 0 0.00048527853202590929 -0.016196416596047539 0 6.1161905816505421e-06 -0.012832089958658689 0 -1.7968176260800043e-06 -0.015688545965650794 0 0.001633792268315881 -0.019091542688367498 0 0.00048527853202590929 -0.016196416596047539 0 0.00014675591391947093 -0.018086975317387677 0 0.00014675591391947093 -0.018086975317387677 0 -0.00030901059555210814 -0.018856455833264948 0 -0.00022395005784394643 -0.019859653429859084 0 0.00014675591391947093 -0.018086975317387677 0 -0.00030901059555210814 -0.018856455833264948 0 -1.7968176260800043e-06 -0.015688545965650794 0 -0.00030901059555210814 -0.018856455833264948 0 -1.7968176260800043e-06 -0.015688545965650794 0 -2.8747283294806229e-07 -0.018550525936541138 0 -0.00030901059555210814 -0.018856455833264948 0 -2.8747283294806229e-07 -0.018550525936541138 0 -0.00036309048132321061 -0.020576018644165008 0 -0.00030901059555210814 -0.018856455833264948 0 -0.00049809982611374501 -0.020378967626238129 0 -0.00036309048132321061 -0.020576018644165008 0 -0.00049809982611374501 -0.020378967626238129 0 -0.00022395005784394643 -0.019859653429859084 0 -0.00039180055978327186 -0.020578461422902591 0 -0.00030901059555210814 -0.018856455833264948 0 -0.00049809982611374501 -0.020378967626238129 0 -0.00022395005784394643 -0.019859653429859084 0 0.00061541502622556666 -0.01983916881028755 0 -0.00022395005784394643 -0.019859653429859084 0 0.00018056286788025242 -0.020391768135808203 0 -0.00022395005784394643 -0.019859653429859084 0 -0.00013024265459022903 -0.020486730076432858 0 -0.00039180055978327186 -0.020578461422902591 0 -0.00022395005784394643 -0.019859653429859084 0 -0.00013024265459022903 -0.020486730076432858 0 0.00018056286788025242 -0.020391768135808203 0 -0.00013024265459022903 -0.020486730076432858 0 0.00018056286788025242 -0.020391768135808203 0 0.00020108112212537758 -0.020768582246179567 0 -0.00023197587012547337 -0.021060978360163806 0 -0.00013024265459022903 -0.020486730076432858 0 0.00020108112212537758 -0.020768582246179567 0 -0.00023197587012547337 -0.021060978360163806 0 -0.00013024265459022903 -0.020486730076432858 0 -0.00039180055978327186 -0.020578461422902591 0 -0.00049809982611374501 -0.020378967626238129 0 -0.00039180055978327186 -0.020578461422902591 0 -0.00055627127936275201 -0.020666809858920551 0 -0.00023197587012547337 -0.021060978360163806 0 -0.00039180055978327186 -0.020578461422902591 0 -0.00055627127936275201 -0.020666809858920551 0 -0.00055627127936275201 -0.020666809858920551 0 0.00010880654962473438 -0.021534283686349236 0 -0.00035726394274058197 -0.021034686245438187 0 0.0020577084298189418 -0.02396214056003363 0 0.0016915722491404944 -0.02401007581894218 0 -0.00049809982611374501 -0.020378967626238129 0 -0.00055627127936275201 -0.020666809858920551 0 -0.00035726394274058197 -0.021034686245438187 0 0.0035291415830892379 -0.027525310830499382 0 0.0047527625504020874 -0.027118403932781619 0 0.0035336863811046126 -0.026374067345606329 0 0.0035291415830892379 -0.027525310830499382 0 0.0035336863811046126 -0.026374067345606329 0 0.0021927557820191901 -0.026932506907783666 0 0.00010880654962473438 -0.021534283686349236 0 -0.00035726394274058197 -0.021034686245438187 0 0.00020604958745859818 -0.022607776655842945 0 -0.00035726394274058197 -0.021034686245438187 0 -0.00036309048132321061 -0.020576018644165008 0 0.00020604958745859818 -0.022607776655842945 0 -0.00049809982611374501 -0.020378967626238129 0 -0.00035726394274058197 -0.021034686245438187 0 -0.00036309048132321061 -0.020576018644165008 0 -2.8747283294806229e-07 -0.018550525936541138 0 -0.00036309048132321061 -0.020576018644165008 0 -8.2267414299076698e-05 -0.021015215930685942 0 -2.8747283294806229e-07 -0.018550525936541138 0 5.2313050866297331e-08 -0.021411606636790273 0 -8.2267414299076698e-05 -0.021015215930685942 0 5.2313050866297331e-08 -0.021411606636790273 0 -8.2267414299076698e-05 -0.021015215930685942 0 0.00019559783573494443 -0.023087493387338179 0 -8.2267414299076698e-05 -0.021015215930685942 0 0.00020604958745859818 -0.022607776655842945 0 0.00019559783573494443 -0.023087493387338179 0 -0.00036309048132321061 -0.020576018644165008 0 -8.2267414299076698e-05 -0.021015215930685942 0 0.00020604958745859818 -0.022607776655842945 0 0.00020604958745859818 -0.022607776655842945 0 0.00019559783573494443 -0.023087493387338179 0 0.00067336262407519912 -0.024608934935841324 0 0.00069523070929378573 -0.026914858961444486 0 0.00067336262407519912 -0.024608934935841324 0 0.0012071208211430202 -0.024853429125381694 0 0.00020604958745859818 -0.022607776655842945 0 0.00067336262407519912 -0.024608934935841324 0 0.0012071208211430202 -0.024853429125381694 0 5.2313050866297331e-08 -0.021411606636790273 0 0.00019559783573494443 -0.023087493387338179 0 7.6276697625217948e-07 -0.024272261997551996 0 0.00019559783573494443 -0.023087493387338179 0 7.6276697625217948e-07 -0.024272261997551996 0 0.00067336262407519912 -0.024608934935841324 0 0.00010124297480652485 -0.025935221580638965 0 7.6276697625217948e-07 -0.024272261997551996 0 0.00067336262407519912 -0.024608934935841324 0 0.00010880654962473438 -0.021534283686349236 0 0.00020604958745859818 -0.022607776655842945 0 0.0012071208211430202 -0.024853429125381694 0 0.0016915722491404944 -0.02401007581894218 0 0.0011532358049780151 -0.024574303414010085 0 0.0035336863811046126 -0.026374067345606329 0 0.0012071208211430202 -0.024853429125381694 0 0.0021927557820191901 -0.026932506907783666 0 0.0010507453445877265 -0.027453285337093659 0 0.0012071208211430202 -0.024853429125381694 0 0.0021927557820191901 -0.026932506907783666 0 0.0010507453445877265 -0.027453285337093659 0 0.0018516897751558209 -0.028044779454351177 0 0.0021927557820191901 -0.026932506907783666 0 0.0038368926686111675 0.001478688038893689 0 0.0033591875609229912 0.0023359749190523158 0 0.004035245120983349 0.0032194503530672326 0 0.0038368926686111675 0.001478688038893689 0 0.0037459251413166353 0.0014200602051429197 0 0.0033944771390060206 0.0017902209159608351 0 0.0038368926686111675 0.001478688038893689 0 0.0040721070553270287 0.0010660114279446476 0 0.0037459251413166353 0.0014200602051429197 0 0.0038368926686111675 0.001478688038893689 0 0.0033591875609229912 0.0023359749190523158 0 0.0033944771390060206 0.0017902209159608351 0 0.0044381897035169933 0.00045987931440872877 0 0.0053462738800827735 -0.0090837100240681989 0 -0.0002413825852305622 -0.0067304900747910783 0 0.0038368926686111675 0.001478688038893689 0 0.0044381897035169933 0.00045987931440872877 0 0.004035245120983349 0.0032194503530672326 0 0.0044381897035169933 0.00045987931440872877 0 0.0040465227913907874 0.0013430901763516836 0 -0.0002413825852305622 -0.0067304900747910783 0 0.0044290984307887513 0.00028195926707259269 0 0.0045927673533411447 -0.0028311614279938756 0 0.0038368926686111675 0.001478688038893689 0 0.0040721070553270287 0.0010660114279446476 0 0.0044381897035169933 0.00045987931440872877 0 0.0040465227913907874 0.0013430901763516836 0 0.0039756893022855214 0.001247805535916348 0 0.0036518840998646025 0.0013144952269507585 0 0.0040721070553270287 0.0010660114279446476 0 0.0042309404988994798 0.00094723031902969651 0 0.0039756893022855214 0.001247805535916348 0 -8.2295947935096016e-05 -0.0095599479568724052 0 -0.00012020271092052145 -0.009412871647473519 0 3.0183811269713367e-05 -0.0092741074106424039 0 0.0040721070553270287 0.0010660114279446476 0 0.0044381897035169933 0.00045987931440872877 0 0.0042309404988994798 0.00094723031902969651 0 0.0044381897035169933 0.00045987931440872877 0 0.0042309404988994798 0.00094723031902969651 0 0.0040465227913907874 0.0013430901763516836 0 0.0042309404988994798 0.00094723031902969651 0 0.0040465227913907874 0.0013430901763516836 0 0.0039756893022855214 0.001247805535916348 0 -8.2295947935096016e-05 -0.0095599479568724052 0 -0.00012020271092052145 -0.009412871647473519 0 -0.00025022273176938909 -0.0094718728036809544 0 0.0040465227913907874 0.0013430901763516836 0 0.0036518840998646025 0.0013144952269507585 0 0.0035338954910539544 0.0011149573919701282 0 0.0039756893022855214 0.001247805535916348 0 0.0036518840998646025 0.0013144952269507585 0 0.0036281010207603209 0.0014478940788149289 0 0.0019678265746737385 -0.0043255416559012929 0 0.00168438502385468 -0.003536555346967717 0 0.0039756893022855214 0.001247805535916348 0 0.0036281010207603209 0.0014478940788149289 0 0.0037459251413166353 0.0014200602051429197 0 0.0040721070553270287 0.0010660114279446476 0 0.0039756893022855214 0.001247805535916348 0 0.0037459251413166353 0.0014200602051429197 0 0.0036281010207603209 0.0014478940788149289 0 0.0033944771390060206 0.0017902209159608351 0 0.0032989917750875257 0.0015937339332555624 0 0.0036281010207603209 0.0014478940788149289 0 0.0037459251413166353 0.0014200602051429197 0 0.0033944771390060206 0.0017902209159608351 0 0.0036518840998646025 0.0013144952269507585 0 0.0032989917750875257 0.0015937339332555624 0 0.0032267874006946832 0.0013283648563186573 0 0.0036518840998646025 0.0013144952269507585 0 0.0036281010207603209 0.0014478940788149289 0 0.0032989917750875257 0.0015937339332555624 0 0.0032989917750875257 0.0015937339332555624 0 0.0028564554828288797 0.0017167978484828618 0 0.0028210902522231183 0.0021011119139743282 0 0.0032989917750875257 0.0015937339332555624 0 0.0028564554828288797 0.0017167978484828618 0 0.0032267874006946832 0.0013283648563186573 0 0.0028564554828288797 0.0017167978484828618 0 0.0028210902522231183 0.0021011119139743282 0 0.0022261613967216108 0.0021834799556071528 0 0.0028564554828288797 0.0017167978484828618 0 0.0022261613967216108 0.0021834799556071528 0 0.0025109598314027579 0.0014808058097742472 0 0.0033944771390060206 0.0017902209159608351 0 0.0032989917750875257 0.0015937339332555624 0 0.0028210902522231183 0.0021011119139743282 0 0.0022261613967216108 0.0021834799556071528 0 0.0017489035406901365 0.0015661095019201996 0 0.0013895255382698852 0.0024556064343921229 0 0.0028210902522231183 0.0021011119139743282 0 0.0022261613967216108 0.0021834799556071528 0 0.0021945725338703014 0.0027435160307051768 0 0.0022261613967216108 0.0021834799556071528 0 0.001700184464965298 0.0032460751406134768 0 0.0021945725338703014 0.0027435160307051768 0 0.0022261613967216108 0.0021834799556071528 0 0.001700184464965298 0.0032460751406134768 0 0.0013895255382698852 0.0024556064343921229 0 0.0021945725338703014 0.0027435160307051768 0 0.0026888145551826285 0.0025471816232358439 0 0.0016057121216348296 0.0035007609592291279 0 0.0012023902637125271 0.0022747837796150824 0 0.0051553564583648155 0.0057582499275479915 0 0.0026888145551826285 0.0025471816232358439 0 0.0023286421771611106 0.002985950151368644 0 0.0016949786248153587 0.0024248048240415152 0 0.001700184464965298 0.0032460751406134768 0 0.0021945725338703014 0.0027435160307051768 0 0.0016057121216348296 0.0035007609592291279 0 0.0033944771390060206 0.0017902209159608351 0 0.0028210902522231183 0.0021011119139743282 0 0.0026888145551826285 0.0025471816232358439 0 0.0033591875609229912 0.0023359749190523158 0 0.0033944771390060206 0.0017902209159608351 0 0.0026888145551826285 0.0025471816232358439 0 0.0028210902522231183 0.0021011119139743282 0 0.0021945725338703014 0.0027435160307051768 0 0.0026888145551826285 0.0025471816232358439 0 0.0033591875609229912 0.0023359749190523158 0 0.0026888145551826285 0.0025471816232358439 0 0.0031032467322095469 0.0030562931752011286 0 0.0031032467322095469 0.0030562931752011286 0 0.0029557076773963687 0.003677420628862661 0 0.0033622407296486603 0.0036002575502551855 0 0.0031032467322095469 0.0030562931752011286 0 0.0023286421771611106 0.002985950151368644 0 0.0029557076773963687 0.003677420628862661 0 0.0026888145551826285 0.0025471816232358439 0 0.0031032467322095469 0.0030562931752011286 0 0.0023286421771611106 0.002985950151368644 0 0.0023286421771611106 0.002985950151368644 0 0.0029557076773963687 0.003677420628862661 0 0.00098818929702626903 0.003804856423820893 0 0.0025852219919639961 0.0048817316823078407 0 0.003032419497566074 0.0036829400919835922 0 0.0024576478863665295 0.0053763511319978264 0 0.0029557076773963687 0.003677420628862661 0 0.00098818929702626903 0.003804856423820893 0 0.0032189804863408588 0.0038464977845699198 0 0.0030499551429153384 0.0038062660241499824 0 0.0029557076773963687 0.003677420628862661 0 0.0032189804863408588 0.0038464977845699198 0 0.0029557076773963687 0.003677420628862661 0 0.0033622407296486603 0.0036002575502551855 0 0.0034857196173763783 0.0037865168502552024 0 0.0033622407296486603 0.0036002575502551855 0 0.004035245120983349 0.0032194503530672326 0 0.0038574152639443515 -0.0049006406780617738 0 0.0045927673533411447 -0.0028311614279938756 0 0.0031032467322095469 0.0030562931752011286 0 0.0033622407296486603 0.0036002575502551855 0 0.004035245120983349 0.0032194503530672326 0 0.0033591875609229912 0.0023359749190523158 0 0.0031032467322095469 0.0030562931752011286 0 0.004035245120983349 0.0032194503530672326 0 0.0053462738800827735 -0.0090837100240681989 0 0.0022654828091358994 -0.012763311766575931 0 -0.0002413825852305622 -0.0067304900747910783 0 0.0041957842253116792 -0.013923826925541833 0 0.0053462738800827735 -0.0090837100240681989 0 0.0022654828091358994 -0.012763311766575931 0 0.0022654828091358994 -0.012763311766575931 0 0.00010075473176521351 -0.012606128139523826 0 -0.0002413825852305622 -0.0067304900747910783 0 0.00072521184624052548 -0.014628578674881945 0 0.0022654828091358994 -0.012763311766575931 0 0.00010075473176521351 -0.012606128139523826 0 -0.0010045298468835783 -0.014741063391371321 0 0.00010075473176521351 -0.012606128139523826 0 -0.0012312619228299136 -0.01244364211404143 0 -0.0010045298468835783 -0.014741063391371321 0 -0.0012312619228299136 -0.01244364211404143 0 -0.0018986931700451146 -0.010552895282530289 0 -0.0010755409546461924 -0.014831754945122356 0 -0.0013230554297595629 -0.014790578610750451 0 -0.0012312619228299136 -0.01244364211404143 0 -0.0018986931700451146 -0.010552895282530289 0 -0.00012355845172224187 -0.010216290501058923 0 -0.0012969730590559124 -0.011988070793300883 0 -3.5924476508852677e-05 -0.008422604830105403 0 0.00010075473176521351 -0.012606128139523826 0 -0.0012312619228299136 -0.01244364211404143 0 -0.0002413825852305622 -0.0067304900747910783 0 0.0013851693026072688 -0.017231350711726743 0 0.00083248596486905596 -0.018073246175279112 0 0.0005027323902894482 -0.016835111526107394 0 0.00083248596486905596 -0.018073246175279112 0 0.0005027323902894482 -0.016835111526107394 0 -1.3415082353303394e-05 -0.016856826521407013 0 0.00083248596486905596 -0.018073246175279112 0 -1.3415082353303394e-05 -0.016856826521407013 0 9.1527647231369756e-05 -0.018384422516496676 0 -0.0010045298468835783 -0.014741063391371321 0 -1.3415082353303394e-05 -0.016856826521407013 0 -0.0010184441299077901 -0.018908433833861732 0 -0.0010184441299077901 -0.018908433833861732 0 9.1527647231369756e-05 -0.018384422516496676 0 0.00045274595009745677 -0.019415000640222922 0 -1.3415082353303394e-05 -0.016856826521407013 0 -0.0010184441299077901 -0.018908433833861732 0 9.1527647231369756e-05 -0.018384422516496676 0 0.00083248596486905596 -0.018073246175279112 0 9.1527647231369756e-05 -0.018384422516496676 0 0.00045274595009745677 -0.019415000640222922 0 0.0012395560088338659 -0.019303444525435934 0 0.00083248596486905596 -0.018073246175279112 0 0.00045274595009745677 -0.019415000640222922 0 0.00045274595009745677 -0.019415000640222922 0 0.0010608583885708086 -0.020414483848668803 0 0.00012829602303005287 -0.021102928900038641 0 0.0012395560088338659 -0.019303444525435934 0 0.00045274595009745677 -0.019415000640222922 0 0.0010608583885708086 -0.020414483848668803 0 -0.0013230554297595629 -0.014790578610750451 0 -0.00046497494980632658 -0.015277326273458456 0 -0.0018986931700451146 -0.010552895282530289 0 -0.0010026500464494794 -0.0095230390307130628 0 -0.00085757939413898298 -0.0097352005243700242 0 -0.0010184441299077901 -0.018908433833861732 0 0.00045274595009745677 -0.019415000640222922 0 0.00012829602303005287 -0.021102928900038641 0 0.0010608583885708086 -0.020414483848668803 0 0.00012829602303005287 -0.021102928900038641 0 0.0010428222940089063 -0.021249766097066556 0 0.00012829602303005287 -0.021102928900038641 0 0.0010428222940089063 -0.021249766097066556 0 0.00099305299195078488 -0.021645531731601254 0 -8.2295947935096016e-05 -0.0095599479568724052 0 -0.00012355845172224187 -0.010216290501058923 0 -0.00037180789091553453 -0.0096438332010932559 0 0.0019678265746737385 -0.0043255416559012929 0 -3.5924476508852677e-05 -0.008422604830105403 0 -0.00012355845172224187 -0.010216290501058923 0 -0.00085757939413898298 -0.0097352005243700242 0 -0.00037180789091553453 -0.0096438332010932559 0 -0.0018986931700451146 -0.010552895282530289 0 -0.00012355845172224187 -0.010216290501058923 0 -0.00085757939413898298 -0.0097352005243700242 0 -0.0010026500464494794 -0.0095230390307130628 0 -0.00085757939413898298 -0.0097352005243700242 0 -0.00048295677012991165 -0.0094023688719006415 0 -0.00037180789091553453 -0.0096438332010932559 0 -0.00025022273176938909 -0.0094718728036809544 0 -0.00048295677012991165 -0.0094023688719006415 0 -8.2295947935096016e-05 -0.0095599479568724052 0 -0.00037180789091553453 -0.0096438332010932559 0 -0.00025022273176938909 -0.0094718728036809544 0 -0.00085757939413898298 -0.0097352005243700242 0 -0.00037180789091553453 -0.0096438332010932559 0 -0.00048295677012991165 -0.0094023688719006415 0 -0.00048295677012991165 -0.0094023688719006415 0 -0.00031271968628642074 -0.009213067281109261 0 -0.00018958051774955358 -0.0093440814499830046 0 -0.00025022273176938909 -0.0094718728036809544 0 -0.00048295677012991165 -0.0094023688719006415 0 -0.00018958051774955358 -0.0093440814499830046 0 -0.00048295677012991165 -0.0094023688719006415 0 -0.00050898800178740284 -0.0092949018503409881 0 -0.00031271968628642074 -0.009213067281109261 0 -0.0010026500464494794 -0.0095230390307130628 0 -0.00048295677012991165 -0.0094023688719006415 0 -0.00050898800178740284 -0.0092949018503409881 0 -0.00050898800178740284 -0.0092949018503409881 0 -0.00026323162630262451 -0.0094115552061263853 0 -0.00047617487935673407 -0.0093563514004472124 0 -0.00029267302655518413 -0.0079157248744269187 0 -0.00048489851223773432 -0.0074204871092268731 0 -0.00050898800178740284 -0.0092949018503409881 0 -0.00047617487935673407 -0.0093563514004472124 0 -0.00031271968628642074 -0.009213067281109261 0 0.0013002408853934509 -0.021543424620334678 0 0.0010428222940089063 -0.021249766097066556 0 0.00099305299195078488 -0.021645531731601254 0 -0.00046497494980632658 -0.015277326273458456 0 0.00028120689827653718 -0.01566425353485117 0 -0.0010026500464494794 -0.0095230390307130628 0 -0.00050898800178740284 -0.0092949018503409881 0 -0.00038648667951026908 -0.0093284677149837875 0 -0.00050898800178740284 -0.0092949018503409881 0 -0.00038648667951026908 -0.0093284677149837875 0 -0.00026323162630262451 -0.0094115552061263853 0 0.0011492328078180865 -0.021519816249509226 0 0.00099305299195078488 -0.021645531731601254 0 0.0011249847535392751 -0.021435411565625857 0 0.00028120689827653718 -0.01566425353485117 0 0.00092110297061527753 -0.014724659588733761 0 -0.00038648667951026908 -0.0093284677149837875 0 0.00030461606705530945 -0.0095660665065163148 0 -0.00026323162630262451 -0.0094115552061263853 0 0.00030461606705530945 -0.0095660665065163148 0 -0.00026323162630262451 -0.0094115552061263853 0 -0.0001022592220907018 -0.0097290004471998152 0 -0.00026323162630262451 -0.0094115552061263853 0 -0.0001022592220907018 -0.0097290004471998152 0 -0.00047617487935673407 -0.0093563514004472124 0 -0.0001022592220907018 -0.0097290004471998152 0 1.0316673675368716e-06 -0.011128233978492238 0 -1.193654679152203e-07 -0.0085890619160451393 0 0.00092110297061527753 -0.014724659588733761 0 1.0904208997164332e-06 -0.011129117018977133 0 -6.001402745057722e-08 -0.012821069805137551 0 4.9833201197327572e-06 -0.012250577486118778 0 6.662663972843672e-08 -0.011137932783056454 0 0.00030461606705530945 -0.0095660665065163148 0 -0.0001022592220907018 -0.0097290004471998152 0 1.0316673675368716e-06 -0.011128233978492238 0 7.5455980322688425e-05 -0.0065353662564633401 0 -0.00028482774178678182 -0.0047821917534354094 0 -0.0002445984046010302 -0.0047007797820632132 0 -0.00011615422996654576 -0.0094098171467083165 0 -0.00029267302655518413 -0.0079157248744269187 0 -0.0001022592220907018 -0.0097290004471998152 0 7.5455980322688425e-05 -0.0065353662564633401 0 -1.193654679152203e-07 -0.0085890619160451393 0 7.5455980322688425e-05 -0.0065353662564633401 0 -1.193654679152203e-07 -0.0085890619160451393 0 -6.4724430709245134e-07 -0.0060458471129335679 0 7.5455980322688425e-05 -0.0065353662564633401 0 -6.4724430709245134e-07 -0.0060458471129335679 0 -0.00028482774178678182 -0.0047821917534354094 0 -6.4724430709245134e-07 -0.0060458471129335679 0 -5.2847917263683097e-07 -0.0035036239294595371 0 -0.00028482774178678182 -0.0047821917534354094 0 -5.2847917263683097e-07 -0.0035036239294595371 0 -0.00028482774178678182 -0.0047821917534354094 0 -9.3806648513737357e-05 -0.00307922532151296 0 -0.00028482774178678182 -0.0047821917534354094 0 -0.00030505944892672066 -0.0043365058203242409 0 -9.3806648513737357e-05 -0.00307922532151296 0 -0.00028482774178678182 -0.0047821917534354094 0 -0.0002445984046010302 -0.0047007797820632132 0 -0.00030505944892672066 -0.0043365058203242409 0 -0.00048489851223773432 -0.0074204871092268731 0 0.00168438502385468 -0.003536555346967717 0 -0.00030505944892672066 -0.0043365058203242409 0 -0.00024195503876979092 -0.004525467261001742 0 0.00012476951402205704 -0.0040386384537132404 0 -0.0002445984046010302 -0.0047007797820632132 0 -0.00030505944892672066 -0.0043365058203242409 0 -0.00024195503876979092 -0.004525467261001742 0 0.0036518840998646025 0.0013144952269507585 0 0.0035338954910539544 0.0011149573919701282 0 0.0032267874006946832 0.0013283648563186573 0 0.00168438502385468 -0.003536555346967717 0 0.0019242652355906473 -0.00085956861801408382 0 -0.00012020271092052145 -0.009412871647473519 0 3.0183811269713367e-05 -0.0092741074106424039 0 -0.00018958051774955358 -0.0093440814499830046 0 -0.00031271968628642074 -0.009213067281109261 0 3.0183811269713367e-05 -0.0092741074106424039 0 -0.00018958051774955358 -0.0093440814499830046 0 -0.00012020271092052145 -0.009412871647473519 0 -0.00025022273176938909 -0.0094718728036809544 0 -0.00018958051774955358 -0.0093440814499830046 0 0.0017489035406901365 0.0015661095019201996 0 0.00083829954351655471 0.00011926384092264975 0 0.0008542144842647835 0.0017619129907297348 0 0.0017489035406901365 0.0015661095019201996 0 0.0025109598314027579 0.0014808058097742472 0 0.0020268232844952465 0.00074353495986857624 0 0.0017489035406901365 0.0015661095019201996 0 0.0008542144842647835 0.0017619129907297348 0 0.0013895255382698852 0.0024556064343921229 0 0.0022261613967216108 0.0021834799556071528 0 0.0017489035406901365 0.0015661095019201996 0 0.0025109598314027579 0.0014808058097742472 0 0.0036121660666646477 0.0011149891674195887 0 0.0027979557173936401 0.0009392258414625262 0 0.0026194155729292313 3.7125937134997066e-05 0 0.0028564554828288797 0.0017167978484828618 0 0.0025109598314027579 0.0014808058097742472 0 0.0032267874006946832 0.0013283648563186573 0 0.0025109598314027579 0.0014808058097742472 0 0.0032267874006946832 0.0013283648563186573 0 0.0027979557173936401 0.0009392258414625262 0 0.0036121660666646477 0.0011149891674195887 0 0.0032267874006946832 0.0013283648563186573 0 0.0027979557173936401 0.0009392258414625262 0 0.0025109598314027579 0.0014808058097742472 0 0.0027979557173936401 0.0009392258414625262 0 0.0020268232844952465 0.00074353495986857624 0 0.0027979557173936401 0.0009392258414625262 0 0.0026194155729292313 3.7125937134997066e-05 0 0.0020268232844952465 0.00074353495986857624 0 0.00168438502385468 -0.003536555346967717 0 0.001393360027237379 -0.0016335889106961947 0 0.0026194155729292313 3.7125937134997066e-05 0 0.00083829954351655471 0.00011926384092264975 0 0.0020268232844952465 0.00074353495986857624 0 0.0017489035406901365 0.0015661095019201996 0 0.00083829954351655471 0.00011926384092264975 0 0.0020268232844952465 0.00074353495986857624 0 0.001393360027237379 -0.0016335889106961947 0 0.00058840607936470933 -0.0018526891305553903 0 0.0026194155729292313 3.7125937134997066e-05 0 0.00083829954351655471 0.00011926384092264975 0 0.00050322365183359807 -0.0015767415776956131 0 -0.00030505944892672066 -0.0043365058203242409 0 0.00012476951402205704 -0.0040386384537132404 0 -9.3806648513737357e-05 -0.00307922532151296 0 0.00012476951402205704 -0.0040386384537132404 0 0.00050322365183359807 -0.0015767415776956131 0 -9.3806648513737357e-05 -0.00307922532151296 0 -5.2847917263683097e-07 -0.0035036239294595371 0 -9.3806648513737357e-05 -0.00307922532151296 0 5.0700536587731147e-07 -0.00095900694391020053 0 0.00050322365183359807 -0.0015767415776956131 0 5.0700536587731147e-07 -0.00095900694391020053 0 1.0940358048976666e-06 0.0015771185407439426 0 0.00050322365183359807 -0.0015767415776956131 0 -9.3806648513737357e-05 -0.00307922532151296 0 5.0700536587731147e-07 -0.00095900694391020053 0 0.00050322365183359807 -0.0015767415776956131 0 1.0940358048976666e-06 0.0015771185407439426 0 0.00015489010283931563 -0.00062485422384190366 0 2.257449369780101e-07 0.0015876184340597717 0 5.300047714599993e-07 0.0044558254703724156 0 -0.00020414399800244102 0.0036950747304528237 0 2.257449369780101e-07 0.0015876184340597717 0 -0.0002286406678968394 0.0034905956598916548 0 -0.00020414399800244102 0.0036950747304528237 0 -1.3561054101787625e-08 0.001582799466560826 0 -3.9667430514137203e-05 0.0014409453815632705 0 -9.50382535918067e-05 0.0033919710660398053 0 -0.0002286406678968394 0.0034905956598916548 0 -0.00020414399800244102 0.0036950747304528237 0 -9.50382535918067e-05 0.0033919710660398053 0 -0.0002286406678968394 0.0034905956598916548 0 -5.4555310829028811e-05 0.0027538394573431522 0 0.00083829954351655471 0.00011926384092264975 0 0.00050322365183359807 -0.0015767415776956131 0 0.00015489010283931563 -0.00062485422384190366 0 0.0004846663721028175 0.0053337427308530307 0 5.300047714599993e-07 0.0044558254703724156 0 -6.5945578375063507e-08 0.0073301852057453439 0 0.0004846663721028175 0.0053337427308530307 0 5.300047714599993e-07 0.0044558254703724156 0 -0.00020414399800244102 0.0036950747304528237 0 0.0004846663721028175 0.0053337427308530307 0 6.2827868388263085e-05 0.0034284818687873309 0 0.00071817937910654813 0.0032605043448481587 0 0.0004846663721028175 0.0053337427308530307 0 -0.00020414399800244102 0.0036950747304528237 0 6.2827868388263085e-05 0.0034284818687873309 0 -9.50382535918067e-05 0.0033919710660398053 0 -0.00020414399800244102 0.0036950747304528237 0 6.2827868388263085e-05 0.0034284818687873309 0 0.00064027062810659936 0.0053799238267630729 0 0.0015539181403542311 0.0067161975164200995 0 0.0004846663721028175 0.0053337427308530307 0 0.0018195361725959927 0.0032506342876590186 0 0.00071817937910654813 0.0032605043448481587 0 0.0004846663721028175 0.0053337427308530307 0 0.0006786824998806976 0.0088294890668103414 0 0.00031009940859095603 0.0084724787190590626 0 0.0004846663721028175 0.0053337427308530307 0 0.00031009940859095603 0.0084724787190590626 0 5.3938193502371384e-05 0.0073650277788746389 0 0.0019762667152390685 0.0088139073562911348 0 -0.00021764450387898838 0.0066189928927626509 0 0.0027960298279007052 0.00727036746390661 0 -0.00031917739938536833 0.0038344868850572426 0 0.0032255855556960651 0.012097506330605095 0 0.0015539181403542311 0.0067161975164200995 0 0.0014949625901166945 0.0070630493483298789 0 0.0018195361725959927 0.0032506342876590186 0 0.00071817937910654813 0.0032605043448481587 0 0.00069605120913817471 0.0023206263098851394 0 0.0015539181403542311 0.0067161975164200995 0 -0.00031917739938536833 0.0038344868850572426 0 0.00034318747438669887 0.002775920701121658 0 4.0604924452130291e-05 0.0026316800798250536 0 0.00018493065630916785 0.0023008575099136321 0 0.00071817937910654813 0.0032605043448481587 0 0.00069605120913817471 0.0023206263098851394 0 0.00034318747438669887 0.002775920701121658 0 0.00069605120913817471 0.0023206263098851394 0 0.00034318747438669887 0.002775920701121658 0 0.00018493065630916785 0.0023008575099136321 0 6.2827868388263085e-05 0.0034284818687873309 0 0.00071817937910654813 0.0032605043448481587 0 0.00034318747438669887 0.002775920701121658 0 6.2827868388263085e-05 0.0034284818687873309 0 0.00034318747438669887 0.002775920701121658 0 4.0604924452130291e-05 0.0026316800798250536 0 6.2827868388263085e-05 0.0034284818687873309 0 4.0604924452130291e-05 0.0026316800798250536 0 -5.4555310829028811e-05 0.0027538394573431522 0 -0.00031917739938536833 0.0038344868850572426 0 0.00053214129257269228 0.0038317474663975143 0 -0.00011215834806623232 0.0034434305557812504 0 0.0013337237845109343 0.0057400395278544162 0 5.4932625119836133e-05 0.0052606835704579651 0 0.00042377224789378812 0.0022650908605419146 0 0.00018493065630916785 0.0023008575099136321 0 -0.0004526200420647197 0.0022400030139816244 0 0.00018493065630916785 0.0023008575099136321 0 -0.00015245260770544185 0.0021301246536637041 0 -0.0004526200420647197 0.0022400030139816244 0 4.0604924452130291e-05 0.0026316800798250536 0 0.00018493065630916785 0.0023008575099136321 0 -0.00015245260770544185 0.0021301246536637041 0 -0.00031917739938536833 0.0038344868850572426 0 8.2826014073746627e-05 0.0032382434504241568 0 -0.00011215834806623232 0.0034434305557812504 0 -0.001388279742613172 0.0044346253475193789 0 -0.0020867665151619013 0.0028222051442509362 0 -0.00011215834806623232 0.0034434305557812504 0 -0.001388279742613172 0.0044346253475193789 0 5.4932625119836133e-05 0.0052606835704579651 0 -3.9667430514137203e-05 0.0014409453815632705 0 -7.6105726188591659e-05 0.0017001462288350601 0 0.00083829954351655471 0.00011926384092264975 0 0.00015489010283931563 -0.00062485422384190366 0 -8.720556906818071e-05 0.0016861935437183892 0 -0.0002286406678968394 0.0034905956598916548 0 -5.4555310829028811e-05 0.0027538394573431522 0 -8.720556906818071e-05 0.0016861935437183892 0 -9.50382535918067e-05 0.0033919710660398053 0 6.2827868388263085e-05 0.0034284818687873309 0 -5.4555310829028811e-05 0.0027538394573431522 0 4.0604924452130291e-05 0.0026316800798250536 0 -5.4555310829028811e-05 0.0027538394573431522 0 -0.00015245260770544185 0.0021301246536637041 0 -5.4555310829028811e-05 0.0027538394573431522 0 -0.00015245260770544185 0.0021301246536637041 0 -8.720556906818071e-05 0.0016861935437183892 0 -8.720556906818071e-05 0.0016861935437183892 0 0.00059729056290752256 0.0027093780975634267 0 -0.0004526200420647197 0.0022400030139816244 0 -0.00015245260770544185 0.0021301246536637041 0 -8.720556906818071e-05 0.0016861935437183892 0 -0.0004526200420647197 0.0022400030139816244 0 0.00083829954351655471 0.00011926384092264975 0 -8.720556906818071e-05 0.0016861935437183892 0 0.0008542144842647835 0.0017619129907297348 0 -8.720556906818071e-05 0.0016861935437183892 0 0.0008542144842647835 0.0017619129907297348 0 0.00059729056290752256 0.0027093780975634267 0 0.0008542144842647835 0.0017619129907297348 0 0.0013895255382698852 0.0024556064343921229 0 0.00059729056290752256 0.0027093780975634267 0 0.00059729056290752256 0.0027093780975634267 0 0.0013108552116408232 0.0034907567132278485 0 0.0011190178494614818 0.0047834334849001896 0 0.001700184464965298 0.0032460751406134768 0 0.0013895255382698852 0.0024556064343921229 0 0.0013108552116408232 0.0034907567132278485 0 0.0013895255382698852 0.0024556064343921229 0 0.00059729056290752256 0.0027093780975634267 0 0.0013108552116408232 0.0034907567132278485 0 0.0035480041107125932 0.0040916344769477073 0 0.0051553564583648155 0.0057582499275479915 0 0.001700184464965298 0.0032460751406134768 0 0.0013108552116408232 0.0034907567132278485 0 0.0012082588754583929 0.004351621565556912 0 0.0013108552116408232 0.0034907567132278485 0 0.0011190178494614818 0.0047834334849001896 0 0.0012082588754583929 0.004351621565556912 0 0.0011190178494614818 0.0047834334849001896 0 0.0012082588754583929 0.004351621565556912 0 0.0011249700370566226 0.0064448803523764163 0 0.013569635514547913 0.0091475386037425856 0 0.0065780790361216488 0.009537624597365936 0 0.009315851754507623 0.012648433984893195 0 0.0051553564583648155 0.0057582499275479915 0 0.0041759889995241946 0.0081836390195030115 0 0.0011190178494614818 0.0047834334849001896 0 0.0013337237845109343 0.0057400395278544162 0 0.0011249700370566226 0.0064448803523764163 0 0.00059729056290752256 0.0027093780975634267 0 0.0011190178494614818 0.0047834334849001896 0 -0.0004526200420647197 0.0022400030139816244 0 0.0011327044443077128 0.0048406876131809728 0 0.00053214129257269228 0.0038317474663975143 0 0.0013337237845109343 0.0057400395278544162 0 5.4932625119836133e-05 0.0052606835704579651 0 0.00048262140187025926 0.0064524945889521054 0 0.0013337237845109343 0.0057400395278544162 0 0.00048262140187025926 0.0064524945889521054 0 0.0011249700370566226 0.0064448803523764163 0 5.4932625119836133e-05 0.0052606835704579651 0 0.00048262140187025926 0.0064524945889521054 0 -0.00093265103468457373 0.0060033207617909909 0 -0.001388279742613172 0.0044346253475193789 0 5.4932625119836133e-05 0.0052606835704579651 0 -0.00093265103468457373 0.0060033207617909909 0 0.00048262140187025926 0.0064524945889521054 0 -0.00093265103468457373 0.0060033207617909909 0 -0.0010671477788094348 0.0095632123393104562 0 -0.0012239939573931082 0.0093314583994564132 0 0.0041759889995241946 0.0081836390195030115 0 0.00048262140187025926 0.0064524945889521054 0 -0.0010671477788094348 0.0095632123393104562 0 0.0011249700370566226 0.0064448803523764163 0 0.0065780790361216488 0.009537624597365936 0 0.0028552874383437291 0.013481993877135588 0 0.0063591590035417325 0.013719865362473153 0 -0.0010671477788094348 0.0095632123393104562 0 0.0065780790361216488 0.009537624597365936 0 0.0028552874383437291 0.013481993877135588 0 0.0028552874383437291 0.013481993877135588 0 0.0063591590035417325 0.013719865362473153 0 0.0047844237880541674 0.016433724253821527 0 -0.0010671477788094348 0.0095632123393104562 0 0.0028552874383437291 0.013481993877135588 0 -0.00054141947419439763 0.015842074942455563 0 0.0028552874383437291 0.013481993877135588 0 -0.00054141947419439763 0.015842074942455563 0 0.0022314724206274716 0.017181615317766765 0 0.0022314724206274716 0.017181615317766765 0 0.0039048936089713855 0.018690713239519784 0 0.0023050209488279295 0.019897330262130551 0 0.0022314724206274716 0.017181615317766765 0 6.8617111054711011e-05 0.018681302589020572 0 0.0023050209488279295 0.019897330262130551 0 -0.00054141947419439763 0.015842074942455563 0 0.0022314724206274716 0.017181615317766765 0 6.8617111054711011e-05 0.018681302589020572 0 0.0063591590035417325 0.013719865362473153 0 0.0047844237880541674 0.016433724253821527 0 0.0082051422654345792 0.016491746887848178 0 0.0028552874383437291 0.013481993877135588 0 0.0022314724206274716 0.017181615317766765 0 0.0047844237880541674 0.016433724253821527 0 0.0022314724206274716 0.017181615317766765 0 0.0047844237880541674 0.016433724253821527 0 0.0039048936089713855 0.018690713239519784 0 0.0047844237880541674 0.016433724253821527 0 0.0060991018230090793 0.019430255437126166 0 0.0039048936089713855 0.018690713239519784 0 0.0047844237880541674 0.016433724253821527 0 0.0082051422654345792 0.016491746887848178 0 0.0060991018230090793 0.019430255437126166 0 0.0082051422654345792 0.016491746887848178 0 0.011804876325633266 0.014833232117061102 0 0.009315851754507623 0.012648433984893195 0 0.0082051422654345792 0.016491746887848178 0 0.011804876325633266 0.014833232117061102 0 0.0098954713008447652 0.020616281000853876 0 0.0024576478863665295 0.0053763511319978264 0 0.00098818929702626903 0.003804856423820893 0 0.00014297027162123296 0.0059770454883995511 0 0.0066523700534729729 0.0094080426493767053 0 0.0049877546178229339 0.012626014357710061 0 0.013569635514547913 0.0091475386037425856 0 0.011804876325633266 0.014833232117061102 0 0.009315851754507623 0.012648433984893195 0 0.0023286421771611106 0.002985950151368644 0 0.0016949786248153587 0.0024248048240415152 0 0.00098818929702626903 0.003804856423820893 0 0.0051553564583648155 0.0057582499275479915 0 0.0066523700534729729 0.0094080426493767053 0 0.0065780790361216488 0.009537624597365936 0 0.0063591590035417325 0.013719865362473153 0 0.009315851754507623 0.012648433984893195 0 0.0063591590035417325 0.013719865362473153 0 0.0082051422654345792 0.016491746887848178 0 0.009315851754507623 0.012648433984893195 0 0.0079756008989526617 0.029632913938997744 0 0.0065716701676781317 0.028236349483607759 0 0.0091137741353102212 0.02698264753960922 0 0.0079756008989526617 0.029632913938997744 0 0.0065716701676781317 0.028236349483607759 0 0.0052453652754694781 0.030646349062178519 0 0.0065716701676781317 0.028236349483607759 0 0.0052453652754694781 0.030646349062178519 0 0.004528668843170206 0.027750557938802572 0 0.0079756008989526617 0.029632913938997744 0 0.0052453652754694781 0.030646349062178519 0 0.0067486736163003798 0.032415374218739641 0 -0.0012912767122705189 0.02221544402882402 0 -0.0044018474096302719 0.027692821330696948 0 -0.010643190700759749 0.014801144099086054 0 -0.0060151580527659596 0.019015500657667703 0 -0.014940125266186193 0.022413182651901689 0 -0.010643190700759749 0.014801144099086054 0 -0.0060151580527659596 0.019015500657667703 0 -0.0044300876777358831 0.014339541201008124 0 -0.00054141947419439763 0.015842074942455563 0 -0.0024996227584749577 0.018313421857994571 0 -0.0044300876777358831 0.014339541201008124 0 -0.00054141947419439763 0.015842074942455563 0 6.8617111054711011e-05 0.018681302589020572 0 -0.0024996227584749577 0.018313421857994571 0 -0.0060151580527659596 0.019015500657667703 0 -0.0024996227584749577 0.018313421857994571 0 -0.0044300876777358831 0.014339541201008124 0 -0.0010671477788094348 0.0095632123393104562 0 -0.00054141947419439763 0.015842074942455563 0 -0.0044300876777358831 0.014339541201008124 0 -0.0010671477788094348 0.0095632123393104562 0 -0.0044300876777358831 0.014339541201008124 0 -0.0068519912126128405 0.0090982556553041213 0 -0.010643190700759749 0.014801144099086054 0 -0.0044300876777358831 0.014339541201008124 0 -0.0068519912126128405 0.0090982556553041213 0 -0.0012912767122705189 0.02221544402882402 0 0.0010698553418722371 0.018124247845620587 0 -0.0010671477788094348 0.0095632123393104562 0 -0.0068519912126128405 0.0090982556553041213 0 -0.0040167097674909738 0.0052254057263539308 0 -0.00093265103468457373 0.0060033207617909909 0 -0.0010671477788094348 0.0095632123393104562 0 -0.0040167097674909738 0.0052254057263539308 0 -0.001388279742613172 0.0044346253475193789 0 -0.00093265103468457373 0.0060033207617909909 0 -0.0040167097674909738 0.0052254057263539308 0 0.0010698553418722371 0.018124247845620587 0 0.003229942643299013 0.014919441428749866 0 0.0091137741353102212 0.02698264753960922 0 0.010224948027724858 0.02449319350596672 0 0.0081925105721479957 0.023835480212388165 0 0.0091137741353102212 0.02698264753960922 0 0.0062238796579906627 0.025983043273970042 0 0.0081925105721479957 0.023835480212388165 0 0.0065716701676781317 0.028236349483607759 0 0.0091137741353102212 0.02698264753960922 0 0.0062238796579906627 0.025983043273970042 0 0.0065716701676781317 0.028236349483607759 0 0.0062238796579906627 0.025983043273970042 0 0.004528668843170206 0.027750557938802572 0 0.0062238796579906627 0.025983043273970042 0 0.0056743077544259904 0.023641322903625271 0 0.0043131575155898353 0.025018818615452465 0 0.0062238796579906627 0.025983043273970042 0 0.0056743077544259904 0.023641322903625271 0 0.0081925105721479957 0.023835480212388165 0 0.0056743077544259904 0.023641322903625271 0 0.0081925105721479957 0.023835480212388165 0 0.0068810763220624252 0.021280972163310326 0 0.0081925105721479957 0.023835480212388165 0 0.0068810763220624252 0.021280972163310326 0 0.0091351843767141748 0.02170345524793351 0 0.0031797757097808896 0.015963105515494649 0 0.0049713946721438845 0.015897106188179678 0 0.0031797757097808896 0.015963105515494649 0 0.002434026032689073 0.016492029970015129 0 0.0056743077544259904 0.023641322903625271 0 0.0068810763220624252 0.021280972163310326 0 0.0048688831216819649 0.022219906267423283 0 0.0068810763220624252 0.021280972163310326 0 0.0046301552299532105 0.020862563247508483 0 0.0048688831216819649 0.022219906267423283 0 -0.001388279742613172 0.0044346253475193789 0 -0.0040167097674909738 0.0052254057263539308 0 -0.0020867665151619013 0.0028222051442509362 0 0.010224948027724858 0.02449319350596672 0 0.0097242296635626901 0.023028019511201172 0 0.0113278055089415 0.022093415215384084 0 0.003229942643299013 0.014919441428749866 0 0.0032255855556960651 0.012097506330605095 0 0.010224948027724858 0.02449319350596672 0 0.0081925105721479957 0.023835480212388165 0 0.0097242296635626901 0.023028019511201172 0 0.0081925105721479957 0.023835480212388165 0 0.0097242296635626901 0.023028019511201172 0 0.0091351843767141748 0.02170345524793351 0 0.0097242296635626901 0.023028019511201172 0 0.0091351843767141748 0.02170345524793351 0 0.0113278055089415 0.022093415215384084 0 0.0049713946721438845 0.015897106188179678 0 0.0032255855556960651 0.012097506330605095 0 -0.00031391528063981895 0.00936394464065461 0 0.0002275406021237293 0.0090613521872320718 0 -8.5536234706150147e-05 0.008682596120398952 0 0.00045406872054232249 0.0086119303622940076 0 0.00031009940859095603 0.0084724787190590626 0 0.0002275406021237293 0.0090613521872320718 0 0.0015539181403542311 0.0067161975164200995 0 0.0032255855556960651 0.012097506330605095 0 0.00031009940859095603 0.0084724787190590626 0 0.0002275406021237293 0.0090613521872320718 0 -8.5536234706150147e-05 0.008682596120398952 0 0.00031009940859095603 0.0084724787190590626 0 5.3938193502371384e-05 0.0073650277788746389 0 -8.5536234706150147e-05 0.008682596120398952 0 5.3938193502371384e-05 0.0073650277788746389 0 -8.5536234706150147e-05 0.008682596120398952 0 -0.000191243592744302 0.0085570766949481427 0 -0.00031391528063981895 0.00936394464065461 0 -0.000191243592744302 0.0085570766949481427 0 -0.00017014306495924316 0.010116155291041628 0 -0.00031391528063981895 0.00936394464065461 0 -8.5536234706150147e-05 0.008682596120398952 0 -0.000191243592744302 0.0085570766949481427 0 -0.000191243592744302 0.0085570766949481427 0 -6.5945578375063507e-08 0.0073301852057453439 0 -4.9925318569146279e-07 0.010203139548877494 0 -0.000191243592744302 0.0085570766949481427 0 -0.00017014306495924316 0.010116155291041628 0 -4.9925318569146279e-07 0.010203139548877494 0 0.0004846663721028175 0.0053337427308530307 0 5.3938193502371384e-05 0.0073650277788746389 0 -6.5945578375063507e-08 0.0073301852057453439 0 5.3938193502371384e-05 0.0073650277788746389 0 -0.000191243592744302 0.0085570766949481427 0 -6.5945578375063507e-08 0.0073301852057453439 0 0.00016041409111297838 0.012312991124604405 0 3.7806987584646484e-05 0.011699388914368728 0 0.00037447176046197901 0.013815481458493817 0 -7.7080204069938804e-05 0.010639801800773278 0 0.00016041409111297838 0.012312991124604405 0 0.00032820148926023321 0.012712902778672213 0 -7.7080204069938804e-05 0.010639801800773278 0 0.00016041409111297838 0.012312991124604405 0 3.7806987584646484e-05 0.011699388914368728 0 -7.7080204069938804e-05 0.010639801800773278 0 -0.00031391528063981895 0.00936394464065461 0 -0.00017014306495924316 0.010116155291041628 0 -7.7080204069938804e-05 0.010639801800773278 0 -0.00017014306495924316 0.010116155291041628 0 3.7806987584646484e-05 0.011699388914368728 0 -0.00017014306495924316 0.010116155291041628 0 -4.9925318569146279e-07 0.010203139548877494 0 3.7806987584646484e-05 0.011699388914368728 0 -4.9925318569146279e-07 0.010203139548877494 0 3.7806987584646484e-05 0.011699388914368728 0 8.8953591126600472e-07 0.013076820719472923 0 3.7806987584646484e-05 0.011699388914368728 0 8.8953591126600472e-07 0.013076820719472923 0 0.00037447176046197901 0.013815481458493817 0 8.8953591126600472e-07 0.013076820719472923 0 0.00037447176046197901 0.013815481458493817 0 0.00031169566968736965 0.01516909881804126 0 0.002434026032689073 0.016492029970015129 0 0.00026022241127047222 0.015167736342075558 0 0.00040935800641593275 0.013449804012647995 0 0.00032820148926023321 0.012712902778672213 0 0.0007842014537880308 0.015750383316302186 0 0.00016041409111297838 0.012312991124604405 0 0.00037447176046197901 0.013815481458493817 0 0.00040935800641593275 0.013449804012647995 0 0.00037447176046197901 0.013815481458493817 0 0.00040935800641593275 0.013449804012647995 0 0.0007842014537880308 0.015750383316302186 0 0.00016041409111297838 0.012312991124604405 0 0.00040935800641593275 0.013449804012647995 0 0.00032820148926023321 0.012712902778672213 0 0.0007842014537880308 0.015750383316302186 0 -2.1410431085544357e-05 0.017539846242579548 0 0.0003842115706328697 0.01803822716240502 0 0.0007842014537880308 0.015750383316302186 0 0.00031169566968736965 0.01516909881804126 0 -2.1410431085544357e-05 0.017539846242579548 0 0.00037447176046197901 0.013815481458493817 0 0.0007842014537880308 0.015750383316302186 0 0.00031169566968736965 0.01516909881804126 0 8.8953591126600472e-07 0.013076820719472923 0 0.00031169566968736965 0.01516909881804126 0 3.1445095735002254e-07 0.015949894197214362 0 3.1445095735002254e-07 0.015949894197214362 0 -0.00014223195515511365 0.018446823040881324 0 -2.1410431085544357e-05 0.017539846242579548 0 0.00031169566968736965 0.01516909881804126 0 3.1445095735002254e-07 0.015949894197214362 0 -2.1410431085544357e-05 0.017539846242579548 0 3.1445095735002254e-07 0.015949894197214362 0 -0.00014223195515511365 0.018446823040881324 0 -5.9633264527965995e-07 0.018823356794317563 0 -2.1410431085544357e-05 0.017539846242579548 0 -6.6805405584987819e-06 0.018882252692774239 0 -0.00038702907490611869 0.019789392818947149 0 -0.00014223195515511365 0.018446823040881324 0 -2.1410431085544357e-05 0.017539846242579548 0 -0.00038702907490611869 0.019789392818947149 0 -2.1410431085544357e-05 0.017539846242579548 0 -6.6805405584987819e-06 0.018882252692774239 0 0.0003842115706328697 0.01803822716240502 0 -6.6805405584987819e-06 0.018882252692774239 0 2.6216369505135942e-05 0.02011904795795464 0 0.0003842115706328697 0.01803822716240502 0 -0.0003081980905769867 0.02171451535910501 0 0.0014176023429926462 0.020330009968469887 0 2.6216369505135942e-05 0.02011904795795464 0 -0.00038702907490611869 0.019789392818947149 0 -0.00039024042341468274 0.020659213734602624 0 -6.6805405584987819e-06 0.018882252692774239 0 2.6216369505135942e-05 0.02011904795795464 0 -0.00038702907490611869 0.019789392818947149 0 -0.00044605608027624297 0.023299640714265598 0 -0.0014294929302550337 0.024575219422013385 0 0.00099822621902222945 0.024928020916885441 0 -0.00044605608027624297 0.023299640714265598 0 0.0014083795975422175 0.023488159755925806 0 0.0021256026874431422 0.022069648970944652 0 -0.00044605608027624297 0.023299640714265598 0 0.0014083795975422175 0.023488159755925806 0 0.00099822621902222945 0.024928020916885441 0 0.0014083795975422175 0.023488159755925806 0 0.0029442368442753821 0.023660510535133676 0 0.00099822621902222945 0.024928020916885441 0 0.0014083795975422175 0.023488159755925806 0 0.0029442368442753821 0.023660510535133676 0 0.0021256026874431422 0.022069648970944652 0 0.0029442368442753821 0.023660510535133676 0 0.0042878300965906073 0.023419465349318207 0 0.0043131575155898353 0.025018818615452465 0 0.0056743077544259904 0.023641322903625271 0 0.0042878300965906073 0.023419465349318207 0 0.0043131575155898353 0.025018818615452465 0 0.0056743077544259904 0.023641322903625271 0 0.0042878300965906073 0.023419465349318207 0 0.0048688831216819649 0.022219906267423283 0 0.0029442368442753821 0.023660510535133676 0 0.0042878300965906073 0.023419465349318207 0 0.0036708511687209484 0.022558720891641508 0 0.002434026032689073 0.016492029970015129 0 0.0014176023429926462 0.020330009968469887 0 0.0046301552299532105 0.020862563247508483 0 0.0038238988771418458 0.021928004646357895 0 0.0021256026874431422 0.022069648970944652 0 0.0038238988771418458 0.021928004646357895 0 0.0036708511687209484 0.022558720891641508 0 0.0048688831216819649 0.022219906267423283 0 0.0042878300965906073 0.023419465349318207 0 0.0036708511687209484 0.022558720891641508 0 0.0048688831216819649 0.022219906267423283 0 0.0046301552299532105 0.020862563247508483 0 0.0038238988771418458 0.021928004646357895 0 0.0048688831216819649 0.022219906267423283 0 0.0027901100994027622 0.016105420056375115 0 0.0007842014537880308 0.015750383316302186 0 0.0003842115706328697 0.01803822716240502 0 0.0038238988771418458 0.021928004646357895 0 0.0036708511687209484 0.022558720891641508 0 0.0021256026874431422 0.022069648970944652 0 0.0029442368442753821 0.023660510535133676 0 0.0036708511687209484 0.022558720891641508 0 0.0021256026874431422 0.022069648970944652 0 -0.00038155239527960523 0.023023279226897918 0 -0.00043309908636052528 0.023239410902830049 0 -0.00024495993390725659 0.024154944341381601 0 -0.00038155239527960523 0.023023279226897918 0 -0.00054290534452307976 0.022540581331815003 0 -0.00043309908636052528 0.023239410902830049 0 -8.6362747478124602e-07 0.024569216196652737 0 -0.00038155239527960523 0.023023279226897918 0 -0.00024495993390725659 0.024154944341381601 0 -8.6362747478124602e-07 0.024569216196652737 0 -0.00038155239527960523 0.023023279226897918 0 -7.2573330259245231e-07 0.021696234059742085 0 -0.00038155239527960523 0.023023279226897918 0 -0.00058906857845000967 0.021548565172279367 0 -0.00054290534452307976 0.022540581331815003 0 -0.00038155239527960523 0.023023279226897918 0 -0.00058906857845000967 0.021548565172279367 0 -7.2573330259245231e-07 0.021696234059742085 0 -0.00058906857845000967 0.021548565172279367 0 -7.2573330259245231e-07 0.021696234059742085 0 -0.00031774091408019885 0.020188506389352857 0 -7.2573330259245231e-07 0.021696234059742085 0 -5.9633264527965995e-07 0.018823356794317563 0 -0.00031774091408019885 0.020188506389352857 0 -0.00014223195515511365 0.018446823040881324 0 -5.9633264527965995e-07 0.018823356794317563 0 -0.00031774091408019885 0.020188506389352857 0 -0.00058906857845000967 0.021548565172279367 0 -0.00031774091408019885 0.020188506389352857 0 -0.00038702907490611869 0.019789392818947149 0 -0.00014223195515511365 0.018446823040881324 0 -0.00031774091408019885 0.020188506389352857 0 -0.00038702907490611869 0.019789392818947149 0 -0.00038702907490611869 0.019789392818947149 0 -0.00064117720397246104 0.020986527301562589 0 -0.00039024042341468274 0.020659213734602624 0 -0.00058906857845000967 0.021548565172279367 0 -0.00038702907490611869 0.019789392818947149 0 -0.00064117720397246104 0.020986527301562589 0 -0.0003081980905769867 0.02171451535910501 0 -0.0020916916743361508 0.023457882409133188 0 2.6216369505135942e-05 0.02011904795795464 0 -0.00039024042341468274 0.020659213734602624 0 -0.00087812402363254881 0.022350768748623222 0 -0.00044605608027624297 0.023299640714265598 0 -0.0014294929302550337 0.024575219422013385 0 -0.0029822132176494146 0.024519466009726782 0 -0.00039024042341468274 0.020659213734602624 0 -0.00076510013357702423 0.021571592088521874 0 -0.00087812402363254881 0.022350768748623222 0 -0.00064117720397246104 0.020986527301562589 0 -0.00039024042341468274 0.020659213734602624 0 -0.00076510013357702423 0.021571592088521874 0 -0.00064117720397246104 0.020986527301562589 0 -0.00076510013357702423 0.021571592088521874 0 -0.00074849427058273443 0.021704670914392096 0 -0.00076510013357702423 0.021571592088521874 0 -0.00074849427058273443 0.021704670914392096 0 -0.00078981491860660724 0.022107188006838464 0 -0.00097068338987628411 0.021747896643681132 0 -0.0023733744348459168 0.022458788103541256 0 -0.00076510013357702423 0.021571592088521874 0 -0.00087812402363254881 0.022350768748623222 0 -0.0043119924100294884 0.022865469337910012 0 -0.00058906857845000967 0.021548565172279367 0 -0.00074849427058273443 0.021704670914392096 0 -0.00070084932981752781 0.022452708780212566 0 -0.00058906857845000967 0.021548565172279367 0 -0.00064117720397246104 0.020986527301562589 0 -0.00074849427058273443 0.021704670914392096 0 -0.00058906857845000967 0.021548565172279367 0 -0.00054290534452307976 0.022540581331815003 0 -0.00070084932981752781 0.022452708780212566 0 -0.00054290534452307976 0.022540581331815003 0 -0.00070084932981752781 0.022452708780212566 0 -0.00043309908636052528 0.023239410902830049 0 -0.00078981491860660724 0.022107188006838464 0 -0.00070084932981752781 0.022452708780212566 0 -0.0006373588105979827 0.022497910435419655 0 -0.00074849427058273443 0.021704670914392096 0 -0.00078981491860660724 0.022107188006838464 0 -0.00070084932981752781 0.022452708780212566 0 -0.0003160513934652308 0.023190560482327958 0 -0.0006373588105979827 0.022497910435419655 0 6.4125784665891019e-05 0.022436259651877725 0 -0.00070084932981752781 0.022452708780212566 0 -0.0003160513934652308 0.023190560482327958 0 -0.0006373588105979827 0.022497910435419655 0 -0.00070084932981752781 0.022452708780212566 0 -0.0003160513934652308 0.023190560482327958 0 -0.00043309908636052528 0.023239410902830049 0 -0.0080699543306650811 0.026347343481535248 0 -0.0080220442302666312 0.028495987779513017 0 -0.0098463772063615909 0.025103446759589469 0 -0.0071386571443150084 0.027489432759167386 0 -0.0080699543306650811 0.026347343481535248 0 -0.0080220442302666312 0.028495987779513017 0 -0.0071386571443150084 0.027489432759167386 0 -0.0080699543306650811 0.026347343481535248 0 -0.0066516274449937357 0.026434953986786264 0 -0.0080699543306650811 0.026347343481535248 0 -0.0074841868416237111 0.024356610816166639 0 -0.0098463772063615909 0.025103446759589469 0 -0.0047158658556480226 0.023382610863850049 0 -0.00083034799234309772 0.025904638658995172 0 -0.0080699543306650811 0.026347343481535248 0 -0.0074841868416237111 0.024356610816166639 0 -0.0066516274449937357 0.026434953986786264 0 -0.0074841868416237111 0.024356610816166639 0 -0.0054299327443821993 0.025297287178885644 0 -0.0066516274449937357 0.026434953986786264 0 -0.0023733744348459168 0.022458788103541256 0 -0.0047158658556480226 0.023382610863850049 0 -0.0043119924100294884 0.022865469337910012 0 -0.0074841868416237111 0.024356610816166639 0 -0.0054299327443821993 0.025297287178885644 0 -0.0054299327443821993 0.025297287178885644 0 -0.0053670826155293415 0.027147063532460464 0 -0.0043663107818412133 0.026598331873553115 0 -0.0066516274449937357 0.026434953986786264 0 -0.0063106231513478253 0.027659838049444285 0 -0.0053670826155293415 0.027147063532460464 0 -0.0054299327443821993 0.025297287178885644 0 -0.0066516274449937357 0.026434953986786264 0 -0.0053670826155293415 0.027147063532460464 0 -0.0071386571443150084 0.027489432759167386 0 -0.0066516274449937357 0.026434953986786264 0 -0.0063106231513478253 0.027659838049444285 0 -0.0071386571443150084 0.027489432759167386 0 -0.0063106231513478253 0.027659838049444285 0 -0.0066718808580252366 0.028461008368363263 0 -0.0063106231513478253 0.027659838049444285 0 -0.0053670826155293415 0.027147063532460464 0 -0.005447254670952693 0.0287712162559325 0 -0.0053670826155293415 0.027147063532460464 0 -0.0040962708097795298 0.027980267898577913 0 -0.0043663107818412133 0.026598331873553115 0 -0.0053670826155293415 0.027147063532460464 0 -0.0040962708097795298 0.027980267898577913 0 -0.005447254670952693 0.0287712162559325 0 -0.0040962708097795298 0.027980267898577913 0 -0.0043663107818412133 0.026598331873553115 0 -0.0032381903466296548 0.026892206355682954 0 -0.0040962708097795298 0.027980267898577913 0 -0.0032381903466296548 0.026892206355682954 0 -0.0027994313460520544 0.027961605925165452 0 -0.0043663107818412133 0.026598331873553115 0 -0.0035500016419080433 0.025706559349240789 0 -0.0032381903466296548 0.026892206355682954 0 -0.0054299327443821993 0.025297287178885644 0 -0.0043663107818412133 0.026598331873553115 0 -0.0035500016419080433 0.025706559349240789 0 -0.0020916916743361508 0.023457882409133188 0 -0.0052685626453180872 0.025182637505495941 0 -0.00087812402363254881 0.022350768748623222 0 -0.0043119924100294884 0.022865469337910012 0 -0.0054299327443821993 0.025297287178885644 0 -0.0029822132176494146 0.024519466009726782 0 -0.0054299327443821993 0.025297287178885644 0 -0.0035500016419080433 0.025706559349240789 0 -0.0035500016419080433 0.025706559349240789 0 -0.0028432637065239027 0.025299261150369422 0 -0.0022749148556848882 0.025875233590018615 0 -0.0035500016419080433 0.025706559349240789 0 -0.0022749148556848882 0.025875233590018615 0 -0.0032381903466296548 0.026892206355682954 0 -0.0029822132176494146 0.024519466009726782 0 -0.0035500016419080433 0.025706559349240789 0 -0.0028432637065239027 0.025299261150369422 0 -0.0028432637065239027 0.025299261150369422 0 -0.0023865645595422184 0.025063069294595799 0 -0.0022749148556848882 0.025875233590018615 0 -0.0029822132176494146 0.024519466009726782 0 -0.0028432637065239027 0.025299261150369422 0 -0.0023865645595422184 0.025063069294595799 0 -0.0014294929302550337 0.024575219422013385 0 -0.0029822132176494146 0.024519466009726782 0 -0.0023865645595422184 0.025063069294595799 0 -0.0014294929302550337 0.024575219422013385 0 -0.0023865645595422184 0.025063069294595799 0 -0.0022749148556848882 0.025875233590018615 0 -0.0022749148556848882 0.025875233590018615 0 -0.0018693158167117825 0.027610747598403155 0 -0.00072131929270898693 0.026384532293403269 0 -0.0022749148556848882 0.025875233590018615 0 -0.0032381903466296548 0.026892206355682954 0 -0.0018693158167117825 0.027610747598403155 0 -0.0032381903466296548 0.026892206355682954 0 -0.0027994313460520544 0.027961605925165452 0 -0.0018693158167117825 0.027610747598403155 0 -0.0027994313460520544 0.027961605925165452 0 -0.0018693158167117825 0.027610747598403155 0 -0.0020180675806813391 0.029209577503334642 0 -0.0027994313460520544 0.027961605925165452 0 -0.0020180675806813391 0.029209577503334642 0 -0.0034165397083768707 0.028830839467833547 0 -0.0029788810651054641 0.029824551587045181 0 -0.0020180675806813391 0.029209577503334642 0 -0.0034165397083768707 0.028830839467833547 0 -0.0020180675806813391 0.029209577503334642 0 -0.0023827904149438142 0.031008138475772596 0 -0.00053188999259538134 0.030224182362067163 0 -0.0023827904149438142 0.031008138475772596 0 -0.0039918237480868193 0.03160040574675485 0 -0.0033599806822943112 0.032728248155628796 0 -0.0029788810651054641 0.029824551587045181 0 -0.0023827904149438142 0.031008138475772596 0 -0.0037428548770265784 0.030517566110996062 0 -0.0029788810651054641 0.029824551587045181 0 -0.0020180675806813391 0.029209577503334642 0 -0.0023827904149438142 0.031008138475772596 0 -0.0039918237480868193 0.03160040574675485 0 -0.0049594071529834236 0.030675316449352712 0 -0.0047188153094665612 0.032518457648289492 0 -0.0023827904149438142 0.031008138475772596 0 -0.0037428548770265784 0.030517566110996062 0 -0.0039918237480868193 0.03160040574675485 0 -0.0037428548770265784 0.030517566110996062 0 -0.0039918237480868193 0.03160040574675485 0 -0.0049594071529834236 0.030675316449352712 0 -0.0037428548770265784 0.030517566110996062 0 -0.0049594071529834236 0.030675316449352712 0 -0.0042104200151968059 0.029527893787920558 0 -0.0049594071529834236 0.030675316449352712 0 -0.0042104200151968059 0.029527893787920558 0 -0.005447254670952693 0.0287712162559325 0 -0.0029788810651054641 0.029824551587045181 0 -0.0042104200151968059 0.029527893787920558 0 -0.0034165397083768707 0.028830839467833547 0 -0.0029788810651054641 0.029824551587045181 0 -0.0037428548770265784 0.030517566110996062 0 -0.0042104200151968059 0.029527893787920558 0 -0.0040962708097795298 0.027980267898577913 0 -0.0027994313460520544 0.027961605925165452 0 -0.0034165397083768707 0.028830839467833547 0 -0.0040962708097795298 0.027980267898577913 0 -0.0042104200151968059 0.029527893787920558 0 -0.0034165397083768707 0.028830839467833547 0 -0.0040962708097795298 0.027980267898577913 0 -0.0042104200151968059 0.029527893787920558 0 -0.005447254670952693 0.0287712162559325 0 -0.0049594071529834236 0.030675316449352712 0 -0.005447254670952693 0.0287712162559325 0 -0.0062634260549372898 0.029608081773127893 0 -0.005447254670952693 0.0287712162559325 0 -0.0066718808580252366 0.028461008368363263 0 -0.0062634260549372898 0.029608081773127893 0 -0.0063106231513478253 0.027659838049444285 0 -0.005447254670952693 0.0287712162559325 0 -0.0066718808580252366 0.028461008368363263 0 -0.0049594071529834236 0.030675316449352712 0 -0.0062735743853454921 0.031606604290609124 0 -0.0047188153094665612 0.032518457648289492 0 -0.0049594071529834236 0.030675316449352712 0 -0.0062634260549372898 0.029608081773127893 0 -0.0062735743853454921 0.031606604290609124 0 0.0070210360584638939 0.0360512913360879 0 0.0050487983134787084 0.035044708636248194 0 0.0059148996386774655 0.032653959824658796 0 0.00033059697617182827 0.033731392174916199 0 -0.0014137949207796046 0.030506237042378485 0 0.0070210360584638939 0.0360512913360879 0 0.0050487983134787084 0.035044708636248194 0 0.0055871156984551463 0.036317547100116136 0 -0.0062634260549372898 0.029608081773127893 0 -0.0062735743853454921 0.031606604290609124 0 -0.0080220442302666312 0.028495987779513017 0 -0.0071386571443150084 0.027489432759167386 0 -0.0066718808580252366 0.028461008368363263 0 -0.0080220442302666312 0.028495987779513017 0 -0.0066718808580252366 0.028461008368363263 0 -0.0062634260549372898 0.029608081773127893 0 -0.0080220442302666312 0.028495987779513017 0 0.0062238796579906627 0.025983043273970042 0 0.004528668843170206 0.027750557938802572 0 0.0043131575155898353 0.025018818615452465 0 0.0028122976027814234 0.026518137067480005 0 0.004528668843170206 0.027750557938802572 0 0.002778616339988783 0.029694009412880071 0 0.0028122976027814234 0.026518137067480005 0 0.004528668843170206 0.027750557938802572 0 0.0043131575155898353 0.025018818615452465 0 0.0029442368442753821 0.023660510535133676 0 0.0028122976027814234 0.026518137067480005 0 0.0043131575155898353 0.025018818615452465 0 0.0029458242706254969 0.023847944547533573 0 0.0029800166165547086 0.026589742684113089 0 0.0029442368442753821 0.023660510535133676 0 0.0031541461079527349 0.026719667853167779 0 0.00099822621902222945 0.024928020916885441 0 0.00099822621902222945 0.024928020916885441 0 -0.00072131929270898693 0.026384532293403269 0 0.0009319532180090596 0.026875089593860944 0 0.0031541461079527349 0.026719667853167779 0 0.00099822621902222945 0.024928020916885441 0 0.0009319532180090596 0.026875089593860944 0 -0.0014294929302550337 0.024575219422013385 0 0.00099822621902222945 0.024928020916885441 0 -0.00072131929270898693 0.026384532293403269 0 -0.0014294929302550337 0.024575219422013385 0 -0.0022749148556848882 0.025875233590018615 0 -0.00072131929270898693 0.026384532293403269 0 -0.00072131929270898693 0.026384532293403269 0 0.0009319532180090596 0.026875089593860944 0 -0.00051417759294814945 0.028198499250669334 0 -0.0018693158167117825 0.027610747598403155 0 -0.00072131929270898693 0.026384532293403269 0 -0.00051417759294814945 0.028198499250669334 0 0.0009319532180090596 0.026875089593860944 0 0.0011555331565260821 0.028919281054453034 0 -0.00051417759294814945 0.028198499250669334 0 0.0031541461079527349 0.026719667853167779 0 0.0009319532180090596 0.026875089593860944 0 0.0011555331565260821 0.028919281054453034 0 0.0011555331565260821 0.028919281054453034 0 0.00081025028561930771 0.031314191305752338 0 0.0032170929092641062 0.029858311219806876 0 -0.0020180675806813391 0.029209577503334642 0 -0.00051417759294814945 0.028198499250669334 0 -0.00053188999259538134 0.030224182362067163 0 0.0011555331565260821 0.028919281054453034 0 -0.00051417759294814945 0.028198499250669334 0 -0.00053188999259538134 0.030224182362067163 0 -0.0018693158167117825 0.027610747598403155 0 -0.0020180675806813391 0.029209577503334642 0 -0.00051417759294814945 0.028198499250669334 0 -0.00053188999259538134 0.030224182362067163 0 0.00081025028561930771 0.031314191305752338 0 -0.00092144010850368373 0.031903486091683836 0 -0.0023827904149438142 0.031008138475772596 0 -0.00053188999259538134 0.030224182362067163 0 -0.00092144010850368373 0.031903486091683836 0 0.0011555331565260821 0.028919281054453034 0 -0.00053188999259538134 0.030224182362067163 0 0.00081025028561930771 0.031314191305752338 0 0.002778616339988783 0.029694009412880071 0 0.0037778032923475296 0.031499864237221738 0 0.0030509708141634841 0.033076484785462802 0 0.00081025028561930771 0.031314191305752338 0 0.0032170929092641062 0.029858311219806876 0 0.0018869499288716415 0.03244399022111101 0 0.0032170929092641062 0.029858311219806876 0 0.0030509708141634841 0.033076484785462802 0 0.0018869499288716415 0.03244399022111101 0 0.0030021474080283344 0.02982063424620706 0 0.0030472082986343287 0.032858422465757334 0 0.0029800166165547086 0.026589742684113089 0 0.0030021474080283344 0.02982063424620706 0 0.0031541461079527349 0.026719667853167779 0 0.0011555331565260821 0.028919281054453034 0 0.0032170929092641062 0.029858311219806876 0 0.0052453652754694781 0.030646349062178519 0 0.004528668843170206 0.027750557938802572 0 0.002778616339988783 0.029694009412880071 0 0.0052453652754694781 0.030646349062178519 0 0.002778616339988783 0.029694009412880071 0 0.0037778032923475296 0.031499864237221738 0 0.0052453652754694781 0.030646349062178519 0 0.0037778032923475296 0.031499864237221738 0 0.0044840239277132207 0.032534420351226785 0 0.0052453652754694781 0.030646349062178519 0 0.0044840239277132207 0.032534420351226785 0 0.0055427938547111021 0.032789461405162319 0 0.0037778032923475296 0.031499864237221738 0 0.0037963024899942996 0.032656536619845009 0 0.0030509708141634841 0.033076484785462802 0 0.0037778032923475296 0.031499864237221738 0 0.0044840239277132207 0.032534420351226785 0 0.0037963024899942996 0.032656536619845009 0 0.0037963024899942996 0.032656536619845009 0 0.0038803973784078062 0.033504545621781665 0 0.0030509708141634841 0.033076484785462802 0 0.0044840239277132207 0.032534420351226785 0 0.0037963024899942996 0.032656536619845009 0 0.0038803973784078062 0.033504545621781665 0 0.0038803973784078062 0.033504545621781665 0 0.0032358541031769815 0.033894737102959149 0 0.0030509708141634841 0.033076484785462802 0 0.0044840239277132207 0.032534420351226785 0 0.0047969670626948407 0.033699856974961875 0 0.0055427938547111021 0.032789461405162319 0 0.0038803973784078062 0.033504545621781665 0 0.0047969670626948407 0.033699856974961875 0 0.0041831412274491815 0.034286091038969103 0 0.0044840239277132207 0.032534420351226785 0 0.0038803973784078062 0.033504545621781665 0 0.0047969670626948407 0.033699856974961875 0 0.0036240411718509434 0.034969976351207688 0 0.0049754486021992639 0.035287378340057296 0 0.0020080471118632953 0.036182010099340571 0 0.0047969670626948407 0.033699856974961875 0 0.0047626615084571449 0.034610768110047423 0 0.0041831412274491815 0.034286091038969103 0 0.0038803973784078062 0.033504545621781665 0 0.0041831412274491815 0.034286091038969103 0 0.0037095498426974859 0.034302609061064901 0 0.0047626615084571449 0.034610768110047423 0 0.0041831412274491815 0.034286091038969103 0 0.0036240411718509434 0.034969976351207688 0 0.0038803973784078062 0.033504545621781665 0 0.0037095498426974859 0.034302609061064901 0 0.0032358541031769815 0.033894737102959149 0 0.0037095498426974859 0.034302609061064901 0 0.0036240411718509434 0.034969976351207688 0 0.0031054975771675378 0.0345661930104302 0 0.0041831412274491815 0.034286091038969103 0 0.0037095498426974859 0.034302609061064901 0 0.0036240411718509434 0.034969976351207688 0 0.0047626615084571449 0.034610768110047423 0 0.0036240411718509434 0.034969976351207688 0 0.0049754486021992639 0.035287378340057296 0 0.0025734784182735002 0.035125520790439083 0 0.0017604276774602458 0.035505597524760957 0 0.0020080471118632953 0.036182010099340571 0 0.0036240411718509434 0.034969976351207688 0 0.0025734784182735002 0.035125520790439083 0 0.0031054975771675378 0.0345661930104302 0 0.0036240411718509434 0.034969976351207688 0 0.0025734784182735002 0.035125520790439083 0 0.0020080471118632953 0.036182010099340571 0 0.0025734784182735002 0.035125520790439083 0 0.0031054975771675378 0.0345661930104302 0 0.0024371824143286825 0.033852131144194796 0 0.0037095498426974859 0.034302609061064901 0 0.0031054975771675378 0.0345661930104302 0 0.0032358541031769815 0.033894737102959149 0 0.0031054975771675378 0.0345661930104302 0 0.0024371824143286825 0.033852131144194796 0 0.0032358541031769815 0.033894737102959149 0 0.0025734784182735002 0.035125520790439083 0 0.0024371824143286825 0.033852131144194796 0 0.0017604276774602458 0.035505597524760957 0 0.0024371824143286825 0.033852131144194796 0 0.0030509708141634841 0.033076484785462802 0 0.0018869499288716415 0.03244399022111101 0 0.0024371824143286825 0.033852131144194796 0 0.0032358541031769815 0.033894737102959149 0 0.0030509708141634841 0.033076484785462802 0 0.00081025028561930771 0.031314191305752338 0 0.0018869499288716415 0.03244399022111101 0 0.00011988727768493451 0.033981278793633003 0 0.0024371824143286825 0.033852131144194796 0 0.0018869499288716415 0.03244399022111101 0 0.00011988727768493451 0.033981278793633003 0 0.00081025028561930771 0.031314191305752338 0 -0.00092144010850368373 0.031903486091683836 0 0.00011988727768493451 0.033981278793633003 0 -0.00092144010850368373 0.031903486091683836 0 0.00011988727768493451 0.033981278793633003 0 -0.0019475726176351172 0.032889925502080759 0 0.0007892413570720954 0.03460876181785965 0 -0.00095415412001645166 0.035165994936580548 0 0.00011988727768493451 0.033981278793633003 0 -0.0019475726176351172 0.032889925502080759 0 -0.0021629160450411166 0.034361358619504977 0 0.0011414096217079875 0.035359800353177755 0 0.0010302578787316768 0.036443987455633667 0 0.00075351457663842966 0.035986007758013895 0 0.0023794246792540937 0.033973237629123833 0 0.0007892413570720954 0.03460876181785965 0 0.0011414096217079875 0.035359800353177755 0 0.0017604276774602458 0.035505597524760957 0 0.0013884120292883141 0.036448352812352335 0 0.0024371824143286825 0.033852131144194796 0 0.0011414096217079875 0.035359800353177755 0 0.0017604276774602458 0.035505597524760957 0 0.0017604276774602458 0.035505597524760957 0 0.0013884120292883141 0.036448352812352335 0 0.0020080471118632953 0.036182010099340571 0 0.0013884120292883141 0.036448352812352335 0 0.0015739209706528148 0.036779396388730443 0 0.0020080471118632953 0.036182010099340571 0 0.0011414096217079875 0.035359800353177755 0 0.0013884120292883141 0.036448352812352335 0 0.0010302578787316768 0.036443987455633667 0 0.0010302578787316768 0.036443987455633667 0 0.0011738993882988882 0.037024390339528014 0 0.0010349896390995533 0.037044342753243614 0 0.0013884120292883141 0.036448352812352335 0 0.0010302578787316768 0.036443987455633667 0 0.0011738993882988882 0.037024390339528014 0 0.0011738993882988882 0.037024390339528014 0 0.0012297903494980079 0.037055347181544684 0 0.0011080790082953821 0.037109873782349437 0 0.0011738993882988882 0.037024390339528014 0 0.0012139241680240503 0.037378012708795524 0 0.0011080790082953821 0.037109873782349437 0 0.0011738993882988882 0.037024390339528014 0 0.0010349896390995533 0.037044342753243614 0 0.0012139241680240503 0.037378012708795524 0 0.0013884120292883141 0.036448352812352335 0 0.0012297903494980079 0.037055347181544684 0 0.0015739209706528148 0.036779396388730443 0 0.0013884120292883141 0.036448352812352335 0 0.0011738993882988882 0.037024390339528014 0 0.0012297903494980079 0.037055347181544684 0 0.0012297903494980079 0.037055347181544684 0 0.0015739209706528148 0.036779396388730443 0 0.0011793230125611751 0.037184852038743388 0 0.00074047480751724 0.035909031260623919 0 0.0005233710142152812 0.035914194769147686 0 0.0015739209706528148 0.036779396388730443 0 0.0022832673601576058 0.036605607854524103 0 0.0011793230125611751 0.037184852038743388 0 -0.00044512545942604646 0.034799871993133752 0 -0.00036168675579974343 0.034921613440457119 0 -0.00044752321997436041 0.034901438370576451 0 -0.00044512545942604646 0.034799871993133752 0 -0.00034939542769601891 0.034760138008990048 0 -0.00044752321997436041 0.034901438370576451 0 -0.00048072719358294651 0.0325389173249475 0 -0.00083780765047211517 0.033646865447349759 0 -0.00096953888672025954 0.031667193854196737 0 -0.0013791925197005487 0.030678971845018187 0 -0.0013280667550584972 0.032379422159913691 0 -0.00096953888672025954 0.031667193854196737 0 -0.0013791925197005487 0.030678971845018187 0 -0.00087280973521047973 0.030926458473288277 0 0.0019393597901659052 0.034149397492879971 0 0.0028166467611826645 0.036453457438912644 0 -0.0013791925197005487 0.030678971845018187 0 -0.0010847751248612041 0.02938195947453779 0 -0.001024779197690927 0.02996621301078578 0 -0.00048072719358294651 0.0325389173249475 0 -0.0044502255071378 0.031622065450356569 0 -0.00028348674867389095 0.034435673741776779 0 -0.00034939542769601891 0.034760138008990048 0 -0.00022899243663479944 0.034409720814845238 0 0.0027377508167943029 0.035965695251518374 0 0.0022832673601576058 0.036605607854524103 0 0.0020080471118632953 0.036182010099340571 0 0.0019393597901659052 0.034149397492879971 0 0.00074047480751724 0.035909031260623919 0 -0.00028348674867389095 0.034435673741776779 0 -0.00044512545942604646 0.034799871993133752 0 -0.00034939542769601891 0.034760138008990048 0 -0.0013791925197005487 0.030678971845018187 0 -0.0010004248825108248 0.030458752554391549 0 -0.00087280973521047973 0.030926458473288277 0 -0.0013791925197005487 0.030678971845018187 0 -0.001024779197690927 0.02996621301078578 0 -0.0010004248825108248 0.030458752554391549 0 0.0015739209706528148 0.036779396388730443 0 0.0022832673601576058 0.036605607854524103 0 0.0020080471118632953 0.036182010099340571 0 0.0023832043224145676 0.038795278220158776 0 0.0015599625772407285 0.038212585740624798 0 0.0011684970048882201 0.039079369039058981 0 0.0023400450979315815 0.037788605512495785 0 0.0023832043224145676 0.038795278220158776 0 0.0015599625772407285 0.038212585740624798 0 0.0023400450979315815 0.037788605512495785 0 0.0015599625772407285 0.038212585740624798 0 0.0011849944508803857 0.037153788440101095 0 0.0050224089219114724 0.038036052213957748 0 0.0023793172100511155 0.036789919125686549 0 0.0055871156984551463 0.036317547100116136 0 0.0062831548979902776 0.037553494270288715 0 0.003890571970937058 0.036594205271697357 0 0.0070210360584638939 0.0360512913360879 0 0.0055871156984551463 0.036317547100116136 0 0.0062831548979902776 0.037553494270288715 0 -0.0062735743853454921 0.031606604290609124 0 -0.0046739234142595051 0.034523149178067106 0 -0.0047188153094665612 0.032518457648289492 0 0.0070210360584638939 0.0360512913360879 0 0.0062831548979902776 0.037553494270288715 0 0.0081017363322657965 0.038515778816958321 0 0.00033059697617182827 0.033731392174916199 0 0.0022540823872511948 0.036836807408167575 0 0.0023400450979315815 0.037788605512495785 0 0.0034355301474262578 0.038368325245382251 0 0.0023832043224145676 0.038795278220158776 0 0.001275477167711678 0.036763947869204949 0 0.0019701364744260826 0.038330652736165094 0 0.0050224089219114724 0.038036052213957748 0 0.0022540823872511948 0.036836807408167575 0 0.0034355301474262578 0.038368325245382251 0 0.0035218354756199823 0.038533734063545141 0 0.0023832043224145676 0.038795278220158776 0 -0.0046739234142595051 0.034523149178067106 0 -0.003938658597469666 0.033753111260290264 0 -0.0047188153094665612 0.032518457648289492 0 0.00014938784871948706 0.036187053256773412 0 0.00075351457663842966 0.035986007758013895 0 0.00027269132900942895 0.036589431143809775 0 -0.0042129030636776973 0.034800717313926428 0 -0.003938658597469666 0.033753111260290264 0 -0.0021629160450411166 0.034361358619504977 0 0.00014938784871948706 0.036187053256773412 0 5.5876999696092887e-05 0.036206734270543946 0 0.00027269132900942895 0.036589431143809775 0 0.0012045585275887968 0.036467638779299448 0 0.0014281751710409835 0.036603284851742537 0 0.0013386561664868492 0.036440830705075596 0 -0.00051831602286394165 0.036247145189868317 0 0.0022540823872511948 0.036836807408167575 0 -0.00051831602286394165 0.036247145189868317 0 0.001275477167711678 0.036763947869204949 0 0.0022540823872511948 0.036836807408167575 0 0.001275477167711678 0.036763947869204949 0 -0.0042129030636776973 0.034800717313926428 0 -0.0046739234142595051 0.034523149178067106 0 -0.003938658597469666 0.033753111260290264 0 -0.0039918237480868193 0.03160040574675485 0 -0.0047188153094665612 0.032518457648289492 0 -0.0033599806822943112 0.032728248155628796 0 -0.003938658597469666 0.033753111260290264 0 -0.0047188153094665612 0.032518457648289492 0 -0.0033599806822943112 0.032728248155628796 0 -0.0023827904149438142 0.031008138475772596 0 -0.0033599806822943112 0.032728248155628796 0 -0.0019475726176351172 0.032889925502080759 0 -0.0023827904149438142 0.031008138475772596 0 -0.00092144010850368373 0.031903486091683836 0 -0.0019475726176351172 0.032889925502080759 0 -0.0033599806822943112 0.032728248155628796 0 -0.0019475726176351172 0.032889925502080759 0 -0.0021629160450411166 0.034361358619504977 0 -0.00051831602286394165 0.036247145189868317 0 -0.00095415412001645166 0.035165994936580548 0 -0.003938658597469666 0.033753111260290264 0 -0.0033599806822943112 0.032728248155628796 0 -0.0021629160450411166 0.034361358619504977 0 0.00075351457663842966 0.035986007758013895 0 0.00072047699453913622 0.03662684937235109 0 0.00027269132900942895 0.036589431143809775 0 0.0010302578787316768 0.036443987455633667 0 0.00075351457663842966 0.035986007758013895 0 0.00072047699453913622 0.03662684937235109 0 0.00072047699453913622 0.03662684937235109 0 0.0008731266854805882 0.037499661641385185 0 0.00015815361517382973 0.036623693223656065 0 0.00072047699453913622 0.03662684937235109 0 0.0010349896390995533 0.037044342753243614 0 0.0008731266854805882 0.037499661641385185 0 0.0010302578787316768 0.036443987455633667 0 0.00072047699453913622 0.03662684937235109 0 0.0010349896390995533 0.037044342753243614 0 0.0010349896390995533 0.037044342753243614 0 0.0012139241680240503 0.037378012708795524 0 0.0008731266854805882 0.037499661641385185 0 0.0012139241680240503 0.037378012708795524 0 0.0008731266854805882 0.037499661641385185 0 0.0011823847494954866 0.0378143555473065 0 0.00091852209638211123 0.037752744350271733 0 0.00081372573195143615 0.038026144353387803 0 0.0011823847494954866 0.0378143555473065 0 0.0008731266854805882 0.037499661641385185 0 0.00091852209638211123 0.037752744350271733 0 0.0011823847494954866 0.0378143555473065 0 0.00091852209638211123 0.037752744350271733 0 0.00093703354419165711 0.037778609445876195 0 0.00081372573195143615 0.038026144353387803 0 0.00078933627719193062 0.03743520491133747 0 0.00076709959359696697 0.037187915289329285 0 0.0008731266854805882 0.037499661641385185 0 0.00091852209638211123 0.037752744350271733 0 0.00093703354419165711 0.037778609445876195 0 0.00051536526844446181 0.036799695138866897 0 0.00076709959359696697 0.037187915289329285 0 0.001275477167711678 0.036763947869204949 0 0.00076709959359696697 0.037187915289329285 0 0.001132087891418792 0.037685941593718693 0 0.0010754114377805562 0.037728221499654796 0 0.0010655059779236431 0.037710659391379749 0 0.001132087891418792 0.037685941593718693 0 0.0011462319291308271 0.03771496770325336 0 0.0010754114377805562 0.037728221499654796 0 0.00093703354419165711 0.037778609445876195 0 0.00055884540369353648 0.038000095224628272 0 0.00081372573195143615 0.038026144353387803 0 0.00076709959359696697 0.037187915289329285 0 0.00084374026825268585 0.037901413161628351 0 0.00055884540369353648 0.038000095224628272 0 0.00081372573195143615 0.038026144353387803 0 0.00020851478325098583 0.038651817874905514 0 0.00081372573195143615 0.038026144353387803 0 0.00020851478325098583 0.038651817874905514 0 0.00061752080058614521 0.038624841114410245 0 0.00084374026825268585 0.037901413161628351 0 0.00064289704279388835 0.038344405203738149 0 0.0019701364744260826 0.038330652736165094 0 0.00064289704279388835 0.038344405203738149 0 0.00055884540369353648 0.038000095224628272 0 0.00020851478325098583 0.038651817874905514 0 -0.00013401629883033107 0.03837180221271104 0 0.0010754114377805562 0.037728221499654796 0 0.0010655059779236431 0.037710659391379749 0 0.00096741248052093799 0.037755519285917929 0 0.00041596545478373337 0.039463389471027073 0 0.00012017658197653105 0.039331817422075983 0 -2.8383837867271897e-05 0.040280898747044748 0 0.00020851478325098583 0.038651817874905514 0 0.00012017658197653105 0.039331817422075983 0 0.00061752080058614521 0.038624841114410245 0 0.00041596545478373337 0.039463389471027073 0 0.00012017658197653105 0.039331817422075983 0 0.00061752080058614521 0.038624841114410245 0 0.00041596545478373337 0.039463389471027073 0 0.00061752080058614521 0.038624841114410245 0 0.00089207723607345583 0.039048428744935616 0 0.00041596545478373337 0.039463389471027073 0 0.00089207723607345583 0.039048428744935616 0 0.00047710112372113713 0.040183804366235754 0 0.00089207723607345583 0.039048428744935616 0 0.0011823847494954866 0.0378143555473065 0 0.0018630143716509421 0.037645647115951239 0 0.00089207723607345583 0.039048428744935616 0 0.0018630143716509421 0.037645647115951239 0 0.0014969247407046892 0.039605057978070478 0 0.00081372573195143615 0.038026144353387803 0 0.00061752080058614521 0.038624841114410245 0 0.0011823847494954866 0.0378143555473065 0 0.00061752080058614521 0.038624841114410245 0 0.00089207723607345583 0.039048428744935616 0 0.0011823847494954866 0.0378143555473065 0 0.0011823847494954866 0.0378143555473065 0 0.0018630143716509421 0.037645647115951239 0 0.0014508359607243696 0.03737621501788526 0 0.0012139241680240503 0.037378012708795524 0 0.0011823847494954866 0.0378143555473065 0 0.0014508359607243696 0.03737621501788526 0 0.0018630143716509421 0.037645647115951239 0 0.0014969247407046892 0.039605057978070478 0 0.0027850134796878257 0.039980424686509058 0 0.0018779795431565951 0.037515324969872893 0 0.0019507643378874346 0.037327341149394615 0 0.0016740261713389991 0.040884799959113718 0 0.0014969247407046892 0.039605057978070478 0 0.0027850134796878257 0.039980424686509058 0 0.0016740261713389991 0.040884799959113718 0 0.0027850134796878257 0.039980424686509058 0 0.0022891606349426906 0.041292839069197652 0 0.0016740261713389991 0.040884799959113718 0 0.0009935813247220844 0.040541856333725465 0 0.0010384472223402483 0.041515003259935269 0 0.0016740261713389991 0.040884799959113718 0 0.0009935813247220844 0.040541856333725465 0 0.0014969247407046892 0.039605057978070478 0 0.00089207723607345583 0.039048428744935616 0 0.0009935813247220844 0.040541856333725465 0 0.0014969247407046892 0.039605057978070478 0 0.00089207723607345583 0.039048428744935616 0 0.0009935813247220844 0.040541856333725465 0 0.00047710112372113713 0.040183804366235754 0 0.0009935813247220844 0.040541856333725465 0 0.0002944381577307602 0.04132044050493195 0 0.0010384472223402483 0.041515003259935269 0 0.0009935813247220844 0.040541856333725465 0 0.00047710112372113713 0.040183804366235754 0 0.0002944381577307602 0.04132044050493195 0 0.0002944381577307602 0.04132044050493195 0 -2.8383837867271897e-05 0.040280898747044748 0 -0.00031312273098016078 0.041375694441100515 0 0.00041596545478373337 0.039463389471027073 0 0.00047710112372113713 0.040183804366235754 0 -2.8383837867271897e-05 0.040280898747044748 0 0.00047710112372113713 0.040183804366235754 0 0.0002944381577307602 0.04132044050493195 0 -2.8383837867271897e-05 0.040280898747044748 0 -0.00064174227110077599 0.03374892444683545 0 -0.00037878013450448633 0.034164447866445249 0 -0.00040568812001086775 0.033711174684088421 0 -0.00044509882398794526 0.034562981723609727 0 -0.00064174227110077599 0.03374892444683545 0 -0.00037878013450448633 0.034164447866445249 0 -0.00051426300119863369 0.033315128032727424 0 -0.00064174227110077599 0.03374892444683545 0 -0.00040568812001086775 0.033711174684088421 0 -0.00051426300119863369 0.033315128032727424 0 -0.00040568812001086775 0.033711174684088421 0 -0.00029791668347283043 0.03335232471740382 0 -0.00051426300119863369 0.033315128032727424 0 -0.00064174227110077599 0.03374892444683545 0 -0.0007564880276929169 0.032521359497888015 0 -0.00064174227110077599 0.03374892444683545 0 -0.0007564880276929169 0.032521359497888015 0 -0.0013280667550584972 0.032379422159913691 0 -0.00051426300119863369 0.033315128032727424 0 -0.0007564880276929169 0.032521359497888015 0 -0.00031286256856980502 0.032679759083797416 0 -0.00096953888672025954 0.031667193854196737 0 -0.0007564880276929169 0.032521359497888015 0 -0.00056410450898024993 0.031749787299135371 0 -0.00096953888672025954 0.031667193854196737 0 -0.0007564880276929169 0.032521359497888015 0 -0.0013280667550584972 0.032379422159913691 0 -0.00044509882398794526 0.034562981723609727 0 -0.00036168675579974343 0.034921613440457119 0 -0.00044752321997436041 0.034901438370576451 0 -0.0005368034398516541 0.034293042988940869 0 -0.00083780765047211517 0.033646865447349759 0 -0.00044509882398794526 0.034562981723609727 0 -0.00064174227110077599 0.03374892444683545 0 -0.0013280667550584972 0.032379422159913691 0 0.0005233710142152812 0.035914194769147686 0 0.00057610896020374831 0.035677348890278737 0 0.0012297903494980079 0.037055347181544684 0 0.0011793230125611751 0.037184852038743388 0 0.0011080790082953821 0.037109873782349437 0 0.0011793230125611751 0.037184852038743388 0 0.0011080790082953821 0.037109873782349437 0 0.00050459360828250793 0.035740180343895887 0 0.0011080790082953821 0.037109873782349437 0 0.0014508359607243696 0.03737621501788526 0 0.00050459360828250793 0.035740180343895887 0 0.0012139241680240503 0.037378012708795524 0 0.0011080790082953821 0.037109873782349437 0 0.0014508359607243696 0.03737621501788526 0 0.0018630143716509421 0.037645647115951239 0 0.0014508359607243696 0.03737621501788526 0 0.00050459360828250793 0.035740180343895887 0 0.0018630143716509421 0.037645647115951239 0 0.00050459360828250793 0.035740180343895887 0 0.0012868037149314005 0.034671228555117797 0 -0.00044509882398794526 0.034562981723609727 0 0.00050459360828250793 0.035740180343895887 0 -0.00037878013450448633 0.034164447866445249 0 -0.00044509882398794526 0.034562981723609727 0 -0.00036168675579974343 0.034921613440457119 0 0.00050459360828250793 0.035740180343895887 0 0.00050459360828250793 0.035740180343895887 0 0.00020904478180298189 0.034109776432500495 0 -0.00037878013450448633 0.034164447866445249 0 0.00050459360828250793 0.035740180343895887 0 0.00020904478180298189 0.034109776432500495 0 0.0012868037149314005 0.034671228555117797 0 0.0019507643378874346 0.037327341149394615 0 0.0016924400231530187 0.037320927703608731 0 0.00020904478180298189 0.034109776432500495 0 0.0012868037149314005 0.034671228555117797 0 0.00053279229476888696 0.033527116683166158 0 0.0027850134796878257 0.039980424686509058 0 0.0028774472600680313 0.041192564364044171 0 0.0022891606349426906 0.041292839069197652 0 0.00020904478180298189 0.034109776432500495 0 0.00012455936578934404 0.033522181139268838 0 0.00053279229476888696 0.033527116683166158 0 0.00020904478180298189 0.034109776432500495 0 -0.00016227621141909037 0.033823722394357263 0 0.00012455936578934404 0.033522181139268838 0 -0.00016227621141909037 0.033823722394357263 0 -8.1980098665938126e-06 0.033489967550616083 0 0.00012455936578934404 0.033522181139268838 0 -0.00016227621141909037 0.033823722394357263 0 -0.00017044897456132294 0.033586770437722145 0 -8.1980098665938126e-06 0.033489967550616083 0 0.00020904478180298189 0.034109776432500495 0 -0.00016227621141909037 0.033823722394357263 0 -0.00037878013450448633 0.034164447866445249 0 -0.00016227621141909037 0.033823722394357263 0 -0.00037878013450448633 0.034164447866445249 0 -0.00040568812001086775 0.033711174684088421 0 -0.00040568812001086775 0.033711174684088421 0 -0.00013176875398857512 0.033429434681339583 0 -0.00029791668347283043 0.03335232471740382 0 -0.00016227621141909037 0.033823722394357263 0 -0.00040568812001086775 0.033711174684088421 0 -0.00017044897456132294 0.033586770437722145 0 -0.00040568812001086775 0.033711174684088421 0 -0.00017044897456132294 0.033586770437722145 0 -0.00013176875398857512 0.033429434681339583 0 -0.00017044897456132294 0.033586770437722145 0 9.021777068874315e-06 0.033416549893668324 0 -0.00013176875398857512 0.033429434681339583 0 -0.00017044897456132294 0.033586770437722145 0 9.021777068874315e-06 0.033416549893668324 0 -8.1980098665938126e-06 0.033489967550616083 0 9.021777068874315e-06 0.033416549893668324 0 0.00019892097241129911 0.033299176651857165 0 -0.00013176875398857512 0.033429434681339583 0 0.00019892097241129911 0.033299176651857165 0 0.00013656711065259986 0.033189721776055899 0 -0.00013176875398857512 0.033429434681339583 0 0.00019892097241129911 0.033299176651857165 0 0.00044917172252527165 0.0331435903021602 0 0.00045526199034604447 0.033192929523863178 0 0.00019892097241129911 0.033299176651857165 0 0.00013656711065259986 0.033189721776055899 0 0.00044917172252527165 0.0331435903021602 0 0.00013656711065259986 0.033189721776055899 0 0.00028665003149070425 0.032868895312672446 0 0.00044917172252527165 0.0331435903021602 0 0.00013656711065259986 0.033189721776055899 0 -6.4186684966489004e-05 0.033016992174478108 0 0.00028665003149070425 0.032868895312672446 0 -0.00013176875398857512 0.033429434681339583 0 -0.00029791668347283043 0.03335232471740382 0 -6.4186684966489004e-05 0.033016992174478108 0 0.00013656711065259986 0.033189721776055899 0 -0.00013176875398857512 0.033429434681339583 0 -6.4186684966489004e-05 0.033016992174478108 0 -0.00029791668347283043 0.03335232471740382 0 -6.4186684966489004e-05 0.033016992174478108 0 -0.00031286256856980502 0.032679759083797416 0 -6.4186684966489004e-05 0.033016992174478108 0 0.0002509164722845504 0.032222758215307658 0 -0.00031286256856980502 0.032679759083797416 0 -0.00051426300119863369 0.033315128032727424 0 -0.00029791668347283043 0.03335232471740382 0 -0.00031286256856980502 0.032679759083797416 0 0.00028665003149070425 0.032868895312672446 0 0.0002509164722845504 0.032222758215307658 0 0.00069427528781040762 0.032552026404376953 0 -6.4186684966489004e-05 0.033016992174478108 0 0.00028665003149070425 0.032868895312672446 0 0.0002509164722845504 0.032222758215307658 0 0.0002509164722845504 0.032222758215307658 0 -6.5685998674605515e-05 0.031569764340105513 0 -0.00031286256856980502 0.032679759083797416 0 0.0002509164722845504 0.032222758215307658 0 -6.5685998674605515e-05 0.031569764340105513 0 0.00045047889039387758 0.031289165807868689 0 -0.0007564880276929169 0.032521359497888015 0 -0.00031286256856980502 0.032679759083797416 0 -0.00056410450898024993 0.031749787299135371 0 -6.5685998674605515e-05 0.031569764340105513 0 -0.00031286256856980502 0.032679759083797416 0 -0.00056410450898024993 0.031749787299135371 0 0.0014232793937422928 0.031935804977050487 0 0.0011253485552459113 0.031114347957941931 0 0.0018561343168112371 0.030806229053469723 0 0.0014232793937422928 0.031935804977050487 0 0.00077406255981301154 0.031850575557346238 0 0.0011253485552459113 0.031114347957941931 0 0.00077406255981301154 0.031850575557346238 0 0.00045047889039387758 0.031289165807868689 0 0.0011253485552459113 0.031114347957941931 0 0.0002509164722845504 0.032222758215307658 0 0.00077406255981301154 0.031850575557346238 0 0.00045047889039387758 0.031289165807868689 0 0.0014232793937422928 0.031935804977050487 0 0.00077406255981301154 0.031850575557346238 0 0.00069427528781040762 0.032552026404376953 0 0.0002509164722845504 0.032222758215307658 0 0.00077406255981301154 0.031850575557346238 0 0.00069427528781040762 0.032552026404376953 0 0.0014232793937422928 0.031935804977050487 0 0.00098840957904641042 0.032915624387847259 0 0.0019328179043540971 0.032630475196187773 0 0.0014232793937422928 0.031935804977050487 0 0.00069427528781040762 0.032552026404376953 0 0.00098840957904641042 0.032915624387847259 0 0.00098840957904641042 0.032915624387847259 0 0.00087397394457518359 0.033265002490733921 0 0.0019328179043540971 0.032630475196187773 0 0.00028665003149070425 0.032868895312672446 0 0.00069427528781040762 0.032552026404376953 0 0.00044917172252527165 0.0331435903021602 0 0.00098840957904641042 0.032915624387847259 0 0.00044917172252527165 0.0331435903021602 0 0.00068001539756316876 0.033170705281137934 0 0.00069427528781040762 0.032552026404376953 0 0.00098840957904641042 0.032915624387847259 0 0.00044917172252527165 0.0331435903021602 0 0.00044917172252527165 0.0331435903021602 0 0.00068001539756316876 0.033170705281137934 0 0.00045526199034604447 0.033192929523863178 0 0.00068001539756316876 0.033170705281137934 0 0.00087397394457518359 0.033265002490733921 0 0.00045526199034604447 0.033192929523863178 0 0.00098840957904641042 0.032915624387847259 0 0.00068001539756316876 0.033170705281137934 0 0.00087397394457518359 0.033265002490733921 0 0.00098158185192975095 0.030527245945154921 0 0.0028591439690671501 0.02987727113956002 0 0.0017582706052626728 0.031137455098886248 0 0.0028133914693337925 0.015565267114844862 0 0.0021714189281208849 0.014588894620737978 0 0.0015858437621581243 0.016401472493255114 0 0.0028133914693337925 0.015565267114844862 0 0.0021714189281208849 0.014588894620737978 0 0.0029091649661772113 0.013297427662459678 0 0.0027900140871228688 0.023386867462566671 0 0.002431345511414214 0.019302675790579555 0 0.0028133914693337925 0.015565267114844862 0 0.0015858437621581243 0.016401472493255114 0 0.0026107619152226863 0.018320093875274276 0 0.0027900140871228688 0.023386867462566671 0 0.0028399355922659581 0.023303471413740114 0 0.0028591439690671501 0.02987727113956002 0 0.0018998763412229713 0.028690265788613476 0 0.0030347405338257477 0.028480007252039256 0 0.00095990899088504696 0.031876637862085694 0 0.0019181223179626501 0.03064548564099916 0 0.00098158185192975095 0.030527245945154921 0 0.0028591439690671501 0.02987727113956002 0 0.0018998763412229713 0.028690265788613476 0 -0.00098872704969418974 0.015442378504794654 0 0.00053708261727592225 0.014963584558767241 0 -0.0001197858840525258 0.016815361533920246 0 -0.0017904464386332209 0.014413656345260277 0 -0.00098872704969418974 0.015442378504794654 0 -0.0007187400199553883 0.014169274913962939 0 -0.00098872704969418974 0.015442378504794654 0 -0.0007187400199553883 0.014169274913962939 0 0.00053708261727592225 0.014963584558767241 0 -0.0007187400199553883 0.014169274913962939 0 0.00053708261727592225 0.014963584558767241 0 0.00018852714236208454 0.013520041192203264 0 0.0021714189281208849 0.014588894620737978 0 0.00053708261727592225 0.014963584558767241 0 0.0015858437621581243 0.016401472493255114 0 0.00053708261727592225 0.014963584558767241 0 0.0012666582039581307 0.013874563580436948 0 0.00018852714236208454 0.013520041192203264 0 0.0021714189281208849 0.014588894620737978 0 0.00053708261727592225 0.014963584558767241 0 0.0012666582039581307 0.013874563580436948 0 0.0015858437621581243 0.016401472493255114 0 -0.0001197858840525258 0.016815361533920246 0 0.00050872869394645505 0.018383465925677175 0 0.00053708261727592225 0.014963584558767241 0 0.0015858437621581243 0.016401472493255114 0 -0.0001197858840525258 0.016815361533920246 0 -0.0017030771719874446 0.016933738846351232 0 -0.0001197858840525258 0.016815361533920246 0 -0.0012356275566820908 0.018251855767113852 0 -0.0017030771719874446 0.016933738846351232 0 -0.00098872704969418974 0.015442378504794654 0 -0.0001197858840525258 0.016815361533920246 0 -0.0012356275566820908 0.018251855767113852 0 0.00050872869394645505 0.018383465925677175 0 -0.0009662905863176784 0.020437581401455841 0 -0.0001197858840525258 0.016815361533920246 0 -0.0012356275566820908 0.018251855767113852 0 0.00050872869394645505 0.018383465925677175 0 0.00050872869394645505 0.018383465925677175 0 0.00091749439404758865 0.019964436524299658 0 -0.0009662905863176784 0.020437581401455841 0 0.0015858437621581243 0.016401472493255114 0 0.00050872869394645505 0.018383465925677175 0 0.0026107619152226863 0.018320093875274276 0 0.00050872869394645505 0.018383465925677175 0 0.00091749439404758865 0.019964436524299658 0 0.0026107619152226863 0.018320093875274276 0 0.0023776586352365452 0.02218365312392833 0 0.0021355371203352091 0.021214890221727633 0 0.0026107619152226863 0.018320093875274276 0 0.0021355371203352091 0.021214890221727633 0 0.00091749439404758865 0.019964436524299658 0 0.0026107619152226863 0.018320093875274276 0 0.0025934098576328619 0.025224550265859996 0 0.0028399355922659581 0.023303471413740114 0 0.0021355371203352091 0.021214890221727633 0 0.00039161656032093409 0.021414680196393903 0 0.00098082137449067089 0.022682689231546548 0 0.0021355371203352091 0.021214890221727633 0 0.00091749439404758865 0.019964436524299658 0 0.00039161656032093409 0.021414680196393903 0 0.00091749439404758865 0.019964436524299658 0 0.00039161656032093409 0.021414680196393903 0 -0.0009662905863176784 0.020437581401455841 0 0.00039161656032093409 0.021414680196393903 0 -0.0009662905863176784 0.020437581401455841 0 -0.00065606380347058891 0.022291888748700719 0 0.0019181223179626501 0.03064548564099916 0 0.0028180945745803856 0.029458554186187522 0 0.0018998763412229713 0.028690265788613476 0 0.0030347405338257477 0.028480007252039256 0 0.0028722591234320387 0.02808082518552138 0 0.0018998763412229713 0.028690265788613476 0 0.0028722591234320387 0.02808082518552138 0 0.0027431867591743318 0.027855204169956915 0 0.0029111200945706461 0.027888595931205417 0 0.0028722591234320387 0.02808082518552138 0 0.0028294644731993329 0.027977768798709605 0 0.0029111200945706461 0.027888595931205417 0 0.0030347405338257477 0.028480007252039256 0 0.0028722591234320387 0.02808082518552138 0 0.0028722591234320387 0.02808082518552138 0 0.0027431867591743318 0.027855204169956915 0 0.0028294644731993329 0.027977768798709605 0 0.0014232793937422928 0.031935804977050487 0 0.0029671682248896664 0.031012080786704824 0 0.0018561343168112371 0.030806229053469723 0 0.0014232793937422928 0.031935804977050487 0 0.0019328179043540971 0.032630475196187773 0 0.0029671682248896664 0.031012080786704824 0 0.0029671682248896664 0.031012080786704824 0 0.0025346412740909928 0.029589699864353048 0 0.0018561343168112371 0.030806229053469723 0 0.0028180945745803856 0.029458554186187522 0 0.0031858351853049902 0.028777737313639241 0 0.0029671682248896664 0.031012080786704824 0 0.0032249705183968404 0.028692549756836831 0 0.0025346412740909928 0.029589699864353048 0 0.0027431867591743318 0.027855204169956915 0 0.0028294644731993329 0.027977768798709605 0 0.0032249705183968404 0.028692549756836831 0 0.0028294644731993329 0.027977768798709605 0 0.0032249705183968404 0.028692549756836831 0 0.0027979378099555587 0.028252434997444738 0 0.0032249705183968404 0.028692549756836831 0 0.0032164108404950228 0.028740177798021273 0 0.0030006508553443671 0.028252943270614044 0 0.0032249705183968404 0.028692549756836831 0 0.0028321866685771103 0.028840960673540923 0 0.0030006508553443671 0.028252943270614044 0 0.0032249705183968404 0.028692549756836831 0 0.0028321866685771103 0.028840960673540923 0 0.0025346412740909928 0.029589699864353048 0 0.0028321866685771103 0.028840960673540923 0 0.0024511822728210835 0.028836426006474025 0 0.0030006508553443671 0.028252943270614044 0 0.0028321866685771103 0.028840960673540923 0 0.0024511822728210835 0.028836426006474025 0 0.0025346412740909928 0.029589699864353048 0 0.0024511822728210835 0.028836426006474025 0 0.0025346412740909928 0.029589699864353048 0 0.0018560751376233034 0.029325363645606405 0 -0.0029401417115425938 0.022491571287758652 0 -0.00065606380347058891 0.022291888748700719 0 -1.596884456023172e-05 0.024418535470842481 0 -0.00065606380347058891 0.022291888748700719 0 0.00098082137449067089 0.022682689231546548 0 -1.596884456023172e-05 0.024418535470842481 0 0.00039161656032093409 0.021414680196393903 0 -0.00065606380347058891 0.022291888748700719 0 0.00098082137449067089 0.022682689231546548 0 0.00019415092612127841 0.02490086314237298 0 0.0011902990293150991 0.015910014057424506 0 0.0023776586352365452 0.02218365312392833 0 0.00095170358426654403 0.024268124322882827 0 0.0019820486749671019 0.028336230941516181 0 0.0025934098576328619 0.025224550265859996 0 0.0019990217130994073 0.028190601981108589 0 0.0029111200945706461 0.027888595931205417 0 0.0026860620817859755 0.028103554788075823 0 0.0019820486749671019 0.028336230941516181 0 0.0022649613245300849 0.02102046485932119 0 0.00019415092612127841 0.02490086314237298 0 0.0023776586352365452 0.02218365312392833 0 0.0021355371203352091 0.021214890221727633 0 0.00095170358426654403 0.024268124322882827 0 0.0029111200945706461 0.027888595931205417 0 0.0028294644731993329 0.027977768798709605 0 0.0026860620817859755 0.028103554788075823 0 0.0028294644731993329 0.027977768798709605 0 0.0026860620817859755 0.028103554788075823 0 0.0027979378099555587 0.028252434997444738 0 0.00095170358426654403 0.024268124322882827 0 0.0019820486749671019 0.028336230941516181 0 0.00073704745144560703 0.028468043498080176 0 0.0027979378099555587 0.028252434997444738 0 0.0026137558261676483 0.028811104689753501 0 0.0019820486749671019 0.028336230941516181 0 0.0026304957588345191 0.029038859940123549 0 0.0037754359913725042 0.025465446383315594 0 0.0026860620817859755 0.028103554788075823 0 0.0027979378099555587 0.028252434997444738 0 0.0019820486749671019 0.028336230941516181 0 0.0032249705183968404 0.028692549756836831 0 0.0027979378099555587 0.028252434997444738 0 0.0032164108404950228 0.028740177798021273 0 0.0046172167629471251 0.020907367264877838 0 0.0037754359913725042 0.025465446383315594 0 -0.00073794846543674653 0.0085390256822154842 0 0.00013686097103286719 0.0085771647322298809 0 0.00026018772910927501 0.009134191877867244 0 0.0026137558261676483 0.028811104689753501 0 0.0019820486749671019 0.028336230941516181 0 0.00073704745144560703 0.028468043498080176 0 0.0053408870470054333 0.023307846558687687 0 0.0057855861250866499 0.02194869934497086 0 -4.782368554325156e-05 0.020043575612559598 0 0.0037754359913725042 0.025465446383315594 0 0.00052650988538424247 0.018728348953320036 0 0.0046172167629471251 0.020907367264877838 0 0.00052650988538424247 0.018728348953320036 0 0.0030314773404000622 0.0040305207229984277 0 0.003130164456989418 0.0040460945539494055 0 0.0029196248570886249 0.0041307145953500416 0 0.0030314773404000622 0.0040305207229984277 0 0.0029196248570886249 0.0041307145953500416 0 0.0030231257461138688 0.0039182365116698604 0 0.00095170358426654403 0.024268124322882827 0 -0.00050778841777620286 0.028046428860900047 0 0.00073704745144560703 0.028468043498080176 0 0.0011902990293150991 0.015910014057424506 0 0.00052650988538424247 0.018728348953320036 0 0.00013686097103286719 0.0085771647322298809 0 0.00078544627376109179 0.0092970044360503636 0 0.00026018772910927501 0.009134191877867244 0 0.00013686097103286719 0.0085771647322298809 0 0.00078544627376109179 0.0092970044360503636 0 0.00042270860153945745 0.0076689814604242266 0 0.0017092524647137409 0.0072793630643625366 0 0.00042270860153945745 0.0076689814604242266 0 0.00014297027162123296 0.0059770454883995511 0 0.0011902990293150991 0.015910014057424506 0 0.0029634364203131084 0.0040833409157281031 0 0.00078544627376109179 0.0092970044360503636 0 0.0017092524647137409 0.0072793630643625366 0 0.00042270860153945745 0.0076689814604242266 0 0.0046172167629471251 0.020907367264877838 0 0.0049877546178229339 0.012626014357710061 0 -0.00073794846543674653 0.0085390256822154842 0 0.00042270860153945745 0.0076689814604242266 0 0.00014297027162123296 0.0059770454883995511 0 0.0079938557695807752 0.026207687316801755 0 0.0066493203964234568 0.022588470446769707 0 0.0098954713008447652 0.020616281000853876 0 -0.00073794846543674653 0.0085390256822154842 0 0.00013686097103286719 0.0085771647322298809 0 0.00042270860153945745 0.0076689814604242266 0 0.0066493203964234568 0.022588470446769707 0 0.0098954713008447652 0.020616281000853876 0 0.0060991018230090793 0.019430255437126166 0 0.0082051422654345792 0.016491746887848178 0 0.0098954713008447652 0.020616281000853876 0 0.0060991018230090793 0.019430255437126166 0 0.0024576478863665295 0.0053763511319978264 0 0.0017092524647137409 0.0072793630643625366 0 0.00014297027162123296 0.0059770454883995511 0 0.0026787674066594117 0.027518740710814504 0 0.0041158377927407912 0.027675125294398941 0 0.0023814115716893473 0.026494406598699914 0 0.0026787674066594117 0.027518740710814504 0 0.0030006508553443671 0.028252943270614044 0 0.0041158377927407912 0.027675125294398941 0 0.0026787674066594117 0.027518740710814504 0 0.0023814115716893473 0.026494406598699914 0 0.0020655979307447388 0.027272293909832237 0 0.0026787674066594117 0.027518740710814504 0 0.0020655979307447388 0.027272293909832237 0 0.0021115240058485092 0.028172535502968811 0 0.0024511822728210835 0.028836426006474025 0 0.0030006508553443671 0.028252943270614044 0 0.0021115240058485092 0.028172535502968811 0 0.0026787674066594117 0.027518740710814504 0 0.0030006508553443671 0.028252943270614044 0 0.0021115240058485092 0.028172535502968811 0 0.0079938557695807752 0.026207687316801755 0 0.0066493203964234568 0.022588470446769707 0 0.003325435796460283 0.023447808995075356 0 0.0061760847945539011 0.02912066067679497 0 0.0030006508553443671 0.028252943270614044 0 0.0041158377927407912 0.027675125294398941 0 0.0037754359913725042 0.025465446383315594 0 0.0035812731178346867 0.029366598510782452 0 0.0062554280791932261 0.028866280873520059 0 0.0061760847945539011 0.02912066067679497 0 0.0041158377927407912 0.027675125294398941 0 0.0046172167629471251 0.020907367264877838 0 0.0045756584092942355 0.026458412857612787 0 0.0066493203964234568 0.022588470446769707 0 0.003325435796460283 0.023447808995075356 0 0.00406767457718214 0.020980091360104605 0 0.003325435796460283 0.023447808995075356 0 0.00406767457718214 0.020980091360104605 0 0.0019862146289338829 0.021647066360138165 0 0.0066493203964234568 0.022588470446769707 0 0.00406767457718214 0.020980091360104605 0 0.0060991018230090793 0.019430255437126166 0 0.00406767457718214 0.020980091360104605 0 0.0060991018230090793 0.019430255437126166 0 0.0039048936089713855 0.018690713239519784 0 0.00406767457718214 0.020980091360104605 0 0.0039048936089713855 0.018690713239519784 0 0.0023050209488279295 0.019897330262130551 0 0.0041158377927407912 0.027675125294398941 0 0.0023814115716893473 0.026494406598699914 0 0.002197967099500501 0.025381390053000458 0 0.003325435796460283 0.023447808995075356 0 0.0019862146289338829 0.021647066360138165 0 -0.0013323401792336902 0.020768852996438131 0 6.8617111054711011e-05 0.018681302589020572 0 0.0023050209488279295 0.019897330262130551 0 0.00070259788808556148 0.020180028941349733 0 0.0045756584092942355 0.026458412857612787 0 -7.3739792251697331e-05 0.022769589724923159 0 0.00406767457718214 0.020980091360104605 0 0.0023050209488279295 0.019897330262130551 0 0.0019862146289338829 0.021647066360138165 0 0.0023050209488279295 0.019897330262130551 0 0.0019862146289338829 0.021647066360138165 0 0.00070259788808556148 0.020180028941349733 0 0.0019862146289338829 0.021647066360138165 0 0.00023243921937872984 0.020649848156520823 0 -0.0013323401792336902 0.020768852996438131 0 0.0019862146289338829 0.021647066360138165 0 0.00023243921937872984 0.020649848156520823 0 0.00070259788808556148 0.020180028941349733 0 0.00023243921937872984 0.020649848156520823 0 -0.00058247778751770141 0.019792104053053691 0 -0.0013323401792336902 0.020768852996438131 0 0.00023243921937872984 0.020649848156520823 0 -0.00058247778751770141 0.019792104053053691 0 0.00070259788808556148 0.020180028941349733 0 6.8617111054711011e-05 0.018681302589020572 0 -0.00058247778751770141 0.019792104053053691 0 0.00070259788808556148 0.020180028941349733 0 -0.0060151580527659596 0.019015500657667703 0 0.002197967099500501 0.025381390053000458 0 0.0015150555563540286 0.025758482910126092 0 -0.0024996227584749577 0.018313421857994571 0 -0.00058247778751770141 0.019792104053053691 0 -0.0013323401792336902 0.020768852996438131 0 6.8617111054711011e-05 0.018681302589020572 0 -0.0024996227584749577 0.018313421857994571 0 -0.00058247778751770141 0.019792104053053691 0 -0.0055400101677550813 0.019337944608321705 0 -7.3739792251697331e-05 0.022769589724923159 0 -0.0060151580527659596 0.019015500657667703 0 -0.0024996227584749577 0.018313421857994571 0 -0.0013323401792336902 0.020768852996438131 0 0.0015150555563540286 0.025758482910126092 0 0.0018770317579328672 0.026633631468242054 0 0.0014740109825609029 0.027438590878219159 0 0.0023814115716893473 0.026494406598699914 0 0.002197967099500501 0.025381390053000458 0 0.0019518286928851057 0.026074581689415115 0 0.002197967099500501 0.025381390053000458 0 0.0015150555563540286 0.025758482910126092 0 0.0019518286928851057 0.026074581689415115 0 0.0015150555563540286 0.025758482910126092 0 0.0018770317579328672 0.026633631468242054 0 0.0019518286928851057 0.026074581689415115 0 0.0023814115716893473 0.026494406598699914 0 0.0018770317579328672 0.026633631468242054 0 0.0019518286928851057 0.026074581689415115 0 0.0023814115716893473 0.026494406598699914 0 0.0018770317579328672 0.026633631468242054 0 0.0020655979307447388 0.027272293909832237 0 0.0020655979307447388 0.027272293909832237 0 0.0014740109825609029 0.027438590878219159 0 0.0021115240058485092 0.028172535502968811 0 0.0018770317579328672 0.026633631468242054 0 0.0020655979307447388 0.027272293909832237 0 0.0014740109825609029 0.027438590878219159 0 0.0014740109825609029 0.027438590878219159 0 0.0012054120469388928 0.02857321657307137 0 0.00086386311309656464 0.027845735130105308 0 0.0015150555563540286 0.025758482910126092 0 0.0014740109825609029 0.027438590878219159 0 0.00086386311309656464 0.027845735130105308 0 0.0012054120469388928 0.02857321657307137 0 0.0021115240058485092 0.028172535502968811 0 0.0018560751376233034 0.029325363645606405 0 0.0014740109825609029 0.027438590878219159 0 0.0012054120469388928 0.02857321657307137 0 0.0021115240058485092 0.028172535502968811 0 0.0015150555563540286 0.025758482910126092 0 0.00086386311309656464 0.027845735130105308 0 -5.4722965688124195e-05 0.028327811163058558 0 0.00039186127648235618 0.02881564164800908 0 0.00086386311309656464 0.027845735130105308 0 -5.4722965688124195e-05 0.028327811163058558 0 0.0012054120469388928 0.02857321657307137 0 0.00039186127648235618 0.02881564164800908 0 0.00086386311309656464 0.027845735130105308 0 0.0018959435512133534 0.025808883720315284 0 -0.0057663872007996516 0.027603453661595594 0 -0.0060151580527659596 0.019015500657667703 0 0.0015150555563540286 0.025758482910126092 0 -0.0094380868976513457 0.027285240517788478 0 -0.0060151580527659596 0.019015500657667703 0 -0.014940125266186193 0.022413182651901689 0 -0.0094380868976513457 0.027285240517788478 0 0.0052453652754694781 0.030646349062178519 0 0.0055427938547111021 0.032789461405162319 0 0.0067486736163003798 0.032415374218739641 0 0.0055427938547111021 0.032789461405162319 0 0.0067486736163003798 0.032415374218739641 0 0.0057857643764138477 0.034098967388925414 0 0.0047969670626948407 0.033699856974961875 0 0.0055427938547111021 0.032789461405162319 0 0.0057857643764138477 0.034098967388925414 0 -0.0044018474096302719 0.027692821330696948 0 -0.0044502255071378 0.031622065450356569 0 0.0067486736163003798 0.032415374218739641 0 0.0057857643764138477 0.034098967388925414 0 0.0053650443269605544 0.035186104198662221 0 -0.0010847751248612041 0.02938195947453779 0 -0.00041220608144221265 0.029278438268119204 0 -0.00073680867486198448 0.029756869362557795 0 0.0047626615084571449 0.034610768110047423 0 0.0049754486021992639 0.035287378340057296 0 0.0057857643764138477 0.034098967388925414 0 0.0047969670626948407 0.033699856974961875 0 0.0047626615084571449 0.034610768110047423 0 0.0057857643764138477 0.034098967388925414 0 0.0019393597901659052 0.034149397492879971 0 0.0050717400454536174 0.033745293359886908 0 0.0048873971105774282 0.035331194937603456 0 0.0057857643764138477 0.034098967388925414 0 0.0053650443269605544 0.035186104198662221 0 0.0019393597901659052 0.034149397492879971 0 -0.0044502255071378 0.031622065450356569 0 -0.014940125266186193 0.022413182651901689 0 -0.01864679447283105 0.029890080583893103 0 -0.0094380868976513457 0.027285240517788478 0 -0.0010847751248612041 0.02938195947453779 0 -5.4722965688124195e-05 0.028327811163058558 0 -0.00041220608144221265 0.029278438268119204 0 0.00039186127648235618 0.02881564164800908 0 -5.4722965688124195e-05 0.028327811163058558 0 -0.00041220608144221265 0.029278438268119204 0 -0.0044502255071378 0.031622065450356569 0 -0.0057663872007996516 0.027603453661595594 0 0.00039186127648235618 0.02881564164800908 0 -0.00041220608144221265 0.029278438268119204 0 0.00019303458696966075 0.029718666718104955 0 -0.00041220608144221265 0.029278438268119204 0 0.00019303458696966075 0.029718666718104955 0 -0.00035030285390475933 0.030062026926874614 0 0.00019303458696966075 0.029718666718104955 0 -0.00035030285390475933 0.030062026926874614 0 9.3948323057088448e-05 0.030556455358452628 0 -0.0010847751248612041 0.02938195947453779 0 -0.001024779197690927 0.02996621301078578 0 -0.00073680867486198448 0.029756869362557795 0 -0.001024779197690927 0.02996621301078578 0 -0.00073680867486198448 0.029756869362557795 0 -0.000747682262340906 0.030284468760174089 0 -0.00035030285390475933 0.030062026926874614 0 -0.00073680867486198448 0.029756869362557795 0 -0.000747682262340906 0.030284468760174089 0 -0.00041220608144221265 0.029278438268119204 0 -0.00035030285390475933 0.030062026926874614 0 -0.00073680867486198448 0.029756869362557795 0 -0.00035030285390475933 0.030062026926874614 0 -0.000747682262340906 0.030284468760174089 0 -0.0004139218054582218 0.030867042011872819 0 -0.000747682262340906 0.030284468760174089 0 -0.0010004248825108248 0.030458752554391549 0 -0.00087280973521047973 0.030926458473288277 0 -0.001024779197690927 0.02996621301078578 0 -0.000747682262340906 0.030284468760174089 0 -0.0010004248825108248 0.030458752554391549 0 -0.00087280973521047973 0.030926458473288277 0 -0.0004139218054582218 0.030867042011872819 0 -0.00056410450898024993 0.031749787299135371 0 -0.000747682262340906 0.030284468760174089 0 -0.00087280973521047973 0.030926458473288277 0 -0.0004139218054582218 0.030867042011872819 0 -6.5685998674605515e-05 0.031569764340105513 0 -0.0004139218054582218 0.030867042011872819 0 -0.00056410450898024993 0.031749787299135371 0 -0.00096953888672025954 0.031667193854196737 0 -0.00087280973521047973 0.030926458473288277 0 -0.00056410450898024993 0.031749787299135371 0 -6.5685998674605515e-05 0.031569764340105513 0 -0.0004139218054582218 0.030867042011872819 0 9.3948323057088448e-05 0.030556455358452628 0 -0.00035030285390475933 0.030062026926874614 0 -0.0004139218054582218 0.030867042011872819 0 9.3948323057088448e-05 0.030556455358452628 0 -6.5685998674605515e-05 0.031569764340105513 0 9.3948323057088448e-05 0.030556455358452628 0 0.00045047889039387758 0.031289165807868689 0 9.3948323057088448e-05 0.030556455358452628 0 0.00045047889039387758 0.031289165807868689 0 0.00066932855880835198 0.030389597870901668 0 0.00066932855880835198 0.030389597870901668 0 0.0011253485552459113 0.031114347957941931 0 0.0013533117972200192 0.030231016784161357 0 0.00045047889039387758 0.031289165807868689 0 0.00066932855880835198 0.030389597870901668 0 0.0011253485552459113 0.031114347957941931 0 0.0025346412740909928 0.029589699864353048 0 0.0018561343168112371 0.030806229053469723 0 0.0013533117972200192 0.030231016784161357 0 0.0011253485552459113 0.031114347957941931 0 0.0018561343168112371 0.030806229053469723 0 0.0013533117972200192 0.030231016784161357 0 0.0013533117972200192 0.030231016784161357 0 0.0018560751376233034 0.029325363645606405 0 0.00094723112099761827 0.029523129838227965 0 0.0025346412740909928 0.029589699864353048 0 0.0013533117972200192 0.030231016784161357 0 0.0018560751376233034 0.029325363645606405 0 0.0024511822728210835 0.028836426006474025 0 0.0021115240058485092 0.028172535502968811 0 0.0018560751376233034 0.029325363645606405 0 0.0012054120469388928 0.02857321657307137 0 0.0018560751376233034 0.029325363645606405 0 0.00094723112099761827 0.029523129838227965 0 0.0012054120469388928 0.02857321657307137 0 0.00039186127648235618 0.02881564164800908 0 0.00094723112099761827 0.029523129838227965 0 0.00039186127648235618 0.02881564164800908 0 0.00019303458696966075 0.029718666718104955 0 0.00094723112099761827 0.029523129838227965 0 0.00019303458696966075 0.029718666718104955 0 9.3948323057088448e-05 0.030556455358452628 0 0.00066932855880835198 0.030389597870901668 0 0.00019303458696966075 0.029718666718104955 0 0.00066932855880835198 0.030389597870901668 0 0.00094723112099761827 0.029523129838227965 0 0.00066932855880835198 0.030389597870901668 0 0.0013533117972200192 0.030231016784161357 0 0.00094723112099761827 0.029523129838227965 0 1.1574234470684641e-05 0.04994664584159373 0 1.3711299435157314e-05 0.049967726098679659 0 3.3655611628183154e-05 0.04991937928034932 0 -0.00046695654830475336 0.048326118134201172 0 -0.00041019504188729482 0.048696948910527976 0 -4.5239930375243479e-05 0.049962930636854329 0 -0.00041019504188729482 0.048696948910527976 0 1.1156312949702303e-05 0.049988317610057939 0 -2.0755231269945066e-07 0.049999458357129788 0 9.8975185018049072e-06 0.049978673904304077 0 -4.5239930375243479e-05 0.049962930636854329 0 1.7150328304054017e-05 0.049983912506867859 0 1.1574234470684641e-05 0.04994664584159373 0 -2.0692918627076033e-08 0.049999907419875179 0 8.1648544502139827e-06 0.049964913831292625 0 -2.0692918627076033e-08 0.049999907419875179 0 8.1648544502139827e-06 0.049964913831292625 0 5.0956197934351963e-06 0.049991983017106577 0 0.00028763271128964227 0.050133208702724641 0 -0.00046695654830475336 0.048326118134201172 0 1.1574234470684641e-05 0.04994664584159373 0 8.1648544502139827e-06 0.049964913831292625 0 1.3711299435157314e-05 0.049967726098679659 0 -0.00046695654830475336 0.048326118134201172 0 -0.00014810476358563166 0.050507291113778656 0 8.1648544502139827e-06 0.049964913831292625 0 5.0956197934351963e-06 0.049991983017106577 0 1.3671519148763661e-05 0.049987593831084115 0 5.0956197934351963e-06 0.049991983017106577 0 1.3671519148763661e-05 0.049987593831084115 0 5.0315964708698145e-07 0.04999980603982776 0 -2.0692918627076033e-08 0.049999907419875179 0 5.0956197934351963e-06 0.049991983017106577 0 5.0315964708698145e-07 0.04999980603982776 0 -0.00046695654830475336 0.048326118134201172 0 -0.0013298195654488189 0.04726244428439709 0 -0.0013735289671383084 0.044936783503723189 0 -0.0020469536214456625 0.04477883589049058 0 -0.0017610065906095262 0.044357965409732039 0 -0.0020469536214456625 0.04477883589049058 0 -0.0016481329888466988 0.045462275093408173 0 -0.0024959251561225164 0.045159895838827499 0 -0.0020469536214456625 0.04477883589049058 0 -0.0024959251561225164 0.045159895838827499 0 -0.0028374336386241639 0.044547797280850156 0 -0.0013735289671383084 0.044936783503723189 0 -0.0020469536214456625 0.04477883589049058 0 -0.0016481329888466988 0.045462275093408173 0 -0.0021813816727980976 0.04576959584342747 0 -0.0016481329888466988 0.045462275093408173 0 -0.0024959251561225164 0.045159895838827499 0 -0.0017943006705256886 0.043775075234021063 0 -0.00041019504188729482 0.048696948910527976 0 5.8101967744942767e-05 0.049892332771570104 0 4.1326622848313355e-05 0.049925763100251028 0 3.2230041937578411e-05 0.049957469182563267 0 5.8101967744942767e-05 0.049892332771570104 0 3.0872462160498746e-05 0.049963877418281614 0 3.2230041937578411e-05 0.049957469182563267 0 4.1326622848313355e-05 0.049925763100251028 0 2.6288543002370017e-05 0.049953874557891666 0 3.2230041937578411e-05 0.049957469182563267 0 -0.0017943006705256886 0.043775075234021063 0 -0.0027384518349307671 0.041518270759049423 0 -0.0021276860457819118 0.039412098912032324 0 -0.0027211837219296175 0.039169965535001447 0 -0.0027794948838411851 0.038372320849210613 0 -0.0015843062089377588 0.038634502078477614 0 -0.002281230336831403 0.040399824432500911 0 -0.0028806337939498356 0.039915715726463206 0 -0.0017943006705256886 0.043775075234021063 0 -0.0021988922745984369 0.038978171908442646 0 -0.0021276860457819118 0.039412098912032324 0 -0.0028806337939498356 0.039915715726463206 0 -0.0027211837219296175 0.039169965535001447 0 5.8101967744942767e-05 0.049892332771570104 0 3.3670216673425073e-05 0.049929221426555613 0 6.7065530675847879e-05 0.04987081755748686 0 -0.0017943006705256886 0.043775075234021063 0 0.00029322294902533601 0.046193845305036146 0 5.8101967744942767e-05 0.049892332771570104 0 4.1326622848313355e-05 0.049925763100251028 0 3.3670216673425073e-05 0.049929221426555613 0 -2.0755231269945066e-07 0.049999458357129788 0 9.8975185018049072e-06 0.049978673904304077 0 4.3432522457960965e-07 0.050001012645361151 0 3.3670216673425073e-05 0.049929221426555613 0 2.6288543002370017e-05 0.049953874557891666 0 9.8975185018049072e-06 0.049978673904304077 0 4.1326622848313355e-05 0.049925763100251028 0 3.3670216673425073e-05 0.049929221426555613 0 2.6288543002370017e-05 0.049953874557891666 0 1.1156312949702303e-05 0.049988317610057939 0 2.0422039170919535e-05 0.049969939016720907 0 9.8975185018049072e-06 0.049978673904304077 0 2.6288543002370017e-05 0.049953874557891666 0 3.2230041937578411e-05 0.049957469182563267 0 2.0422039170919535e-05 0.049969939016720907 0 2.6288543002370017e-05 0.049953874557891666 0 2.0422039170919535e-05 0.049969939016720907 0 9.8975185018049072e-06 0.049978673904304077 0 1.1156312949702303e-05 0.049988317610057939 0 2.9407402028062226e-05 0.049967086203233792 0 2.0422039170919535e-05 0.049969939016720907 0 2.9407402028062226e-05 0.049967086203233792 0 3.2230041937578411e-05 0.049957469182563267 0 2.0422039170919535e-05 0.049969939016720907 0 -0.00041019504188729482 0.048696948910527976 0 -0.00044887287653642331 0.048903023375178434 0 3.3670216673425073e-05 0.049929221426555613 0 9.8975185018049072e-06 0.049978673904304077 0 4.3432522457960965e-07 0.050001012645361151 0 4.3432522457960965e-07 0.050001012645361151 0 -3.5303906315246748e-06 0.049876390711246735 0 -1.6602295775720332e-06 0.049995121196542841 0 3.3670216673425073e-05 0.049929221426555613 0 -3.5303906315246748e-06 0.049876390711246735 0 6.7065530675847879e-05 0.04987081755748686 0 3.3670216673425073e-05 0.049929221426555613 0 4.3432522457960965e-07 0.050001012645361151 0 -3.5303906315246748e-06 0.049876390711246735 0 -3.5303906315246748e-06 0.049876390711246735 0 2.95158325256925e-05 0.049701192556372231 0 6.7065530675847879e-05 0.04987081755748686 0 -3.5303906315246748e-06 0.049876390711246735 0 2.95158325256925e-05 0.049701192556372231 0 -1.6602295775720332e-06 0.049995121196542841 0 0.00066672098698951517 0.045357327486538007 0 2.4524101590117442e-06 0.048590360386624183 0 -1.2577278411845328e-06 0.046481974954567115 0 0.00024750815108334664 0.047394890736187155 0 5.6356144417897308e-08 0.048594901162803156 0 2.95158325256925e-05 0.049701192556372231 0 -1.6602295775720332e-06 0.049995121196542841 0 2.6152258468993096e-06 0.048603486194440187 0 1.6297343760791625e-05 0.043705017529156343 0 1.0570367181793493e-06 0.044362844759821211 0 -1.0306506158766342e-06 0.042796244152298539 0 -0.00040364549432167848 0.045666591776641917 0 -0.00015321196200406053 0.045710558675818538 0 -0.00028007455427011592 0.045246025945658831 0 -0.00032819683040924582 0.044513022854205331 0 -4.7699842080597783e-07 0.044365218048511394 0 3.329432758648639e-05 0.044701565915396764 0 2.0087319632646476e-07 0.044366380868511586 0 -7.6559496420107071e-05 0.045359969254847754 0 -0.00040364549432167848 0.045666591776641917 0 -7.6559496420107071e-05 0.045359969254847754 0 -0.00015321196200406053 0.045710558675818538 0 -0.00032819683040924582 0.044513022854205331 0 -0.00010099037561593219 0.045007206106834098 0 2.0087319632646476e-07 0.044366380868511586 0 -7.6559496420107071e-05 0.045359969254847754 0 -1.2577278411845328e-06 0.046481974954567115 0 0.00066672098698951517 0.045357327486538007 0 -1.2577278411845328e-06 0.046481974954567115 0 -0.00015321196200406053 0.045710558675818538 0 -7.6559496420107071e-05 0.045359969254847754 0 -1.2577278411845328e-06 0.046481974954567115 0 -0.00015321196200406053 0.045710558675818538 0 0.00066672098698951517 0.045357327486538007 0 -0.00015321196200406053 0.045710558675818538 0 -0.00028007455427011592 0.045246025945658831 0 0.00066672098698951517 0.045357327486538007 0 -0.00028007455427011592 0.045246025945658831 0 -0.00046330453347296431 0.044527206003664575 0 -0.00028007455427011592 0.045246025945658831 0 -0.0011091477520026127 0.044402217612986822 0 -0.00046330453347296431 0.044527206003664575 0 -0.00040364549432167848 0.045666591776641917 0 -0.00028007455427011592 0.045246025945658831 0 -0.0011091477520026127 0.044402217612986822 0 -0.0008153098386427908 0.043641508237656182 0 -0.00084695367837067767 0.042670574888104516 0 -0.0013448859931785291 0.043381777065742311 0 -0.00032819683040924582 0.044513022854205331 0 -0.0015039043394308677 0.043020570692029185 0 -0.0015039043394308677 0.043020570692029185 0 -0.00054666954681860348 0.043679306834398378 0 -0.0011091477520026127 0.044402217612986822 0 -0.00046330453347296431 0.044527206003664575 0 -0.00017945102801631622 0.043446674851014715 0 -0.0023702297982041089 0.044481727945106693 0 -0.00017945102801631622 0.043446674851014715 0 -0.0012270643903296891 0.042516043364216133 0 0.00066672098698951517 0.045357327486538007 0 -0.00017945102801631622 0.043446674851014715 0 0.00025707058294201929 0.042237965069090326 0 0.00066672098698951517 0.045357327486538007 0 -0.00046330453347296431 0.044527206003664575 0 -0.00017945102801631622 0.043446674851014715 0 0.00024750815108334664 0.047394890736187155 0 0.00029322294902533601 0.046193845305036146 0 -0.00017945102801631622 0.043446674851014715 0 0.00025707058294201929 0.042237965069090326 0 -0.0012270643903296891 0.042516043364216133 0 -0.0015843062089377588 0.038634502078477614 0 0.00025707058294201929 0.042237965069090326 0 -0.002281230336831403 0.040399824432500911 0 -0.0015039043394308677 0.043020570692029185 0 -0.0025394851762115772 0.040329718473260244 0 -0.0025529406598890358 0.040721616385640147 0 -0.002281230336831403 0.040399824432500911 0 -0.0026700361960822704 0.040433815649007714 0 -0.0023702297982041089 0.044481727945106693 0 -0.0012270643903296891 0.042516043364216133 0 -0.002281230336831403 0.040399824432500911 0 0.00025707058294201929 0.042237965069090326 0 -0.0012270643903296891 0.042516043364216133 0 -0.002281230336831403 0.040399824432500911 0 -0.0030629842070198647 0.040187264938028586 0 -0.0033707921804737129 0.039777643530201426 0 -0.0028806337939498356 0.039915715726463206 0 -0.002281230336831403 0.040399824432500911 0 -0.0026700361960822704 0.040433815649007714 0 -0.0028806337939498356 0.039915715726463206 0 -0.0030629842070198647 0.040187264938028586 0 -0.0026700361960822704 0.040433815649007714 0 -0.0028806337939498356 0.039915715726463206 0 -0.0030629842070198647 0.040187264938028586 0 -0.0030938085039655065 0.040483065624883706 0 -0.0028162897953604563 0.040532606487529543 0 -0.0030629842070198647 0.040187264938028586 0 -0.0026700361960822704 0.040433815649007714 0 -0.0028162897953604563 0.040532606487529543 0 -0.0033566961171622453 0.040213798919371171 0 -0.0037040892023708066 0.039916788110785827 0 -0.0033707921804737129 0.039777643530201426 0 -0.0030629842070198647 0.040187264938028586 0 -0.0033566961171622453 0.040213798919371171 0 -0.0033707921804737129 0.039777643530201426 0 -0.0030629842070198647 0.040187264938028586 0 -0.0033566961171622453 0.040213798919371171 0 -0.0030938085039655065 0.040483065624883706 0 -0.0030938085039655065 0.040483065624883706 0 -0.003297018745209249 0.040602352093742126 0 -0.0028624004756228104 0.040839601084047307 0 -0.0033566961171622453 0.040213798919371171 0 -0.0030938085039655065 0.040483065624883706 0 -0.003297018745209249 0.040602352093742126 0 -0.0033566961171622453 0.040213798919371171 0 -0.003297018745209249 0.040602352093742126 0 -0.0035992334002953527 0.040267250310891872 0 -0.0025529406598890358 0.040721616385640147 0 -0.0026700361960822704 0.040433815649007714 0 -0.0028162897953604563 0.040532606487529543 0 -0.0030938085039655065 0.040483065624883706 0 -0.0028162897953604563 0.040532606487529543 0 -0.0028624004756228104 0.040839601084047307 0 -0.0025529406598890358 0.040721616385640147 0 -0.0028162897953604563 0.040532606487529543 0 -0.0028624004756228104 0.040839601084047307 0 -0.0015039043394308677 0.043020570692029185 0 -0.0021766665580815786 0.041913141406856126 0 -0.00084695367837067767 0.042670574888104516 0 -0.0013591013250393521 0.042897559321774248 0 -0.0013448859931785291 0.043381777065742311 0 -0.0013591013250393521 0.042897559321774248 0 -0.0018706046686969547 0.043119265096552305 0 -0.0013448859931785291 0.043381777065742311 0 -0.0021766665580815786 0.041913141406856126 0 -0.0017232221107748591 0.041885393962853373 0 -0.003297018745209249 0.040602352093742126 0 -0.0032642991234357022 0.040991565622649405 0 -0.0037167399127575498 0.040738455463380903 0 -0.0017232221107748591 0.041885393962853373 0 -0.00064620347277042852 0.043133885161313647 0 -0.003297018745209249 0.040602352093742126 0 -0.0028624004756228104 0.040839601084047307 0 -0.0032642991234357022 0.040991565622649405 0 -0.0017232221107748591 0.041885393962853373 0 -0.0021769314533302323 0.040629513459261711 0 0.00024222957541314877 0.042782602985495563 0 0.00017182305852163585 0.042466016694361043 0 0.00065411438516027902 0.042678057127134794 0 9.4915263714328386e-07 0.041227847353688722 0 7.8844347014163792e-06 0.041726556921959597 0 -1.0306506158766342e-06 0.042796244152298539 0 0.00017182305852163585 0.042466016694361043 0 -6.3366699665616801e-05 0.042447284070292947 0 -0.0001114341018506481 0.042649631372403712 0 0.00024222957541314877 0.042782602985495563 0 0.00017182305852163585 0.042466016694361043 0 -0.0001114341018506481 0.042649631372403712 0 0.00017182305852163585 0.042466016694361043 0 -6.3366699665616801e-05 0.042447284070292947 0 8.2502770001042613e-05 0.042224085879463635 0 -0.00011151496558402367 0.041191458117931776 0 -0.0021769314533302323 0.040629513459261711 0 0.00017182305852163585 0.042466016694361043 0 0.00036700121054021817 0.041912220958173402 0 0.00065411438516027902 0.042678057127134794 0 0.00017182305852163585 0.042466016694361043 0 0.00036700121054021817 0.041912220958173402 0 8.2502770001042613e-05 0.042224085879463635 0 -0.00011151496558402367 0.041191458117931776 0 -7.5992321260202712e-05 0.041276366105362026 0 9.4915263714328386e-07 0.041227847353688722 0 7.5076465115945715e-05 0.041358464623172372 0 7.8844347014163792e-06 0.041726556921959597 0 -3.6938449176168223e-07 0.041226381794488405 0 -0.00011151496558402367 0.041191458117931776 0 -6.3366699665616801e-05 0.042447284070292947 0 7.8844347014163792e-06 0.041726556921959597 0 -1.0306506158766342e-06 0.042796244152298539 0 -6.3366699665616801e-05 0.042447284070292947 0 8.2502770001042613e-05 0.042224085879463635 0 7.8844347014163792e-06 0.041726556921959597 0 0.00036700121054021817 0.041912220958173402 0 8.2502770001042613e-05 0.042224085879463635 0 7.8844347014163792e-06 0.041726556921959597 0 1.6297343760791625e-05 0.043705017529156343 0 -1.0306506158766342e-06 0.042796244152298539 0 -0.0001114341018506481 0.042649631372403712 0 -6.3366699665616801e-05 0.042447284070292947 0 -1.0306506158766342e-06 0.042796244152298539 0 -0.0001114341018506481 0.042649631372403712 0 -0.00032819683040924582 0.044513022854205331 0 -0.00064620347277042852 0.043133885161313647 0 -0.0038706639835763036 0.038246273091067574 0 -0.0047903093308780675 0.038742380205345754 0 -0.0043316853796623433 0.038758429950101134 0 -2.4996574313318529e-06 0.037736162107791266 0 5.9479506281222431e-08 0.038547510853755719 0 -8.3907776576754486e-06 0.036174304286912706 0 -0.0020319746597698076 0.040240143036305971 0 -0.0017212367998893467 0.040275234328376514 0 -0.0011579878444837799 0.039843953854018364 0 -0.0023705978329057547 0.038869870219430995 0 -0.0021769314533302323 0.040629513459261711 0 -0.0038706639835763036 0.038246273091067574 0 -0.0041200174466864276 0.038812802898891212 0 -0.0043316853796623433 0.038758429950101134 0 -0.0038706639835763036 0.038246273091067574 0 -0.0041200174466864276 0.038812802898891212 0 -0.0038158790902563977 0.038736037763352417 0 -0.0038706639835763036 0.038246273091067574 0 -0.0038158790902563977 0.038736037763352417 0 -0.0035742434763572518 0.038554444268820841 0 -0.0023705978329057547 0.038869870219430995 0 -0.0011079459995224277 0.039373700687430645 0 -2.4996574313318529e-06 0.037736162107791266 0 2.3697247165295534e-06 0.038612054337531634 0 5.9479506281222431e-08 0.038547510853755719 0 -0.00085359694519264472 0.040372923250321033 0 -0.0017212367998893467 0.040275234328376514 0 -0.0011579878444837799 0.039843953854018364 0 -0.00011151496558402367 0.041191458117931776 0 -0.0011079459995224277 0.039373700687430645 0 2.9818441572598057e-06 0.041036603653070131 0 2.3697247165295534e-06 0.038612054337531634 0 5.9479506281222431e-08 0.038547510853755719 0 7.5474067111896212e-08 0.041225417914253035 0 2.9818441572598057e-06 0.041036603653070131 0 5.9479506281222431e-08 0.038547510853755719 0 -0.0017868027195578676 0.040979551587930395 0 -0.0027958596587084211 0.041428186616467896 0 -0.0035270474175724174 0.040143205667949808 0 -0.0047903093308780675 0.038742380205345754 0 -0.0045390673152274743 0.039188361042551731 0 -0.0043316853796623433 0.038758429950101134 0 -0.0017232221107748591 0.041885393962853373 0 -0.0040107217292410756 0.039788896211682849 0 -0.0021769314533302323 0.040629513459261711 0 -0.0040107217292410756 0.039788896211682849 0 -0.0045390673152274743 0.039188361042551731 0 -0.0039035192161354839 0.039094027448854637 0 -0.0040221729123162495 0.039442133405891672 0 -0.0045390673152274743 0.039188361042551731 0 -0.0041200174466864276 0.038812802898891212 0 -0.0039035192161354839 0.039094027448854637 0 -0.0045390673152274743 0.039188361042551731 0 -0.0041200174466864276 0.038812802898891212 0 -0.0043316853796623433 0.038758429950101134 0 -0.0038158790902563977 0.038736037763352417 0 -0.0039035192161354839 0.039094027448854637 0 -0.0036000722176889348 0.038941910651576671 0 -0.0041200174466864276 0.038812802898891212 0 -0.0038158790902563977 0.038736037763352417 0 -0.0039035192161354839 0.039094027448854637 0 -0.0042703170141583204 0.039471012757614249 0 -0.0038643988702370419 0.039662542632384896 0 -0.0039225786851895504 0.040019146151540792 0 -0.0039035192161354839 0.039094027448854637 0 -0.0040221729123162495 0.039442133405891672 0 -0.0036659557943359749 0.039349977916711874 0 -0.00401297779675624 0.039521325066083905 0 -0.0035671021339090244 0.039701871666937977 0 -0.0040107217292410756 0.039788896211682849 0 -0.00401297779675624 0.039521325066083905 0 -0.0038643988702370419 0.039662542632384896 0 -0.0037853677462563393 0.039843104620641993 0 -0.0039225786851895504 0.040019146151540792 0 -0.0038643988702370419 0.039662542632384896 0 -0.0037853677462563393 0.039843104620641993 0 -0.0035388089278506982 0.03969559803261944 0 -0.0037167399127575498 0.040738455463380903 0 -0.0035992334002953527 0.040267250310891872 0 -0.0039225786851895504 0.040019146151540792 0 -0.0040107217292410756 0.039788896211682849 0 -0.0038994224293199954 0.040147907840532779 0 -0.003297018745209249 0.040602352093742126 0 -0.0037167399127575498 0.040738455463380903 0 -0.0035992334002953527 0.040267250310891872 0 -0.0033566961171622453 0.040213798919371171 0 -0.0035992334002953527 0.040267250310891872 0 -0.0037040892023708066 0.039916788110785827 0 -0.0035992334002953527 0.040267250310891872 0 -0.0037040892023708066 0.039916788110785827 0 -0.0039225786851895504 0.040019146151540792 0 -0.0039225786851895504 0.040019146151540792 0 -0.003853196322808305 0.039924416776779575 0 -0.0038891373007597686 0.039959495582326483 0 -0.0037853677462563393 0.039843104620641993 0 -0.0039225786851895504 0.040019146151540792 0 -0.0038891373007597686 0.039959495582326483 0 -0.0037040892023708066 0.039916788110785827 0 -0.0039225786851895504 0.040019146151540792 0 -0.003853196322808305 0.039924416776779575 0 -0.0037040892023708066 0.039916788110785827 0 -0.003853196322808305 0.039924416776779575 0 -0.0038617642891433579 0.039757983167157708 0 -0.003853196322808305 0.039924416776779575 0 -0.0038891373007597686 0.039959495582326483 0 -0.0038617642891433579 0.039757983167157708 0 -0.0038617642891433579 0.039757983167157708 0 -0.0037659889393298947 0.039507172362572653 0 -0.0040536212448385248 0.039626560278972475 0 -0.0038891373007597686 0.039959495582326483 0 -0.0038617642891433579 0.039757983167157708 0 -0.0039571308375307328 0.03980208365082024 0 -0.0038922454097095609 0.039322073127845837 0 -0.0035299106831999457 0.037099444543388968 0 -0.0037298865352390952 0.038547810782148223 0 -0.0039410576604350569 0.037726378780882606 0 -0.0044048644655000921 0.03811397742240457 0 -0.0037040892023708066 0.039916788110785827 0 -0.0038617642891433579 0.039757983167157708 0 -0.0037659889393298947 0.039507172362572653 0 -0.0037040892023708066 0.039916788110785827 0 -0.0037659889393298947 0.039507172362572653 0 -0.0033707921804737129 0.039777643530201426 0 -0.0037659889393298947 0.039507172362572653 0 -0.0033707921804737129 0.039777643530201426 0 -0.0031239357358242904 0.039088416922991955 0 -0.0028806337939498356 0.039915715726463206 0 -0.0027211837219296175 0.039169965535001447 0 -0.0031239357358242904 0.039088416922991955 0 -0.0033707921804737129 0.039777643530201426 0 -0.0028806337939498356 0.039915715726463206 0 -0.0031239357358242904 0.039088416922991955 0 -0.0027211837219296175 0.039169965535001447 0 -0.0031239357358242904 0.039088416922991955 0 -0.0027794948838411851 0.038372320849210613 0 -0.0037298865352390952 0.038547810782148223 0 -0.0031239357358242904 0.039088416922991955 0 -0.0034660261012225344 0.038182774209165972 0 -0.0038922454097095609 0.039322073127845837 0 -0.0030269360486617487 0.038991609285328431 0 -0.0031239357358242904 0.039088416922991955 0 -0.0034660261012225344 0.038182774209165972 0 -0.0027794948838411851 0.038372320849210613 0 -0.0034660261012225344 0.038182774209165972 0 -0.0027794948838411851 0.038372320849210613 0 -0.0034184018176796694 0.037867929697539049 0 -0.0027384518349307671 0.041518270759049423 0 -0.0031036778773271215 0.041305208647005709 0 -0.0034660261012225344 0.038182774209165972 0 -0.0036564007487897413 0.037877735384517802 0 -0.0034184018176796694 0.037867929697539049 0 -0.0034660261012225344 0.038182774209165972 0 -0.0037623917161149611 0.037844768793863989 0 -0.0036564007487897413 0.037877735384517802 0 -0.0037623917161149611 0.037844768793863989 0 -0.0037253464577670431 0.03787431024658703 0 -0.0036564007487897413 0.037877735384517802 0 -0.0037623917161149611 0.037844768793863989 0 -0.0037492567413359361 0.037718398595133193 0 -0.0039410576604350569 0.037726378780882606 0 -0.0037623917161149611 0.037844768793863989 0 -0.0037492567413359361 0.037718398595133193 0 -0.0037253464577670431 0.03787431024658703 0 -0.0037298865352390952 0.038547810782148223 0 -0.0037623917161149611 0.037844768793863989 0 -0.0039410576604350569 0.037726378780882606 0 -0.0037298865352390952 0.038547810782148223 0 -0.0034660261012225344 0.038182774209165972 0 -0.0037623917161149611 0.037844768793863989 0 -0.0031615097867760925 0.03699807240776147 0 -0.0034281191146031693 0.037087341220079797 0 -0.0033659546665674041 0.037288211834555836 0 -0.0031615097867760925 0.03699807240776147 0 -0.0033659546665674041 0.037288211834555836 0 -0.0031496006521836701 0.037260257514639704 0 -0.0031615097867760925 0.03699807240776147 0 -0.0029730464714823892 0.036999401803601221 0 -0.0031496006521836701 0.037260257514639704 0 -0.0031615097867760925 0.03699807240776147 0 -0.0029730464714823892 0.036999401803601221 0 -0.0029109696759234177 0.036772962058957921 0 -0.0030448947946275684 0.036684802019835337 0 -0.0029109696759234177 0.036772962058957921 0 -0.0028038981374214817 0.036446968028345121 0 -0.0031615097867760925 0.03699807240776147 0 -0.0030448947946275684 0.036684802019835337 0 -0.0029109696759234177 0.036772962058957921 0 -0.0031615097867760925 0.03699807240776147 0 -0.0030448947946275684 0.036684802019835337 0 -0.0033049053103367193 0.036777520836790908 0 -0.0031615097867760925 0.03699807240776147 0 -0.0033049053103367193 0.036777520836790908 0 -0.0034281191146031693 0.037087341220079797 0 -0.0030448947946275684 0.036684802019835337 0 -0.0033049053103367193 0.036777520836790908 0 -0.0031358851031500772 0.036509870311169861 0 -0.0033049053103367193 0.036777520836790908 0 -0.0036161379205067751 0.036942859333296683 0 -0.0036150084253348635 0.036695235050899618 0 -0.0033049053103367193 0.036777520836790908 0 -0.0036161379205067751 0.036942859333296683 0 -0.0034281191146031693 0.037087341220079797 0 -0.003799273821370866 0.0371458821645025 0 -0.003849992402084391 0.037383297895748513 0 -0.0039410576604350569 0.037726378780882606 0 -0.0036161379205067751 0.036942859333296683 0 -0.0036346577301990487 0.036709332092417224 0 -0.0039851435360883343 0.037640326200286282 0 -0.003849992402084391 0.037383297895748513 0 -0.0039410576604350569 0.037726378780882606 0 -0.0036161379205067751 0.036942859333296683 0 -0.0036793679194294482 0.037455201374171042 0 -0.0036161379205067751 0.036942859333296683 0 -0.0036793679194294482 0.037455201374171042 0 -0.0034281191146031693 0.037087341220079797 0 -0.0036793679194294482 0.037455201374171042 0 -0.0034281191146031693 0.037087341220079797 0 -0.0033659546665674041 0.037288211834555836 0 -0.0036793679194294482 0.037455201374171042 0 -0.0034242187474323874 0.037617713754727375 0 -0.0033659546665674041 0.037288211834555836 0 -0.0037492567413359361 0.037718398595133193 0 -0.0039410576604350569 0.037726378780882606 0 -0.0036793679194294482 0.037455201374171042 0 -0.0037492567413359361 0.037718398595133193 0 -0.0036793679194294482 0.037455201374171042 0 -0.0034242187474323874 0.037617713754727375 0 -0.0034242187474323874 0.037617713754727375 0 -0.0031496006521836701 0.037260257514639704 0 -0.0030581514871029429 0.037441578128866462 0 -0.0034242187474323874 0.037617713754727375 0 -0.0033659546665674041 0.037288211834555836 0 -0.0031496006521836701 0.037260257514639704 0 -0.0031496006521836701 0.037260257514639704 0 -0.0030581514871029429 0.037441578128866462 0 -0.0028992122405404703 0.037116485372335105 0 -0.0029730464714823892 0.036999401803601221 0 -0.0031496006521836701 0.037260257514639704 0 -0.0028992122405404703 0.037116485372335105 0 -0.0030581514871029429 0.037441578128866462 0 -0.0027546128316112009 0.037210884157200495 0 -0.0028025588360491237 0.037579185054799583 0 -0.0030581514871029429 0.037441578128866462 0 -0.0027546128316112009 0.037210884157200495 0 -0.0028992122405404703 0.037116485372335105 0 -0.0025422229663612599 0.037241560791704049 0 -0.0027546128316112009 0.037210884157200495 0 -0.0028025588360491237 0.037579185054799583 0 -0.0025422229663612599 0.037241560791704049 0 -0.0027546128316112009 0.037210884157200495 0 -0.0025349815414970412 0.03697519472939869 0 -0.0027546128316112009 0.037210884157200495 0 -0.0025349815414970412 0.03697519472939869 0 -0.0026730373985091567 0.03692890749476168 0 -0.0025349815414970412 0.03697519472939869 0 -0.0026730373985091567 0.03692890749476168 0 -0.0024950707625640924 0.036775011932230678 0 -0.0027546128316112009 0.037210884157200495 0 -0.0026730373985091567 0.03692890749476168 0 -0.0028992122405404703 0.037116485372335105 0 -0.0026730373985091567 0.03692890749476168 0 -0.0028992122405404703 0.037116485372335105 0 -0.0027846689520355269 0.036856944665170338 0 -0.0023746475402144562 0.036976531086654649 0 -0.0021585577550748817 0.036737301775101108 0 -0.0022753620695278049 0.037220251988948794 0 -0.0021585577550748817 0.036737301775101108 0 -0.0019734809700804692 0.037089522357779917 0 -0.0022753620695278049 0.037220251988948794 0 -0.0025422229663612599 0.037241560791704049 0 -0.0023746475402144562 0.036976531086654649 0 -0.0022753620695278049 0.037220251988948794 0 -0.0025422229663612599 0.037241560791704049 0 -0.0025349815414970412 0.03697519472939869 0 -0.0023746475402144562 0.036976531086654649 0 -0.0025349815414970412 0.03697519472939869 0 -0.0023746475402144562 0.036976531086654649 0 -0.0023434151021403541 0.036745833856474674 0 -0.0025349815414970412 0.03697519472939869 0 -0.0023434151021403541 0.036745833856474674 0 -0.0024950707625640924 0.036775011932230678 0 -0.0023746475402144562 0.036976531086654649 0 -0.0023434151021403541 0.036745833856474674 0 -0.0021585577550748817 0.036737301775101108 0 -0.0023434151021403541 0.036745833856474674 0 -0.0021585577550748817 0.036737301775101108 0 -0.0021476950354924829 0.03647348637652105 0 -0.0021585577550748817 0.036737301775101108 0 -0.0021476950354924829 0.03647348637652105 0 -0.001989186006067979 0.036364232434464495 0 -0.0021476950354924829 0.03647348637652105 0 -0.0021283709087643586 0.036338457604111571 0 -0.0019732812079439888 0.036264116600074635 0 -0.0021476950354924829 0.03647348637652105 0 -0.0019732812079439888 0.036264116600074635 0 -0.001989186006067979 0.036364232434464495 0 -0.0021476950354924829 0.03647348637652105 0 -0.002313280317403266 0.036524699208511154 0 -0.0021283709087643586 0.036338457604111571 0 -0.0023434151021403541 0.036745833856474674 0 -0.002313280317403266 0.036524699208511154 0 -0.0024950707625640924 0.036775011932230678 0 -0.002313280317403266 0.036524699208511154 0 -0.0024950707625640924 0.036775011932230678 0 -0.0025663130363313136 0.036675566725694719 0 -0.0023434151021403541 0.036745833856474674 0 -0.0021476950354924829 0.03647348637652105 0 -0.002313280317403266 0.036524699208511154 0 -0.002313280317403266 0.036524699208511154 0 -0.0024081989338794003 0.03647054879565037 0 -0.0025663130363313136 0.036675566725694719 0 -0.0024081989338794003 0.03647054879565037 0 -0.0022505420926272912 0.03634151390486097 0 -0.0023832555813715116 0.036333635221277062 0 -0.002313280317403266 0.036524699208511154 0 -0.0024081989338794003 0.03647054879565037 0 -0.0022505420926272912 0.03634151390486097 0 -0.002313280317403266 0.036524699208511154 0 -0.0022505420926272912 0.03634151390486097 0 -0.0021283709087643586 0.036338457604111571 0 -0.0022505420926272912 0.03634151390486097 0 -0.0021283709087643586 0.036338457604111571 0 -0.0020943223171281254 0.036208393936211315 0 -0.0021283709087643586 0.036338457604111571 0 -0.0020943223171281254 0.036208393936211315 0 -0.0019764363354901823 0.036216716144357432 0 -0.0021283709087643586 0.036338457604111571 0 -0.0019764363354901823 0.036216716144357432 0 -0.0019732812079439888 0.036264116600074635 0 -0.0027846689520355269 0.036856944665170338 0 -0.0027124590576829452 0.036650828753427504 0 -0.0029109696759234177 0.036772962058957921 0 -0.0029730464714823892 0.036999401803601221 0 -0.0027846689520355269 0.036856944665170338 0 -0.0029109696759234177 0.036772962058957921 0 -0.0029730464714823892 0.036999401803601221 0 -0.0028992122405404703 0.037116485372335105 0 -0.0027846689520355269 0.036856944665170338 0 -0.0026730373985091567 0.03692890749476168 0 -0.0027846689520355269 0.036856944665170338 0 -0.0025663130363313136 0.036675566725694719 0 -0.0026730373985091567 0.03692890749476168 0 -0.0024950707625640924 0.036775011932230678 0 -0.0025663130363313136 0.036675566725694719 0 -0.0027846689520355269 0.036856944665170338 0 -0.0025663130363313136 0.036675566725694719 0 -0.0027124590576829452 0.036650828753427504 0 -0.0025663130363313136 0.036675566725694719 0 -0.0025662543215654167 0.036487226105363708 0 -0.0027124590576829452 0.036650828753427504 0 -0.0024081989338794003 0.03647054879565037 0 -0.0025663130363313136 0.036675566725694719 0 -0.0025662543215654167 0.036487226105363708 0 -0.0024081989338794003 0.03647054879565037 0 -0.0025662543215654167 0.036487226105363708 0 -0.0023832555813715116 0.036333635221277062 0 -0.0025662543215654167 0.036487226105363708 0 -0.0027124590576829452 0.036650828753427504 0 -0.0028038981374214817 0.036446968028345121 0 -0.0027124590576829452 0.036650828753427504 0 -0.0029109696759234177 0.036772962058957921 0 -0.0028038981374214817 0.036446968028345121 0 -0.0024510858500009064 0.036089138615149313 0 -0.0019634505252443786 0.035546550108000445 0 -0.0028038981374214817 0.036446968028345121 0 -0.0024465149707669004 0.036181130123292909 0 -0.003059301233261996 0.036085287274868663 0 -0.0024465149707669004 0.036181130123292909 0 -0.0021511352702023936 0.035953283633102552 0 -0.003059301233261996 0.036085287274868663 0 -0.0025662543215654167 0.036487226105363708 0 -0.0028038981374214817 0.036446968028345121 0 -0.002530561891862365 0.036339411968795893 0 -0.0028038981374214817 0.036446968028345121 0 -0.002530561891862365 0.036339411968795893 0 -0.0024465149707669004 0.036181130123292909 0 -0.002530561891862365 0.036339411968795893 0 -0.0024465149707669004 0.036181130123292909 0 -0.0023832555813715116 0.036333635221277062 0 -0.0025662543215654167 0.036487226105363708 0 -0.002530561891862365 0.036339411968795893 0 -0.0023832555813715116 0.036333635221277062 0 -0.0020943223171281254 0.036208393936211315 0 -0.0021082354687261416 0.036097733339622018 0 -0.0019922226628387046 0.036123514213222505 0 -0.0022505420926272912 0.03634151390486097 0 -0.0020943223171281254 0.036208393936211315 0 -0.0022254952112951872 0.0362103638942151 0 -0.0020943223171281254 0.036208393936211315 0 -0.0022254952112951872 0.0362103638942151 0 -0.0021082354687261416 0.036097733339622018 0 -0.0022254952112951872 0.0362103638942151 0 -0.0022275394117682304 0.036112581778182516 0 -0.0021082354687261416 0.036097733339622018 0 -0.0024465149707669004 0.036181130123292909 0 -0.0022254952112951872 0.0362103638942151 0 -0.0023832555813715116 0.036333635221277062 0 -0.0024465149707669004 0.036181130123292909 0 -0.0022254952112951872 0.0362103638942151 0 -0.0022275394117682304 0.036112581778182516 0 -0.0022505420926272912 0.03634151390486097 0 -0.0022254952112951872 0.0362103638942151 0 -0.0023832555813715116 0.036333635221277062 0 -0.0024465149707669004 0.036181130123292909 0 -0.0022275394117682304 0.036112581778182516 0 -0.0021511352702023936 0.035953283633102552 0 -0.0022275394117682304 0.036112581778182516 0 -0.0021511352702023936 0.035953283633102552 0 -0.0021082354687261416 0.036097733339622018 0 -0.0021511352702023936 0.035953283633102552 0 -0.0021082354687261416 0.036097733339622018 0 -0.0020453623100174833 0.036007756853893805 0 -1.7344703172632635e-05 0.032231262695914309 0 -0.00036418841779147426 0.03231217157859631 0 -5.8598263389624107e-05 0.032073334634008938 0 -0.0021511352702023936 0.035953283633102552 0 -0.0021263845504039601 0.035910183017537872 0 -0.0021673151961303129 0.035904482853506517 0 -0.00097504689382532314 0.034296072052287921 0 -0.00081020362884498163 0.033079481775092644 0 -4.7005847754101403e-05 0.032376651762627336 0 -1.7344703172632635e-05 0.032231262695914309 0 -0.00036418841779147426 0.03231217157859631 0 -0.0021511352702023936 0.035953283633102552 0 -0.0021263845504039601 0.035910183017537872 0 -0.0020453623100174833 0.036007756853893805 0 -4.7005847754101403e-05 0.032376651762627336 0 -1.7344703172632635e-05 0.032231262695914309 0 8.2121553883377797e-05 0.032315150177862392 0 -0.00081020362884498163 0.033079481775092644 0 -0.0003729582595139417 0.032522504437513165 0 -0.0021511352702023936 0.035953283633102552 0 -0.0021673151961303129 0.035904482853506517 0 -0.002179881542079585 0.035907103970550261 0 -0.00081020362884498163 0.033079481775092644 0 -0.0019634505252443786 0.035546550108000445 0 -0.00026055176702930415 0.032438833041826313 0 -0.00056311007008127273 0.03246167435590034 0 -0.00043870445378210948 0.032213740366782283 0 -5.1674488424582422e-05 0.032598223233221667 0 -0.00056311007008127273 0.03246167435590034 0 -0.00049853425081863455 0.032960854395718706 0 -0.00056311007008127273 0.03246167435590034 0 -0.00071942666003766906 0.0326580713065793 0 -0.00080448110152859717 0.032280663904441016 0 -0.00071942666003766906 0.0326580713065793 0 -0.00049853425081863455 0.032960854395718706 0 -0.00097323556926765106 0.032969759259145769 0 -0.00056311007008127273 0.03246167435590034 0 -0.00071942666003766906 0.0326580713065793 0 -0.00049853425081863455 0.032960854395718706 0 -0.0019634505252443786 0.035546550108000445 0 -0.003849992402084391 0.037383297895748513 0 -0.003059301233261996 0.036085287274868663 0 -0.0031358851031500772 0.036509870311169861 0 -0.0036150084253348635 0.036695235050899618 0 -0.0019634505252443786 0.035546550108000445 0 -0.0035299106831999457 0.037099444543388968 0 -0.0033049053103367193 0.036777520836790908 0 -0.0031358851031500772 0.036509870311169861 0 -0.0036150084253348635 0.036695235050899618 0 -0.0028038981374214817 0.036446968028345121 0 -0.003059301233261996 0.036085287274868663 0 -0.0031358851031500772 0.036509870311169861 0 -0.0030448947946275684 0.036684802019835337 0 -0.0028038981374214817 0.036446968028345121 0 -0.0031358851031500772 0.036509870311169861 0 -0.0037298865352390952 0.038547810782148223 0 -0.0044048644655000921 0.03811397742240457 0 -0.0044386613945178168 0.038429601644396544 0 -0.0022371781271792925 0.036233812306278819 0 -0.0036434529831396406 0.037348833210909538 0 -0.0035276227139340588 0.036273455829350938 0 -0.003849992402084391 0.037383297895748513 0 -0.0035299106831999457 0.037099444543388968 0 -0.0035299106831999457 0.037099444543388968 0 -0.0022661169680033449 0.035599735503801959 0 -0.0038617642891433579 0.039757983167157708 0 -0.0040536212448385248 0.039626560278972475 0 -0.0039571308375307328 0.03980208365082024 0 -0.00071942666003766906 0.0326580713065793 0 -0.00097323556926765106 0.032969759259145769 0 -0.00080448110152859717 0.032280663904441016 0 -0.0040536212448385248 0.039626560278972475 0 -0.0039571308375307328 0.03980208365082024 0 -0.004010427533644367 0.039891765450869712 0 -0.0038891373007597686 0.039959495582326483 0 -0.004010427533644367 0.039891765450869712 0 -0.0039908699894748902 0.039964586405781717 0 -0.0038891373007597686 0.039959495582326483 0 -0.0039571308375307328 0.03980208365082024 0 -0.004010427533644367 0.039891765450869712 0 -0.0037853677462563393 0.039843104620641993 0 -0.0038891373007597686 0.039959495582326483 0 -0.0035388089278506982 0.03969559803261944 0 -0.00056311007008127273 0.03246167435590034 0 -0.00080448110152859717 0.032280663904441016 0 -0.00043870445378210948 0.032213740366782283 0 -0.00080448110152859717 0.032280663904441016 0 -0.00043870445378210948 0.032213740366782283 0 -0.00053483237325897164 0.032044136044750988 0 -0.00043870445378210948 0.032213740366782283 0 -0.00053483237325897164 0.032044136044750988 0 -0.00033566639162782097 0.031991753565374551 0 -0.00080448110152859717 0.032280663904441016 0 -0.00053483237325897164 0.032044136044750988 0 -0.00064093531809389067 0.031852984916111549 0 -0.00053483237325897164 0.032044136044750988 0 -0.00043833219464332407 0.031867737427624228 0 -0.00033566639162782097 0.031991753565374551 0 -0.00053483237325897164 0.032044136044750988 0 -0.00064093531809389067 0.031852984916111549 0 -0.00043833219464332407 0.031867737427624228 0 -0.00064093531809389067 0.031852984916111549 0 -0.00043833219464332407 0.031867737427624228 0 -0.00032321168385635024 0.03165630758931056 0 -0.00043833219464332407 0.031867737427624228 0 -0.00028108405534997224 0.031774549163976526 0 -0.00033566639162782097 0.031991753565374551 0 -0.0043197923154802359 0.040815744874260464 0 -0.0026936518502209484 0.037511538083049634 0 -0.0022661169680033449 0.035599735503801959 0 -0.0026936518502209484 0.037511538083049634 0 -0.0038891373007597686 0.039959495582326483 0 -0.0031712948306134294 0.03953788190934588 0 -0.0035388089278506982 0.03969559803261944 0 -0.0031712948306134294 0.03953788190934588 0 -0.0035388089278506982 0.03969559803261944 0 -0.0033961887771063785 0.039146631258608108 0 -0.0040221729123162495 0.039442133405891672 0 -0.0035388089278506982 0.03969559803261944 0 -0.0036659557943359749 0.039349977916711874 0 -0.0035388089278506982 0.03969559803261944 0 -0.0036659557943359749 0.039349977916711874 0 -0.0033961887771063785 0.039146631258608108 0 -0.0039035192161354839 0.039094027448854637 0 -0.0036659557943359749 0.039349977916711874 0 -0.0036000722176889348 0.038941910651576671 0 -0.0036659557943359749 0.039349977916711874 0 -0.0036000722176889348 0.038941910651576671 0 -0.0033961887771063785 0.039146631258608108 0 -0.0031712948306134294 0.03953788190934588 0 -0.0033961887771063785 0.039146631258608108 0 -0.0029484529332121936 0.03847334385605284 0 -0.0036000722176889348 0.038941910651576671 0 -0.0033435296918877862 0.038688523871525674 0 -0.0033961887771063785 0.039146631258608108 0 -0.0038158790902563977 0.038736037763352417 0 -0.0036000722176889348 0.038941910651576671 0 -0.0035742434763572518 0.038554444268820841 0 -0.0036000722176889348 0.038941910651576671 0 -0.0033435296918877862 0.038688523871525674 0 -0.0035742434763572518 0.038554444268820841 0 -0.0033435296918877862 0.038688523871525674 0 -0.0033961887771063785 0.039146631258608108 0 -0.0029484529332121936 0.03847334385605284 0 -0.0026936518502209484 0.037511538083049634 0 -0.0030694596114129759 0.039259800433271513 0 -0.0029685134521911386 0.039155361375833628 0 -0.0026669648246397627 0.03877011550741577 0 -0.0029484529332121936 0.03847334385605284 0 -0.0026936518502209484 0.037511538083049634 0 -0.0013414371859156238 0.035061242762831242 0 -0.00043833219464332407 0.031867737427624228 0 -0.00032321168385635024 0.03165630758931056 0 -0.00028108405534997224 0.031774549163976526 0 -0.0018565852778699556 0.037427521107469545 0 -0.00045719822296025624 0.034656873236878251 0 -3.4436362250770409e-07 0.03586787326072164 0 -8.3907776576754486e-06 0.036174304286912706 0 -6.3482974652749336e-06 0.034236886684787797 0 -0.0026669648246397627 0.03877011550741577 0 -0.0029484529332121936 0.03847334385605284 0 -0.0022425967340383114 0.038281606415286364 0 -0.0029484529332121936 0.03847334385605284 0 -0.0032105427829712263 0.038250826308820499 0 -0.0022425967340383114 0.038281606415286364 0 -0.0013414371859156238 0.035061242762831242 0 -0.00045719822296025624 0.034656873236878251 0 5.9479506281222431e-08 0.038547510853755719 0 -3.4436362250770409e-07 0.03586787326072164 0 -8.3907776576754486e-06 0.036174304286912706 0 -0.0023705978329057547 0.038869870219430995 0 -0.0018565852778699556 0.037427521107469545 0 -0.0038706639835763036 0.038246273091067574 0 -0.0032105427829712263 0.038250826308820499 0 -0.0035742434763572518 0.038554444268820841 0 -0.0033435296918877862 0.038688523871525674 0 -0.0032105427829712263 0.038250826308820499 0 -0.0035742434763572518 0.038554444268820841 0 -0.0033435296918877862 0.038688523871525674 0 -0.0029484529332121936 0.03847334385605284 0 -0.0032105427829712263 0.038250826308820499 0 -0.00019649277600447884 0.031400696049689668 0 -5.7394465431086015e-07 0.033186281511046932 0 7.2375810735094304e-07 0.030316924575471509 0 -9.7226920306834152e-05 0.031816272477243578 0 -0.00019649277600447884 0.031400696049689668 0 -0.0001397200881514236 0.031552979685711559 0 -9.7226920306834152e-05 0.031816272477243578 0 -3.1314037451594952e-05 0.031697585134674092 0 -0.0001397200881514236 0.031552979685711559 0 -0.00019649277600447884 0.031400696049689668 0 -0.0001397200881514236 0.031552979685711559 0 -0.00017613976951978593 0.031298128278080317 0 -0.00019649277600447884 0.031400696049689668 0 -0.00017613976951978593 0.031298128278080317 0 -0.00011503272694603468 0.030874069386919525 0 -9.7226920306834152e-05 0.031816272477243578 0 -0.00019649277600447884 0.031400696049689668 0 -5.7394465431086015e-07 0.033186281511046932 0 -3.4436362250770409e-07 0.03586787326072164 0 4.19860380218818e-07 0.033191936905353672 0 -6.3482974652749336e-06 0.034236886684787797 0 -5.7394465431086015e-07 0.033186281511046932 0 0.00089419986390399699 0.031894627751150754 0 0.00015751579992645949 0.031819116414910316 0 -9.7226920306834152e-05 0.031816272477243578 0 -5.7394465431086015e-07 0.033186281511046932 0 0.00015751579992645949 0.031819116414910316 0 6.243369861791784e-07 0.033189443440945376 0 -0.00045719822296025624 0.034656873236878251 0 -0.00045719822296025624 0.034656873236878251 0 -0.00012512224945743087 0.034019592472811513 0 0.00015751579992645949 0.031819116414910316 0 -3.1314037451594952e-05 0.031697585134674092 0 -4.8647806325165332e-05 0.031656240946295842 0 3.6004989626247394e-05 0.031740196280755917 0 0.00015751579992645949 0.031819116414910316 0 -4.8647806325165332e-05 0.031656240946295842 0 -9.7226920306834152e-05 0.031816272477243578 0 0.00015751579992645949 0.031819116414910316 0 -3.1314037451594952e-05 0.031697585134674092 0 -3.1314037451594952e-05 0.031697585134674092 0 -4.8647806325165332e-05 0.031656240946295842 0 -0.0001397200881514236 0.031552979685711559 0 -4.8647806325165332e-05 0.031656240946295842 0 -0.00014198871172141743 0.031660313521600279 0 -0.00014636564827535619 0.031586237522393708 0 -4.8647806325165332e-05 0.031656240946295842 0 -0.00014942661471167471 0.031665954044042363 0 -0.00014198871172141743 0.031660313521600279 0 -0.00032321168385635024 0.03165630758931056 0 3.6004989626247394e-05 0.031740196280755917 0 -0.00014942661471167471 0.031665954044042363 0 3.6004989626247394e-05 0.031740196280755917 0 -4.8647806325165332e-05 0.031656240946295842 0 -0.00014942661471167471 0.031665954044042363 0 -0.00014942661471167471 0.031665954044042363 0 -0.00014198871172141743 0.031660313521600279 0 -0.00028108405534997224 0.031774549163976526 0 -0.00032321168385635024 0.03165630758931056 0 -0.00014942661471167471 0.031665954044042363 0 -0.00028108405534997224 0.031774549163976526 0 -0.00014198871172141743 0.031660313521600279 0 -0.00014636564827535619 0.031586237522393708 0 -0.00018344086002383645 0.031778318758201016 0 -0.00014198871172141743 0.031660313521600279 0 -0.00028108405534997224 0.031774549163976526 0 -0.00018344086002383645 0.031778318758201016 0 -0.00014636564827535619 0.031586237522393708 0 -0.00014326899214938099 0.031496969232057817 0 -0.00012923162827598036 0.03168762203606721 0 -4.8647806325165332e-05 0.031656240946295842 0 -0.00014636564827535619 0.031586237522393708 0 -0.0001397200881514236 0.031552979685711559 0 -0.00014636564827535619 0.031586237522393708 0 -0.0001397200881514236 0.031552979685711559 0 -0.00014326899214938099 0.031496969232057817 0 -0.0001397200881514236 0.031552979685711559 0 -0.00017613976951978593 0.031298128278080317 0 -0.00014326899214938099 0.031496969232057817 0 -0.00017613976951978593 0.031298128278080317 0 -0.00014326899214938099 0.031496969232057817 0 -0.00010858671458505681 0.031316935326497541 0 -0.00014326899214938099 0.031496969232057817 0 2.0647050842079674e-07 0.031763036367289353 0 -0.00012923162827598036 0.03168762203606721 0 2.0647050842079674e-07 0.031763036367289353 0 -0.00012923162827598036 0.03168762203606721 0 -0.00012002679336669397 0.031856889750283036 0 2.0647050842079674e-07 0.031763036367289353 0 -0.00012002679336669397 0.031856889750283036 0 -1.9172411675452864e-05 0.032121788382678693 0 -0.00012923162827598036 0.03168762203606721 0 -0.00012002679336669397 0.031856889750283036 0 -0.00018344086002383645 0.031778318758201016 0 -0.00014636564827535619 0.031586237522393708 0 -0.00012923162827598036 0.03168762203606721 0 -0.00018344086002383645 0.031778318758201016 0 -0.00012002679336669397 0.031856889750283036 0 -0.00018344086002383645 0.031778318758201016 0 -0.00018868546117710119 0.031997933484175262 0 -0.00028108405534997224 0.031774549163976526 0 -0.00018344086002383645 0.031778318758201016 0 -0.00033566639162782097 0.031991753565374551 0 -0.00018344086002383645 0.031778318758201016 0 -0.00033566639162782097 0.031991753565374551 0 -0.00018868546117710119 0.031997933484175262 0 -0.00026055176702930415 0.032438833041826313 0 -0.00024329852922582451 0.032182620011358083 0 -1.9172411675452864e-05 0.032121788382678693 0 -0.00043870445378210948 0.032213740366782283 0 -0.00033566639162782097 0.031991753565374551 0 -0.00024329852922582451 0.032182620011358083 0 -0.00033566639162782097 0.031991753565374551 0 -0.00018868546117710119 0.031997933484175262 0 -0.00024329852922582451 0.032182620011358083 0 -0.00026055176702930415 0.032438833041826313 0 -0.00043870445378210948 0.032213740366782283 0 -0.00024329852922582451 0.032182620011358083 0 -0.00081020362884498163 0.033079481775092644 0 9.1867134773212196e-05 0.031976381020711472 0 -0.00018868546117710119 0.031997933484175262 0 -0.00024329852922582451 0.032182620011358083 0 -1.9172411675452864e-05 0.032121788382678693 0 -0.00012002679336669397 0.031856889750283036 0 -0.00018868546117710119 0.031997933484175262 0 -1.9172411675452864e-05 0.032121788382678693 0 -1.7344703172632635e-05 0.032231262695914309 0 -5.8598263389624107e-05 0.032073334634008938 0 0.00014861989595510208 0.032224532736095345 0 9.1867134773212196e-05 0.031976381020711472 0 0.00018513369544818898 0.031921325378417909 0 -5.8598263389624107e-05 0.032073334634008938 0 0.00029958071957521162 0.032036534006097767 0 0.00014861989595510208 0.032224532736095345 0 -5.8598263389624107e-05 0.032073334634008938 0 0.00029958071957521162 0.032036534006097767 0 0.00026358259462908084 0.03185598244793808 0 -9.2809601722109678e-05 0.025018098077599894 0 -0.00067834758822053146 0.024767964776564219 0 0.0002463536496966309 0.02439548777112905 0 -9.2809601722109678e-05 0.025018098077599894 0 -0.00067834758822053146 0.024767964776564219 0 -0.00067859516674001745 0.02612546058285015 0 0.00029958071957521162 0.032036534006097767 0 0.00026358259462908084 0.03185598244793808 0 0.00052757019230606007 0.031601267439408227 0 -0.00067834758822053146 0.024767964776564219 0 0.0002463536496966309 0.02439548777112905 0 0.00091008134378798926 0.024814377405703917 0 -0.0001017407012052924 0.028205567051849109 0 0.00055719478714809302 0.02834477972387172 0 0.0002463536496966309 0.02439548777112905 0 0.00091008134378798926 0.024814377405703917 0 0.00021945963525415665 0.024967593295760537 0 2.0647050842079674e-07 0.031763036367289353 0 -1.9172411675452864e-05 0.032121788382678693 0 0.00026358259462908084 0.03185598244793808 0 0.00026358259462908084 0.03185598244793808 0 5.3837366847680596e-05 0.031547963333037707 0 0.00052757019230606007 0.031601267439408227 0 2.0647050842079674e-07 0.031763036367289353 0 0.00026358259462908084 0.03185598244793808 0 5.3837366847680596e-05 0.031547963333037707 0 -0.00014326899214938099 0.031496969232057817 0 2.0647050842079674e-07 0.031763036367289353 0 5.3837366847680596e-05 0.031547963333037707 0 -7.2106127591928414e-05 0.030994492738624712 0 0.00052757019230606007 0.031601267439408227 0 -1.7482687148254116e-05 0.030380293218935959 0 -0.00014326899214938099 0.031496969232057817 0 5.3837366847680596e-05 0.031547963333037707 0 -0.00010858671458505681 0.031316935326497541 0 5.3837366847680596e-05 0.031547963333037707 0 -0.00010858671458505681 0.031316935326497541 0 -7.2106127591928414e-05 0.030994492738624712 0 -0.00017613976951978593 0.031298128278080317 0 -0.00010858671458505681 0.031316935326497541 0 -7.2106127591928414e-05 0.030994492738624712 0 5.3837366847680596e-05 0.031547963333037707 0 -7.2106127591928414e-05 0.030994492738624712 0 0.00052757019230606007 0.031601267439408227 0 0.00091008134378798926 0.024814377405703917 0 0.00021945963525415665 0.024967593295760537 0 -3.7187006402505989e-05 0.026255810377279639 0 0.00016357240759214296 0.029060051768011887 0 7.2375810735094304e-07 0.030316924575471509 0 3.3724301949958725e-07 0.027441269264182444 0 0.00016357240759214296 0.029060051768011887 0 3.3724301949958725e-07 0.027441269264182444 0 -3.7187006402505989e-05 0.026255810377279639 0 0.00052757019230606007 0.031601267439408227 0 0.00016357240759214296 0.029060051768011887 0 -1.7482687148254116e-05 0.030380293218935959 0 0.00091008134378798926 0.024814377405703917 0 0.00016357240759214296 0.029060051768011887 0 -3.7187006402505989e-05 0.026255810377279639 0 0.00055719478714809302 0.02834477972387172 0 0.00029417838400377287 0.028973013654332674 0 0.00016357240759214296 0.029060051768011887 0 7.2375810735094304e-07 0.030316924575471509 0 -1.7482687148254116e-05 0.030380293218935959 0 7.2375810735094304e-07 0.030316924575471509 0 -0.00011503272694603468 0.030874069386919525 0 -1.7482687148254116e-05 0.030380293218935959 0 -0.00019649277600447884 0.031400696049689668 0 7.2375810735094304e-07 0.030316924575471509 0 -0.00011503272694603468 0.030874069386919525 0 -0.00017613976951978593 0.031298128278080317 0 -7.2106127591928414e-05 0.030994492738624712 0 -0.00011503272694603468 0.030874069386919525 0 -7.2106127591928414e-05 0.030994492738624712 0 -0.00011503272694603468 0.030874069386919525 0 -1.7482687148254116e-05 0.030380293218935959 0 -8.6362747478124602e-07 0.024569216196652737 0 -0.00016773539255743303 0.025510337923609364 0 3.3724301949958725e-07 0.027441269264182444 0 -8.6362747478124602e-07 0.024569216196652737 0 -0.00016773539255743303 0.025510337923609364 0 -0.00024495993390725659 0.024154944341381601 0 -0.00016773539255743303 0.025510337923609364 0 3.3724301949958725e-07 0.027441269264182444 0 -3.7187006402505989e-05 0.026255810377279639 0 -0.00016773539255743303 0.025510337923609364 0 -3.7187006402505989e-05 0.026255810377279639 0 -4.6955791103707642e-05 0.024843147717423159 0 0.00021945963525415665 0.024967593295760537 0 -3.7187006402505989e-05 0.026255810377279639 0 -4.6955791103707642e-05 0.024843147717423159 0 0.0002463536496966309 0.02439548777112905 0 0.00021945963525415665 0.024967593295760537 0 -4.6955791103707642e-05 0.024843147717423159 0 -0.00016773539255743303 0.025510337923609364 0 -4.6955791103707642e-05 0.024843147717423159 0 -0.00024495993390725659 0.024154944341381601 0 -4.6955791103707642e-05 0.024843147717423159 0 -0.00024495993390725659 0.024154944341381601 0 3.5027454047692269e-05 0.024049292819300776 0 -0.00043309908636052528 0.023239410902830049 0 -0.00024495993390725659 0.024154944341381601 0 3.5027454047692269e-05 0.024049292819300776 0 -0.0003160513934652308 0.023190560482327958 0 -0.00043309908636052528 0.023239410902830049 0 3.5027454047692269e-05 0.024049292819300776 0 -0.0003160513934652308 0.023190560482327958 0 3.5027454047692269e-05 0.024049292819300776 0 0.00058356482240780512 0.024053131881644794 0 0.0002463536496966309 0.02439548777112905 0 -4.6955791103707642e-05 0.024843147717423159 0 3.5027454047692269e-05 0.024049292819300776 0 0.0002463536496966309 0.02439548777112905 0 3.5027454047692269e-05 0.024049292819300776 0 0.00058356482240780512 0.024053131881644794 0 0.00058356482240780512 0.024053131881644794 0 0.0025444673238575778 0.026629954076431105 0 0.00048273070974987233 0.025679822575946209 0 -9.2809601722109678e-05 0.025018098077599894 0 0.0002463536496966309 0.02439548777112905 0 0.00058356482240780512 0.024053131881644794 0 -9.2809601722109678e-05 0.025018098077599894 0 0.00058356482240780512 0.024053131881644794 0 0.00048273070974987233 0.025679822575946209 0 -9.2809601722109678e-05 0.025018098077599894 0 0.00048273070974987233 0.025679822575946209 0 -6.6055453666832782e-05 0.026336677080467649 0 0.0010741739862175389 0.023766396934056869 0 -0.00083034799234309772 0.025904638658995172 0 -0.0003160513934652308 0.023190560482327958 0 0.00058356482240780512 0.024053131881644794 0 6.4125784665891019e-05 0.022436259651877725 0 0.0059148996386774655 0.032653959824658796 0 0.0037701560405392891 0.027154774499261024 0 0.0044019975677242976 0.03097360721014622 0 0.0044019975677242976 0.03097360721014622 0 0.0022636215042673171 0.028583220461465348 0 0.00064634274531134123 0.028793917087813221 0 -0.0014137949207796046 0.030506237042378485 0 -0.00083034799234309772 0.025904638658995172 0 0.0043752423554166697 0.030956910093215689 0 0.0010379079780796505 0.029767047438915697 0 0.0037701560405392891 0.027154774499261024 0 0.0044019975677242976 0.03097360721014622 0 0.0022636215042673171 0.028583220461465348 0 0.0044019975677242976 0.03097360721014622 0 0.0015193732022860599 0.031164781052049534 0 0.0025527682322329351 0.032282479742086603 0 0.001278744918802468 0.03247913815536542 0 0.0015193732022860599 0.031164781052049534 0 -0.0001163559316358698 0.032162039080991495 0 0.001278744918802468 0.03247913815536542 0 0.0015193732022860599 0.031164781052049534 0 0.0025527682322329351 0.032282479742086603 0 0.0022636215042673171 0.028583220461465348 0 0.00064634274531134123 0.028793917087813221 0 0.00034603334649456203 0.027485581220580819 0 0.0037701560405392891 0.027154774499261024 0 0.0022636215042673171 0.028583220461465348 0 0.00034603334649456203 0.027485581220580819 0 0.0025444673238575778 0.026629954076431105 0 0.00034603334649456203 0.027485581220580819 0 0.00048273070974987233 0.025679822575946209 0 -0.00083034799234309772 0.025904638658995172 0 0.0018994978786201044 0.02734678688250549 0 0.00064634274531134123 0.028793917087813221 0 0.00034603334649456203 0.027485581220580819 0 -0.00044076087094468503 0.027209267707815878 0 0.00034603334649456203 0.027485581220580819 0 0.00048273070974987233 0.025679822575946209 0 -6.6055453666832782e-05 0.026336677080467649 0 -9.2809601722109678e-05 0.025018098077599894 0 -6.6055453666832782e-05 0.026336677080467649 0 -0.00067859516674001745 0.02612546058285015 0 -0.00067834758822053146 0.024767964776564219 0 -0.00067859516674001745 0.02612546058285015 0 -0.0019023517467848189 0.027447146231070391 0 -6.6055453666832782e-05 0.026336677080467649 0 -0.00067859516674001745 0.02612546058285015 0 -0.00044076087094468503 0.027209267707815878 0 -0.00067859516674001745 0.02612546058285015 0 -0.00044076087094468503 0.027209267707815878 0 -0.0019023517467848189 0.027447146231070391 0 0.00034603334649456203 0.027485581220580819 0 -6.6055453666832782e-05 0.026336677080467649 0 -0.00044076087094468503 0.027209267707815878 0 0.00029958071957521162 0.032036534006097767 0 0.00014861989595510208 0.032224532736095345 0 0.00023916782952070723 0.032422521419319797 0 -0.0001017407012052924 0.028205567051849109 0 -0.0011194518963791459 0.031300520422316673 0 -4.7005847754101403e-05 0.032376651762627336 0 0.00023916782952070723 0.032422521419319797 0 8.2121553883377797e-05 0.032315150177862392 0 -0.0021263845504039601 0.035910183017537872 0 -0.0018418231050810923 0.03596054847497878 0 -0.0020453623100174833 0.036007756853893805 0 -0.00097504689382532314 0.034296072052287921 0 -0.0011194518963791459 0.031300520422316673 0 -1.7344703172632635e-05 0.032231262695914309 0 0.00014861989595510208 0.032224532736095345 0 8.2121553883377797e-05 0.032315150177862392 0 0.00014861989595510208 0.032224532736095345 0 0.00023916782952070723 0.032422521419319797 0 8.2121553883377797e-05 0.032315150177862392 0 -0.0011194518963791459 0.031300520422316673 0 -0.0018264341568211852 0.034878413741909774 0 -0.0018418231050810923 0.03596054847497878 0 -0.0019922226628387046 0.036123514213222505 0 -0.0019133691105857815 0.036227455447290814 0 -0.0018418231050810923 0.03596054847497878 0 -0.0020453623100174833 0.036007756853893805 0 -0.0019922226628387046 0.036123514213222505 0 -0.0021082354687261416 0.036097733339622018 0 -0.0020453623100174833 0.036007756853893805 0 -0.0019922226628387046 0.036123514213222505 0 -0.0019922226628387046 0.036123514213222505 0 -0.0019764363354901823 0.036216716144357432 0 -0.0019133691105857815 0.036227455447290814 0 -0.0020943223171281254 0.036208393936211315 0 -0.0019922226628387046 0.036123514213222505 0 -0.0019764363354901823 0.036216716144357432 0 0.0015193732022860599 0.031164781052049534 0 -0.0015267590954939926 0.030496999128588328 0 -0.0001163559316358698 0.032162039080991495 0 0.00064634274531134123 0.028793917087813221 0 -0.00044076087094468503 0.027209267707815878 0 -0.0019023517467848189 0.027447146231070391 0 0.0010379079780796505 0.029767047438915697 0 -0.0011194518963791459 0.031300520422316673 0 -0.0015267590954939926 0.030496999128588328 0 -0.0001163559316358698 0.032162039080991495 0 -0.0017858921355922081 0.032832884586320409 0 -0.0001163559316358698 0.032162039080991495 0 0.0006831024938331315 0.033485250896717396 0 -0.00038973042841448024 0.033897162132341507 0 0.001278744918802468 0.03247913815536542 0 -0.0001163559316358698 0.032162039080991495 0 0.0006831024938331315 0.033485250896717396 0 -0.00038973042841448024 0.033897162132341507 0 -0.0016338709586349667 0.035042827998981597 0 0.00116500275463944 0.035483494123273708 0 0.0006831024938331315 0.033485250896717396 0 -0.00038973042841448024 0.033897162132341507 0 0.00116500275463944 0.035483494123273708 0 -0.0001163559316358698 0.032162039080991495 0 -0.00038973042841448024 0.033897162132341507 0 -0.0017858921355922081 0.032832884586320409 0 -0.00038973042841448024 0.033897162132341507 0 -0.0017858921355922081 0.032832884586320409 0 -0.0016338709586349667 0.035042827998981597 0 -0.0019133691105857815 0.036227455447290814 0 -0.0018658850115760689 0.036149246540459888 0 -0.0017778689514580917 0.035888434983454412 0 -0.0018264341568211852 0.034878413741909774 0 -0.0018187082036913314 0.035589435470649966 0 -0.0017858921355922081 0.032832884586320409 0 -0.0016338709586349667 0.035042827998981597 0 -0.0017778689514580917 0.035888434983454412 0 -0.0019764363354901823 0.036216716144357432 0 -0.0019133691105857815 0.036227455447290814 0 -0.0018658850115760689 0.036149246540459888 0 -0.0019764363354901823 0.036216716144357432 0 -0.0018658850115760689 0.036149246540459888 0 -0.0019732812079439888 0.036264116600074635 0 -0.0018658850115760689 0.036149246540459888 0 -0.0018750168345189062 0.036170491793421439 0 -0.0017778689514580917 0.035888434983454412 0 -0.0018658850115760689 0.036149246540459888 0 -0.0018750168345189062 0.036170491793421439 0 -0.0019732812079439888 0.036264116600074635 0 -0.0018750168345189062 0.036170491793421439 0 -0.0019732812079439888 0.036264116600074635 0 -0.001989186006067979 0.036364232434464495 0 -0.0021585577550748817 0.036737301775101108 0 -0.001989186006067979 0.036364232434464495 0 -0.0018840567845794494 0.03658869192659351 0 -0.001989186006067979 0.036364232434464495 0 -0.0018588798861287187 0.03623391133991484 0 -0.0018840567845794494 0.03658869192659351 0 -0.0018750168345189062 0.036170491793421439 0 -0.001989186006067979 0.036364232434464495 0 -0.0018588798861287187 0.03623391133991484 0 -0.0018588798861287187 0.03623391133991484 0 -0.0018840567845794494 0.03658869192659351 0 -0.0017485634149824022 0.036318044666203045 0 -0.0017485634149824022 0.036318044666203045 0 -0.0017778689514580917 0.035888434983454412 0 -0.0013486733507655235 0.036616845882743748 0 -0.0018840567845794494 0.03658869192659351 0 -0.0017485634149824022 0.036318044666203045 0 -0.0013486733507655235 0.036616845882743748 0 -0.0018750168345189062 0.036170491793421439 0 -0.0018588798861287187 0.03623391133991484 0 -0.0017778689514580917 0.035888434983454412 0 -0.0018588798861287187 0.03623391133991484 0 -0.0017485634149824022 0.036318044666203045 0 -0.0017778689514580917 0.035888434983454412 0 -0.0018840567845794494 0.03658869192659351 0 -0.0013486733507655235 0.036616845882743748 0 -0.0015432310705435831 0.037151138598545193 0 -0.0013486733507655235 0.036616845882743748 0 -0.00081671728965307432 0.037157225115367579 0 -0.0015432310705435831 0.037151138598545193 0 -0.0018840567845794494 0.03658869192659351 0 -0.0019734809700804692 0.037089522357779917 0 -0.0015432310705435831 0.037151138598545193 0 -0.0021585577550748817 0.036737301775101108 0 -0.0018840567845794494 0.03658869192659351 0 -0.0019734809700804692 0.037089522357779917 0 -0.0013486733507655235 0.036616845882743748 0 7.4889711152539344e-05 0.03650987329339403 0 -0.00081671728965307432 0.037157225115367579 0 -0.0017778689514580917 0.035888434983454412 0 -0.0013486733507655235 0.036616845882743748 0 7.4889711152539344e-05 0.03650987329339403 0 -0.0016338709586349667 0.035042827998981597 0 -0.0017778689514580917 0.035888434983454412 0 7.4889711152539344e-05 0.03650987329339403 0 -0.0015512614246356916 0.035036051335091932 0 0.00056643870504133169 0.035983896049416951 0 0.00116500275463944 0.035483494123273708 0 0.003174197157838861 0.034820629605455747 0 0.003890571970937058 0.036594205271697357 0 0.00056643870504133169 0.035983896049416951 0 0.0023793172100511155 0.036789919125686549 0 0.00116500275463944 0.035483494123273708 0 0.003174197157838861 0.034820629605455747 0 0.0020070353775801029 0.033608144286641578 0 0.0050487983134787084 0.035044708636248194 0 0.003174197157838861 0.034820629605455747 0 0.003890571970937058 0.036594205271697357 0 0.0050487983134787084 0.035044708636248194 0 0.0055871156984551463 0.036317547100116136 0 0.003890571970937058 0.036594205271697357 0 0.0050487983134787084 0.035044708636248194 0 0.003174197157838861 0.034820629605455747 0 0.0037713590268149996 0.033285885363897073 0 0.0050487983134787084 0.035044708636248194 0 0.0059148996386774655 0.032653959824658796 0 0.0037713590268149996 0.033285885363897073 0 0.003174197157838861 0.034820629605455747 0 0.0037713590268149996 0.033285885363897073 0 0.0020070353775801029 0.033608144286641578 0 0.0059148996386774655 0.032653959824658796 0 0.0044019975677242976 0.03097360721014622 0 0.0037713590268149996 0.033285885363897073 0 0.0044019975677242976 0.03097360721014622 0 0.0037713590268149996 0.033285885363897073 0 0.0025527682322329351 0.032282479742086603 0 0.001278744918802468 0.03247913815536542 0 0.0025527682322329351 0.032282479742086603 0 0.0020070353775801029 0.033608144286641578 0 0.0006831024938331315 0.033485250896717396 0 0.00116500275463944 0.035483494123273708 0 0.0020070353775801029 0.033608144286641578 0 0.0037713590268149996 0.033285885363897073 0 0.0025527682322329351 0.032282479742086603 0 0.0020070353775801029 0.033608144286641578 0 0.001278744918802468 0.03247913815536542 0 0.0006831024938331315 0.033485250896717396 0 0.0020070353775801029 0.033608144286641578 0 0.00068895016712274492 0.03823356775812705 0 -0.00026035306635691931 0.037772015849994303 0 -0.00022069464740264079 0.039026923955956888 0 0.00068895016712274492 0.03823356775812705 0 -0.00022069464740264079 0.039026923955956888 0 0.0011684970048882201 0.039079369039058981 0 0.00068895016712274492 0.03823356775812705 0 0.0015599625772407285 0.038212585740624798 0 0.0011684970048882201 0.039079369039058981 0 0.00068895016712274492 0.03823356775812705 0 0.0015599625772407285 0.038212585740624798 0 0.0011849944508803857 0.037153788440101095 0 0.00068895016712274492 0.03823356775812705 0 0.0011849944508803857 0.037153788440101095 0 -0.00026035306635691931 0.037772015849994303 0 7.4889711152539344e-05 0.03650987329339403 0 0.0011849944508803857 0.037153788440101095 0 -0.00026035306635691931 0.037772015849994303 0 7.4889711152539344e-05 0.03650987329339403 0 -0.00026035306635691931 0.037772015849994303 0 -0.00081671728965307432 0.037157225115367579 0 -0.00026035306635691931 0.037772015849994303 0 -0.00081671728965307432 0.037157225115367579 0 -0.0014284910420988908 0.03797840538485301 0 -0.0019734809700804692 0.037089522357779917 0 -0.0015432310705435831 0.037151138598545193 0 -0.0018107829195552622 0.037591921198290093 0 -0.00081671728965307432 0.037157225115367579 0 -0.0015432310705435831 0.037151138598545193 0 -0.0014284910420988908 0.03797840538485301 0 -0.0015432310705435831 0.037151138598545193 0 -0.0018107829195552622 0.037591921198290093 0 -0.0014284910420988908 0.03797840538485301 0 -0.0018107829195552622 0.037591921198290093 0 -0.0014284910420988908 0.03797840538485301 0 -0.002094141433959357 0.038120917349533642 0 -0.0014284910420988908 0.03797840538485301 0 -0.0015628404528981528 0.038883548525574949 0 -0.002094141433959357 0.038120917349533642 0 -0.0014284910420988908 0.03797840538485301 0 -0.00088009349624723122 0.038454587834768489 0 -0.0015628404528981528 0.038883548525574949 0 -0.00026035306635691931 0.037772015849994303 0 -0.0014284910420988908 0.03797840538485301 0 -0.00088009349624723122 0.038454587834768489 0 -0.00026035306635691931 0.037772015849994303 0 -0.00088009349624723122 0.038454587834768489 0 -0.00022069464740264079 0.039026923955956888 0 -0.00083627074934815131 0.03869857918195229 0 -0.0012005748557430756 0.039214412613599765 0 -0.00081781427762356567 0.039382128425692768 0 -0.00083627074934815131 0.03869857918195229 0 -0.0012005748557430756 0.039214412613599765 0 -0.0015628404528981528 0.038883548525574949 0 -0.0005465710001943796 0.03888660090850337 0 -0.0014678123199626646 0.038870303629049897 0 -0.00088009349624723122 0.038454587834768489 0 -0.00022069464740264079 0.039026923955956888 0 -0.0015628404528981528 0.038883548525574949 0 -0.0012005748557430756 0.039214412613599765 0 -0.0015628404528981528 0.038883548525574949 0 -0.0015840124776682358 0.039414959899504672 0 -0.0015628404528981528 0.038883548525574949 0 -0.0015840124776682358 0.039414959899504672 0 -0.0020571267431753817 0.039231450385542287 0 -0.0015840124776682358 0.039414959899504672 0 -0.0018892290974218723 0.039997893840956852 0 -0.0020571267431753817 0.039231450385542287 0 -0.0012005748557430756 0.039214412613599765 0 -0.0015840124776682358 0.039414959899504672 0 -0.0013861684389737722 0.039799753455840928 0 -0.0015840124776682358 0.039414959899504672 0 -0.0013861684389737722 0.039799753455840928 0 -0.0018892290974218723 0.039997893840956852 0 -0.0012005748557430756 0.039214412613599765 0 -0.0013861684389737722 0.039799753455840928 0 -0.00081781427762356567 0.039382128425692768 0 -0.00083627074934815131 0.03869857918195229 0 -0.00081781427762356567 0.039382128425692768 0 -0.0003714569830580984 0.038893512639721371 0 -0.00081781427762356567 0.039382128425692768 0 -0.0003714569830580984 0.038893512639721371 0 -0.00031679270704887896 0.039354630280030244 0 -0.0005465710001943796 0.03888660090850337 0 0.00064289704279388835 0.038344405203738149 0 -0.00083627074934815131 0.03869857918195229 0 -0.00013401629883033107 0.03837180221271104 0 -0.0003714569830580984 0.038893512639721371 0 0.00020851478325098583 0.038651817874905514 0 -0.00013401629883033107 0.03837180221271104 0 -0.0003714569830580984 0.038893512639721371 0 0.00020851478325098583 0.038651817874905514 0 -0.0003714569830580984 0.038893512639721371 0 -0.00031679270704887896 0.039354630280030244 0 0.00020851478325098583 0.038651817874905514 0 0.00012017658197653105 0.039331817422075983 0 -0.00031679270704887896 0.039354630280030244 0 0.00012017658197653105 0.039331817422075983 0 -0.00031679270704887896 0.039354630280030244 0 -0.00062007051206496066 0.040165966881367629 0 -0.00081781427762356567 0.039382128425692768 0 -0.00062007051206496066 0.040165966881367629 0 -0.0012598451139186582 0.040525533316426242 0 -0.00081781427762356567 0.039382128425692768 0 -0.00031679270704887896 0.039354630280030244 0 -0.00062007051206496066 0.040165966881367629 0 -0.00062007051206496066 0.040165966881367629 0 -0.00079345877153164351 0.04111824450679942 0 -0.0012598451139186582 0.040525533316426242 0 0.00012017658197653105 0.039331817422075983 0 -0.00062007051206496066 0.040165966881367629 0 -2.8383837867271897e-05 0.040280898747044748 0 -0.00062007051206496066 0.040165966881367629 0 -2.8383837867271897e-05 0.040280898747044748 0 -0.00079345877153164351 0.04111824450679942 0 -2.8383837867271897e-05 0.040280898747044748 0 -0.00079345877153164351 0.04111824450679942 0 -0.00031312273098016078 0.041375694441100515 0 -0.00079345877153164351 0.04111824450679942 0 -0.00077382766388780122 0.042014587585492556 0 -0.00031312273098016078 0.041375694441100515 0 -0.00077382766388780122 0.042014587585492556 0 -0.00031312273098016078 0.041375694441100515 0 -0.00031857699193051092 0.042208592569409273 0 0.0002944381577307602 0.04132044050493195 0 -0.00031312273098016078 0.041375694441100515 0 -0.00031857699193051092 0.042208592569409273 0 -0.0019149883036525099 0.043091262616624194 0 -0.0013270067346441048 0.042731471034329303 0 -0.0014352471408568403 0.041623161930736043 0 -0.002181945365617657 0.042422151602185786 0 -0.0013342258028580273 0.042610087581586346 0 -0.00077382766388780122 0.042014587585492556 0 -0.0014352471408568403 0.041623161930736043 0 -0.0013342258028580273 0.042610087581586346 0 -0.00079345877153164351 0.04111824450679942 0 -0.00077382766388780122 0.042014587585492556 0 -0.0014352471408568403 0.041623161930736043 0 -0.00079345877153164351 0.04111824450679942 0 -0.0014352471408568403 0.041623161930736043 0 -0.0012598451139186582 0.040525533316426242 0 -0.0014352471408568403 0.041623161930736043 0 -0.0019012790031700724 0.041327147101226168 0 -0.002181945365617657 0.042422151602185786 0 -0.0014352471408568403 0.041623161930736043 0 -0.0019012790031700724 0.041327147101226168 0 -0.0012598451139186582 0.040525533316426242 0 -0.0019012790031700724 0.041327147101226168 0 -0.0012598451139186582 0.040525533316426242 0 -0.001701090117909809 0.040485599521972324 0 -0.0013861684389737722 0.039799753455840928 0 -0.00081781427762356567 0.039382128425692768 0 -0.0012598451139186582 0.040525533316426242 0 -0.0013861684389737722 0.039799753455840928 0 -0.0012598451139186582 0.040525533316426242 0 -0.001701090117909809 0.040485599521972324 0 -0.0013861684389737722 0.039799753455840928 0 -0.001701090117909809 0.040485599521972324 0 -0.0018892290974218723 0.039997893840956852 0 -0.001701090117909809 0.040485599521972324 0 -0.002184425900543675 0.040862188945743921 0 -0.0018892290974218723 0.039997893840956852 0 -0.002615595241357889 0.041147172541047349 0 -0.0030051027443933481 0.040963428394304072 0 -0.0024044964690311242 0.040192010706964362 0 -0.002184425900543675 0.040862188945743921 0 -0.002615595241357889 0.041147172541047349 0 -0.0024044964690311242 0.040192010706964362 0 -0.002184425900543675 0.040862188945743921 0 -0.002615595241357889 0.041147172541047349 0 -0.0025530268617153535 0.0418123174107186 0 -0.002615595241357889 0.041147172541047349 0 -0.0025530268617153535 0.0418123174107186 0 -0.0029770694783597292 0.041798003739052694 0 -0.0019012790031700724 0.041327147101226168 0 -0.002184425900543675 0.040862188945743921 0 -0.0025530268617153535 0.0418123174107186 0 -0.0019012790031700724 0.041327147101226168 0 -0.001701090117909809 0.040485599521972324 0 -0.002184425900543675 0.040862188945743921 0 -0.0019012790031700724 0.041327147101226168 0 -0.0025530268617153535 0.0418123174107186 0 -0.002181945365617657 0.042422151602185786 0 -0.0025530268617153535 0.0418123174107186 0 -0.0028249602576621447 0.042622700150767384 0 -0.0030717436597011176 0.042423271789622692 0 -0.0023691167147331855 0.043634324665697381 0 -0.0019149883036525099 0.043091262616624194 0 -0.0019325562624180057 0.044632000583456059 0 -0.0017730778690532363 0.04376048560711638 0 -0.0018794102917605369 0.044425255495676434 0 -0.0025530268617153535 0.0418123174107186 0 -0.0028249602576621447 0.042622700150767384 0 -0.002181945365617657 0.042422151602185786 0 -0.0019985344038159613 0.045353096769920935 0 -0.0019913905482251523 0.045885188716000523 0 -0.0020053434416529852 0.045260159794644345 0 -0.0023691167147331855 0.043634324665697381 0 -0.002715094876148677 0.044174729794088527 0 -0.0019325562624180057 0.044632000583456059 0 -0.0019985344038159613 0.045353096769920935 0 -0.0020053434416529852 0.045260159794644345 0 -0.0028249602576621447 0.042622700150767384 0 -0.0034799185890261822 0.043024615220846184 0 -0.0030717436597011176 0.042423271789622692 0 -0.0034799185890261822 0.043024615220846184 0 -0.0033695799494415078 0.042519513747626268 0 -0.0036049013597191605 0.043254138532771665 0 -0.0034799185890261822 0.043024615220846184 0 -0.0030717436597011176 0.042423271789622692 0 -0.0033695799494415078 0.042519513747626268 0 -0.0033695799494415078 0.042519513747626268 0 -0.0036193429230964762 0.043022886791373963 0 -0.0036049013597191605 0.043254138532771665 0 -0.0033695799494415078 0.042519513747626268 0 -0.0035791407929315357 0.042529568688391549 0 -0.0034571249930806492 0.041700906000457609 0 -0.0033695799494415078 0.042519513747626268 0 -0.0029770694783597292 0.041798003739052694 0 -0.0034571249930806492 0.041700906000457609 0 -0.0033695799494415078 0.042519513747626268 0 -0.0035791407929315357 0.042529568688391549 0 -0.0036193429230964762 0.043022886791373963 0 -0.0030717436597011176 0.042423271789622692 0 -0.0033695799494415078 0.042519513747626268 0 -0.0029770694783597292 0.041798003739052694 0 -0.0025530268617153535 0.0418123174107186 0 -0.0030717436597011176 0.042423271789622692 0 -0.0029770694783597292 0.041798003739052694 0 -0.0029770694783597292 0.041798003739052694 0 -0.0034571249930806492 0.041700906000457609 0 -0.0030051027443933481 0.040963428394304072 0 -0.002615595241357889 0.041147172541047349 0 -0.0029770694783597292 0.041798003739052694 0 -0.0030051027443933481 0.040963428394304072 0 -0.0035791407929315357 0.042529568688391549 0 -0.0034571249930806492 0.041700906000457609 0 -0.0038829091201554827 0.042074156490131083 0 -0.0034571249930806492 0.041700906000457609 0 -0.0036795440214927905 0.040529643869730174 0 -0.0030051027443933481 0.040963428394304072 0 -0.0034571249930806492 0.041700906000457609 0 -0.0036795440214927905 0.040529643869730174 0 -0.0041387074728652454 0.041276915188139231 0 -0.0035383346061520979 0.038523874643827775 0 -0.0033930038474485561 0.038226978904491081 0 -0.003674777270990894 0.038164545960661322 0 -0.0035383346061520979 0.038523874643827775 0 -0.0030743367645406825 0.038790279675608066 0 -0.0033930038474485561 0.038226978904491081 0 -0.003625266529868441 0.039316695682377931 0 -0.0028849033324288287 0.039460887867836136 0 -0.0036795440214927905 0.040529643869730174 0 -0.002826693385905426 0.040119533908568525 0 -0.0030051027443933481 0.040963428394304072 0 -0.002826693385905426 0.040119533908568525 0 -0.0030051027443933481 0.040963428394304072 0 -0.0024044964690311242 0.040192010706964362 0 -0.002826693385905426 0.040119533908568525 0 -0.0024044964690311242 0.040192010706964362 0 -0.0020571267431753817 0.039231450385542287 0 -0.002184425900543675 0.040862188945743921 0 -0.0024044964690311242 0.040192010706964362 0 -0.0018892290974218723 0.039997893840956852 0 -0.0024044964690311242 0.040192010706964362 0 -0.0018892290974218723 0.039997893840956852 0 -0.0020571267431753817 0.039231450385542287 0 -0.0030743367645406825 0.038790279675608066 0 -0.0020571267431753817 0.039231450385542287 0 -0.0022863795873988685 0.038669462274191595 0 -0.0015628404528981528 0.038883548525574949 0 -0.0020571267431753817 0.039231450385542287 0 -0.0022863795873988685 0.038669462274191595 0 -0.0030743367645406825 0.038790279675608066 0 -0.0022863795873988685 0.038669462274191595 0 -0.002616238008084781 0.038328651923851299 0 -0.0028849033324288287 0.039460887867836136 0 -0.0020385242877973627 0.039242861286942862 0 -0.0030743367645406825 0.038790279675608066 0 -0.002616238008084781 0.038328651923851299 0 -0.0029785427645648232 0.038136480252655931 0 -0.002616238008084781 0.038328651923851299 0 -0.0029785427645648232 0.038136480252655931 0 -0.0025654544085753164 0.037845276443773654 0 -0.0015628404528981528 0.038883548525574949 0 -0.0022863795873988685 0.038669462274191595 0 -0.002094141433959357 0.038120917349533642 0 -0.0022863795873988685 0.038669462274191595 0 -0.002616238008084781 0.038328651923851299 0 -0.002094141433959357 0.038120917349533642 0 -0.002616238008084781 0.038328651923851299 0 -0.002094141433959357 0.038120917349533642 0 -0.0025654544085753164 0.037845276443773654 0 -0.0018107829195552622 0.037591921198290093 0 -0.002094141433959357 0.038120917349533642 0 -0.0021887521099617415 0.037587083444384425 0 -0.002094141433959357 0.038120917349533642 0 -0.0021887521099617415 0.037587083444384425 0 -0.0025654544085753164 0.037845276443773654 0 -0.0021887521099617415 0.037587083444384425 0 -0.0024679446622692413 0.037512024702426067 0 -0.0025654544085753164 0.037845276443773654 0 -0.0025422229663612599 0.037241560791704049 0 -0.0024679446622692413 0.037512024702426067 0 -0.0022753620695278049 0.037220251988948794 0 -0.0021887521099617415 0.037587083444384425 0 -0.0024679446622692413 0.037512024702426067 0 -0.0022753620695278049 0.037220251988948794 0 -0.0019734809700804692 0.037089522357779917 0 -0.0018107829195552622 0.037591921198290093 0 -0.0021887521099617415 0.037587083444384425 0 -0.0019734809700804692 0.037089522357779917 0 -0.0021887521099617415 0.037587083444384425 0 -0.0022753620695278049 0.037220251988948794 0 -0.0029785427645648232 0.038136480252655931 0 -0.0025654544085753164 0.037845276443773654 0 -0.0028025588360491237 0.037579185054799583 0 -0.0029785427645648232 0.038136480252655931 0 -0.0028025588360491237 0.037579185054799583 0 -0.0032438560617355722 0.037832724252584903 0 -0.0024679446622692413 0.037512024702426067 0 -0.0025654544085753164 0.037845276443773654 0 -0.0028025588360491237 0.037579185054799583 0 -0.0025422229663612599 0.037241560791704049 0 -0.0024679446622692413 0.037512024702426067 0 -0.0028025588360491237 0.037579185054799583 0 -0.0030581514871029429 0.037441578128866462 0 -0.0028025588360491237 0.037579185054799583 0 -0.0032438560617355722 0.037832724252584903 0 -0.0034242187474323874 0.037617713754727375 0 -0.0030581514871029429 0.037441578128866462 0 -0.0032438560617355722 0.037832724252584903 0 -0.0034242187474323874 0.037617713754727375 0 -0.0032438560617355722 0.037832724252584903 0 -0.0035815493076595531 0.037909611680937053 0 -0.0037492567413359361 0.037718398595133193 0 -0.0034242187474323874 0.037617713754727375 0 -0.0035815493076595531 0.037909611680937053 0 -0.0032438560617355722 0.037832724252584903 0 -0.0035815493076595531 0.037909611680937053 0 -0.0033930038474485561 0.038226978904491081 0 -0.0035815493076595531 0.037909611680937053 0 -0.0033930038474485561 0.038226978904491081 0 -0.003674777270990894 0.038164545960661322 0 -0.0030743367645406825 0.038790279675608066 0 -0.0029785427645648232 0.038136480252655931 0 -0.0033930038474485561 0.038226978904491081 0 -0.0029785427645648232 0.038136480252655931 0 -0.0032438560617355722 0.037832724252584903 0 -0.0033930038474485561 0.038226978904491081 0 -0.003674777270990894 0.038164545960661322 0 -0.0037253464577670431 0.03787431024658703 0 -0.0037950951196609119 0.038040721608215478 0 -0.0035815493076595531 0.037909611680937053 0 -0.003674777270990894 0.038164545960661322 0 -0.0037253464577670431 0.03787431024658703 0 -0.0037492567413359361 0.037718398595133193 0 -0.0035815493076595531 0.037909611680937053 0 -0.0037253464577670431 0.03787431024658703 0 -0.0037253464577670431 0.03787431024658703 0 -0.0036564007487897413 0.037877735384517802 0 -0.0037950951196609119 0.038040721608215478 0 -0.0036564007487897413 0.037877735384517802 0 -0.0034184018176796694 0.037867929697539049 0 -0.0037950951196609119 0.038040721608215478 0 -0.0031036778773271215 0.041305208647005709 0 -0.0034913326907414595 0.040786167326423539 0 -0.0028374336386241639 0.044547797280850156 0 -0.0027660178362579491 0.044013260640465138 0 -0.0022325489979983203 0.044228294987196999 0 -0.0027660178362579491 0.044013260640465138 0 -0.0033252220193686175 0.043747263983108652 0 -0.0026942411474577582 0.04348680191900979 0 -0.0027660178362579491 0.044013260640465138 0 -0.0026942411474577582 0.04348680191900979 0 -0.0022325489979983203 0.044228294987196999 0 -0.0025186023941393782 0.043721696079460887 0 -0.0022511047082863856 0.044194272200927441 0 -0.0028374336386241639 0.044547797280850156 0 -0.0027660178362579491 0.044013260640465138 0 -0.0033252220193686175 0.043747263983108652 0 -0.0033252220193686175 0.043747263983108652 0 -0.0032658841890334063 0.042745428658161694 0 -0.0038053563027851821 0.042803266871428165 0 -0.0025186023941393782 0.043721696079460887 0 -0.0031529543359809877 0.043478066008062574 0 -0.0033252220193686175 0.043747263983108652 0 -0.0026942411474577582 0.04348680191900979 0 -0.0032658841890334063 0.042745428658161694 0 -0.0027523619818406514 0.045102341553774482 0 -0.0028387978774992591 0.04509486051268035 0 -0.0028262740577382943 0.045061077347049699 0 -0.0023887654770811712 0.043988891469421344 0 -0.0023053286838613579 0.043767251216931778 0 -0.0025537046032374378 0.043794645219540691 0 -0.0023073950597144121 0.046252341428810226 0 -0.0031529543359809877 0.043478066008062574 0 -0.0028387978774992591 0.04509486051268035 0 -0.0028262740577382943 0.045061077347049699 0 -0.0028132477481252645 0.045073578660610826 0 -0.0043179854139481395 0.041196247712833561 0 -0.0043086251293475543 0.042458735704461556 0 -0.0045276736811559245 0.042667789928835159 0 -0.0041373813630419609 0.042607251604034689 0 -0.0041778112997597483 0.043127963708602182 0 -0.0031529543359809877 0.043478066008062574 0 -0.0043179854139481395 0.041196247712833561 0 -0.0034913326907414595 0.040786167326423539 0 -0.0043179854139481395 0.041196247712833561 0 -0.003674777270990894 0.038164545960661322 0 -0.0037950951196609119 0.038040721608215478 0 -0.0038026005512872478 0.038427883324643586 0 -0.0035383346061520979 0.038523874643827775 0 -0.003674777270990894 0.038164545960661322 0 -0.0038026005512872478 0.038427883324643586 0 -0.0036795440214927905 0.040529643869730174 0 -0.0052011794057432066 0.040716604679298385 0 -0.0041387074728652454 0.041276915188139231 0 -0.0052011794057432066 0.040716604679298385 0 -0.0041387074728652454 0.041276915188139231 0 -0.0047932186814038944 0.041707242500256612 0 -0.003625266529868441 0.039316695682377931 0 -0.0043179854139481395 0.041196247712833561 0 -0.0043086251293475543 0.042458735704461556 0 -0.0039012296441125059 0.043216738415782052 0 -0.0047932186814038944 0.041707242500256612 0 -0.0038829091201554827 0.042074156490131083 0 -0.0038171360895887015 0.043352209137624304 0 -0.0034571249930806492 0.041700906000457609 0 -0.0041387074728652454 0.041276915188139231 0 -0.0038829091201554827 0.042074156490131083 0 -0.0041387074728652454 0.041276915188139231 0 -0.0047932186814038944 0.041707242500256612 0 -0.0038829091201554827 0.042074156490131083 0 -0.0039064525897633279 0.043064465447364274 0 -0.0041778112997597483 0.043127963708602182 0 -0.0037683121963991875 0.043670547839162778 0 -0.0041373813630419609 0.042607251604034689 0 -0.0039064525897633279 0.043064465447364274 0 -0.0041778112997597483 0.043127963708602182 0 -0.0031529543359809877 0.043478066008062574 0 -0.0035917200106983039 0.044149062019623257 0 -0.0029371670581153195 0.04522816162686253 0 -0.0029344919361692719 0.044793712690315152 0 -0.0027566391982655589 0.044995243278492691 0 -0.0029371670581153195 0.04522816162686253 0 -0.0029344919361692719 0.044793712690315152 0 -0.0031710785010531746 0.04446228514630797 0 -0.0029371670581153195 0.04522816162686253 0 -0.0031710785010531746 0.04446228514630797 0 -0.0037683121963991875 0.043670547839162778 0 -0.0035917200106983039 0.044149062019623257 0 -0.003743162897825409 0.04376188643629346 0 -0.0029344919361692719 0.044793712690315152 0 -0.0029542129922422115 0.044653355367472648 0 -0.0027566391982655589 0.044995243278492691 0 -0.0029542129922422115 0.044653355367472648 0 -0.0026779378247315444 0.045092001865003443 0 -0.0027566391982655589 0.044995243278492691 0 -0.0029344919361692719 0.044793712690315152 0 -0.0031710785010531746 0.04446228514630797 0 -0.0029542129922422115 0.044653355367472648 0 -0.0031710785010531746 0.04446228514630797 0 -0.0033448321012961072 0.044139421310788303 0 -0.0029542129922422115 0.044653355367472648 0 -0.0031710785010531746 0.04446228514630797 0 -0.0033448321012961072 0.044139421310788303 0 -0.0037683121963991875 0.043670547839162778 0 -0.0033448321012961072 0.044139421310788303 0 -0.0029542129922422115 0.044653355367472648 0 -0.0032682271561655335 0.044190357670921478 0 -0.0033448321012961072 0.044139421310788303 0 -0.0035904307383258969 0.043725516251717202 0 -0.0032682271561655335 0.044190357670921478 0 -0.0029542129922422115 0.044653355367472648 0 -0.0028517579419560092 0.04491347996117754 0 -0.0026779378247315444 0.045092001865003443 0 -0.0029542129922422115 0.044653355367472648 0 -0.0032682271561655335 0.044190357670921478 0 -0.0028517579419560092 0.04491347996117754 0 -0.0039064525897633279 0.043064465447364274 0 -0.0038171360895887015 0.043352209137624304 0 -0.0037683121963991875 0.043670547839162778 0 -0.0035791407929315357 0.042529568688391549 0 -0.0038829091201554827 0.042074156490131083 0 -0.0038171360895887015 0.043352209137624304 0 -0.0035791407929315357 0.042529568688391549 0 -0.0038171360895887015 0.043352209137624304 0 -0.0036193429230964762 0.043022886791373963 0 -0.0038171360895887015 0.043352209137624304 0 -0.0037683121963991875 0.043670547839162778 0 -0.0036972646013022897 0.043425477961252359 0 -0.0033448321012961072 0.044139421310788303 0 -0.0037683121963991875 0.043670547839162778 0 -0.0035904307383258969 0.043725516251717202 0 -0.0037683121963991875 0.043670547839162778 0 -0.0036972646013022897 0.043425477961252359 0 -0.0035904307383258969 0.043725516251717202 0 -0.0036972646013022897 0.043425477961252359 0 -0.0036193429230964762 0.043022886791373963 0 -0.0036049013597191605 0.043254138532771665 0 -0.0038171360895887015 0.043352209137624304 0 -0.0036972646013022897 0.043425477961252359 0 -0.0036193429230964762 0.043022886791373963 0 -0.0036972646013022897 0.043425477961252359 0 -0.0036049013597191605 0.043254138532771665 0 -0.0035904307383258969 0.043725516251717202 0 -0.002715094876148677 0.044174729794088527 0 -0.0027499040477732277 0.044800146532413244 0 -0.0034799185890261822 0.043024615220846184 0 -0.0036049013597191605 0.043254138532771665 0 -0.0034747721944713515 0.043555413863226825 0 -0.0036049013597191605 0.043254138532771665 0 -0.0035904307383258969 0.043725516251717202 0 -0.0034747721944713515 0.043555413863226825 0 -0.0035904307383258969 0.043725516251717202 0 -0.0032682271561655335 0.044190357670921478 0 -0.0034747721944713515 0.043555413863226825 0 -0.0027499040477732277 0.044800146532413244 0 -0.0024213667005613211 0.045662391252931506 0 -0.0032682271561655335 0.044190357670921478 0 -0.0028517579419560092 0.04491347996117754 0 -0.0034747721944713515 0.043555413863226825 0 -0.0019419812579585286 0.045898781051983972 0 -0.0020629142308308496 0.04615641875851452 0 -0.0023046093169395215 0.045915457073817605 0 -0.0028517579419560092 0.04491347996117754 0 -0.0034747721944713515 0.043555413863226825 0 -0.0023046093169395215 0.045915457073817605 0 -0.0019419812579585286 0.045898781051983972 0 -0.0019913905482251523 0.045885188716000523 0 -0.0020629142308308496 0.04615641875851452 0 -0.0019913905482251523 0.045885188716000523 0 -0.0020629142308308496 0.04615641875851452 0 -0.0020502488938321929 0.046271608608411167 0 -0.0019985344038159613 0.045353096769920935 0 -0.0019419812579585286 0.045898781051983972 0 -0.0019913905482251523 0.045885188716000523 0 -0.0019276299640584244 0.046934208533650407 0 -0.002110724508030144 0.046528862222649597 0 -0.0020218906706689827 0.046571462828161915 0 -0.0019276299640584244 0.046934208533650407 0 -0.002110724508030144 0.046528862222649597 0 -0.0019197076188902271 0.046981310312945432 0 -0.0019276299640584244 0.046934208533650407 0 -0.0019197076188902271 0.046981310312945432 0 -0.0016664415214617191 0.047456693505006177 0 -0.0020502488938321929 0.046271608608411167 0 -0.002110724508030144 0.046528862222649597 0 -0.0020218906706689827 0.046571462828161915 0 -0.0020629142308308496 0.04615641875851452 0 -0.0020502488938321929 0.046271608608411167 0 -0.002110724508030144 0.046528862222649597 0 -0.0020629142308308496 0.04615641875851452 0 -0.002110724508030144 0.046528862222649597 0 -0.0023046093169395215 0.045915457073817605 0 -0.0028517579419560092 0.04491347996117754 0 -0.0026045126658320967 0.045593079426584915 0 -0.0023046093169395215 0.045915457073817605 0 -0.0026045126658320967 0.045593079426584915 0 -0.0023046093169395215 0.045915457073817605 0 -0.0020627357091539322 0.046516753736071816 0 -0.0023046093169395215 0.045915457073817605 0 -0.0019197076188902271 0.046981310312945432 0 -0.0020627357091539322 0.046516753736071816 0 -0.002110724508030144 0.046528862222649597 0 -0.0023046093169395215 0.045915457073817605 0 -0.0019197076188902271 0.046981310312945432 0 -0.0019197076188902271 0.046981310312945432 0 -0.0020627357091539322 0.046516753736071816 0 -0.0016445270764064235 0.047167885645458811 0 -0.0021172913727299375 0.047395552796292865 0 -0.0017091034724827647 0.04748106664490731 0 -0.0016445270764064235 0.047167885645458811 0 -0.0020627357091539322 0.046516753736071816 0 -0.0021172913727299375 0.047395552796292865 0 -0.0016445270764064235 0.047167885645458811 0 -0.0026779378247315444 0.045092001865003443 0 -0.0027566391982655589 0.044995243278492691 0 -0.0028640218125934049 0.044976820286446388 0 -0.0026105543002080812 0.045683661612061575 0 -0.0024499133742388662 0.046219352670190443 0 -0.0026045126658320967 0.045593079426584915 0 -0.0020627357091539322 0.046516753736071816 0 -0.0021172913727299375 0.047395552796292865 0 -0.0026045126658320967 0.045593079426584915 0 -0.0026779378247315444 0.045092001865003443 0 -0.0028640218125934049 0.044976820286446388 0 -0.0028517579419560092 0.04491347996117754 0 -0.0026045126658320967 0.045593079426584915 0 -0.0026779378247315444 0.045092001865003443 0 -0.0027566391982655589 0.044995243278492691 0 -0.0028132477481252645 0.045073578660610826 0 -0.0028640218125934049 0.044976820286446388 0 -0.0028387978774992591 0.04509486051268035 0 -0.0029371670581153195 0.04522816162686253 0 -0.0028132477481252645 0.045073578660610826 0 -0.0029371670581153195 0.04522816162686253 0 -0.0027566391982655589 0.044995243278492691 0 -0.0028132477481252645 0.045073578660610826 0 -0.0028262740577382943 0.045061077347049699 0 -0.0028132477481252645 0.045073578660610826 0 -0.0028640218125934049 0.044976820286446388 0 -0.0018812341677554823 0.047898967218546036 0 -0.0021172913727299375 0.047395552796292865 0 -0.0017091034724827647 0.04748106664490731 0 -0.0023073950597144121 0.046252341428810226 0 -0.0024499133742388662 0.046219352670190443 0 -0.0027523619818406514 0.045102341553774482 0 -0.0028262740577382943 0.045061077347049699 0 -0.0028640218125934049 0.044976820286446388 0 -0.0018812341677554823 0.047898967218546036 0 -0.0017091034724827647 0.04748106664490731 0 -0.0015279455274252738 0.047940060557736981 0 -0.0017091034724827647 0.04748106664490731 0 -0.0014466313027711689 0.047274246873726458 0 -0.0015279455274252738 0.047940060557736981 0 -0.0014466313027711689 0.047274246873726458 0 -0.00073773205769720677 0.048297998111795692 0 -0.0015279455274252738 0.047940060557736981 0 -0.0011486322187425943 0.048521661440983986 0 -0.00056338380155371423 0.049195242721440831 0 -0.0011486322187425943 0.048521661440983986 0 -0.0015435464424935329 0.0479701658839123 0 -0.0017091034724827647 0.04748106664490731 0 -0.0014466313027711689 0.047274246873726458 0 -0.0016445270764064235 0.047167885645458811 0 -0.0014466313027711689 0.047274246873726458 0 -0.0016445270764064235 0.047167885645458811 0 -0.0015888844299726281 0.047931457863354177 0 -0.0019197076188902271 0.046981310312945432 0 -0.0016445270764064235 0.047167885645458811 0 -0.0015888844299726281 0.047931457863354177 0 -0.00087522260406965892 0.04978136052340959 0 -0.0015888844299726281 0.047931457863354177 0 -0.00042307650459092637 0.049289314592435733 0 -0.0015888844299726281 0.047931457863354177 0 -0.00042307650459092637 0.049289314592435733 0 -0.0012290626049631037 0.048047623046369274 0 -0.0019197076188902271 0.046981310312945432 0 -0.0015888844299726281 0.047931457863354177 0 -0.0016664415214617191 0.047456693505006177 0 -0.0015888844299726281 0.047931457863354177 0 -0.0016664415214617191 0.047456693505006177 0 -0.0012290626049631037 0.048047623046369274 0 -3.3807047483347267e-07 0.049999471105769244 0 -0.00042134864626935985 0.049079409351899313 0 1.4298004814976333e-07 0.049996203180762637 0 -0.00042307650459092637 0.049289314592435733 0 -3.3807047483347267e-07 0.049999471105769244 0 -0.00042134864626935985 0.049079409351899313 0 -0.00042307650459092637 0.049289314592435733 0 -0.00042134864626935985 0.049079409351899313 0 -0.0012290626049631037 0.048047623046369274 0 -0.00042307650459092637 0.049289314592435733 0 -3.3807047483347267e-07 0.049999471105769244 0 8.7433251159635188e-08 0.049999677212544107 0 -0.00042307650459092637 0.049289314592435733 0 8.7433251159635188e-08 0.049999677212544107 0 -0.00025001499559219685 0.049998458499140329 0 -0.00087522260406965892 0.04978136052340959 0 -0.00042307650459092637 0.049289314592435733 0 -0.00025001499559219685 0.049998458499140329 0 -0.00087522260406965892 0.04978136052340959 0 -0.00025001499559219685 0.049998458499140329 0 -0.0003306199224439972 0.050072984048709204 0 8.7433251159635188e-08 0.049999677212544107 0 -0.00025001499559219685 0.049998458499140329 0 -3.1782552695478735e-07 0.050000053064133063 0 -0.00025001499559219685 0.049998458499140329 0 -3.1782552695478735e-07 0.050000053064133063 0 -0.00020651921076635614 0.049997309974571982 0 -0.00020651921076635614 0.049997309974571982 0 5.3693673573008137e-08 0.050000100167995859 0 -0.00026566374748090049 0.049886320863097681 0 -3.1782552695478735e-07 0.050000053064133063 0 -0.00020651921076635614 0.049997309974571982 0 5.3693673573008137e-08 0.050000100167995859 0 -0.00020651921076635614 0.049997309974571982 0 -0.0003306199224439972 0.050072984048709204 0 -0.00026566374748090049 0.049886320863097681 0 -0.00056338380155371423 0.049195242721440831 0 -0.00027717558134941848 0.049840394075330863 0 -0.00025001499559219685 0.049998458499140329 0 -0.00020651921076635614 0.049997309974571982 0 -0.0003306199224439972 0.050072984048709204 0 -0.00073773205769720677 0.048297998111795692 0 -0.0015279455274252738 0.047940060557736981 0 -0.0016073673206936099 0.049370428356674441 0 -0.0024689326447609487 0.048048402146623967 0 -0.0015279455274252738 0.047940060557736981 0 -0.0016073673206936099 0.049370428356674441 0 -0.0023073950597144121 0.046252341428810226 0 -0.0016337438580654228 0.047899966207980579 0 -0.0023887654770811712 0.043988891469421344 0 -0.0023053286838613579 0.043767251216931778 0 -0.0021213099087910819 0.043981970838131719 0 -0.0023073950597144121 0.046252341428810226 0 -0.0018654724285960419 0.046621812613737296 0 -0.00073773205769720677 0.048297998111795692 0 -0.0016073673206936099 0.049370428356674441 0 -0.00026566374748090049 0.049886320863097681 0 -0.0021213099087910819 0.043981970838131719 0 -0.0022325489979983203 0.044228294987196999 0 -0.0017610065906095262 0.044357965409732039 0 -0.0018654724285960419 0.046621812613737296 0 -0.0013298195654488189 0.04726244428439709 0 -0.0016073673206936099 0.049370428356674441 0 -0.00072305467318484445 0.050359843154350964 0 -0.00026566374748090049 0.049886320863097681 0 -0.0023887654770811712 0.043988891469421344 0 -0.0021213099087910819 0.043981970838131719 0 -0.0022325489979983203 0.044228294987196999 0 -0.0020469536214456625 0.04477883589049058 0 -0.0028374336386241639 0.044547797280850156 0 -0.0022325489979983203 0.044228294987196999 0 -0.0020469536214456625 0.04477883589049058 0 -0.0022325489979983203 0.044228294987196999 0 -0.0017610065906095262 0.044357965409732039 0 -2.0692918627076033e-08 0.049999907419875179 0 5.0315964708698145e-07 0.04999980603982776 0 1.1176091471294563e-08 0.050000048245841977 0 -0.0003214351717645632 0.0508081197720998 0 -0.00072305467318484445 0.050359843154350964 0 -9.230285042233986e-05 0.050397258365888015 0 -0.00072305467318484445 0.050359843154350964 0 -9.230285042233986e-05 0.050397258365888015 0 -0.00026566374748090049 0.049886320863097681 0 -0.00014810476358563166 0.050507291113778656 0 1.3905360096594221e-07 0.049999762219333249 0 -9.230285042233986e-05 0.050397258365888015 0 5.3693673573008137e-08 0.050000100167995859 0 -0.00026566374748090049 0.049886320863097681 0 -8.7737985995808997e-05 0.049978387181115684 0 -3.2453170347820108e-05 0.050004515224282176 0 -3.1249303065235016e-05 0.049980993180427445 0 -8.7737985995808997e-05 0.049978387181115684 0 -3.2453170347820108e-05 0.050004515224282176 0 -4.9654223871775423e-05 0.050008764164374511 0 -0.00026857802950057028 0.04811442574908522 0 -0.00019620978185932252 0.048120406093165327 0 1.9566840745693774e-07 0.049998617684684686 0 -1.4033686498532723e-08 0.05000005995813727 0 2.7860535641183726e-08 0.049999877421917978 0 -3.2453170347820108e-05 0.050004515224282176 0 -5.529488214749237e-09 0.049999978744686049 0 -3.1249303065235016e-05 0.049980993180427445 0 -0.00016670116329408938 0.050162498722508567 0 9.6172665440902962e-08 0.049999855823941786 0 -5.529488214749237e-09 0.049999978744686049 0 2.2734689858558814e-06 0.04996717811546595 0 -1.0054634021519582e-08 0.049999884928588464 0 -3.1249303065235016e-05 0.049980993180427445 0 2.2734689858558814e-06 0.04996717811546595 0 -6.0700363245469346e-05 0.049926841202890669 0 -5.529488214749237e-09 0.049999978744686049 0 -3.1249303065235016e-05 0.049980993180427445 0 2.2734689858558814e-06 0.04996717811546595 0 2.2734689858558814e-06 0.04996717811546595 0 -1.0054634021519582e-08 0.049999884928588464 0 1.2725837391191471e-05 0.049982682259434169 0 2.2734689858558814e-06 0.04996717811546595 0 -6.0700363245469346e-05 0.049926841202890669 0 -7.0965506560505599e-06 0.049881624295582974 0 0.00042454444502394614 0.049774520842433286 0 0.00045029117523034273 0.048637273400966415 0 -0.00026857802950057028 0.04811442574908522 0 -0.00049491230036407402 0.046700757661688429 0 -8.7737985995808997e-05 0.049978387181115684 0 -6.0700363245469346e-05 0.049926841202890669 0 -0.00016591197663839261 0.049795563642955731 0 -8.7737985995808997e-05 0.049978387181115684 0 -3.1249303065235016e-05 0.049980993180427445 0 -6.0700363245469346e-05 0.049926841202890669 0 -0.00050394856634589807 0.045868957642008101 0 -0.00077369842624464859 0.045658736162309033 0 -0.00060341776117337929 0.045299080397676682 0 -0.00077369842624464859 0.045658736162309033 0 -0.0010386196457420512 0.04569877411315984 0 -0.00092560755791542171 0.046069948051695481 0 -0.0010386196457420512 0.04569877411315984 0 -0.0012141228784448648 0.045429973007649643 0 -0.00092042419989233693 0.045418066551989392 0 -0.00077369842624464859 0.045658736162309033 0 -0.0010386196457420512 0.04569877411315984 0 -0.00092042419989233693 0.045418066551989392 0 -0.0010386196457420512 0.04569877411315984 0 -0.00092560755791542171 0.046069948051695481 0 -0.001336079427648372 0.046236483682008889 0 -0.00050394856634589807 0.045868957642008101 0 -0.00077369842624464859 0.045658736162309033 0 -0.00092560755791542171 0.046069948051695481 0 -0.00050394856634589807 0.045868957642008101 0 -0.00092560755791542171 0.046069948051695481 0 -0.00071284103600189371 0.046302186509546886 0 -0.00092560755791542171 0.046069948051695481 0 -0.00071284103600189371 0.046302186509546886 0 -0.00099896519233086617 0.046486050310354389 0 -0.00092560755791542171 0.046069948051695481 0 -0.00099896519233086617 0.046486050310354389 0 -0.001336079427648372 0.046236483682008889 0 -0.0012132260582349045 0.046284033391213668 0 -0.0015549856560002075 0.045907084567988622 0 -0.0014264360426249809 0.046043661789496509 0 -0.0015150723620876651 0.04668807580433891 0 -0.0018489311602828166 0.04610619322202384 0 -0.0014264360426249809 0.046043661789496509 0 -0.00076198970035883638 0.046841320431036899 0 -0.0015150723620876651 0.04668807580433891 0 -0.00099896519233086617 0.046486050310354389 0 -0.00065440826439785299 0.046633012680447894 0 -0.00076198970035883638 0.046841320431036899 0 -0.0012132260582349045 0.046284033391213668 0 -0.00078085894353741784 0.046772965308206987 0 -0.00071284103600189371 0.046302186509546886 0 -0.00099896519233086617 0.046486050310354389 0 -0.00065440826439785299 0.046633012680447894 0 -0.00033692680893731756 0.046863543996613938 0 -0.00018263907052250465 0.045932643956415442 0 0.00025363174728970167 0.047188886611606681 0 -0.00065440826439785299 0.046633012680447894 0 -0.00033692680893731756 0.046863543996613938 0 -0.00076198970035883638 0.046841320431036899 0 -0.00019620978185932252 0.048120406093165327 0 0.00011553206340446357 0.048587295501908864 0 -0.00065440826439785299 0.046633012680447894 0 -0.00033692680893731756 0.046863543996613938 0 -0.00018263907052250465 0.045932643956415442 0 -0.00026800868478340394 0.046245012595138392 0 -0.00019620978185932252 0.048120406093165327 0 -0.00050394856634589807 0.045868957642008101 0 -0.00071284103600189371 0.046302186509546886 0 -0.00042620988305423091 0.046405574079561675 0 -0.00071284103600189371 0.046302186509546886 0 -0.00065440826439785299 0.046633012680447894 0 -0.00042620988305423091 0.046405574079561675 0 1.9566840745693774e-07 0.049998617684684686 0 2.3837486883842842e-06 0.049990296855605888 0 2.7860535641183726e-08 0.049999877421917978 0 2.3837486883842842e-06 0.049990296855605888 0 2.7860535641183726e-08 0.049999877421917978 0 1.1571611034439863e-05 0.050002237603208891 0 -0.00016670116329408938 0.050162498722508567 0 -0.00019620978185932252 0.048120406093165327 0 2.3837486883842842e-06 0.049990296855605888 0 1.1571611034439863e-05 0.050002237603208891 0 3.5332115933820391e-05 0.050011637135352095 0 2.7860535641183726e-08 0.049999877421917978 0 1.1571611034439863e-05 0.050002237603208891 0 -3.970762126386355e-08 0.050000429333828075 0 1.1571611034439863e-05 0.050002237603208891 0 -3.970762126386355e-08 0.050000429333828075 0 3.5332115933820391e-05 0.050011637135352095 0 -3.970762126386355e-08 0.050000429333828075 0 3.5332115933820391e-05 0.050011637135352095 0 2.9165641484131989e-07 0.049998517280483358 0 -0.00033692680893731756 0.046863543996613938 0 -0.00076198970035883638 0.046841320431036899 0 -0.00053298665945463179 0.047374400868605414 0 -0.00033692680893731756 0.046863543996613938 0 0.00025363174728970167 0.047188886611606681 0 -0.00053298665945463179 0.047374400868605414 0 0.00025363174728970167 0.047188886611606681 0 -0.00053298665945463179 0.047374400868605414 0 -0.00044823197745654355 0.048317343860851084 0 0.00025363174728970167 0.047188886611606681 0 -0.00044823197745654355 0.048317343860851084 0 -7.7622972149236704e-05 0.048643148266859899 0 -0.00053298665945463179 0.047374400868605414 0 -0.00044823197745654355 0.048317343860851084 0 -0.0010633360491323813 0.047519337976064162 0 -0.00076198970035883638 0.046841320431036899 0 -0.00053298665945463179 0.047374400868605414 0 -0.0010633360491323813 0.047519337976064162 0 -0.00044823197745654355 0.048317343860851084 0 -0.0010675212053703643 0.048696276999220668 0 -0.0010633360491323813 0.047519337976064162 0 -0.00044823197745654355 0.048317343860851084 0 -0.00021899052788919925 0.049166280317076261 0 -0.0010675212053703643 0.048696276999220668 0 -0.00044823197745654355 0.048317343860851084 0 -0.00021899052788919925 0.049166280317076261 0 -7.7622972149236704e-05 0.048643148266859899 0 0.00011553206340446357 0.048587295501908864 0 0.00020046603739012323 0.049582289983724298 0 3.5332115933820391e-05 0.050011637135352095 0 2.9165641484131989e-07 0.049998517280483358 0 0.00017742516240616793 0.049720457888526921 0 0.00025363174728970167 0.047188886611606681 0 -7.7622972149236704e-05 0.048643148266859899 0 0.00017742516240616793 0.049720457888526921 0 -0.00021899052788919925 0.049166280317076261 0 -7.7622972149236704e-05 0.048643148266859899 0 0.00017742516240616793 0.049720457888526921 0 -0.00039986019428609891 0.048981171150298423 0 -1.7448552433463899e-07 0.049999476290039799 0 2.9165641484131989e-07 0.049998517280483358 0 0.00017742516240616793 0.049720457888526921 0 5.8805502927662692e-08 0.050000387099943061 0 0.00017742516240616793 0.049720457888526921 0 -0.00014489841839827078 0.049762317229829246 0 5.8805502927662692e-08 0.050000387099943061 0 -0.00021899052788919925 0.049166280317076261 0 0.00017742516240616793 0.049720457888526921 0 -0.00014489841839827078 0.049762317229829246 0 -0.00039986019428609891 0.048981171150298423 0 -0.0010926023553404038 0.048006424458365483 0 -0.00021899052788919925 0.049166280317076261 0 -0.00014489841839827078 0.049762317229829246 0 -0.0010675212053703643 0.048696276999220668 0 -0.00048360921191446593 0.048207329510235798 0 -0.0010612178318267014 0.047926934723159148 0 -0.001227833748050713 0.047304048947577858 0 -0.00042134864626935985 0.049079409351899313 0 -0.0012290626049631037 0.048047623046369274 0 -0.0010612178318267014 0.047926934723159148 0 -0.00048360921191446593 0.048207329510235798 0 -0.00042134864626935985 0.049079409351899313 0 -0.0010612178318267014 0.047926934723159148 0 -0.00048360921191446593 0.048207329510235798 0 -0.00042134864626935985 0.049079409351899313 0 1.4298004814976333e-07 0.049996203180762637 0 -0.0019276299640584244 0.046934208533650407 0 -0.0016664415214617191 0.047456693505006177 0 -0.0017033327553189193 0.047211083573715007 0 -0.0016664415214617191 0.047456693505006177 0 -0.0012290626049631037 0.048047623046369274 0 -0.0017033327553189193 0.047211083573715007 0 -0.0012290626049631037 0.048047623046369274 0 -0.0010612178318267014 0.047926934723159148 0 -0.0017033327553189193 0.047211083573715007 0 -0.0010612178318267014 0.047926934723159148 0 -0.0017033327553189193 0.047211083573715007 0 -0.001227833748050713 0.047304048947577858 0 -0.0017033327553189193 0.047211083573715007 0 -0.0016417443437851712 0.047099375733022475 0 -0.001227833748050713 0.047304048947577858 0 -0.0017033327553189193 0.047211083573715007 0 -0.0016417443437851712 0.047099375733022475 0 -0.0019080232512737676 0.046606370621177014 0 -0.0015820993773401656 0.047303884871013294 0 -0.0010926023553404038 0.048006424458365483 0 -0.0016417443437851712 0.047099375733022475 0 -0.0010675212053703643 0.048696276999220668 0 -0.0010633360491323813 0.047519337976064162 0 -0.00076198970035883638 0.046841320431036899 0 -0.0010633360491323813 0.047519337976064162 0 -0.0015150723620876651 0.04668807580433891 0 -0.0016417443437851712 0.047099375733022475 0 -0.0010633360491323813 0.047519337976064162 0 -0.0015150723620876651 0.04668807580433891 0 -0.0016417443437851712 0.047099375733022475 0 -0.0015150723620876651 0.04668807580433891 0 -0.0018112501206754162 0.046557911274260011 0 -0.0018112501206754162 0.046557911274260011 0 -0.0020073274295553073 0.046197934679390956 0 -0.0018489311602828166 0.04610619322202384 0 -0.0015150723620876651 0.04668807580433891 0 -0.0018112501206754162 0.046557911274260011 0 -0.0018489311602828166 0.04610619322202384 0 -0.0020073274295553073 0.046197934679390956 0 -0.0021235765779543461 0.045972220984781063 0 -0.0020439390985978394 0.045911025985658986 0 -0.0020073274295553073 0.046197934679390956 0 -0.0020665760774331121 0.046189135791815682 0 -0.0021235765779543461 0.045972220984781063 0 -0.0020073274295553073 0.046197934679390956 0 -0.0020439390985978394 0.045911025985658986 0 -0.0018489311602828166 0.04610619322202384 0 -0.0020073274295553073 0.046197934679390956 0 -0.0019080232512737676 0.046606370621177014 0 -0.0020665760774331121 0.046189135791815682 0 -0.0019080232512737676 0.046606370621177014 0 -0.0020247357496514344 0.046380232931952432 0 -0.0020665760774331121 0.046189135791815682 0 -0.0016417443437851712 0.047099375733022475 0 -0.0018112501206754162 0.046557911274260011 0 -0.0019080232512737676 0.046606370621177014 0 -0.0018112501206754162 0.046557911274260011 0 -0.0020073274295553073 0.046197934679390956 0 -0.0019080232512737676 0.046606370621177014 0 -0.0017033327553189193 0.047211083573715007 0 -0.0019080232512737676 0.046606370621177014 0 -0.0019224096112461305 0.046743467361691771 0 -0.0019080232512737676 0.046606370621177014 0 -0.0019224096112461305 0.046743467361691771 0 -0.0020247357496514344 0.046380232931952432 0 -0.0019224096112461305 0.046743467361691771 0 -0.0020247357496514344 0.046380232931952432 0 -0.0020218906706689827 0.046571462828161915 0 -0.0020502488938321929 0.046271608608411167 0 -0.0020218906706689827 0.046571462828161915 0 -0.0020441397191961201 0.046120436405822925 0 -0.0020247357496514344 0.046380232931952432 0 -0.0020218906706689827 0.046571462828161915 0 -0.0020441397191961201 0.046120436405822925 0 -0.0019276299640584244 0.046934208533650407 0 -0.0017033327553189193 0.047211083573715007 0 -0.0019224096112461305 0.046743467361691771 0 -0.0019276299640584244 0.046934208533650407 0 -0.0019224096112461305 0.046743467361691771 0 -0.0020218906706689827 0.046571462828161915 0 -0.0019913905482251523 0.045885188716000523 0 -0.0020577978471807835 0.045613114350076277 0 -0.0020441397191961201 0.046120436405822925 0 -0.0019913905482251523 0.045885188716000523 0 -0.0020577978471807835 0.045613114350076277 0 -0.0020053434416529852 0.045260159794644345 0 -0.0019913905482251523 0.045885188716000523 0 -0.0020502488938321929 0.046271608608411167 0 -0.0020441397191961201 0.046120436405822925 0 -0.0020247357496514344 0.046380232931952432 0 -0.0020441397191961201 0.046120436405822925 0 -0.0020821643268991064 0.045980463725903011 0 -0.0020247357496514344 0.046380232931952432 0 -0.0020821643268991064 0.045980463725903011 0 -0.0020665760774331121 0.046189135791815682 0 -0.0020577978471807835 0.045613114350076277 0 -0.0020441397191961201 0.046120436405822925 0 -0.0020821643268991064 0.045980463725903011 0 -0.0020577978471807835 0.045613114350076277 0 -0.0020821643268991064 0.045980463725903011 0 -0.0021359669477720874 0.045761345705467284 0 -0.0020577978471807835 0.045613114350076277 0 -0.0021359669477720874 0.045761345705467284 0 -0.0020763738278561034 0.045347109258880969 0 -0.0021359669477720874 0.045761345705467284 0 -0.002202646098287533 0.045776088284507209 0 -0.0020763738278561034 0.045347109258880969 0 -0.0020821643268991064 0.045980463725903011 0 -0.0021359669477720874 0.045761345705467284 0 -0.0020665760774331121 0.046189135791815682 0 -0.0021359669477720874 0.045761345705467284 0 -0.0020665760774331121 0.046189135791815682 0 -0.0021235765779543461 0.045972220984781063 0 -0.0021235765779543461 0.045972220984781063 0 -0.002202646098287533 0.045776088284507209 0 -0.0021300406796086039 0.045815384016901245 0 -0.0021235765779543461 0.045972220984781063 0 -0.0021300406796086039 0.045815384016901245 0 -0.0020439390985978394 0.045911025985658986 0 -0.0021359669477720874 0.045761345705467284 0 -0.0021235765779543461 0.045972220984781063 0 -0.002202646098287533 0.045776088284507209 0 -0.0021608329241348278 0.045708853362892425 0 -0.0021391758115837586 0.045362656035941959 0 -0.0022061832200971241 0.045761981407635433 0 -0.0021177876391891312 0.045324912242846557 0 -0.0021184710948251259 0.045248552231928044 0 -0.002202646098287533 0.045776088284507209 0 -0.0021608329241348278 0.045708853362892425 0 -0.0022061832200971241 0.045761981407635433 0 -0.002202646098287533 0.045776088284507209 0 -0.0021608329241348278 0.045708853362892425 0 -0.0021300406796086039 0.045815384016901245 0 -0.0020944961074560193 0.045147378234065498 0 -0.0021391758115837586 0.045362656035941959 0 -0.0020754512674928541 0.044763228532553767 0 -0.0020944961074560193 0.045147378234065498 0 -0.0020432133934829753 0.045009597319729512 0 -0.0020754512674928541 0.044763228532553767 0 -0.0020743788829143909 0.045258389688092003 0 -0.0020944961074560193 0.045147378234065498 0 -0.0021391758115837586 0.045362656035941959 0 -0.0020743788829143909 0.045258389688092003 0 -0.0020944961074560193 0.045147378234065498 0 -0.0020626672393420521 0.045098909621994879 0 -0.0020944961074560193 0.045147378234065498 0 -0.0020626672393420521 0.045098909621994879 0 -0.0020432133934829753 0.045009597319729512 0 -0.0020743788829143909 0.045258389688092003 0 -0.002057580682970842 0.045412594214848445 0 -0.0021391758115837586 0.045362656035941959 0 -0.002057580682970842 0.045412594214848445 0 -0.0021391758115837586 0.045362656035941959 0 -0.0020759422797108872 0.045645940304174619 0 -0.0021608329241348278 0.045708853362892425 0 -0.0020759422797108872 0.045645940304174619 0 -0.0021300406796086039 0.045815384016901245 0 -0.0021608329241348278 0.045708853362892425 0 -0.0021391758115837586 0.045362656035941959 0 -0.0020759422797108872 0.045645940304174619 0 -0.0020759422797108872 0.045645940304174619 0 -0.0021300406796086039 0.045815384016901245 0 -0.0020439390985978394 0.045911025985658986 0 -0.0020439390985978394 0.045911025985658986 0 -0.0018489311602828166 0.04610619322202384 0 -0.0019687529582253904 0.045743357650269358 0 -0.0020759422797108872 0.045645940304174619 0 -0.0020439390985978394 0.045911025985658986 0 -0.0019687529582253904 0.045743357650269358 0 -0.0014264360426249809 0.046043661789496509 0 -0.0018489311602828166 0.04610619322202384 0 -0.0017553273310376624 0.045591971242869872 0 -0.0018489311602828166 0.04610619322202384 0 -0.0017553273310376624 0.045591971242869872 0 -0.0019687529582253904 0.045743357650269358 0 -0.002057580682970842 0.045412594214848445 0 -0.0017553273310376624 0.045591971242869872 0 -0.0019687529582253904 0.045743357650269358 0 -0.002057580682970842 0.045412594214848445 0 -0.0020759422797108872 0.045645940304174619 0 -0.0019687529582253904 0.045743357650269358 0 -0.002057580682970842 0.045412594214848445 0 -0.0017553273310376624 0.045591971242869872 0 -0.001990191331753358 0.045293077256930263 0 -0.0015549856560002075 0.045907084567988622 0 -0.0019012288935202867 0.045658972613905877 0 -0.0010386196457420512 0.04569877411315984 0 -0.001336079427648372 0.046236483682008889 0 -0.0014485895524908811 0.045714636055661784 0 -0.001336079427648372 0.046236483682008889 0 -0.0017601689826315442 0.045959999357022045 0 -0.0014485895524908811 0.045714636055661784 0 -0.0010386196457420512 0.04569877411315984 0 -0.0014485895524908811 0.045714636055661784 0 -0.0012141228784448648 0.045429973007649643 0 -0.0014485895524908811 0.045714636055661784 0 -0.0018329933522012829 0.045609506279105157 0 -0.0016337428541683811 0.045263811033227269 0 -0.0017601689826315442 0.045959999357022045 0 -0.0014485895524908811 0.045714636055661784 0 -0.0018329933522012829 0.045609506279105157 0 -0.0018329933522012829 0.045609506279105157 0 -0.002256239613108529 0.045640442701542092 0 -0.0020029853634391825 0.045376819626124942 0 -0.0019012288935202867 0.045658972613905877 0 -0.0019420877642019965 0.045171776802431708 0 -0.0017601689826315442 0.045959999357022045 0 -0.0018329933522012829 0.045609506279105157 0 -0.002256239613108529 0.045640442701542092 0 -0.001833066695194139 0.04476038597459446 0 -0.0019678297497866294 0.044810002314882962 0 -0.0019387782491718714 0.044923025425706309 0 -0.0017730311916353764 0.044832770545786063 0 -0.001833066695194139 0.04476038597459446 0 -0.0019387782491718714 0.044923025425706309 0 -0.0016023362390485808 0.04491808467324198 0 -0.001833066695194139 0.04476038597459446 0 -0.0018131629078592874 0.04439014777613734 0 -0.001833066695194139 0.04476038597459446 0 -0.0019678297497866294 0.044810002314882962 0 -0.0019388907407174598 0.044628165953470411 0 -0.0019420877642019965 0.045171776802431708 0 -0.0019217904698269114 0.044993655465712615 0 -0.0019678297497866294 0.044810002314882962 0 -0.0020452153110198244 0.044828434805952493 0 -0.0019388907407174598 0.044628165953470411 0 -0.0019678297497866294 0.044810002314882962 0 -0.0020110720251415304 0.044891807618522579 0 -0.0019387782491718714 0.044923025425706309 0 -0.0020110720251415304 0.044891807618522579 0 -0.0019387782491718714 0.044923025425706309 0 -0.0020228235458705154 0.045006831827072713 0 -0.0020743788829143909 0.045258389688092003 0 -0.0019387782491718714 0.044923025425706309 0 -0.0020228235458705154 0.045006831827072713 0 -0.0020743788829143909 0.045258389688092003 0 -0.0017730311916353764 0.044832770545786063 0 -0.0019387782491718714 0.044923025425706309 0 -0.0020228235458705154 0.045006831827072713 0 -0.0020626672393420521 0.045098909621994879 0 -0.0020437590209133835 0.045007192781344837 0 -0.0020743788829143909 0.045258389688092003 0 -0.0020228235458705154 0.045006831827072713 0 -0.0020626672393420521 0.045098909621994879 0 -0.0020743788829143909 0.045258389688092003 0 -0.002057580682970842 0.045412594214848445 0 -0.0020649492290502822 0.045299650438980092 0 -0.001990191331753358 0.045293077256930263 0 -0.0020822014053812517 0.045276451630858389 0 -0.0020649492290502822 0.045299650438980092 0 -0.0020743788829143909 0.045258389688092003 0 -0.0020822014053812517 0.045276451630858389 0 -0.0020649492290502822 0.045299650438980092 0 -0.0020423257749698502 0.045181198208358565 0 -0.0019420877642019965 0.045171776802431708 0 -0.002057580682970842 0.045412594214848445 0 -0.001990191331753358 0.045293077256930263 0 -0.0020649492290502822 0.045299650438980092 0 -0.0019985625658939399 0.044920626734161348 0 -0.0020208003823640238 0.044931824465962104 0 -0.0018404153519080968 0.044905494905274297 0 -0.0019985625658939399 0.044920626734161348 0 -0.0018404153519080968 0.044905494905274297 0 -0.0018479963590338666 0.044779964694091248 0 -0.0019985625658939399 0.044920626734161348 0 -0.0020437590209133835 0.045007192781344837 0 -0.0020419406690338512 0.044940733942722952 0 -0.0019985625658939399 0.044920626734161348 0 -0.0020437590209133835 0.045007192781344837 0 -0.0020432133934829753 0.045009597319729512 0 -0.0020228235458705154 0.045006831827072713 0 -0.0020437590209133835 0.045007192781344837 0 -0.0020419406690338512 0.044940733942722952 0 -0.0019985625658939399 0.044920626734161348 0 -0.0020419406690338512 0.044940733942722952 0 -0.0020208003823640238 0.044931824465962104 0 -0.0020419406690338512 0.044940733942722952 0 -0.0020452153110198244 0.044828434805952493 0 -0.0020208003823640238 0.044931824465962104 0 -0.0020110720251415304 0.044891807618522579 0 -0.0020419406690338512 0.044940733942722952 0 -0.0020452153110198244 0.044828434805952493 0 -0.0020110720251415304 0.044891807618522579 0 -0.0020228235458705154 0.045006831827072713 0 -0.0020419406690338512 0.044940733942722952 0 -0.0019678297497866294 0.044810002314882962 0 -0.0020110720251415304 0.044891807618522579 0 -0.0020452153110198244 0.044828434805952493 0 -0.0020208003823640238 0.044931824465962104 0 -0.0018404153519080968 0.044905494905274297 0 -0.0018911266135903753 0.045059105932172092 0 -0.0020363683196050176 0.044887932075884686 0 -0.0019701716043559357 0.045020453636097864 0 -0.0020452153110198244 0.044828434805952493 0 -0.0020208003823640238 0.044931824465962104 0 -0.0021312693863410623 0.044790711148150267 0 -0.0016030115404707128 0.044927401702579375 0 -0.0018404153519080968 0.044905494905274297 0 -0.0017104973447775013 0.045038879394887703 0 -0.0018404153519080968 0.044905494905274297 0 -0.0017104973447775013 0.045038879394887703 0 -0.0018911266135903753 0.045059105932172092 0 -0.0016030115404707128 0.044927401702579375 0 -0.0014889060885553197 0.045000528990055841 0 -0.0015759538799318814 0.045052530161411863 0 -0.0016030115404707128 0.044927401702579375 0 -0.0015759538799318814 0.045052530161411863 0 -0.0017104973447775013 0.045038879394887703 0 -0.0016030115404707128 0.044927401702579375 0 -0.0017179007741434083 0.044781320045558626 0 -0.0015140912705640423 0.044747485801679185 0 -0.0016030115404707128 0.044927401702579375 0 -0.0017179007741434083 0.044781320045558626 0 -0.0018404153519080968 0.044905494905274297 0 -0.0017179007741434083 0.044781320045558626 0 -0.0018404153519080968 0.044905494905274297 0 -0.0018479963590338666 0.044779964694091248 0 -0.0017179007741434083 0.044781320045558626 0 -0.0016903285295228113 0.04458106690518996 0 -0.0018479963590338666 0.044779964694091248 0 -0.0016903285295228113 0.04458106690518996 0 -0.0013764930992970583 0.044475018625030054 0 -0.0015140912705640423 0.044747485801679185 0 -0.0017179007741434083 0.044781320045558626 0 -0.0016903285295228113 0.04458106690518996 0 -0.0015140912705640423 0.044747485801679185 0 -0.0016903285295228113 0.04458106690518996 0 -0.001593130546534167 0.044281162846215631 0 -0.0013764930992970583 0.044475018625030054 0 -0.0016903285295228113 0.04458106690518996 0 -0.0017589274915360738 0.044466681666594593 0 -0.001593130546534167 0.044281162846215631 0 -0.0016903285295228113 0.04458106690518996 0 -0.0018449209854347432 0.044628940080828405 0 -0.0017589274915360738 0.044466681666594593 0 -0.0016903285295228113 0.04458106690518996 0 -0.0018449209854347432 0.044628940080828405 0 -0.0018479963590338666 0.044779964694091248 0 -0.0018449209854347432 0.044628940080828405 0 -0.0020754512674928541 0.044763228532553767 0 -0.0018679741234507092 0.044489535840008337 0 -0.0018449209854347432 0.044628940080828405 0 -0.0019569176148670009 0.044836220157333219 0 -0.0018479963590338666 0.044779964694091248 0 -0.0019985625658939399 0.044920626734161348 0 -0.0019569176148670009 0.044836220157333219 0 -0.0018479963590338666 0.044779964694091248 0 -0.0019569176148670009 0.044836220157333219 0 -0.0020432133934829753 0.045009597319729512 0 -0.0020754512674928541 0.044763228532553767 0 -0.0020626672393420521 0.045098909621994879 0 -0.0020437590209133835 0.045007192781344837 0 -0.0020432133934829753 0.045009597319729512 0 -0.0019985625658939399 0.044920626734161348 0 -0.0019569176148670009 0.044836220157333219 0 -0.0020432133934829753 0.045009597319729512 0 -0.0018449209854347432 0.044628940080828405 0 -0.0019569176148670009 0.044836220157333219 0 -0.0020754512674928541 0.044763228532553767 0 -0.002202646098287533 0.045776088284507209 0 -0.0022061832200971241 0.045761981407635433 0 -0.0019863070574423726 0.045460004456175686 0 -0.002202646098287533 0.045776088284507209 0 -0.0019863070574423726 0.045460004456175686 0 -0.0020763738278561034 0.045347109258880969 0 -0.0021184710948251259 0.045248552231928044 0 -0.001953529950694366 0.044967307349833528 0 -0.0018449209854347432 0.044628940080828405 0 -0.0018679741234507092 0.044489535840008337 0 -0.0017589274915360738 0.044466681666594593 0 -0.0019863070574423726 0.045460004456175686 0 -0.0020763738278561034 0.045347109258880969 0 -0.0017958456142183039 0.044530616683860248 0 -0.0020577978471807835 0.045613114350076277 0 -0.0020763738278561034 0.045347109258880969 0 -0.0019731305290976342 0.044945401917415986 0 -0.0020763738278561034 0.045347109258880969 0 -0.0019731305290976342 0.044945401917415986 0 -0.0017958456142183039 0.044530616683860248 0 -0.0019325562624180057 0.044632000583456059 0 -0.0019731305290976342 0.044945401917415986 0 -0.0020053434416529852 0.045260159794644345 0 -0.0020577978471807835 0.045613114350076277 0 -0.0019731305290976342 0.044945401917415986 0 -0.0020053434416529852 0.045260159794644345 0 -0.0017730778690532363 0.04376048560711638 0 -0.0017377440958272559 0.044035029061228852 0 -0.0015097184388245038 0.043460283119639356 0 -0.0017730778690532363 0.04376048560711638 0 -0.0018794102917605369 0.044425255495676434 0 -0.0017377440958272559 0.044035029061228852 0 -0.0019325562624180057 0.044632000583456059 0 -0.0019731305290976342 0.044945401917415986 0 -0.0018794102917605369 0.044425255495676434 0 -0.0019731305290976342 0.044945401917415986 0 -0.0018794102917605369 0.044425255495676434 0 -0.0017958456142183039 0.044530616683860248 0 -0.0018794102917605369 0.044425255495676434 0 -0.0017377440958272559 0.044035029061228852 0 -0.0017958456142183039 0.044530616683860248 0 -0.0017377440958272559 0.044035029061228852 0 -0.0017958456142183039 0.044530616683860248 0 -0.0015228276454589563 0.04392843668863744 0 -0.0017958456142183039 0.044530616683860248 0 -0.001593130546534167 0.044281162846215631 0 -0.0015228276454589563 0.04392843668863744 0 -0.001953529950694366 0.044967307349833528 0 -0.0018091473640570125 0.04461139154980575 0 -0.0018679741234507092 0.044489535840008337 0 -0.0017958456142183039 0.044530616683860248 0 -0.0017589274915360738 0.044466681666594593 0 -0.0017958456142183039 0.044530616683860248 0 -0.0017589274915360738 0.044466681666594593 0 -0.001593130546534167 0.044281162846215631 0 -0.001593130546534167 0.044281162846215631 0 -0.001229251795722847 0.044050908532916475 0 -0.0015228276454589563 0.04392843668863744 0 -0.001229251795722847 0.044050908532916475 0 -0.0011730462758050549 0.043746918833564248 0 -0.0008043617332864117 0.043624795826425145 0 -0.001229251795722847 0.044050908532916475 0 -0.0008043617332864117 0.043624795826425145 0 -0.00080608359933734264 0.043997351325107424 0 -0.0011730462758050549 0.043746918833564248 0 -0.0010898318395507858 0.043363282406219596 0 -0.0008043617332864117 0.043624795826425145 0 -0.001229251795722847 0.044050908532916475 0 -0.0011730462758050549 0.043746918833564248 0 -0.0015228276454589563 0.04392843668863744 0 -0.0011730462758050549 0.043746918833564248 0 -0.0015228276454589563 0.04392843668863744 0 -0.0010898318395507858 0.043363282406219596 0 -0.0017377440958272559 0.044035029061228852 0 -0.0015228276454589563 0.04392843668863744 0 -0.0015097184388245038 0.043460283119639356 0 -0.0015228276454589563 0.04392843668863744 0 -0.0015097184388245038 0.043460283119639356 0 -0.0010898318395507858 0.043363282406219596 0 -0.0015097184388245038 0.043460283119639356 0 -0.0010898318395507858 0.043363282406219596 0 -0.00094980624966334412 0.042794293318143266 0 -0.00077382766388780122 0.042014587585492556 0 -0.0013342258028580273 0.042610087581586346 0 -0.00094980624966334412 0.042794293318143266 0 -0.0015097184388245038 0.043460283119639356 0 -0.0013342258028580273 0.042610087581586346 0 -0.00094980624966334412 0.042794293318143266 0 -0.0017730778690532363 0.04376048560711638 0 -0.0015097184388245038 0.043460283119639356 0 -0.0013342258028580273 0.042610087581586346 0 -0.00077382766388780122 0.042014587585492556 0 -0.00031857699193051092 0.042208592569409273 0 -0.00094980624966334412 0.042794293318143266 0 -0.0010898318395507858 0.043363282406219596 0 -0.00094980624966334412 0.042794293318143266 0 -0.00057517916235719734 0.043000803283003909 0 -0.00031857699193051092 0.042208592569409273 0 -0.00094980624966334412 0.042794293318143266 0 -0.00057517916235719734 0.043000803283003909 0 -0.00031857699193051092 0.042208592569409273 0 -4.3828231657060179e-06 0.042633395198172726 0 0.00015164702574656315 0.042090451181910848 0 -0.00031857699193051092 0.042208592569409273 0 -0.00057517916235719734 0.043000803283003909 0 -4.3828231657060179e-06 0.042633395198172726 0 -0.00057517916235719734 0.043000803283003909 0 -4.3828231657060179e-06 0.042633395198172726 0 -0.00028730507776144649 0.043269275620758281 0 -0.0010898318395507858 0.043363282406219596 0 -0.00057517916235719734 0.043000803283003909 0 -0.0008043617332864117 0.043624795826425145 0 -0.00057517916235719734 0.043000803283003909 0 -0.00028730507776144649 0.043269275620758281 0 -0.0008043617332864117 0.043624795826425145 0 -0.00028730507776144649 0.043269275620758281 0 -0.0008043617332864117 0.043624795826425145 0 -0.00033683781137616486 0.043673541281032485 0 -0.0008043617332864117 0.043624795826425145 0 -0.00033683781137616486 0.043673541281032485 0 -0.00080608359933734264 0.043997351325107424 0 -0.00028730507776144649 0.043269275620758281 0 -0.00033683781137616486 0.043673541281032485 0 0.00012021788023195086 0.043357118336852379 0 -0.00033683781137616486 0.043673541281032485 0 4.5847801185903702e-05 0.043782460521093212 0 0.00012021788023195086 0.043357118336852379 0 -0.00033683781137616486 0.043673541281032485 0 4.5847801185903702e-05 0.043782460521093212 0 -0.00040798390268711381 0.044082623553242974 0 -0.00040798390268711381 0.044082623553242974 0 -6.5781343839619306e-05 0.044197912035156023 0 -0.00052425532332146829 0.044431920349217557 0 4.5847801185903702e-05 0.043782460521093212 0 -0.00040798390268711381 0.044082623553242974 0 -6.5781343839619306e-05 0.044197912035156023 0 -6.5781343839619306e-05 0.044197912035156023 0 -0.00031484258553640806 0.044535532932631988 0 5.1859032550839797e-05 0.044657944800135997 0 0.00033419127337541222 0.044133084782377194 0 -0.0009952278427012263 0.044780517451446095 0 7.3666074529940659e-05 0.044317808269923771 0 0.00033419127337541222 0.044133084782377194 0 -0.00031484258553640806 0.044535532932631988 0 5.1859032550839797e-05 0.044657944800135997 0 -0.00069302942435448488 0.044803823209420918 0 -6.5781343839619306e-05 0.044197912035156023 0 -0.00031484258553640806 0.044535532932631988 0 -0.00052425532332146829 0.044431920349217557 0 -0.00076582847428562821 0.044526381724925602 0 -0.0010396330023903083 0.044569529588332255 0 -0.00069302942435448488 0.044803823209420918 0 -0.00031484258553640806 0.044535532932631988 0 -0.00052425532332146829 0.044431920349217557 0 -0.00069302942435448488 0.044803823209420918 0 -0.00052425532332146829 0.044431920349217557 0 -0.00076582847428562821 0.044526381724925602 0 -0.00069302942435448488 0.044803823209420918 0 -0.00052425532332146829 0.044431920349217557 0 -0.00076582847428562821 0.044526381724925602 0 -0.00078878711316574251 0.044313106271454017 0 -0.00076582847428562821 0.044526381724925602 0 -0.00078878711316574251 0.044313106271454017 0 -0.0010396330023903083 0.044569529588332255 0 -0.00040798390268711381 0.044082623553242974 0 -0.00052425532332146829 0.044431920349217557 0 -0.00078878711316574251 0.044313106271454017 0 -0.00040798390268711381 0.044082623553242974 0 -0.00078878711316574251 0.044313106271454017 0 -0.00080608359933734264 0.043997351325107424 0 -0.00033683781137616486 0.043673541281032485 0 -0.00040798390268711381 0.044082623553242974 0 -0.00080608359933734264 0.043997351325107424 0 -0.00078878711316574251 0.044313106271454017 0 -0.00080608359933734264 0.043997351325107424 0 -0.0010632693537975248 0.044283326854489664 0 -0.001229251795722847 0.044050908532916475 0 -0.00080608359933734264 0.043997351325107424 0 -0.0010632693537975248 0.044283326854489664 0 -0.001229251795722847 0.044050908532916475 0 -0.0010632693537975248 0.044283326854489664 0 -0.0013764930992970583 0.044475018625030054 0 -0.00078878711316574251 0.044313106271454017 0 -0.0010632693537975248 0.044283326854489664 0 -0.0010396330023903083 0.044569529588332255 0 -0.001593130546534167 0.044281162846215631 0 -0.001229251795722847 0.044050908532916475 0 -0.0013764930992970583 0.044475018625030054 0 -0.0013764930992970583 0.044475018625030054 0 -0.001229164498167697 0.044795149643648127 0 -0.0015140912705640423 0.044747485801679185 0 -0.0013764930992970583 0.044475018625030054 0 -0.0010396330023903083 0.044569529588332255 0 -0.001229164498167697 0.044795149643648127 0 -0.0010632693537975248 0.044283326854489664 0 -0.0013764930992970583 0.044475018625030054 0 -0.0010396330023903083 0.044569529588332255 0 -0.0010396330023903083 0.044569529588332255 0 -0.001229164498167697 0.044795149643648127 0 -0.00069302942435448488 0.044803823209420918 0 -0.0016030115404707128 0.044927401702579375 0 -0.0015140912705640423 0.044747485801679185 0 -0.0013767391021692638 0.044935224755054008 0 -0.001229164498167697 0.044795149643648127 0 -0.0015140912705640423 0.044747485801679185 0 -0.0013767391021692638 0.044935224755054008 0 -0.0013767391021692638 0.044935224755054008 0 -0.0014889060885553197 0.045000528990055841 0 -0.0014342592382202274 0.045081307073456658 0 -0.0016030115404707128 0.044927401702579375 0 -0.0013767391021692638 0.044935224755054008 0 -0.0014889060885553197 0.045000528990055841 0 -0.0013767391021692638 0.044935224755054008 0 -0.0011521485795259706 0.04494248985935792 0 -0.0012721985620053832 0.045062408551535101 0 -0.001229164498167697 0.044795149643648127 0 -0.0011521485795259706 0.04494248985935792 0 -0.0010768071868368606 0.04480884273022049 0 -0.001229164498167697 0.044795149643648127 0 -0.0013767391021692638 0.044935224755054008 0 -0.0011521485795259706 0.04494248985935792 0 -0.0011521485795259706 0.04494248985935792 0 -0.00098966585164288233 0.044875624104238586 0 -0.0009117302010336418 0.045016157579089201 0 -0.0011521485795259706 0.04494248985935792 0 -0.00098966585164288233 0.044875624104238586 0 -0.0010768071868368606 0.04480884273022049 0 -0.0005177524067738993 0.040610618319287958 0 0.00012098037109045085 0.040408852094184863 0 -0.00085433374819813353 0.044853932247365814 0 -0.0009117302010336418 0.045016157579089201 0 -0.00068494444446928553 0.044853321873331367 0 -0.00098966585164288233 0.044875624104238586 0 -0.00085433374819813353 0.044853932247365814 0 -0.0009117302010336418 0.045016157579089201 0 -0.00098966585164288233 0.044875624104238586 0 -0.00085433374819813353 0.044853932247365814 0 -0.00095098638437755693 0.044759775828902122 0 -0.0012942533798283805 0.044867192767402676 0 0.00044233019484873491 0.043802241568598681 0 -0.00070267929715472097 0.044534716096748389 0 -0.00075931814490858061 0.044718143395266662 0 -0.0010203959514345862 0.044649245452441734 0 -0.00075931814490858061 0.044718143395266662 0 -0.0010203959514345862 0.044649245452441734 0 -0.00095098638437755693 0.044759775828902122 0 -0.00085433374819813353 0.044853932247365814 0 -0.00095098638437755693 0.044759775828902122 0 -0.00071702144273297819 0.044771158971583694 0 -0.00075931814490858061 0.044718143395266662 0 -0.00095098638437755693 0.044759775828902122 0 -0.00060518194200109734 0.044836373848922619 0 -0.001229164498167697 0.044795149643648127 0 -0.0010203959514345862 0.044649245452441734 0 -0.0010768071868368606 0.04480884273022049 0 -0.0011266456993367549 0.044773166218529191 0 -0.0009952278427012263 0.044780517451446095 0 -0.00098966585164288233 0.044875624104238586 0 -0.0010768071868368606 0.04480884273022049 0 -0.00095098638437755693 0.044759775828902122 0 -0.0010203959514345862 0.044649245452441734 0 -0.0010768071868368606 0.04480884273022049 0 -0.00095098638437755693 0.044759775828902122 0 -8.8359263890323099e-05 0.036204953889083472 0 -6.1470330352391134e-06 0.036193828519104264 0 1.1384917106106038e-05 0.036204607818950491 0 -8.8359263890323099e-05 0.036204953889083472 0 -0.00010064473680336931 0.036224820968168842 0 -8.3516233507423309e-05 0.036210561666777399 0 -8.8359263890323099e-05 0.036204953889083472 0 -6.1470330352391134e-06 0.036193828519104264 0 -8.3516233507423309e-05 0.036210561666777399 0 -6.1470330352391134e-06 0.036193828519104264 0 1.1384917106106038e-05 0.036204607818950491 0 4.6776459554177069e-05 0.036195796851780503 0 -6.1470330352391134e-06 0.036193828519104264 0 4.6776459554177069e-05 0.036195796851780503 0 0.00010062098070653865 0.036192399004599744 0 -0.0011521485795259706 0.04494248985935792 0 -0.0011480743176691312 0.045158871660723736 0 -0.0009117302010336418 0.045016157579089201 0 -0.00064527536658399943 0.040994538223020079 0 -0.0005177524067738993 0.040610618319287958 0 -0.0011521485795259706 0.04494248985935792 0 -0.0011480743176691312 0.045158871660723736 0 -0.0012721985620053832 0.045062408551535101 0 -0.0013767391021692638 0.044935224755054008 0 -0.0012721985620053832 0.045062408551535101 0 -0.0014342592382202274 0.045081307073456658 0 -0.0012721985620053832 0.045062408551535101 0 -0.0014342592382202274 0.045081307073456658 0 -0.0013380283984832143 0.045152424648204736 0 -0.0014342592382202274 0.045081307073456658 0 -0.0014801186729932428 0.045175037755059107 0 -0.0013380283984832143 0.045152424648204736 0 -0.0014801186729932428 0.045175037755059107 0 -0.0013380283984832143 0.045152424648204736 0 -0.0013710634483556576 0.045271756352940007 0 -0.00064527536658399943 0.040994538223020079 0 -0.0012900299533017674 0.038169257280510877 0 -0.0011480743176691312 0.045158871660723736 0 -0.0012721985620053832 0.045062408551535101 0 -0.0013380283984832143 0.045152424648204736 0 -0.0011480743176691312 0.045158871660723736 0 -0.0013380283984832143 0.045152424648204736 0 -0.0013710634483556576 0.045271756352940007 0 -8.8359263890323099e-05 0.036204953889083472 0 -0.00010064473680336931 0.036224820968168842 0 -0.00013947493195480792 0.036234147797769345 0 -0.00046788721919618779 0.036131842545652978 0 -0.0012900299533017674 0.038169257280510877 0 -0.00069317925829960039 0.035907892309735977 0 -0.001198198951900967 0.036150679205975068 0 -0.00069913166711440568 0.036408874310527577 0 -0.00069317925829960039 0.035907892309735977 0 -0.0012921120624776569 0.035693025098143205 0 -0.001198198951900967 0.036150679205975068 0 -0.00069317925829960039 0.035907892309735977 0 -0.00069913166711440568 0.036408874310527577 0 -0.00012822202645977273 0.036189723830973526 0 -0.0014100506395506361 0.035807014471405017 0 -0.0016465951089254351 0.03595759637859218 0 -0.0019625158673598556 0.035902036399873584 0 -0.0012900299533017674 0.038169257280510877 0 -0.0010042526130464692 0.036480282190849429 0 -0.0012921120624776569 0.035693025098143205 0 -0.001198198951900967 0.036150679205975068 0 -0.0016465951089254351 0.03595759637859218 0 -0.0016465951089254351 0.03595759637859218 0 -0.0015357902822251102 0.036251832918100586 0 -0.0018831247870478452 0.036321690051928347 0 -0.001198198951900967 0.036150679205975068 0 -0.0016465951089254351 0.03595759637859218 0 -0.0015357902822251102 0.036251832918100586 0 -0.0015357902822251102 0.036251832918100586 0 -0.0014033608918654853 0.036580825175816685 0 -0.0018831247870478452 0.036321690051928347 0 -0.001198198951900967 0.036150679205975068 0 -0.0015357902822251102 0.036251832918100586 0 -0.0014033608918654853 0.036580825175816685 0 -0.001198198951900967 0.036150679205975068 0 -0.0014033608918654853 0.036580825175816685 0 -0.00069913166711440568 0.036408874310527577 0 -0.0014033608918654853 0.036580825175816685 0 -0.00069913166711440568 0.036408874310527577 0 -0.00082173277220380387 0.036945818640070592 0 -0.00069913166711440568 0.036408874310527577 0 -0.00012822202645977273 0.036189723830973526 0 -0.00012971660972205577 0.036626617731265375 0 -0.00012822202645977273 0.036189723830973526 0 -1.5139091114945475e-06 0.036351346773200635 0 -0.00012971660972205577 0.036626617731265375 0 -6.1470330352391134e-06 0.036193828519104264 0 -0.00012822202645977273 0.036189723830973526 0 -8.3516233507423309e-05 0.036210561666777399 0 -0.00010064473680336931 0.036224820968168842 0 -0.00012822202645977273 0.036189723830973526 0 -8.3516233507423309e-05 0.036210561666777399 0 -0.00046788721919618779 0.036131842545652978 0 -0.00016051505462872983 0.03617674548451124 0 -6.1470330352391134e-06 0.036193828519104264 0 5.7053117489071163e-05 0.036229386133738078 0 0.00010062098070653865 0.036192399004599744 0 -6.1470330352391134e-06 0.036193828519104264 0 -0.00012822202645977273 0.036189723830973526 0 5.7053117489071163e-05 0.036229386133738078 0 5.7053117489071163e-05 0.036229386133738078 0 -1.5139091114945475e-06 0.036351346773200635 0 0.00013532893683745599 0.03640175574065864 0 -1.5139091114945475e-06 0.036351346773200635 0 0.00013532893683745599 0.03640175574065864 0 -0.00012971660972205577 0.036626617731265375 0 -0.00012822202645977273 0.036189723830973526 0 5.7053117489071163e-05 0.036229386133738078 0 -1.5139091114945475e-06 0.036351346773200635 0 0.00013532893683745599 0.03640175574065864 0 -0.00012971660972205577 0.036626617731265375 0 0.00024615427077991797 0.036934916248442778 0 0.00013532893683745599 0.03640175574065864 0 0.00024615427077991797 0.036934916248442778 0 0.00018600338843851417 0.036484521058444436 0 -0.00012971660972205577 0.036626617731265375 0 -0.00041016559587552171 0.037316706166269226 0 -0.00082173277220380387 0.036945818640070592 0 -0.00012971660972205577 0.036626617731265375 0 -0.00041016559587552171 0.037316706166269226 0 0.00024615427077991797 0.036934916248442778 0 -0.00041016559587552171 0.037316706166269226 0 0.00024615427077991797 0.036934916248442778 0 -0.00025187652466904204 0.037960987104426601 0 -0.00041016559587552171 0.037316706166269226 0 -0.00025187652466904204 0.037960987104426601 0 -0.00071670154639949849 0.038203010711041249 0 0.00024615427077991797 0.036934916248442778 0 0.00020966656364427598 0.036608387900547296 0 0.00018600338843851417 0.036484521058444436 0 0.00024615427077991797 0.036934916248442778 0 0.00020966656364427598 0.036608387900547296 0 0.00038568362145026684 0.036244560580164099 0 0.00020966656364427598 0.036608387900547296 0 0.00031947783678043816 0.036339371413461524 0 0.00038568362145026684 0.036244560580164099 0 0.00027061755826182356 0.036964725147676243 0 0.00026088442696725427 0.037466208110032657 0 0.00031947783678043816 0.036339371413461524 0 0.00038568362145026684 0.036244560580164099 0 0.00043403699458771536 0.036343757329186703 0 0.00024615427077991797 0.036934916248442778 0 0.0002344030890115597 0.03872472232446536 0 -0.00025187652466904204 0.037960987104426601 0 -0.00025187652466904204 0.037960987104426601 0 -0.00041939752890019454 0.03866178469091959 0 -0.00071670154639949849 0.038203010711041249 0 0.0002344030890115597 0.03872472232446536 0 -0.00025187652466904204 0.037960987104426601 0 -0.00041939752890019454 0.03866178469091959 0 0.0002344030890115597 0.03872472232446536 0 -0.0002690559298025566 0.038962958601702284 0 -0.00024025664636503547 0.039213039724534882 0 0.0002344030890115597 0.03872472232446536 0 -0.00041939752890019454 0.03866178469091959 0 -0.0002690559298025566 0.038962958601702284 0 -0.00041939752890019454 0.03866178469091959 0 -0.0002690559298025566 0.038962958601702284 0 -0.00060196896521828229 0.039222155181443986 0 -0.0002690559298025566 0.038962958601702284 0 -0.00024025664636503547 0.039213039724534882 0 -0.00060196896521828229 0.039222155181443986 0 0.00026088442696725427 0.037466208110032657 0 -7.7798619381686364e-05 0.038201152560441688 0 0.00038568362145026684 0.036244560580164099 0 0.00043403699458771536 0.036343757329186703 0 0.00046298645036559023 0.036561569319866573 0 0.0002344030890115597 0.03872472232446536 0 -0.00024025664636503547 0.039213039724534882 0 -0.00019012948365170751 0.039553697645520018 0 0.00038568362145026684 0.036244560580164099 0 -2.6462462720856242e-05 0.036743189457583814 0 0.00046298645036559023 0.036561569319866573 0 0.00043403699458771536 0.036343757329186703 0 0.00077741142203047978 0.036584577334294856 0 0.00046298645036559023 0.036561569319866573 0 0.00031947783678043816 0.036339371413461524 0 0.00043403699458771536 0.036343757329186703 0 0.0004595423398771141 0.036327500446988237 0 -0.0012841511961124256 0.039472528811895301 0 -0.00090510080879588469 0.038952639947097134 0 -0.0012829539694253183 0.038519070612594082 0 -0.0012841511961124256 0.039472528811895301 0 -0.00094136967438629285 0.039412586288605118 0 -0.00090510080879588469 0.038952639947097134 0 -0.00094136967438629285 0.039412586288605118 0 -0.00060196896521828229 0.039222155181443986 0 -0.00090510080879588469 0.038952639947097134 0 -0.00041939752890019454 0.03866178469091959 0 -0.00060196896521828229 0.039222155181443986 0 -0.00090510080879588469 0.038952639947097134 0 -0.00090510080879588469 0.038952639947097134 0 -0.00071670154639949849 0.038203010711041249 0 -0.0012829539694253183 0.038519070612594082 0 -0.00041939752890019454 0.03866178469091959 0 -0.00090510080879588469 0.038952639947097134 0 -0.00071670154639949849 0.038203010711041249 0 -0.0012841511961124256 0.039472528811895301 0 -0.0012829539694253183 0.038519070612594082 0 -0.0020241186883153345 0.038433396302917484 0 -0.0012829539694253183 0.038519070612594082 0 -0.0015638005591806551 0.037858378033923397 0 -0.0020241186883153345 0.038433396302917484 0 -0.0012829539694253183 0.038519070612594082 0 -0.0015638005591806551 0.037858378033923397 0 -0.00098582023054270135 0.037644397728756003 0 -0.0015638005591806551 0.037858378033923397 0 -0.00098582023054270135 0.037644397728756003 0 -0.0014982886202340288 0.037146024158586387 0 -0.0015638005591806551 0.037858378033923397 0 -0.0014982886202340288 0.037146024158586387 0 -0.0020081220252626433 0.037531927105320682 0 -0.00071670154639949849 0.038203010711041249 0 -0.0012829539694253183 0.038519070612594082 0 -0.00098582023054270135 0.037644397728756003 0 -0.00041016559587552171 0.037316706166269226 0 -0.00071670154639949849 0.038203010711041249 0 -0.00098582023054270135 0.037644397728756003 0 -0.00041016559587552171 0.037316706166269226 0 -0.00098582023054270135 0.037644397728756003 0 -0.00082173277220380387 0.036945818640070592 0 -0.00069913166711440568 0.036408874310527577 0 -0.00012971660972205577 0.036626617731265375 0 -0.00082173277220380387 0.036945818640070592 0 -0.00098582023054270135 0.037644397728756003 0 -0.00082173277220380387 0.036945818640070592 0 -0.0014982886202340288 0.037146024158586387 0 -0.0014033608918654853 0.036580825175816685 0 -0.00082173277220380387 0.036945818640070592 0 -0.0014982886202340288 0.037146024158586387 0 -0.0014033608918654853 0.036580825175816685 0 -0.0014982886202340288 0.037146024158586387 0 -0.0021222305329114386 0.036950813002390351 0 -0.0021222305329114386 0.036950813002390351 0 -0.0027910910234480385 0.03728529514654122 0 -0.0026374324971764297 0.035842772917342974 0 -0.0021222305329114386 0.036950813002390351 0 -0.0027910910234480385 0.03728529514654122 0 -0.0020081220252626433 0.037531927105320682 0 -0.0014982886202340288 0.037146024158586387 0 -0.0021222305329114386 0.036950813002390351 0 -0.0020081220252626433 0.037531927105320682 0 -0.0032867074654354535 0.041783357174488944 0 -0.0037644919751766699 0.041083577216786626 0 -0.0029614953243307777 0.04080368597375638 0 -0.0033154261805790415 0.039419518649806494 0 -0.003060055092118871 0.039211386908706083 0 -0.0037644919751766699 0.041083577216786626 0 -0.0030335179351325282 0.039272077591408425 0 -0.0029614953243307777 0.04080368597375638 0 -0.0030335179351325282 0.039272077591408425 0 -0.0029614953243307777 0.04080368597375638 0 -0.0025571293083205002 0.040207104118119605 0 -0.0027910910234480385 0.03728529514654122 0 -0.0020081220252626433 0.037531927105320682 0 -0.0020241186883153345 0.038433396302917484 0 -0.0027910910234480385 0.03728529514654122 0 -0.0020241186883153345 0.038433396302917484 0 -0.0030335179351325282 0.039272077591408425 0 -0.0015638005591806551 0.037858378033923397 0 -0.0020081220252626433 0.037531927105320682 0 -0.0020241186883153345 0.038433396302917484 0 -0.0012841511961124256 0.039472528811895301 0 -0.0020241186883153345 0.038433396302917484 0 -0.0030335179351325282 0.039272077591408425 0 -0.0030335179351325282 0.039272077591408425 0 -0.0028334294549738578 0.039504250722412274 0 -0.0027246027193209275 0.040202410714009623 0 -0.0012841511961124256 0.039472528811895301 0 -0.0030335179351325282 0.039272077591408425 0 -0.0018806397787640816 0.040283806948731335 0 -0.0030335179351325282 0.039272077591408425 0 -0.0018806397787640816 0.040283806948731335 0 -0.0027246027193209275 0.040202410714009623 0 -0.0032222143310241089 0.041487129046860367 0 -0.0024720174241880952 0.0417313153094057 0 -0.0033039643060869105 0.04204045473192608 0 -0.0018897376850704646 0.039438067925859591 0 -0.0028334294549738578 0.039504250722412274 0 -0.0025051696932797975 0.039705475820325367 0 -0.0026244684311298584 0.040201352917931601 0 -0.0025915063396408896 0.040670828906543062 0 -0.0030335179351325282 0.039272077591408425 0 -0.0028334294549738578 0.039504250722412274 0 -0.0025051696932797975 0.039705475820325367 0 -0.0030335179351325282 0.039272077591408425 0 -0.0025051696932797975 0.039705475820325367 0 -0.0025571293083205002 0.040207104118119605 0 -0.0025051696932797975 0.039705475820325367 0 -0.0020104559852114302 0.040316643112339977 0 -0.0025571293083205002 0.040207104118119605 0 -0.0025051696932797975 0.039705475820325367 0 -0.0020104559852114302 0.040316643112339977 0 -0.0014940087677423289 0.039952398165480421 0 -0.0018897376850704646 0.039438067925859591 0 -0.0025051696932797975 0.039705475820325367 0 -0.0014940087677423289 0.039952398165480421 0 -0.0020104559852114302 0.040316643112339977 0 -0.0021834432240174294 0.040957808113203743 0 -0.0012973224075798903 0.040770636133777648 0 -0.0020104559852114302 0.040316643112339977 0 -0.0025571293083205002 0.040207104118119605 0 -0.0021834432240174294 0.040957808113203743 0 -0.0029614953243307777 0.04080368597375638 0 -0.0025571293083205002 0.040207104118119605 0 -0.0021834432240174294 0.040957808113203743 0 -0.0029614953243307777 0.04080368597375638 0 -0.0026942803282408246 0.041659836400382802 0 -0.0021834432240174294 0.040957808113203743 0 -0.0032867074654354535 0.041783357174488944 0 -0.0029614953243307777 0.04080368597375638 0 -0.0026942803282408246 0.041659836400382802 0 -0.0026942803282408246 0.041659836400382802 0 -0.0016976416685436163 0.041645540904184056 0 -0.0021834432240174294 0.040957808113203743 0 -0.0016976416685436163 0.041645540904184056 0 -0.0021834432240174294 0.040957808113203743 0 -0.0012973224075798903 0.040770636133777648 0 -0.0026942803282408246 0.041659836400382802 0 -0.0016976416685436163 0.041645540904184056 0 -0.0024192239893709813 0.042858814492535889 0 -0.0021330493169593448 0.042980708041906207 0 -0.0024192239893709813 0.042858814492535889 0 -0.0020825200066139273 0.043081605822219766 0 -0.0019783351917410253 0.042363755222579492 0 -0.0023693916911750584 0.04283027186185908 0 -0.0024192239893709813 0.042858814492535889 0 -0.0021393710353468801 0.043548904393748124 0 -0.0026469320569268311 0.043674901251490844 0 -0.0024192239893709813 0.042858814492535889 0 -0.0021393710353468801 0.043548904393748124 0 -0.0020825200066139273 0.043081605822219766 0 -0.0030545191337461538 0.043193092730619463 0 -0.0024192239893709813 0.042858814492535889 0 -0.0026469320569268311 0.043674901251490844 0 -0.0030545191337461538 0.043193092730619463 0 -0.0030885512987039935 0.042473060967020401 0 -0.0024192239893709813 0.042858814492535889 0 -0.0026942803282408246 0.041659836400382802 0 -0.0030885512987039935 0.042473060967020401 0 -0.0024192239893709813 0.042858814492535889 0 -0.0032867074654354535 0.041783357174488944 0 -0.0026942803282408246 0.041659836400382802 0 -0.0030885512987039935 0.042473060967020401 0 -0.0032867074654354535 0.041783357174488944 0 -0.0030885512987039935 0.042473060967020401 0 -0.0038690049090681182 0.042845429190752224 0 -0.0032867074654354535 0.041783357174488944 0 -0.0037644919751766699 0.041083577216786626 0 -0.0038690049090681182 0.042845429190752224 0 -0.0033154261805790415 0.039419518649806494 0 -0.0028463328950666254 0.038485054398381791 0 -0.0021222305329114386 0.036950813002390351 0 -0.0018831247870478452 0.036321690051928347 0 -0.0023041980980847473 0.036162936324561697 0 -0.0014033608918654853 0.036580825175816685 0 -0.0021222305329114386 0.036950813002390351 0 -0.0018831247870478452 0.036321690051928347 0 -0.0022329938415142012 0.035994161494391302 0 -0.0028463328950666254 0.038485054398381791 0 -0.0014100506395506361 0.035807014471405017 0 -0.0019625158673598556 0.035902036399873584 0 -0.0022291433992547485 0.035548677440095308 0 -0.0019625158673598556 0.035902036399873584 0 -0.0023041980980847473 0.036162936324561697 0 -0.0022291433992547485 0.035548677440095308 0 -0.0016465951089254351 0.03595759637859218 0 -0.0018831247870478452 0.036321690051928347 0 -0.0019625158673598556 0.035902036399873584 0 -0.0018831247870478452 0.036321690051928347 0 -0.0019625158673598556 0.035902036399873584 0 -0.0023041980980847473 0.036162936324561697 0 -0.0028463328950666254 0.038485054398381791 0 -0.0016577850654040415 0.04140304120433707 0 -0.0030545191337461538 0.043193092730619463 0 -0.0030885512987039935 0.042473060967020401 0 -0.0038690049090681182 0.042845429190752224 0 -0.0030545191337461538 0.043193092730619463 0 -0.0038690049090681182 0.042845429190752224 0 -0.0032097379912224811 0.044032177580230827 0 -0.0028463328950666254 0.038485054398381791 0 -0.0020548770679814409 0.044324329103054484 0 -0.0028600722787909356 0.039000057817285043 0 -0.0030256118379206557 0.042236215942237504 0 -0.0010820333826898863 0.043006757159224682 0 -0.0016577850654040415 0.04140304120433707 0 -0.0020548770679814409 0.044324329103054484 0 -0.0016670911010730153 0.045203056888205466 0 -0.0016645737239671591 0.045167761314004656 0 -0.0017973528829339481 0.045175264773219447 0 -0.0016577850654040415 0.04140304120433707 0 -0.0017284240965332704 0.043455975784847944 0 -0.0014801186729932428 0.045175037755059107 0 -0.001664105229182377 0.045201591214900347 0 -0.0015745817467339067 0.045148184067330455 0 -0.0014801186729932428 0.045175037755059107 0 -0.0013710634483556576 0.045271756352940007 0 -0.001664105229182377 0.045201591214900347 0 -0.0012900299533017674 0.038169257280510877 0 -0.0016577850654040415 0.04140304120433707 0 -0.001664105229182377 0.045201591214900347 0 -0.0016645737239671591 0.045167761314004656 0 -0.0015745817467339067 0.045148184067330455 0 -0.0014342592382202274 0.045081307073456658 0 -0.0015745817467339067 0.045148184067330455 0 -0.0015759538799318814 0.045052530161411863 0 -0.0014342592382202274 0.045081307073456658 0 -0.0014801186729932428 0.045175037755059107 0 -0.0015745817467339067 0.045148184067330455 0 -0.0016645737239671591 0.045167761314004656 0 -0.0015745817467339067 0.045148184067330455 0 -0.0016536641160003515 0.045104831612280759 0 -0.0015745817467339067 0.045148184067330455 0 -0.0016536641160003515 0.045104831612280759 0 -0.0015759538799318814 0.045052530161411863 0 -0.0016536641160003515 0.045104831612280759 0 -0.0015759538799318814 0.045052530161411863 0 -0.0017104973447775013 0.045038879394887703 0 -0.0014889060885553197 0.045000528990055841 0 -0.0014342592382202274 0.045081307073456658 0 -0.0015759538799318814 0.045052530161411863 0 -0.0017397974235491796 0.04511295100208558 0 -0.0017104973447775013 0.045038879394887703 0 -0.0018911266135903753 0.045059105932172092 0 -0.0017973528829339481 0.045175264773219447 0 -0.0017397974235491796 0.04511295100208558 0 -0.0018911266135903753 0.045059105932172092 0 -0.0016645737239671591 0.045167761314004656 0 -0.0016536641160003515 0.045104831612280759 0 -0.0017397974235491796 0.04511295100208558 0 -0.0016645737239671591 0.045167761314004656 0 -0.0017973528829339481 0.045175264773219447 0 -0.0017397974235491796 0.04511295100208558 0 -0.0016536641160003515 0.045104831612280759 0 -0.0017397974235491796 0.04511295100208558 0 -0.0017104973447775013 0.045038879394887703 0 -0.0020548770679814409 0.044324329103054484 0 -0.0019701716043559357 0.045020453636097864 0 -0.0020548770679814409 0.044324329103054484 0 -0.0024117595768665197 0.044470032717291871 0 -0.0021722526323121722 0.044697038507561161 0 -0.0021312693863410623 0.044790711148150267 0 -0.0020745113839730216 0.044731593373827268 0 -0.0020452153110198244 0.044828434805952493 0 -0.0021312693863410623 0.044790711148150267 0 -0.0020745113839730216 0.044731593373827268 0 -0.0024117595768665197 0.044470032717291871 0 -0.0019020619945695496 0.044639909685170273 0 -0.0020452153110198244 0.044828434805952493 0 -0.0020745113839730216 0.044731593373827268 0 -0.0019388907407174598 0.044628165953470411 0 -0.0025242817177842289 0.044248717028637016 0 -0.0021120469850186298 0.04407341944299862 0 -0.0019388907407174598 0.044628165953470411 0 -0.0025242817177842289 0.044248717028637016 0 -0.0023567603847192203 0.043887902992310927 0 -0.0021120469850186298 0.04407341944299862 0 -0.0023567603847192203 0.043887902992310927 0 -0.0021393710353468801 0.043548904393748124 0 -0.0026469320569268311 0.043674901251490844 0 -0.0025242817177842289 0.044248717028637016 0 -0.0023567603847192203 0.043887902992310927 0 -0.0026469320569268311 0.043674901251490844 0 -0.0023567603847192203 0.043887902992310927 0 -0.0021393710353468801 0.043548904393748124 0 -0.0021120469850186298 0.04407341944299862 0 -0.0032097379912224811 0.044032177580230827 0 -0.0025242817177842289 0.044248717028637016 0 -0.0026469320569268311 0.043674901251490844 0 -0.0030545191337461538 0.043193092730619463 0 -0.0032097379912224811 0.044032177580230827 0 -0.0026469320569268311 0.043674901251490844 0 -0.0021393710353468801 0.043548904393748124 0 -0.0015747447635310297 0.043932601078811813 0 -0.0021120469850186298 0.04407341944299862 0 -0.0015747447635310297 0.043932601078811813 0 -0.0021120469850186298 0.04407341944299862 0 -0.0018131629078592874 0.04439014777613734 0 -0.0021120469850186298 0.04407341944299862 0 -0.0019388907407174598 0.044628165953470411 0 -0.0018131629078592874 0.04439014777613734 0 -0.001833066695194139 0.04476038597459446 0 -0.0019388907407174598 0.044628165953470411 0 -0.0018131629078592874 0.04439014777613734 0 -0.0019420877642019965 0.045171776802431708 0 -0.0019146409633670693 0.044467262482240276 0 -0.0022397031152094297 0.044944896610414349 0 -0.0020029853634391825 0.045376819626124942 0 -0.0016337428541683811 0.045263811033227269 0 -0.002256239613108529 0.045640442701542092 0 -0.0022397031152094297 0.044944896610414349 0 -0.0020029853634391825 0.045376819626124942 0 -0.0016023362390485808 0.04491808467324198 0 -0.0015747447635310297 0.043932601078811813 0 -0.0018131629078592874 0.04439014777613734 0 -0.0018329933522012829 0.045609506279105157 0 -0.0020029853634391825 0.045376819626124942 0 -0.0016337428541683811 0.045263811033227269 0 -0.0016337428541683811 0.045263811033227269 0 -0.0012141228784448648 0.045429973007649643 0 -0.001064399283312362 0.045032713022041031 0 -0.0014485895524908811 0.045714636055661784 0 -0.0016337428541683811 0.045263811033227269 0 -0.0012141228784448648 0.045429973007649643 0 -0.0016337428541683811 0.045263811033227269 0 -0.0016037222672577586 0.044523465231402881 0 -0.001064399283312362 0.045032713022041031 0 -0.0016037222672577586 0.044523465231402881 0 -0.001077256773822454 0.044400549548910567 0 -0.001064399283312362 0.045032713022041031 0 -0.0022397031152094297 0.044944896610414349 0 -0.0016337428541683811 0.045263811033227269 0 -0.0016037222672577586 0.044523465231402881 0 -0.0016037222672577586 0.044523465231402881 0 -0.001077256773822454 0.044400549548910567 0 -0.0012259319964771037 0.043864112226703132 0 -0.001077256773822454 0.044400549548910567 0 -0.0012259319964771037 0.043864112226703132 0 -0.00071938226122074498 0.04402788641149754 0 -0.0016037222672577586 0.044523465231402881 0 -0.0016628334346739122 0.043572895807113945 0 -0.0021938635382739869 0.044123230472005566 0 -0.0016037222672577586 0.044523465231402881 0 -0.0012259319964771037 0.043864112226703132 0 -0.0016628334346739122 0.043572895807113945 0 -0.0016628334346739122 0.043572895807113945 0 -0.0021938635382739869 0.044123230472005566 0 -0.0019783653353515037 0.043151923995591042 0 -0.0019611565340366833 0.043663135640930238 0 -0.0019736953353660506 0.043198274250406621 0 -0.0017384054472965082 0.043180896493267132 0 -0.0019932017050653412 0.043063661316558227 0 -0.0019783653353515037 0.043151923995591042 0 -0.0019146409633670693 0.044467262482240276 0 -0.0019611565340366833 0.043663135640930238 0 -0.0022397031152094297 0.044944896610414349 0 -0.0016037222672577586 0.044523465231402881 0 -0.0021938635382739869 0.044123230472005566 0 -0.0021393710353468801 0.043548904393748124 0 -0.0017384054472965082 0.043180896493267132 0 -0.0020825200066139273 0.043081605822219766 0 -0.0021393710353468801 0.043548904393748124 0 -0.0015747447635310297 0.043932601078811813 0 -0.0017384054472965082 0.043180896493267132 0 -0.0017384054472965082 0.043180896493267132 0 -0.0020825200066139273 0.043081605822219766 0 -0.0019932017050653412 0.043063661316558227 0 -0.0021330493169593448 0.042980708041906207 0 -0.0020825200066139273 0.043081605822219766 0 -0.0019932017050653412 0.043063661316558227 0 -0.0019932017050653412 0.043063661316558227 0 -0.0020096327113046882 0.043035270834160345 0 -0.0020614932100019479 0.042989317390550369 0 -0.0019783351917410253 0.042363755222579492 0 -0.0015957932456956781 0.041755880444202767 0 -0.0021330493169593448 0.042980708041906207 0 -0.0019932017050653412 0.043063661316558227 0 -0.0020614932100019479 0.042989317390550369 0 -0.0019932017050653412 0.043063661316558227 0 -0.0019783653353515037 0.043151923995591042 0 -0.0020096327113046882 0.043035270834160345 0 -0.0019783653353515037 0.043151923995591042 0 -0.0020096327113046882 0.043035270834160345 0 -0.0018315082377468354 0.043030403367361303 0 -0.0019895465459459135 0.042887512521775591 0 -0.0020614932100019479 0.042989317390550369 0 -0.0019994064450230688 0.042810537689042562 0 -0.0020096327113046882 0.043035270834160345 0 -0.0019895465459459135 0.042887512521775591 0 -0.0018315082377468354 0.043030403367361303 0 -0.0020096327113046882 0.043035270834160345 0 -0.0019895465459459135 0.042887512521775591 0 -0.0020614932100019479 0.042989317390550369 0 -0.0018409824800507968 0.042803021857457907 0 -0.0017453759694697057 0.042178401096029897 0 -0.0019895465459459135 0.042887512521775591 0 -0.0018151358695929296 0.042781158665820773 0 -0.0019288143373725414 0.042741513136995611 0 -0.0019895465459459135 0.042887512521775591 0 -0.0018151358695929296 0.042781158665820773 0 -0.0018315082377468354 0.043030403367361303 0 -0.0012973224075798903 0.040770636133777648 0 -0.0014940087677423289 0.039952398165480421 0 -0.00086162842578699683 0.040087178072196514 0 -0.0020104559852114302 0.040316643112339977 0 -0.0012973224075798903 0.040770636133777648 0 -0.0014940087677423289 0.039952398165480421 0 -0.0015957932456956781 0.041755880444202767 0 -0.0017453759694697057 0.042178401096029897 0 -0.0018897376850704646 0.039438067925859591 0 -0.0014940087677423289 0.039952398165480421 0 -0.00087923779738317029 0.039778539908703309 0 -0.0026244684311298584 0.040201352917931601 0 -0.0026030915437278311 0.043254262189896669 0 -0.0014940087677423289 0.039952398165480421 0 -0.00086162842578699683 0.040087178072196514 0 -0.00087923779738317029 0.039778539908703309 0 -0.0019895465459459135 0.042887512521775591 0 -0.0020117729799105245 0.042720734673469138 0 -0.0019288143373725414 0.042741513136995611 0 -0.0020117729799105245 0.042720734673469138 0 -0.0019288143373725414 0.042741513136995611 0 -0.0019426404162193806 0.042620359322897282 0 -0.0017453759694697057 0.042178401096029897 0 -0.002450991037035475 0.044628351207326902 0 -0.0017453759694697057 0.042178401096029897 0 -0.0026030915437278311 0.043254262189896669 0 -0.0018151358695929296 0.042781158665820773 0 -0.0019288143373725414 0.042741513136995611 0 -0.0019426404162193806 0.042620359322897282 0 -0.0029638527456250603 0.047118926587316312 0 -0.0029549787256293769 0.047123589605338634 0 -0.0029732401118133856 0.047152789147193307 0 -0.002450991037035475 0.044628351207326902 0 -0.0034373371353510298 0.046994015957836185 0 -0.0020078328305830548 0.043111966339201051 0 -0.0024083507030230478 0.043652292285779076 0 -0.0019744990789324259 0.043818061574242097 0 -0.002450991037035475 0.044628351207326902 0 -0.0026030915437278311 0.043254262189896669 0 -0.0029732401118133856 0.047152789147193307 0 -0.002985340610078819 0.047173757915257027 0 -0.0029938776621743746 0.047179256997527029 0 -0.0039582258015034956 0.04122678392994511 0 -0.0036090666070685341 0.041740734729693231 0 -0.0039515724043044003 0.042219288392624996 0 -0.0026030915437278311 0.043254262189896669 0 -0.0035994833557687106 0.044913947000950617 0 -0.0029549787256293769 0.047123589605338634 0 -0.0029732401118133856 0.047152789147193307 0 -0.0029938776621743746 0.047179256997527029 0 -0.0032222143310241089 0.041487129046860367 0 -0.0039582258015034956 0.04122678392994511 0 -0.0036090666070685341 0.041740734729693231 0 -0.0032222143310241089 0.041487129046860367 0 -0.0036090666070685341 0.041740734729693231 0 -0.0033039643060869105 0.04204045473192608 0 -0.0029281910826528842 0.047185493032741201 0 -0.0029201678544948776 0.04719760207795589 0 -0.0029492696410879332 0.047184284177584482 0 -0.0029281910826528842 0.047185493032741201 0 -0.0029492696410879332 0.047184284177584482 0 -0.0029523540056938459 0.04717316046145531 0 -0.0029281910826528842 0.047185493032741201 0 -0.0029201678544948776 0.04719760207795589 0 -0.0029198011408818271 0.04718730969751616 0 -0.0029201678544948776 0.04719760207795589 0 -0.0029198011408818271 0.04718730969751616 0 -0.0029124110462496176 0.04719886265525728 0 -0.0029201678544948776 0.04719760207795589 0 -0.0029492696410879332 0.047184284177584482 0 -0.0029321256574415451 0.047195438528282709 0 -0.0029492696410879332 0.047184284177584482 0 -0.0029669202726712415 0.047171262865797814 0 -0.002985340610078819 0.047173757915257027 0 -0.0029732401118133856 0.047152789147193307 0 -0.0029669202726712415 0.047171262865797814 0 -0.002985340610078819 0.047173757915257027 0 -0.0029732401118133856 0.047152789147193307 0 -0.0029669202726712415 0.047171262865797814 0 -0.0029523540056938459 0.04717316046145531 0 -0.0029492696410879332 0.047184284177584482 0 -0.0029669202726712415 0.047171262865797814 0 -0.0029523540056938459 0.04717316046145531 0 -0.002450991037035475 0.044628351207326902 0 -0.0021995825120214507 0.044992951785577752 0 -0.0029791437035638236 0.047158043650379552 0 -0.0029523540056938459 0.04717316046145531 0 -0.0029460378697510354 0.04718754865014789 0 -0.0029791437035638236 0.047158043650379552 0 -0.0029732401118133856 0.047152789147193307 0 -0.0029523540056938459 0.04717316046145531 0 -0.0018151358695929296 0.042781158665820773 0 -0.0019426404162193806 0.042620359322897282 0 -0.0015207708803811858 0.042720365175312455 0 -0.0029460378697510354 0.04718754865014789 0 -0.0029163021998198642 0.047179975990208477 0 -0.0028753236103184671 0.047216711412756768 0 -0.0029523540056938459 0.04717316046145531 0 -0.0029460378697510354 0.04718754865014789 0 -0.0029163021998198642 0.047179975990208477 0 -0.0029281910826528842 0.047185493032741201 0 -0.0029523540056938459 0.04717316046145531 0 -0.0029163021998198642 0.047179975990208477 0 -0.0029281910826528842 0.047185493032741201 0 -0.0029163021998198642 0.047179975990208477 0 -0.0029198011408818271 0.04718730969751616 0 -0.0021995825120214507 0.044992951785577752 0 -0.0019782686000070432 0.044918743761449921 0 -0.0015207708803811858 0.042720365175312455 0 -0.001402222960551393 0.043175952559167591 0 -0.00095577529222985735 0.042899839773821676 0 -0.0015207708803811858 0.042720365175312455 0 -0.0016537737576937047 0.042918553616293119 0 -0.001402222960551393 0.043175952559167591 0 -0.0016537737576937047 0.042918553616293119 0 -0.0018315082377468354 0.043030403367361303 0 -0.001402222960551393 0.043175952559167591 0 -0.0018151358695929296 0.042781158665820773 0 -0.0016537737576937047 0.042918553616293119 0 -0.0018315082377468354 0.043030403367361303 0 -0.0018151358695929296 0.042781158665820773 0 -0.0015207708803811858 0.042720365175312455 0 -0.0016537737576937047 0.042918553616293119 0 -0.0016628334346739122 0.043572895807113945 0 -0.0019783653353515037 0.043151923995591042 0 -0.0018315082377468354 0.043030403367361303 0 -0.0016628334346739122 0.043572895807113945 0 -0.0018315082377468354 0.043030403367361303 0 -0.001402222960551393 0.043175952559167591 0 -0.0012259319964771037 0.043864112226703132 0 -0.0016628334346739122 0.043572895807113945 0 -0.001402222960551393 0.043175952559167591 0 -0.0012259319964771037 0.043864112226703132 0 -0.001402222960551393 0.043175952559167591 0 -0.00081476112506594057 0.04344607155353062 0 -0.001402222960551393 0.043175952559167591 0 -0.00081476112506594057 0.04344607155353062 0 -0.00095577529222985735 0.042899839773821676 0 -0.00081476112506594057 0.04344607155353062 0 -0.00033377960808543815 0.04313285473176786 0 1.059107936220053e-05 0.043912333438192876 0 -0.00054633750688583543 0.049255098834132968 0 -0.00029624693346637533 0.049785589552733753 0 -0.00018313990061833202 0.049640356956469005 0 -0.00046116533854536203 0.049290257294225606 0 -0.00054633750688583543 0.049255098834132968 0 -0.00018313990061833202 0.049640356956469005 0 -0.0016302277943772421 0.046880050615350936 0 1.5067200777132218e-05 0.046771121685982457 0 -0.00046882830816021617 0.049315691605636265 0 -0.00047961295018107307 0.049414326032762357 0 -0.00056055172155621913 0.049275678434479671 0 -0.00081952579648867448 0.048238998900677552 0 -0.0013893942990728021 0.048350444604746912 0 -0.0008725560391150966 0.049109726238286293 0 -0.0011229269818639521 0.048496021264084255 0 -0.00043723716228191581 0.048790979070043067 0 -0.00081952579648867448 0.048238998900677552 0 -0.0016302277943772421 0.046880050615350936 0 -0.00157999286465375 0.047838487875567347 0 -0.0016270418218355918 0.047821162411157157 0 -0.0016395315295844976 0.047711567555571419 0 -0.0016302277943772421 0.046880050615350936 0 -0.0024836064584025891 0.047488055647668795 0 -0.0016270418218355918 0.047821162411157157 0 -0.0016859094767507857 0.047692815349335067 0 -0.0016395315295844976 0.047711567555571419 0 -0.0024836064584025891 0.047488055647668795 0 -0.0013893942990728021 0.048350444604746912 0 -0.0013893942990728021 0.048350444604746912 0 -0.00022439704343491207 0.049556429165730866 0 -0.0016302277943772421 0.046880050615350936 0 -0.0019782686000070432 0.044918743761449921 0 -0.0029163021998198642 0.047179975990208477 0 -0.0027985054793702468 0.047195091574487924 0 -0.0028753236103184671 0.047216711412756768 0 -0.00081476112506594057 0.04344607155353062 0 -0.00033377960808543815 0.04313285473176786 0 -0.00095577529222985735 0.042899839773821676 0 -0.0027678882834388787 0.047248959809400456 0 -0.0027985054793702468 0.047195091574487924 0 -0.0028753236103184671 0.047216711412756768 0 -0.0024836064584025891 0.047488055647668795 0 -0.0028792750380128851 0.047265410110669509 0 -0.002925577503874319 0.047181872073454284 0 -0.0029198011408818271 0.04718730969751616 0 -0.0029274238635572268 0.047190106802029057 0 -0.0029163021998198642 0.047179975990208477 0 -0.002925577503874319 0.047181872073454284 0 -0.0029198011408818271 0.04718730969751616 0 -0.0025825216097997588 0.047668441716868369 0 -0.0027884941176435866 0.047339805544773579 0 -0.0027823168452656981 0.047404456667439705 0 -0.0030782232589089543 0.047077919409178735 0 -0.0024836064584025891 0.047488055647668795 0 -0.00046882830816021617 0.049315691605636265 0 -0.00047961295018107307 0.049414326032762357 0 -0.00039004882084830842 0.049504611777049172 0 -0.0026418254541917012 0.047648240529263614 0 -0.0025825216097997588 0.047668441716868369 0 -0.0027823168452656981 0.047404456667439705 0 -0.00027484423061375222 0.049723815063500411 0 -0.00022439704343491207 0.049556429165730866 0 -0.0013893942990728021 0.048350444604746912 0 -0.0016390654259662311 0.048490206485052124 0 -5.7641857255439147e-05 0.050021542248265181 0 -3.9066444556094636e-05 0.049973274837896459 0 -2.3036532152613737e-05 0.050003937559388277 0 -5.7641857255439147e-05 0.050021542248265181 0 -0.00010075405205117535 0.049909235119383187 0 -0.00022852992709788221 0.049871940341677877 0 -5.7641857255439147e-05 0.050021542248265181 0 -3.9066444556094636e-05 0.049973274837896459 0 -0.00010075405205117535 0.049909235119383187 0 -0.00027484423061375222 0.049723815063500411 0 -0.00031930056165444155 0.049678402174976037 0 -3.9867627144654835e-05 0.049942567510456733 0 -0.00010075405205117535 0.049909235119383187 0 -3.8256328011199224e-05 0.049934217892906446 0 -3.9066444556094636e-05 0.049973274837896459 0 -3.9867627144654835e-05 0.049942567510456733 0 -0.00010075405205117535 0.049909235119383187 0 -0.00010075405205117535 0.049909235119383187 0 -0.00022852992709788221 0.049871940341677877 0 -0.00017327840193344897 0.04973728133870231 0 -0.00047961295018107307 0.049414326032762357 0 -0.00039682687870430005 0.049512161503303585 0 -0.00039004882084830842 0.049504611777049172 0 -0.0027884941176435866 0.047339805544773579 0 -0.0027823168452656981 0.047404456667439705 0 -0.002882350122164608 0.047221220483073749 0 -0.0029124110462496176 0.04719886265525728 0 -0.0029274238635572268 0.047190106802029057 0 -0.002882350122164608 0.047221220483073749 0 -0.0028792750380128851 0.047265410110669509 0 -0.0028757170627131245 0.047236270323046697 0 -0.0029201678544948776 0.04719760207795589 0 -0.0029124110462496176 0.04719886265525728 0 -0.002882350122164608 0.047221220483073749 0 -0.0029198011408818271 0.04718730969751616 0 -0.0029124110462496176 0.04719886265525728 0 -0.0029274238635572268 0.047190106802029057 0 -6.7103598542411914e-06 0.049992042732845819 0 -1.1454022551252091e-05 0.049976818199927241 0 -5.1844370266630444e-09 0.049999955991637257 0 -6.7103598542411914e-06 0.049992042732845819 0 -2.4344878981994285e-09 0.050000003988895925 0 -5.1844370266630444e-09 0.049999955991637257 0 -6.7103598542411914e-06 0.049992042732845819 0 -1.9634356810581582e-05 0.049974924345625234 0 -1.1454022551252091e-05 0.049976818199927241 0 -2.2782414861857724e-05 0.04995894867299986 0 -1.9634356810581582e-05 0.049974924345625234 0 -1.1454022551252091e-05 0.049976818199927241 0 -3.9867627144654835e-05 0.049942567510456733 0 -2.2782414861857724e-05 0.04995894867299986 0 -1.9634356810581582e-05 0.049974924345625234 0 -3.9066444556094636e-05 0.049973274837896459 0 -1.9634356810581582e-05 0.049974924345625234 0 -2.3036532152613737e-05 0.050003937559388277 0 -3.9066444556094636e-05 0.049973274837896459 0 -3.9867627144654835e-05 0.049942567510456733 0 -1.9634356810581582e-05 0.049974924345625234 0 -6.7103598542411914e-06 0.049992042732845819 0 -1.9634356810581582e-05 0.049974924345625234 0 -2.3036532152613737e-05 0.050003937559388277 0 -2.3036532152613737e-05 0.050003937559388277 0 -1.1252917274118976e-05 0.050005232139438027 0 -2.2948582270488615e-05 0.050014872060249765 0 -6.7103598542411914e-06 0.049992042732845819 0 -2.3036532152613737e-05 0.050003937559388277 0 -1.1252917274118976e-05 0.050005232139438027 0 -5.7641857255439147e-05 0.050021542248265181 0 -2.3036532152613737e-05 0.050003937559388277 0 -2.2948582270488615e-05 0.050014872060249765 0 -6.7103598542411914e-06 0.049992042732845819 0 -1.1252917274118976e-05 0.050005232139438027 0 -2.4344878981994285e-09 0.050000003988895925 0 -1.1252917274118976e-05 0.050005232139438027 0 -2.4344878981994285e-09 0.050000003988895925 0 -7.9521265768411422e-06 0.0500080217386581 0 -2.4344878981994285e-09 0.050000003988895925 0 -7.9521265768411422e-06 0.0500080217386581 0 -7.5846613459204976e-09 0.05000002206286315 0 -1.1252917274118976e-05 0.050005232139438027 0 -7.9521265768411422e-06 0.0500080217386581 0 -2.2948582270488615e-05 0.050014872060249765 0 -2.5707584610548475e-06 0.049990563311697156 0 -1.9639914380313744e-05 0.049976857467435416 0 -8.5897358226115432e-06 0.049993180593338647 0 4.6113546710645705e-05 0.050007001846454638 0 -0.00022439704343491207 0.049556429165730866 0 -0.00022439704343491207 0.049556429165730866 0 -5.8896555692305227e-05 0.049598538325629923 0 -0.0008725560391150966 0.049109726238286293 0 -0.00043723716228191581 0.048790979070043067 0 -6.4744867632819461e-05 0.049421743881131644 0 -0.00046116533854536203 0.049290257294225606 0 -0.00013989438499465879 0.049431636693115087 0 -0.00018313990061833202 0.049640356956469005 0 -2.5707584610548475e-06 0.049990563311697156 0 -8.5897358226115432e-06 0.049993180593338647 0 1.8199213183300294e-06 0.049999659206823123 0 -0.00081952579648867448 0.048238998900677552 0 -5.8896555692305227e-05 0.049598538325629923 0 -5.8896555692305227e-05 0.049598538325629923 0 -1.126526990777332e-05 0.049859518377252117 0 -0.00013989438499465879 0.049431636693115087 0 -2.8946380828857395e-05 0.049707865580810029 0 -0.00018313990061833202 0.049640356956469005 0 -2.5707584610548475e-06 0.049990563311697156 0 3.4940344169859942e-09 0.050000061171309985 0 1.8199213183300294e-06 0.049999659206823123 0 4.6113546710645705e-05 0.050007001846454638 0 -3.7464834221049776e-08 0.04999998298948137 0 3.4940344169859942e-09 0.050000061171309985 0 1.8199213183300294e-06 0.049999659206823123 0 6.583216581080795e-09 0.04999985225938066 0 -1.126526990777332e-05 0.049859518377252117 0 6.139488112976548e-06 0.049938054972683985 0 -2.8946380828857395e-05 0.049707865580810029 0 7.4276995655149715e-06 0.049971820087172381 0 -0.00010188063820716045 0.049878168413521606 0 1.8199213183300294e-06 0.049999659206823123 0 6.583216581080795e-09 0.04999985225938066 0 7.4276995655149715e-06 0.049971820087172381 0 6.583216581080795e-09 0.04999985225938066 0 7.4276995655149715e-06 0.049971820087172381 0 -2.2513350673673364e-08 0.050000031459557025 0 7.4276995655149715e-06 0.049971820087172381 0 -3.627959969131656e-05 0.049973217224007611 0 -2.2513350673673364e-08 0.050000031459557025 0 7.4276995655149715e-06 0.049971820087172381 0 -3.627959969131656e-05 0.049973217224007611 0 -0.00010188063820716045 0.049878168413521606 0 -3.627959969131656e-05 0.049973217224007611 0 -0.00010188063820716045 0.049878168413521606 0 -6.4941377163391394e-05 0.050011330526176657 0 -0.00029624693346637533 0.049785589552733753 0 -0.00010188063820716045 0.049878168413521606 0 -6.4941377163391394e-05 0.050011330526176657 0 1.059107936220053e-05 0.043912333438192876 0 -0.00038923353728416654 0.044540619557073891 0 0.00039823758230605387 0.044782841878796407 0 1.5067200777132218e-05 0.046771121685982457 0 0.00010871538130220524 0.047248777408635131 0 -2.8946380828857395e-05 0.049707865580810029 0 -0.00010188063820716045 0.049878168413521606 0 -0.00018313990061833202 0.049640356956469005 0 -0.00029624693346637533 0.049785589552733753 0 -0.00010188063820716045 0.049878168413521606 0 -0.00018313990061833202 0.049640356956469005 0 -0.00081476112506594057 0.04344607155353062 0 1.059107936220053e-05 0.043912333438192876 0 -0.00071938226122074498 0.04402788641149754 0 -0.0012259319964771037 0.043864112226703132 0 -0.00081476112506594057 0.04344607155353062 0 -0.00071938226122074498 0.04402788641149754 0 -0.001077256773822454 0.044400549548910567 0 -0.00071938226122074498 0.04402788641149754 0 -0.00038923353728416654 0.044540619557073891 0 1.059107936220053e-05 0.043912333438192876 0 -0.00071938226122074498 0.04402788641149754 0 -0.00038923353728416654 0.044540619557073891 0 -0.00038923353728416654 0.044540619557073891 0 -0.001064399283312362 0.045032713022041031 0 -0.0001579524678112002 0.045279978685135926 0 -0.00038923353728416654 0.044540619557073891 0 -0.0001579524678112002 0.045279978685135926 0 0.00039823758230605387 0.044782841878796407 0 -0.001077256773822454 0.044400549548910567 0 -0.00038923353728416654 0.044540619557073891 0 -0.001064399283312362 0.045032713022041031 0 -0.001064399283312362 0.045032713022041031 0 -0.00092042419989233693 0.045418066551989392 0 -0.00060341776117337929 0.045299080397676682 0 -0.0012141228784448648 0.045429973007649643 0 -0.001064399283312362 0.045032713022041031 0 -0.00092042419989233693 0.045418066551989392 0 -0.001047356035185937 0.044693850288247378 0 -0.00049491230036407402 0.046700757661688429 0 -0.001064399283312362 0.045032713022041031 0 -0.00012102103988126836 0.045424782755489085 0 -0.0001579524678112002 0.045279978685135926 0 -0.00077369842624464859 0.045658736162309033 0 -0.00092042419989233693 0.045418066551989392 0 -0.00060341776117337929 0.045299080397676682 0 -0.00049491230036407402 0.046700757661688429 0 -0.00054438637223152208 0.046140324009893895 0 -0.00049491230036407402 0.046700757661688429 0 0.00045029117523034273 0.048637273400966415 0 -0.00011966653316267581 0.045429965027387484 0 0.00078488786146070004 0.045762696201843062 0 0.00039823758230605387 0.044782841878796407 0 -6.0700363245469346e-05 0.049926841202890669 0 -0.00016591197663839261 0.049795563642955731 0 -7.0965506560505599e-06 0.049881624295582974 0 -3.6191783394954549e-09 0.050000000938860638 0 -1.0007214492521378e-05 0.050003449679895055 0 -2.2513350673673364e-08 0.050000031459557025 0 2.3372465202554632e-07 0.049999207776796631 0 0.00045029117523034273 0.048637273400966415 0 -1.0007214492521378e-05 0.050003449679895055 0 -2.2513350673673364e-08 0.050000031459557025 0 -6.4941377163391394e-05 0.050011330526176657 0 -3.627959969131656e-05 0.049973217224007611 0 -2.2513350673673364e-08 0.050000031459557025 0 -6.4941377163391394e-05 0.050011330526176657 0 0.00045029117523034273 0.048637273400966415 0 0.00010871538130220524 0.047248777408635131 0 -0.00011966653316267581 0.045429965027387484 0 -0.0001579524678112002 0.045279978685135926 0 0.00039823758230605387 0.044782841878796407 0 -0.0047650594978314031 -0.0018455322621918457 0 -0.0048942806329945309 -0.0016153815995196236 0 -0.0046947552083043131 -0.0017935973690996723 0 -0.0047650594978314031 -0.0018455322621918457 0 -0.0046947552083043131 -0.0017935973690996723 0 -0.0046047192665296865 -0.0020084440127480035 0 -0.0046947552083043131 -0.0017935973690996723 0 -0.0045723781009911332 -0.0019980183187200675 0 -0.0046047192665296865 -0.0020084440127480035 0 -0.0047650594978314031 -0.0018455322621918457 0 -0.0046047192665296865 -0.0020084440127480035 0 -0.0046352112357967452 -0.0019966535784954236 0 9.916133616352293e-05 0.03252108982743844 0 0.00025053885540423808 0.032718433155472536 0 0.00029770600608004972 0.032417154399152354 0 0.00029770600608004972 0.032417154399152354 0 0.00037109285282677253 0.032763350097892503 0 0.00052240411695179143 0.032493890336278398 0 0.00025053885540423808 0.032718433155472536 0 0.00029770600608004972 0.032417154399152354 0 0.00037109285282677253 0.032763350097892503 0 -0.0050103862804350956 0.027885245793824353 0 -0.0010593787898942617 0.028153647024400104 0 -0.002611539578808332 0.031903474827060956 0 0.00029770600608004972 0.032417154399152354 0 0.00039220294451542808 0.032026538029206415 0 0.00052240411695179143 0.032493890336278398 0 -0.0034482031391925025 0.020513926685826984 0 -0.0033189075496316538 0.01970468424603387 0 0.00029770600608004972 0.032417154399152354 0 0.00018762192190712712 0.031991617218796425 0 0.00039220294451542808 0.032026538029206415 0 -0.0034482031391925025 0.020513926685826984 0 -0.00034194721983624128 0.03377459359012757 0 -0.0025827518318001612 0.016505796841802967 0 -0.0046879874392653847 0.0091283252918121383 0 9.916133616352293e-05 0.03252108982743844 0 0.00029770600608004972 0.032417154399152354 0 0.00018762192190712712 0.031991617218796425 0 -0.0045388109657441529 -0.0011034156668936707 0 -0.0044432967876829573 -0.001033175196663018 0 -0.0046256135616614636 -0.001048583180567963 0 -0.0046879874392653847 0.0091283252918121383 0 -0.005820183994686064 0.0041312083966208247 0 -0.0092431582746253117 0.011157227193563778 0 -0.0067937067927228657 0.0080982535048521685 0 -0.0038883782517381655 0.011515951972130617 0 -0.0034482031391925025 0.020513926685826984 0 -0.005820183994686064 0.0041312083966208247 0 -0.0092431582746253117 0.011157227193563778 0 -0.010787141277422979 0.0085629039067428529 0 -0.0067937067927228657 0.0080982535048521685 0 -0.0063886955147749169 0.012390084648549824 0 -0.0037638687499303037 0.012556648889825904 0 -0.005004193699181079 0.010478730787643394 0 -0.0046879874392653847 0.0091283252918121383 0 -0.0034482031391925025 0.020513926685826984 0 -0.005820183994686064 0.0041312083966208247 0 -0.0059629910105139135 0.002131853649058654 0 -0.010787141277422979 0.0085629039067428529 0 -0.0067937067927228657 0.0080982535048521685 0 -0.0077110272087004134 0.0043248436541545414 0 -0.0042880547151385694 -0.00020926960174535837 0 -0.0041489924780149659 -0.00038736442538505445 0 -0.0043880632170845537 -0.00074500219457838924 0 -0.0041489924780149659 -0.00038736442538505445 0 -0.0043880632170845537 -0.00074500219457838924 0 -0.0041462056897421861 -0.0002744198628888271 0 -0.0067937067927228657 0.0080982535048521685 0 -0.0077110272087004134 0.0043248436541545414 0 -0.0048336280538283103 0.0056262076304201148 0 -0.0041489924780149659 -0.00038736442538505445 0 -0.0042010121683861102 0.00018957467177563192 0 -0.0041462056897421861 -0.0002744198628888271 0 -0.0044432967876829573 -0.001033175196663018 0 -0.0046256135616614636 -0.001048583180567963 0 -0.0043880632170845537 -0.00074500219457838924 0 -0.005820183994686064 0.0041312083966208247 0 -0.004566946039021723 -0.0022022670310080684 0 -0.0044432967876829573 -0.001033175196663018 0 -0.0043880632170845537 -0.00074500219457838924 0 -0.0044031586098182227 -0.0010650017864390307 0 -0.0046879874392653847 0.0091283252918121383 0 -0.0046163386810312203 -0.0027992272236456572 0 -0.0044432967876829573 -0.001033175196663018 0 -0.0044031586098182227 -0.0010650017864390307 0 -0.0044033468621950634 -0.0012143406103965926 0 -0.0045388109657441529 -0.0011034156668936707 0 -0.0044432967876829573 -0.001033175196663018 0 -0.0044033468621950634 -0.0012143406103965926 0 -0.0046163386810312203 -0.0027992272236456572 0 -0.004505398499825398 -0.0016448926692101602 0 -0.0044033468621950634 -0.0012143406103965926 0 -0.0044661167894075211 -0.0013288907516406888 0 -0.0045169335502808442 -0.0015881159151258353 0 -0.0044031586098182227 -0.0010650017864390307 0 -0.0044033468621950634 -0.0012143406103965926 0 -0.0044661167894075211 -0.0013288907516406888 0 -0.0044661167894075211 -0.0013288907516406888 0 -0.0045169335502808442 -0.0015881159151258353 0 -0.0045299711941134456 -0.0016188703526153563 0 -0.0045418362287923944 -0.0019101040487470762 0 -0.0045433893302205958 -0.0019011991233251276 0 -0.0045299711941134456 -0.0016188703526153563 0 -0.0045169335502808442 -0.0015881159151258353 0 -0.0045418362287923944 -0.0019101040487470762 0 -0.0045299711941134456 -0.0016188703526153563 0 -0.0045169335502808442 -0.0015881159151258353 0 -0.0045418362287923944 -0.0019101040487470762 0 -0.0045076727472947824 -0.002151538284724835 0 -0.004505398499825398 -0.0016448926692101602 0 -0.004503013939648054 -0.0021241704714999843 0 -0.0045199138609722756 -0.0022406456000310091 0 -0.0045418362287923944 -0.0019101040487470762 0 -0.0044803268892571625 -0.0024094992941036775 0 -0.0045199138609722756 -0.0022406456000310091 0 -0.0045418362287923944 -0.0019101040487470762 0 -0.0045433893302205958 -0.0019011991233251276 0 -0.0045418362287923944 -0.0019101040487470762 0 -0.0045076727472947824 -0.002151538284724835 0 -0.0044803268892571625 -0.0024094992941036775 0 -0.0045076727472947824 -0.002151538284724835 0 -0.0044803268892571625 -0.0024094992941036775 0 -0.004392626527283317 -0.0025316886968065025 0 -0.0045076727472947824 -0.002151538284724835 0 -0.004392626527283317 -0.0025316886968065025 0 -0.0045081069962246119 -0.0022101043402951038 0 -0.004392626527283317 -0.0025316886968065025 0 -0.0045081069962246119 -0.0022101043402951038 0 -0.0044212146756154947 -0.002371912037973985 0 -0.0045723781009911332 -0.0019980183187200675 0 -0.0045081069962246119 -0.0022101043402951038 0 -0.0046047192665296865 -0.0020084440127480035 0 -0.0045723781009911332 -0.0019980183187200675 0 -0.0045076727472947824 -0.002151538284724835 0 -0.0045081069962246119 -0.0022101043402951038 0 -0.0045081069962246119 -0.0022101043402951038 0 -0.0046047192665296865 -0.0020084440127480035 0 -0.0045168895256973785 -0.0021666428890721153 0 -0.0005594976211784901 0.0022532420004356302 0 5.5317473844999627e-05 0.014943358418289801 0 -0.0046047192665296865 -0.0020084440127480035 0 -0.0045168895256973785 -0.0021666428890721153 0 -0.0046352112357967452 -0.0019966535784954236 0 -0.0005594976211784901 0.0022532420004356302 0 -0.0017779969248931783 0.0033347238204850167 0 -0.0045081069962246119 -0.0022101043402951038 0 -0.0045168895256973785 -0.0021666428890721153 0 -0.0044212146756154947 -0.002371912037973985 0 0.0032934052658946393 0.0090931212853135723 0 0.0021725867003377264 0.010565287683062606 0 0.0032024444528756216 0.010508797421920416 0 0.0032934052658946393 0.0090931212853135723 0 0.0021725867003377264 0.010565287683062606 0 0.0009407219233475275 0.0088201295614439602 0 0.0021725867003377264 0.010565287683062606 0 0.0032024444528756216 0.010508797421920416 0 0.0032058121558664037 0.011748746402680643 0 0.0032934052658946393 0.0090931212853135723 0 0.0042334219714318918 0.011037007762480481 0 0.0054213488442592704 0.0092750043759433527 0 0.0032934052658946393 0.0090931212853135723 0 0.0032024444528756216 0.010508797421920416 0 0.0042334219714318918 0.011037007762480481 0 -0.0028444085780422916 0.0031828215089797921 0 -0.0017779969248931783 0.0033347238204850167 0 -0.0043397314953573891 -0.0025809524078353858 0 -0.004392626527283317 -0.0025316886968065025 0 -0.0044212146756154947 -0.002371912037973985 0 0.0021725867003377264 0.010565287683062606 0 0.0009407219233475275 0.0088201295614439602 0 0.00093466802019709447 0.01052399617550716 0 0.0009407219233475275 0.0088201295614439602 0 0.00093466802019709447 0.01052399617550716 0 -0.00031678560863970345 0.010484341979507948 0 0.0021725867003377264 0.010565287683062606 0 0.00093466802019709447 0.01052399617550716 0 0.0014492070531787681 0.01133403851626264 0 -0.00160338847649894 0.0085905016518419523 0 0.0009407219233475275 0.0088201295614439602 0 -0.00031678560863970345 0.010484341979507948 0 -0.00160338847649894 0.0085905016518419523 0 -0.0017092667402043244 0.010323160986500575 0 -0.00031678560863970345 0.010484341979507948 0 -0.0017092667402043244 0.010323160986500575 0 -0.00031678560863970345 0.010484341979507948 0 -0.0011805945300053492 0.011537548175402033 0 -0.0011805945300053492 0.011537548175402033 0 -0.00026015279771230592 0.011886669325605222 0 -0.000762646880147347 0.012780325952853677 0 -0.001808617956939749 0.012298798166863403 0 -0.0011805945300053492 0.011537548175402033 0 -0.000762646880147347 0.012780325952853677 0 -0.00031678560863970345 0.010484341979507948 0 -0.0011805945300053492 0.011537548175402033 0 -0.00026015279771230592 0.011886669325605222 0 -0.00031678560863970345 0.010484341979507948 0 -0.00026015279771230592 0.011886669325605222 0 0.00059676166549255485 0.011703887382955894 0 -0.00026015279771230592 0.011886669325605222 0 4.815754070961654e-05 0.01255592267591245 0 -0.000762646880147347 0.012780325952853677 0 -0.00026015279771230592 0.011886669325605222 0 0.00059676166549255485 0.011703887382955894 0 4.815754070961654e-05 0.01255592267591245 0 0.00059676166549255485 0.011703887382955894 0 0.00085253659477574166 0.012822352559381734 0 4.815754070961654e-05 0.01255592267591245 0 0.00059676166549255485 0.011703887382955894 0 0.0015782297422525285 0.01215961085507611 0 0.00085253659477574166 0.012822352559381734 0 0.00093466802019709447 0.01052399617550716 0 -0.00031678560863970345 0.010484341979507948 0 0.00059676166549255485 0.011703887382955894 0 0.00093466802019709447 0.01052399617550716 0 0.00059676166549255485 0.011703887382955894 0 0.0014492070531787681 0.01133403851626264 0 0.0014492070531787681 0.01133403851626264 0 0.0015782297422525285 0.01215961085507611 0 0.002226707999533169 0.011774389825513883 0 0.00059676166549255485 0.011703887382955894 0 0.0014492070531787681 0.01133403851626264 0 0.0015782297422525285 0.01215961085507611 0 0.0015782297422525285 0.01215961085507611 0 0.0016978321648294914 0.013001114863174146 0 0.0022547682835032433 0.012588501519959539 0 0.0016978321648294914 0.013001114863174146 0 0.0012666582039581307 0.013874563580436948 0 0.00085253659477574166 0.012822352559381734 0 0.0015782297422525285 0.01215961085507611 0 0.0016978321648294914 0.013001114863174146 0 0.00085253659477574166 0.012822352559381734 0 0.0021714189281208849 0.014588894620737978 0 0.0018840259926653407 0.013648139833644041 0 0.0012666582039581307 0.013874563580436948 0 0.0016978321648294914 0.013001114863174146 0 0.0018840259926653407 0.013648139833644041 0 0.0012666582039581307 0.013874563580436948 0 0.0012666582039581307 0.013874563580436948 0 0.00085253659477574166 0.012822352559381734 0 0.00018852714236208454 0.013520041192203264 0 0.00085253659477574166 0.012822352559381734 0 4.815754070961654e-05 0.01255592267591245 0 0.00018852714236208454 0.013520041192203264 0 4.815754070961654e-05 0.01255592267591245 0 0.00018852714236208454 0.013520041192203264 0 -0.000762646880147347 0.012780325952853677 0 -0.0007187400199553883 0.014169274913962939 0 0.00018852714236208454 0.013520041192203264 0 -0.000762646880147347 0.012780325952853677 0 -0.0017046056669235399 0.013454009308087312 0 -0.0007187400199553883 0.014169274913962939 0 -0.000762646880147347 0.012780325952853677 0 0.0010599116723274764 0.032977120842803569 0 0.0016302309918549919 0.031971104584025224 0 0.0012285778826872295 0.031914450749280343 0 0.0010599116723274764 0.032977120842803569 0 0.0024393545526294222 0.031704026336304265 0 0.0016302309918549919 0.031971104584025224 0 0.0042334219714318918 0.011037007762480481 0 0.0032058121558664037 0.011748746402680643 0 0.0029768673080556888 0.013044929144577491 0 0.0026480324567649291 0.023401787097423601 0 0.002431345511414214 0.019302675790579555 0 0.0032024444528756216 0.010508797421920416 0 0.0042334219714318918 0.011037007762480481 0 0.0032058121558664037 0.011748746402680643 0 0.0021725867003377264 0.010565287683062606 0 0.0014492070531787681 0.01133403851626264 0 0.002226707999533169 0.011774389825513883 0 0.0021725867003377264 0.010565287683062606 0 0.0032058121558664037 0.011748746402680643 0 0.002226707999533169 0.011774389825513883 0 0.0015782297422525285 0.01215961085507611 0 0.002226707999533169 0.011774389825513883 0 0.0022547682835032433 0.012588501519959539 0 0.002226707999533169 0.011774389825513883 0 0.002780427694451582 0.012289848820315304 0 0.0022547682835032433 0.012588501519959539 0 0.003683053007688817 0.010593919103022676 0 0.002431345511414214 0.019302675790579555 0 0.0032058121558664037 0.011748746402680643 0 0.002226707999533169 0.011774389825513883 0 0.002780427694451582 0.012289848820315304 0 0.0032058121558664037 0.011748746402680643 0 0.002780427694451582 0.012289848820315304 0 0.0030680409674792349 0.012986706143689464 0 0.0028133914693337925 0.015565267114844862 0 0.0029091649661772113 0.013297427662459678 0 0.0030918036629348162 0.012990619963602457 0 0.0028591439690671501 0.02987727113956002 0 0.0024393545526294222 0.031704026336304265 0 0.0017582706052626728 0.031137455098886248 0 0.002780427694451582 0.012289848820315304 0 0.0026630901573980359 0.012902065845677626 0 0.0030680409674792349 0.012986706143689464 0 0.0026630901573980359 0.012902065845677626 0 0.0029091649661772113 0.013297427662459678 0 0.0030680409674792349 0.012986706143689464 0 0.0033256303496886391 0.017426944492946222 0 0.002431345511414214 0.019302675790579555 0 0.002780427694451582 0.012289848820315304 0 0.0026630901573980359 0.012902065845677626 0 0.0022547682835032433 0.012588501519959539 0 0.0026630901573980359 0.012902065845677626 0 0.0022547682835032433 0.012588501519959539 0 0.0023176003236242923 0.013320827798999216 0 0.0026630901573980359 0.012902065845677626 0 0.0029091649661772113 0.013297427662459678 0 0.0023176003236242923 0.013320827798999216 0 0.0016978321648294914 0.013001114863174146 0 0.0022547682835032433 0.012588501519959539 0 0.0023176003236242923 0.013320827798999216 0 0.0021714189281208849 0.014588894620737978 0 0.0029091649661772113 0.013297427662459678 0 0.0023176003236242923 0.013320827798999216 0 0.0021714189281208849 0.014588894620737978 0 0.0018840259926653407 0.013648139833644041 0 0.0023176003236242923 0.013320827798999216 0 0.0016978321648294914 0.013001114863174146 0 0.0018840259926653407 0.013648139833644041 0 0.0023176003236242923 0.013320827798999216 0 0.00098158185192975095 0.030527245945154921 0 0.0017582706052626728 0.031137455098886248 0 0.0012285778826872295 0.031914450749280343 0 0.0024393545526294222 0.031704026336304265 0 0.0017582706052626728 0.031137455098886248 0 0.0016302309918549919 0.031971104584025224 0 0.0017582706052626728 0.031137455098886248 0 0.0016302309918549919 0.031971104584025224 0 0.0012285778826872295 0.031914450749280343 0 0.00087397394457518359 0.033265002490733921 0 0.00045526199034604447 0.033192929523863178 0 0.00042535332348794076 0.032806147228887327 0 0.00098158185192975095 0.030527245945154921 0 0.0012285778826872295 0.031914450749280343 0 0.00042535332348794076 0.032806147228887327 0 0.00095990899088504696 0.031876637862085694 0 0.00047084191586962818 0.032739878670891995 0 0.00045526199034604447 0.033192929523863178 0 0.00042535332348794076 0.032806147228887327 0 0.00033752630745391741 0.03311885691735425 0 0.00042535332348794076 0.032806147228887327 0 0.00028966820333663467 0.033025215224283269 0 0.00035271773755428024 0.032956690157378114 0 0.00042535332348794076 0.032806147228887327 0 0.00028966820333663467 0.033025215224283269 0 0.00033752630745391741 0.03311885691735425 0 0.0010599116723274764 0.032977120842803569 0 0.00042535332348794076 0.032806147228887327 0 0.00035271773755428024 0.032956690157378114 0 0.0010599116723274764 0.032977120842803569 0 0.0012285778826872295 0.031914450749280343 0 0.00042535332348794076 0.032806147228887327 0 0.0026480324567649291 0.023401787097423601 0 5.5317473844999627e-05 0.014943358418289801 0 0.0010599116723274764 0.032977120842803569 0 0.00035271773755428024 0.032956690157378114 0 0.00032831880782797619 0.03292541780253503 0 0.00035271773755428024 0.032956690157378114 0 0.00025218041578084233 0.032891928007187037 0 0.00032831880782797619 0.03292541780253503 0 0.00028966820333663467 0.033025215224283269 0 0.00035271773755428024 0.032956690157378114 0 0.00025218041578084233 0.032891928007187037 0 9.916133616352293e-05 0.03252108982743844 0 0.00025053885540423808 0.032718433155472536 0 0.00025218041578084233 0.032891928007187037 0 9.916133616352293e-05 0.03252108982743844 0 0.00025218041578084233 0.032891928007187037 0 0.00032831880782797619 0.03292541780253503 0 -0.0025827518318001612 0.016505796841802967 0 5.5317473844999627e-05 0.014943358418289801 0 0.00037109285282677253 0.032763350097892503 0 0.00027565270916873939 0.032935076255642327 0 0.00034647181908127361 0.032986097245777363 0 0.00025053885540423808 0.032718433155472536 0 0.00025218041578084233 0.032891928007187037 0 0.00027565270916873939 0.032935076255642327 0 0.00025053885540423808 0.032718433155472536 0 0.00037109285282677253 0.032763350097892503 0 0.00027565270916873939 0.032935076255642327 0 0.00028966820333663467 0.033025215224283269 0 0.00025218041578084233 0.032891928007187037 0 0.00027565270916873939 0.032935076255642327 0 0.00028966820333663467 0.033025215224283269 0 0.00027565270916873939 0.032935076255642327 0 0.0002590494565716066 0.033086150145189328 0 0.0002590494565716066 0.033086150145189328 0 0.00034647181908127361 0.032986097245777363 0 0.00024963426557945463 0.03318321361535885 0 0.00027565270916873939 0.032935076255642327 0 0.0002590494565716066 0.033086150145189328 0 0.00034647181908127361 0.032986097245777363 0 0.0002590494565716066 0.033086150145189328 0 0.00021228357196823817 0.033222648131765641 0 0.00024963426557945463 0.03318321361535885 0 0.00021228357196823817 0.033222648131765641 0 0.00012227897643735491 0.03333031991182734 0 0.00024963426557945463 0.03318321361535885 0 0.00028966820333663467 0.033025215224283269 0 0.0002590494565716066 0.033086150145189328 0 0.00021228357196823817 0.033222648131765641 0 0.00028966820333663467 0.033025215224283269 0 0.00021228357196823817 0.033222648131765641 0 0.00033752630745391741 0.03311885691735425 0 0.00019892097241129911 0.033299176651857165 0 0.00021228357196823817 0.033222648131765641 0 0.00033752630745391741 0.03311885691735425 0 0.00019892097241129911 0.033299176651857165 0 0.00045526199034604447 0.033192929523863178 0 0.00033752630745391741 0.03311885691735425 0 9.021777068874315e-06 0.033416549893668324 0 0.00019892097241129911 0.033299176651857165 0 0.00021228357196823817 0.033222648131765641 0 9.021777068874315e-06 0.033416549893668324 0 0.00021228357196823817 0.033222648131765641 0 0.00012227897643735491 0.03333031991182734 0 9.021777068874315e-06 0.033416549893668324 0 -8.1980098665938126e-06 0.033489967550616083 0 0.00012227897643735491 0.03333031991182734 0 -8.1980098665938126e-06 0.033489967550616083 0 0.00012227897643735491 0.03333031991182734 0 0.00017432763109445447 0.033367588156722382 0 0.00024963426557945463 0.03318321361535885 0 0.00017432763109445447 0.033367588156722382 0 0.00047204545829507798 0.033075237588405443 0 0.00012227897643735491 0.03333031991182734 0 0.00024963426557945463 0.03318321361535885 0 0.00017432763109445447 0.033367588156722382 0 0.00017432763109445447 0.033367588156722382 0 0.00021364790541548903 0.033359470471516606 0 0.00024202433865021342 0.033462013086893012 0 0.0016281058425295885 0.037807872340991235 0 0.0014327915854255276 0.037105884933756002 0 -2.8587782085308878e-05 0.031713976675708661 0 0.0014327915854255276 0.037105884933756002 0 0.00017432763109445447 0.033367588156722382 0 0.00012455936578934404 0.033522181139268838 0 0.00021364790541548903 0.033359470471516606 0 -8.1980098665938126e-06 0.033489967550616083 0 0.00017432763109445447 0.033367588156722382 0 0.00012455936578934404 0.033522181139268838 0 0.00012455936578934404 0.033522181139268838 0 0.00053279229476888696 0.033527116683166158 0 0.00021364790541548903 0.033359470471516606 0 0.0016924400231530187 0.037320927703608731 0 0.0016281058425295885 0.037807872340991235 0 0.0028774472600680313 0.041192564364044171 0 0.002347662842387719 0.041975896982257094 0 0.0028946245128503262 0.041965544274152458 0 0.0028774472600680313 0.041192564364044171 0 0.002347662842387719 0.041975896982257094 0 0.0022891606349426906 0.041292839069197652 0 0.002347662842387719 0.041975896982257094 0 0.0025863145507522543 0.042241387596718673 0 0.0021846773109453171 0.042478020936067541 0 0.0028946245128503262 0.041965544274152458 0 0.0025863145507522543 0.042241387596718673 0 0.0029400172885344247 0.042478431349835387 0 0.002347662842387719 0.041975896982257094 0 0.0028946245128503262 0.041965544274152458 0 0.0025863145507522543 0.042241387596718673 0 0.0024681201420054095 0.042598458621560725 0 0.0026156269580831794 0.042760980051955631 0 0.0029400172885344247 0.042478431349835387 0 0.0025863145507522543 0.042241387596718673 0 0.0024681201420054095 0.042598458621560725 0 0.0029400172885344247 0.042478431349835387 0 0.0024681201420054095 0.042598458621560725 0 0.0021846773109453171 0.042478020936067541 0 0.0020962013190284168 0.04287819354228687 0 0.0025863145507522543 0.042241387596718673 0 0.0024681201420054095 0.042598458621560725 0 0.0021846773109453171 0.042478020936067541 0 0.0020962013190284168 0.04287819354228687 0 0.0018927648573110654 0.043238791768434703 0 0.00231946265264215 0.043003705533923381 0 0.0024681201420054095 0.042598458621560725 0 0.0020962013190284168 0.04287819354228687 0 0.00231946265264215 0.043003705533923381 0 0.0024681201420054095 0.042598458621560725 0 0.0026156269580831794 0.042760980051955631 0 0.00231946265264215 0.043003705533923381 0 0.0026156269580831794 0.042760980051955631 0 0.0027211696299913597 0.042965095435253342 0 0.00231946265264215 0.043003705533923381 0 0.0014327915854255276 0.037105884933756002 0 0.0026507393082589596 0.040067289333431677 0 -0.00022866647628803138 0.035786316842772933 0 0.0020714847230366789 0.039578584508384952 0 0.0024618195249438107 0.034089964638207709 0 0.0026156269580831794 0.042760980051955631 0 0.0029400172885344247 0.042478431349835387 0 0.0027211696299913597 0.042965095435253342 0 -8.8270492365519524e-05 0.033882159443482621 0 0.0014327915854255276 0.037105884933756002 0 0.00034647181908127361 0.032986097245777363 0 0.00050946584722712533 0.032837976699716435 0 0.00047204545829507798 0.033075237588405443 0 0.00037109285282677253 0.032763350097892503 0 0.00034647181908127361 0.032986097245777363 0 0.00050946584722712533 0.032837976699716435 0 0.00034647181908127361 0.032986097245777363 0 0.00024963426557945463 0.03318321361535885 0 0.00047204545829507798 0.033075237588405443 0 -4.3828231657060179e-06 0.042633395198172726 0 0.00065629943970270345 0.04222279575866901 0 0.00041697482436233189 0.042933643693264828 0 -4.3828231657060179e-06 0.042633395198172726 0 0.00015164702574656315 0.042090451181910848 0 0.00065629943970270345 0.04222279575866901 0 0.0002944381577307602 0.04132044050493195 0 -0.00031857699193051092 0.042208592569409273 0 0.00015164702574656315 0.042090451181910848 0 0.0002944381577307602 0.04132044050493195 0 0.00015164702574656315 0.042090451181910848 0 0.00065629943970270345 0.04222279575866901 0 0.0002944381577307602 0.04132044050493195 0 0.00065629943970270345 0.04222279575866901 0 0.0010384472223402483 0.041515003259935269 0 0.00065629943970270345 0.04222279575866901 0 0.0012659632069832905 0.042126914293738722 0 0.0011730470262413233 0.042719258482436379 0 0.00065629943970270345 0.04222279575866901 0 0.0012659632069832905 0.042126914293738722 0 0.0010384472223402483 0.041515003259935269 0 0.0012659632069832905 0.042126914293738722 0 0.0017152625949066708 0.041744581596102476 0 0.0017381743220884858 0.042315295419001628 0 0.0012659632069832905 0.042126914293738722 0 0.0017381743220884858 0.042315295419001628 0 0.0011730470262413233 0.042719258482436379 0 0.0016740261713389991 0.040884799959113718 0 0.0010384472223402483 0.041515003259935269 0 0.0017152625949066708 0.041744581596102476 0 0.0012659632069832905 0.042126914293738722 0 0.0010384472223402483 0.041515003259935269 0 0.0017152625949066708 0.041744581596102476 0 0.0016740261713389991 0.040884799959113718 0 0.0017152625949066708 0.041744581596102476 0 0.0022891606349426906 0.041292839069197652 0 0.002347662842387719 0.041975896982257094 0 0.0017152625949066708 0.041744581596102476 0 0.0022891606349426906 0.041292839069197652 0 0.002347662842387719 0.041975896982257094 0 0.0017152625949066708 0.041744581596102476 0 0.0017381743220884858 0.042315295419001628 0 0.002347662842387719 0.041975896982257094 0 0.0021846773109453171 0.042478020936067541 0 0.0017381743220884858 0.042315295419001628 0 0.0021846773109453171 0.042478020936067541 0 0.0020962013190284168 0.04287819354228687 0 0.0017767290852172745 0.042777003351355376 0 0.0021846773109453171 0.042478020936067541 0 0.0017381743220884858 0.042315295419001628 0 0.0017767290852172745 0.042777003351355376 0 0.0018131191455719256 0.043034780414729412 0 0.0015074523003256735 0.043208994677780534 0 0.0018927648573110654 0.043238791768434703 0 0.0020962013190284168 0.04287819354228687 0 0.0018131191455719256 0.043034780414729412 0 0.0018927648573110654 0.043238791768434703 0 0.0020962013190284168 0.04287819354228687 0 0.0017767290852172745 0.042777003351355376 0 0.0018131191455719256 0.043034780414729412 0 0.0017767290852172745 0.042777003351355376 0 0.0018131191455719256 0.043034780414729412 0 0.0015074523003256735 0.043208994677780534 0 0.0017767290852172745 0.042777003351355376 0 0.0015074523003256735 0.043208994677780534 0 0.0011730470262413233 0.042719258482436379 0 0.0015074523003256735 0.043208994677780534 0 0.0011730470262413233 0.042719258482436379 0 0.0010408007085203797 0.043159386493519407 0 0.0017381743220884858 0.042315295419001628 0 0.0017767290852172745 0.042777003351355376 0 0.0011730470262413233 0.042719258482436379 0 0.0011730470262413233 0.042719258482436379 0 0.0010408007085203797 0.043159386493519407 0 0.00041697482436233189 0.042933643693264828 0 0.00065629943970270345 0.04222279575866901 0 0.0011730470262413233 0.042719258482436379 0 0.00041697482436233189 0.042933643693264828 0 0.0015074523003256735 0.043208994677780534 0 0.0010408007085203797 0.043159386493519407 0 0.0010377836248421047 0.043562599007508793 0 0.0010408007085203797 0.043159386493519407 0 0.00057178209422980577 0.043417172934205876 0 0.00041697482436233189 0.042933643693264828 0 0.0010408007085203797 0.043159386493519407 0 0.00057178209422980577 0.043417172934205876 0 0.0010377836248421047 0.043562599007508793 0 0.00057178209422980577 0.043417172934205876 0 0.00012021788023195086 0.043357118336852379 0 0.00041697482436233189 0.042933643693264828 0 4.5847801185903702e-05 0.043782460521093212 0 0.00057178209422980577 0.043417172934205876 0 0.00012021788023195086 0.043357118336852379 0 -4.3828231657060179e-06 0.042633395198172726 0 -0.00028730507776144649 0.043269275620758281 0 0.00041697482436233189 0.042933643693264828 0 -0.00028730507776144649 0.043269275620758281 0 0.00012021788023195086 0.043357118336852379 0 0.00041697482436233189 0.042933643693264828 0 0.002134973792928901 0.043469021774958691 0 0.001944558612866278 0.043539627545777608 0 0.0019685893447990528 0.0433335680533255 0 8.5260976760828869e-05 0.044564203695914906 0 0.00040149435164007227 0.043969485260607316 0 0.00077428618275970516 0.044264268918841852 0 0.00033419127337541222 0.044133084782377194 0 0.0014781529605423218 0.043846173566921727 0 -6.5781343839619306e-05 0.044197912035156023 0 8.5260976760828869e-05 0.044564203695914906 0 0.00040149435164007227 0.043969485260607316 0 0.00057178209422980577 0.043417172934205876 0 0.00040149435164007227 0.043969485260607316 0 0.0010377836248421047 0.043562599007508793 0 4.5847801185903702e-05 0.043782460521093212 0 0.00057178209422980577 0.043417172934205876 0 0.00040149435164007227 0.043969485260607316 0 4.5847801185903702e-05 0.043782460521093212 0 -6.5781343839619306e-05 0.044197912035156023 0 0.00040149435164007227 0.043969485260607316 0 0.00040149435164007227 0.043969485260607316 0 0.0010377836248421047 0.043562599007508793 0 0.00077428618275970516 0.044264268918841852 0 0.0010377836248421047 0.043562599007508793 0 0.00077428618275970516 0.044264268918841852 0 0.0015685838713673465 0.043648204053497772 0 0.001944558612866278 0.043539627545777608 0 0.0015685838713673465 0.043648204053497772 0 0.001837669761782773 0.04337948905030227 0 0.0014781529605423218 0.043846173566921727 0 0.0014798323945216961 0.043735053473844349 0 0.001944558612866278 0.043539627545777608 0 0.001837669761782773 0.04337948905030227 0 0.0019685893447990528 0.0433335680533255 0 0.0015685838713673465 0.043648204053497772 0 0.0017946006585929921 0.0433960733776389 0 0.0017677037989236092 0.043334038981052522 0 0.0015685838713673465 0.043648204053497772 0 0.0017677037989236092 0.043334038981052522 0 0.001837669761782773 0.04337948905030227 0 0.0015074523003256735 0.043208994677780534 0 0.0010377836248421047 0.043562599007508793 0 0.0015685838713673465 0.043648204053497772 0 0.0015074523003256735 0.043208994677780534 0 0.0015685838713673465 0.043648204053497772 0 0.0018927648573110654 0.043238791768434703 0 0.0015685838713673465 0.043648204053497772 0 0.0018927648573110654 0.043238791768434703 0 0.0017946006585929921 0.0433960733776389 0 0.0018927648573110654 0.043238791768434703 0 0.0017946006585929921 0.0433960733776389 0 0.0019616769937268641 0.043348492345937739 0 0.0017946006585929921 0.0433960733776389 0 0.0018503675329777872 0.04319531070052144 0 0.0017677037989236092 0.043334038981052522 0 0.0017946006585929921 0.0433960733776389 0 0.0018503675329777872 0.04319531070052144 0 0.0019616769937268641 0.043348492345937739 0 0.001469691627628202 0.040575650006014617 0 0.0014484655510808848 0.041173709797275228 0 0.0018503675329777872 0.04319531070052144 0 0.00183759811565947 0.043159398231268277 0 0.0018228243490161413 0.04289740370051795 0 0.0011751904267221379 0.03834932188154358 0 0.00087999544415488112 0.038235249836632033 0 0.0010555041118689257 0.038142651498714368 0 0.0018503675329777872 0.04319531070052144 0 0.00183759811565947 0.043159398231268277 0 0.0017677037989236092 0.043334038981052522 0 0.00183759811565947 0.043159398231268277 0 0.0017677037989236092 0.043334038981052522 0 0.001879045591187281 0.043247493046917579 0 0.0017677037989236092 0.043334038981052522 0 0.001837669761782773 0.04337948905030227 0 0.001879045591187281 0.043247493046917579 0 0.001837669761782773 0.04337948905030227 0 0.001879045591187281 0.043247493046917579 0 0.0019685893447990528 0.0433335680533255 0 0.001879045591187281 0.043247493046917579 0 0.0019408986900086875 0.043200846613327411 0 0.0019685893447990528 0.0433335680533255 0 0.001469691627628202 0.040575650006014617 0 0.0015681166455003988 0.041840568287841294 0 0.00183759811565947 0.043159398231268277 0 0.001879045591187281 0.043247493046917579 0 0.0018981961169984146 0.043232331192854453 0 0.0011751904267221379 0.03834932188154358 0 0.0014691468429198298 0.038258611673910654 0 0.0015074401544470401 0.038458821449351303 0 0.0014866098768834307 0.042561362569403745 0 0.0015681166455003988 0.041840568287841294 0 0.00063836702460013826 0.042116198364246321 0 0.00055449820195523612 0.042170293601825434 0 0.00052972637948760454 0.042095867394377755 0 0.0015681166455003988 0.041840568287841294 0 0.00044233019484873491 0.043802241568598681 0 0.0015681166455003988 0.041840568287841294 0 0.00012098037109045085 0.040408852094184863 0 0.0014691468429198298 0.038258611673910654 0 0.0015074401544470401 0.038458821449351303 0 0.0016308885234866261 0.038372141321783092 0 -0.00085433374819813353 0.044853932247365814 0 -0.00068494444446928553 0.044853321873331367 0 -0.00071702144273297819 0.044771158971583694 0 0.00012098037109045085 0.040408852094184863 0 0.00044233019484873491 0.043802241568598681 0 -0.00070267929715472097 0.044534716096748389 0 -0.00075931814490858061 0.044718143395266662 0 -0.00060518194200109734 0.044836373848922619 0 0.002134973792928901 0.043469021774958691 0 0.0020592233371299071 0.043230003031659886 0 0.0019685893447990528 0.0433335680533255 0 0.00033419127337541222 0.044133084782377194 0 0.00044233019484873491 0.043802241568598681 0 0.0019408986900086875 0.043200846613327411 0 0.0020592233371299071 0.043230003031659886 0 0.0019685893447990528 0.0433335680533255 0 0.0028968826218521673 0.032363276639516998 0 -0.0033189075496316538 0.01970468424603387 0 0.0028631309683984853 0.028426369457037363 0 0.00037006961637125162 0.031209401116604016 0 0.0024618195249438107 0.034089964638207709 0 0.0028968826218521673 0.032363276639516998 0 0.0026507393082589596 0.040067289333431677 0 0.0026254298564950206 0.043385172246389013 0 0.0027211696299913597 0.042965095435253342 0 0.0023646014235094827 0.043183521196069476 0 0.0028631309683984853 0.028426369457037363 0 -0.0010593787898942617 0.028153647024400104 0 0.00037006961637125162 0.031209401116604016 0 -0.0010593787898942617 0.028153647024400104 0 0.00037006961637125162 0.031209401116604016 0 -0.002611539578808332 0.031903474827060956 0 0.00037109285282677253 0.032763350097892503 0 0.00050946584722712533 0.032837976699716435 0 0.00052240411695179143 0.032493890336278398 0 -0.00022866647628803138 0.035786316842772933 0 -0.002611539578808332 0.031903474827060956 0 8.330440896757621e-07 0.033249864088886388 0 -8.8270492365519524e-05 0.033882159443482621 0 -0.00034194721983624128 0.03377459359012757 0 0.00037006961637125162 0.031209401116604016 0 -0.002611539578808332 0.031903474827060956 0 8.330440896757621e-07 0.033249864088886388 0 -0.00022866647628803138 0.035786316842772933 0 8.330440896757621e-07 0.033249864088886388 0 0.0024618195249438107 0.034089964638207709 0 0.00037006961637125162 0.031209401116604016 0 8.330440896757621e-07 0.033249864088886388 0 0.0024618195249438107 0.034089964638207709 0 0.0027211696299913597 0.042965095435253342 0 0.00231946265264215 0.043003705533923381 0 0.0023646014235094827 0.043183521196069476 0 0.00231946265264215 0.043003705533923381 0 0.0019616769937268641 0.043348492345937739 0 0.0023646014235094827 0.043183521196069476 0 0.0018927648573110654 0.043238791768434703 0 0.00231946265264215 0.043003705533923381 0 0.0019616769937268641 0.043348492345937739 0 0.0028968826218521673 0.032363276639516998 0 0.0016778105232432318 0.045823508245309043 0 0.0026254298564950206 0.043385172246389013 0 0.0019616769937268641 0.043348492345937739 0 0.0023646014235094827 0.043183521196069476 0 0.0012638960314802017 0.043250133591909906 0 0.0019616769937268641 0.043348492345937739 0 0.0015398806404786783 0.043047121852943855 0 0.0015398806404786783 0.043047121852943855 0 0.0017860046333087296 0.042953103033127348 0 0.0015669248454991424 0.04258109721153297 0 0.0019616769937268641 0.043348492345937739 0 0.0015398806404786783 0.043047121852943855 0 0.0017860046333087296 0.042953103033127348 0 0.0018503675329777872 0.04319531070052144 0 0.0019616769937268641 0.043348492345937739 0 0.0017860046333087296 0.042953103033127348 0 0.0017860046333087296 0.042953103033127348 0 0.0018228243490161413 0.04289740370051795 0 0.0016720072399435777 0.042694610503223561 0 0.0018503675329777872 0.04319531070052144 0 0.0017860046333087296 0.042953103033127348 0 0.0018228243490161413 0.04289740370051795 0 0.0015669248454991424 0.04258109721153297 0 0.0016720072399435777 0.042694610503223561 0 0.0016446811402230741 0.042610715399328612 0 0.0017860046333087296 0.042953103033127348 0 0.0015669248454991424 0.04258109721153297 0 0.0016720072399435777 0.042694610503223561 0 0.0015669248454991424 0.04258109721153297 0 0.00091823054011704649 0.04030078184949655 0 0.0021133465239670797 0.039594866996776709 0 0.0018228243490161413 0.04289740370051795 0 0.0016720072399435777 0.042694610503223561 0 0.0016529350631050005 0.04261308448732138 0 0.0010740859068265171 0.045796322716723639 0 0.0010968109657935913 0.030879970072336355 0 0.0015669248454991424 0.04258109721153297 0 0.0010963956757017899 0.042825330098579653 0 0.00091823054011704649 0.04030078184949655 0 -0.00063614970786992188 0.0053725532943874393 0 0.0018895970714056681 0.0067605055226342622 0 0.0022164360260102469 0.0015751099459442007 0 0.0015063493034330837 0.024463329330659922 0 0.00026323751352324133 0.017715504761278318 0 -0.0027537511991038844 0.0032728743237433536 0 -0.0016250644176511639 0.0013441887306254029 0 0.0002357731615419216 0.0017904463849050839 0 -0.00018216556422353302 0.0026924893181922006 0 0.00026323751352324133 0.017715504761278318 0 -0.00063614970786992188 0.0053725532943874393 0 -0.0027537511991038844 0.0032728743237433536 0 0.0022164360260102469 0.0015751099459442007 0 0.0012638960314802017 0.043250133591909906 0 0.0015398806404786783 0.043047121852943855 0 0.0010963956757017899 0.042825330098579653 0 0.0015674811849338722 0.01196678038930964 0 0.0018895970714056681 0.0067605055226342622 0 7.2344409402688018e-05 0.0079352942059766687 0 0.0028968826218521673 0.032363276639516998 0 0.0015063493034330837 0.024463329330659922 0 0.0015398806404786783 0.043047121852943855 0 0.0015669248454991424 0.04258109721153297 0 0.0010963956757017899 0.042825330098579653 0 -0.00063614970786992188 0.0053725532943874393 0 7.2344409402688018e-05 0.0079352942059766687 0 -0.0025353544239632179 0.0076270063436551655 0 -0.00063614970786992188 0.0053725532943874393 0 0.0018895970714056681 0.0067605055226342622 0 7.2344409402688018e-05 0.0079352942059766687 0 0.0015674811849338722 0.01196678038930964 0 7.2344409402688018e-05 0.0079352942059766687 0 -0.0025353544239632179 0.0076270063436551655 0 0.0015674811849338722 0.01196678038930964 0 -0.0038883782517381655 0.011515951972130617 0 -0.0025353544239632179 0.0076270063436551655 0 -0.0067937067927228657 0.0080982535048521685 0 -0.0038883782517381655 0.011515951972130617 0 -0.0025353544239632179 0.0076270063436551655 0 -0.0067937067927228657 0.0080982535048521685 0 -0.0025353544239632179 0.0076270063436551655 0 -0.0048336280538283103 0.0056262076304201148 0 -0.0077110272087004134 0.0043248436541545414 0 -0.0048336280538283103 0.0056262076304201148 0 -0.0042010121683861102 0.00018957467177563192 0 -0.0048336280538283103 0.0056262076304201148 0 -0.0027537511991038844 0.0032728743237433536 0 -0.0042010121683861102 0.00018957467177563192 0 -0.0025353544239632179 0.0076270063436551655 0 -0.0048336280538283103 0.0056262076304201148 0 -0.0027537511991038844 0.0032728743237433536 0 -0.00063614970786992188 0.0053725532943874393 0 -0.0025353544239632179 0.0076270063436551655 0 -0.0027537511991038844 0.0032728743237433536 0 -0.0027537511991038844 0.0032728743237433536 0 -0.0029052012050025588 0.0011540033016715875 0 -0.0016250644176511639 0.0013441887306254029 0 -0.0059629910105139135 0.002131853649058654 0 -0.0044406359494382677 0.00031711405766914465 0 -0.0042010121683861102 0.00018957467177563192 0 -0.0039646433023232822 -0.00024782939892216296 0 -0.0041462056897421861 -0.0002744198628888271 0 -0.0042010121683861102 0.00018957467177563192 0 -0.0029052012050025588 0.0011540033016715875 0 -0.0030582910603853047 -0.00013520169936650161 0 -0.0027537511991038844 0.0032728743237433536 0 -0.0042010121683861102 0.00018957467177563192 0 -0.0029052012050025588 0.0011540033016715875 0 -0.0029052012050025588 0.0011540033016715875 0 -0.0030582910603853047 -0.00013520169936650161 0 -0.0016250644176511639 0.0013441887306254029 0 -0.0030582910603853047 -0.00013520169936650161 0 -0.0039646433023232822 -0.00024782939892216296 0 -0.0034228022348778277 -0.0003380277098789034 0 -0.0042010121683861102 0.00018957467177563192 0 -0.0030582910603853047 -0.00013520169936650161 0 -0.0039646433023232822 -0.00024782939892216296 0 -0.0039646433023232822 -0.00024782939892216296 0 -0.0034228022348778277 -0.0003380277098789034 0 -0.0037698552954269038 -0.00043438248327890954 0 -0.0034228022348778277 -0.0003380277098789034 0 -0.0034279284733137894 -0.00025452625648645505 0 -0.0032588311438091835 -0.00018902360174206573 0 -0.0034228022348778277 -0.0003380277098789034 0 -0.0037698552954269038 -0.00043438248327890954 0 -0.0032588311438091835 -0.00018902360174206573 0 -0.00043593894362213754 0.013624692575204416 0 -0.00046027609544308835 0.013928046017176295 0 -0.003331141566998094 -0.00022439090963232995 0 -0.0032385329536172803 -0.00019307044892518399 0 -0.0037214907063021665 -0.00016977982404860949 0 -0.0034279284733137894 -0.00025452625648645505 0 -0.003331141566998094 -0.00022439090963232995 0 -0.0037214907063021665 -0.00016977982404860949 0 -0.0034228022348778277 -0.0003380277098789034 0 -0.0034279284733137894 -0.00025452625648645505 0 -0.003331141566998094 -0.00022439090963232995 0 -0.0030582910603853047 -0.00013520169936650161 0 -0.0034228022348778277 -0.0003380277098789034 0 -0.003331141566998094 -0.00022439090963232995 0 -0.0030582910603853047 -0.00013520169936650161 0 -0.003331141566998094 -0.00022439090963232995 0 -0.0032385329536172803 -0.00019307044892518399 0 -0.0042611694326934691 0.0012959671198750546 0 -0.00043593894362213754 0.013624692575204416 0 -0.0030582910603853047 -0.00013520169936650161 0 -0.0016250644176511639 0.0013441887306254029 0 0.00038447781929573725 0.00057892836923698098 0 -0.0016250644176511639 0.0013441887306254029 0 0.00038447781929573725 0.00057892836923698098 0 0.0002357731615419216 0.0017904463849050839 0 0.0017358954629491917 0.022922579558237378 0 0.0018340877632993541 0.021476681527288707 0 -6.2896095480727129e-06 0.022531294529909946 0 -0.00043593894362213754 0.013624692575204416 0 0.00026323751352324133 0.017715504761278318 0 0.0016720072399435777 0.042694610503223561 0 0.0016446811402230741 0.042610715399328612 0 0.0016529350631050005 0.04261308448732138 0 0.0010968109657935913 0.030879970072336355 0 0.00077714204067235273 0.031056972934228277 0 0.0031195751400528993 0.023069230747256197 0 0.0015896795178663621 0.022721744139153278 0 0.00081513204833532792 0.027428211034752993 0 0.00067381196205300732 0.035275603502467029 0 0.00065749164177001805 0.035275408532974374 0 0.00062849613035914815 0.035448019214506389 0 0.00065749164177001805 0.035275408532974374 0 0.00050442203223901585 0.035386877885767845 0 0.00062849613035914815 0.035448019214506389 0 0.00026323751352324133 0.017715504761278318 0 0.0010968109657935913 0.030879970072336355 0 -0.00043593894362213754 0.013624692575204416 0 0.0010968109657935913 0.030879970072336355 0 0.0010968109657935913 0.030879970072336355 0 0.0013264251161657773 0.034672816038979225 0 0.0014484655510808848 0.041173709797275228 0 0.0013264251161657773 0.034672816038979225 0 0.00087999544415488112 0.038235249836632033 0 0.00062977973998946555 0.038124979131356533 0 0.00086557243927045768 0.038058128912792359 0 0.0013264251161657773 0.034672816038979225 0 0.0004689722960037673 0.036973975247513648 0 0.00050442203223901585 0.035386877885767845 0 0.00062849613035914815 0.035448019214506389 0 0.00052856388286267079 0.035555715659191273 0 0.00050442203223901585 0.035386877885767845 0 0.00052856388286267079 0.035555715659191273 0 0.0004449387916705294 0.03555567858131705 0 0.0031195751400528993 0.023069230747256197 0 0.00081513204833532792 0.027428211034752993 0 0.0027089834421869536 0.02903688782746177 0 0.00062849613035914815 0.035448019214506389 0 0.00053315254833796451 0.03556717333544529 0 0.00052856388286267079 0.035555715659191273 0 0.00081513204833532792 0.027428211034752993 0 0.0002922431180888277 0.031863351322805405 0 0.0027089834421869536 0.02903688782746177 0 0.00077714204067235273 0.031056972934228277 0 0.00045525103014138846 0.033754754519144885 0 0.0002922431180888277 0.031863351322805405 0 0.00202796777309134 0.034214019049684803 0 0.0027089834421869536 0.02903688782746177 0 0.00053315254833796451 0.03556717333544529 0 0.00052856388286267079 0.035555715659191273 0 0.00055292939504667372 0.035553753696922381 0 0.00053315254833796451 0.03556717333544529 0 0.00055292939504667372 0.035553753696922381 0 0.00056390190013619519 0.035261515076840159 0 0.00055292939504667372 0.035553753696922381 0 0.00047597858145396332 0.035670603199503451 0 0.00056390190013619519 0.035261515076840159 0 0.00052856388286267079 0.035555715659191273 0 0.00055292939504667372 0.035553753696922381 0 0.00046838849991758159 0.035665666363916847 0 0.00055292939504667372 0.035553753696922381 0 0.00046838849991758159 0.035665666363916847 0 0.00047597858145396332 0.035670603199503451 0 0.0002922431180888277 0.031863351322805405 0 0.00202796777309134 0.034214019049684803 0 0.00056390190013619519 0.035261515076840159 0 0.00045525103014138846 0.033754754519144885 0 0.0004891191787675871 0.035044229720595697 0 -0.0032120172376361006 0.0014997520431859709 0 -0.0032588311438091835 -0.00018902360174206573 0 -0.003659066852175279 0.00061424915069425957 0 -0.0042861417897818253 0.0015305490932250294 0 -0.0032120172376361006 0.0014997520431859709 0 -0.003659066852175279 0.00061424915069425957 0 -0.0032120172376361006 0.0014997520431859709 0 -0.0023121313834202789 0.0015136372307257382 0 -0.0032588311438091835 -0.00018902360174206573 0 -0.0023121313834202789 0.0015136372307257382 0 -0.0032588311438091835 -0.00018902360174206573 0 -0.0013260918666649997 0.0010457758464179415 0 -0.0037698552954269038 -0.00043438248327890954 0 -0.0032588311438091835 -0.00018902360174206573 0 -0.0039985624130818419 -0.0011355732913353037 0 -0.0032612856408739963 -0.00021761692265302181 0 -0.0027049093208274468 -3.5558555719643663e-05 0 -0.0011345553198573407 0.01820530009294365 0 -0.00046027609544308835 0.013928046017176295 0 -0.0034279284733137894 -0.00025452625648645505 0 -0.0032588311438091835 -0.00018902360174206573 0 -0.0037214907063021665 -0.00016977982404860949 0 -0.0032588311438091835 -0.00018902360174206573 0 -0.003659066852175279 0.00061424915069425957 0 -0.0037214907063021665 -0.00016977982404860949 0 -0.0042861417897818253 0.0015305490932250294 0 -0.003659066852175279 0.00061424915069425957 0 -0.0037214907063021665 -0.00016977982404860949 0 4.6776459554177069e-05 0.036195796851780503 0 4.5976844198755729e-05 0.036210460550274534 0 8.0716431474421463e-05 0.03620057406171763 0 4.6776459554177069e-05 0.036195796851780503 0 8.0716431474421463e-05 0.03620057406171763 0 0.00010062098070653865 0.036192399004599744 0 0.0014691468429198298 0.038258611673910654 0 0.0016308885234866261 0.038372141321783092 0 0.0015453460177767238 0.038072091860513413 0 1.1384917106106038e-05 0.036204607818950491 0 3.033485301531518e-05 0.036250348005730661 0 4.5976844198755729e-05 0.036210460550274534 0 1.1384917106106038e-05 0.036204607818950491 0 4.6776459554177069e-05 0.036195796851780503 0 4.5976844198755729e-05 0.036210460550274534 0 0.00012098037109045085 0.040408852094184863 0 0.00073743624976211036 0.036738252415131976 0 0.0011751904267221379 0.03834932188154358 0 0.0014691468429198298 0.038258611673910654 0 0.0013028484197642729 0.0380929046042758 0 0.0014691468429198298 0.038258611673910654 0 0.0015453460177767238 0.038072091860513413 0 0.0013028484197642729 0.0380929046042758 0 0.0015453460177767238 0.038072091860513413 0 0.0014564867636079593 0.037791583682588246 0 0.0013028484197642729 0.0380929046042758 0 0.00073743624976211036 0.036738252415131976 0 0.00061087383334772736 0.036482478046998897 0 0.00061087383334772736 0.036482478046998897 0 0.00081409410994086806 0.036676835506969707 0 3.597344865934667e-05 0.035558418056503241 0 0.00035018442106705174 0.03546103112274232 0 0.00031296192281998753 0.035702121304674109 0 0.0014564867636079593 0.037791583682588246 0 0.0011424538775845385 0.037934513667664704 0 0.0013028484197642729 0.0380929046042758 0 0.0011751904267221379 0.03834932188154358 0 0.0013028484197642729 0.0380929046042758 0 0.0010555041118689257 0.038142651498714368 0 0.0011424538775845385 0.037934513667664704 0 0.0013028484197642729 0.0380929046042758 0 0.0010555041118689257 0.038142651498714368 0 0.00086557243927045768 0.038058128912792359 0 0.0011424538775845385 0.037934513667664704 0 0.0010555041118689257 0.038142651498714368 0 0.00087999544415488112 0.038235249836632033 0 0.00086557243927045768 0.038058128912792359 0 0.0010555041118689257 0.038142651498714368 0 0.0004689722960037673 0.036973975247513648 0 0.00081409410994086806 0.036676835506969707 0 0.00050442203223901585 0.035386877885767845 0 0.00035018442106705174 0.03546103112274232 0 0.0004449387916705294 0.03555567858131705 0 0.0004449387916705294 0.03555567858131705 0 0.00046838849991758159 0.035665666363916847 0 0.00031296192281998753 0.035702121304674109 0 0.00052856388286267079 0.035555715659191273 0 0.0004449387916705294 0.03555567858131705 0 0.00046838849991758159 0.035665666363916847 0 0.00046838849991758159 0.035665666363916847 0 0.00032779144368056881 0.035903847448399182 0 0.00047597858145396332 0.035670603199503451 0 0.00032779144368056881 0.035903847448399182 0 0.00031296192281998753 0.035702121304674109 0 0.00018056238910270687 0.036027286036108296 0 0.00046838849991758159 0.035665666363916847 0 0.00032779144368056881 0.035903847448399182 0 0.00031296192281998753 0.035702121304674109 0 0.00035018442106705174 0.03546103112274232 0 0.0004449387916705294 0.03555567858131705 0 0.00031296192281998753 0.035702121304674109 0 3.597344865934667e-05 0.035558418056503241 0 0.00031296192281998753 0.035702121304674109 0 0.00018056238910270687 0.036027286036108296 0 0.00061087383334772736 0.036482478046998897 0 1.1761269401377627e-05 0.035755711779110806 0 0.00012737755316310747 0.036197144479643201 0 0.00018056238910270687 0.036027286036108296 0 0.00015373051746655342 0.036190260457293066 0 0.00018056238910270687 0.036027286036108296 0 0.0001765472233230344 0.036254657187953586 0 0.00015373051746655342 0.036190260457293066 0 0.00013532893683745599 0.03640175574065864 0 0.0001765472233230344 0.036254657187953586 0 0.00015373051746655342 0.036190260457293066 0 5.7053117489071163e-05 0.036229386133738078 0 0.00013532893683745599 0.03640175574065864 0 0.00015373051746655342 0.036190260457293066 0 0.00012737755316310747 0.036197144479643201 0 0.00015373051746655342 0.036190260457293066 0 0.00010062098070653865 0.036192399004599744 0 5.7053117489071163e-05 0.036229386133738078 0 0.00015373051746655342 0.036190260457293066 0 0.00010062098070653865 0.036192399004599744 0 0.00061087383334772736 0.036482478046998897 0 6.7070993722150011e-05 0.036323089013526391 0 0.00020966656364427598 0.036608387900547296 0 0.00017834524508769913 0.036449500645814259 0 0.00018600338843851417 0.036484521058444436 0 0.00020966656364427598 0.036608387900547296 0 0.00017834524508769913 0.036449500645814259 0 0.00018001893833279601 0.036438644769544157 0 0.00017834524508769913 0.036449500645814259 0 0.00016841971527059807 0.036360216543296395 0 0.00018001893833279601 0.036438644769544157 0 0.00013532893683745599 0.03640175574065864 0 0.0001765472233230344 0.036254657187953586 0 0.00018600338843851417 0.036484521058444436 0 0.00017834524508769913 0.036449500645814259 0 0.00018600338843851417 0.036484521058444436 0 0.00019262960868484722 0.036229374412600976 0 0.0001765472233230344 0.036254657187953586 0 0.00018600338843851417 0.036484521058444436 0 0.00019262960868484722 0.036229374412600976 0 0.00018056238910270687 0.036027286036108296 0 0.0001765472233230344 0.036254657187953586 0 0.00019262960868484722 0.036229374412600976 0 0.00019262960868484722 0.036229374412600976 0 0.00016841971527059807 0.036360216543296395 0 0.000216289685310196 0.036253730553215631 0 0.00017834524508769913 0.036449500645814259 0 0.00019262960868484722 0.036229374412600976 0 0.00016841971527059807 0.036360216543296395 0 0.00019262960868484722 0.036229374412600976 0 0.000216289685310196 0.036253730553215631 0 0.00032702863809830563 0.036005829156237477 0 0.000216289685310196 0.036253730553215631 0 0.00032702863809830563 0.036005829156237477 0 0.00039813669588384279 0.036152585370178701 0 0.00032779144368056881 0.035903847448399182 0 0.00019262960868484722 0.036229374412600976 0 0.00032702863809830563 0.036005829156237477 0 0.00032779144368056881 0.035903847448399182 0 0.00018056238910270687 0.036027286036108296 0 0.00019262960868484722 0.036229374412600976 0 0.00032779144368056881 0.035903847448399182 0 0.00032702863809830563 0.036005829156237477 0 0.00047597858145396332 0.035670603199503451 0 0.00032702863809830563 0.036005829156237477 0 0.00047597858145396332 0.035670603199503451 0 0.00050541614459183261 0.035852665881106895 0 0.00032702863809830563 0.036005829156237477 0 0.00039813669588384279 0.036152585370178701 0 0.00050541614459183261 0.035852665881106895 0 0.00040080807188542069 0.036187475759793412 0 0.0013474029396650748 0.037197572676469795 0 0.00039813669588384279 0.036152585370178701 0 0.00027000254158791328 0.036334612013124941 0 0.0005805672123092864 0.036348138820103633 0 0.00076991177223345803 0.036209933072005075 0 0.0010319228111260522 0.036190177209813247 0 0.00090352999188166917 0.036379650067310934 0 0.00076991177223345803 0.036209933072005075 0 0.00058182652740419597 0.036359066429082591 0 0.00090352999188166917 0.036379650067310934 0 0.00083966232319353695 0.036426964522841401 0 0.001091228639634588 0.036459670759640822 0 0.00040080807188542069 0.036187475759793412 0 0.00038201858392441671 0.036317583139314401 0 0.000216289685310196 0.036253730553215631 0 0.00027000254158791328 0.036334612013124941 0 0.00013493956161128755 0.036364631724371689 0 0.000216289685310196 0.036253730553215631 0 0.00039813669588384279 0.036152585370178701 0 0.00027000254158791328 0.036334612013124941 0 0.00016841971527059807 0.036360216543296395 0 0.000216289685310196 0.036253730553215631 0 0.00013493956161128755 0.036364631724371689 0 0.00016841971527059807 0.036360216543296395 0 0.00013493956161128755 0.036364631724371689 0 0.00018001893833279601 0.036438644769544157 0 0.00076991177223345803 0.036209933072005075 0 0.00055668972179239611 0.036254324288042414 0 0.00058182652740419597 0.036359066429082591 0 0.00055668972179239611 0.036254324288042414 0 0.00058182652740419597 0.036359066429082591 0 0.0004595423398771141 0.036327500446988237 0 0.00045405871304247275 0.03634747942377474 0 0.00083966232319353695 0.036426964522841401 0 0.00043403699458771536 0.036343757329186703 0 0.0011204785647379427 0.036496999671047727 0 0.00077741142203047978 0.036584577334294856 0 0.00043403699458771536 0.036343757329186703 0 0.00058182652740419597 0.036359066429082591 0 0.0004595423398771141 0.036327500446988237 0 0.00031947783678043816 0.036339371413461524 0 0.00055668972179239611 0.036254324288042414 0 0.0004595423398771141 0.036327500446988237 0 0.00031769638443060173 0.036331382903310214 0 0.00038201858392441671 0.036317583139314401 0 0.00031947783678043816 0.036339371413461524 0 0.00013493956161128755 0.036364631724371689 0 0.00018001893833279601 0.036438644769544157 0 0.00020966656364427598 0.036608387900547296 0 0.00031947783678043816 0.036339371413461524 0 0.00018001893833279601 0.036438644769544157 0 -0.0032442833024780692 0.0031834005693039567 0 -0.0035449341513142463 0.002468754149027255 0 -0.0043134952227879804 0.0035022073009485458 0 -0.0032824210151966653 0.0039288290870036005 0 -0.0043134952227879804 0.0035022073009485458 0 -0.0036185960179938212 0.0045304979195268241 0 -0.0032442833024780692 0.0031834005693039567 0 -0.0032824210151966653 0.0039288290870036005 0 -0.0043134952227879804 0.0035022073009485458 0 -0.0032824210151966653 0.0039288290870036005 0 -0.0026278008075631587 0.0034393205606453241 0 -0.0026919242080277513 0.0043497052436530315 0 -0.0032442833024780692 0.0031834005693039567 0 -0.0032824210151966653 0.0039288290870036005 0 -0.0026278008075631587 0.0034393205606453241 0 -0.0026278008075631587 0.0034393205606453241 0 -0.0024993692747696567 0.0025898624759588553 0 -0.0016125747322856387 0.0031140707148109049 0 -0.0032442833024780692 0.0031834005693039567 0 -0.0026278008075631587 0.0034393205606453241 0 -0.0024993692747696567 0.0025898624759588553 0 -0.0032442833024780692 0.0031834005693039567 0 -0.0024993692747696567 0.0025898624759588553 0 -0.0035449341513142463 0.002468754149027255 0 -0.0032120172376361006 0.0014997520431859709 0 -0.0023121313834202789 0.0015136372307257382 0 -0.0024993692747696567 0.0025898624759588553 0 -0.0032120172376361006 0.0014997520431859709 0 -0.0024993692747696567 0.0025898624759588553 0 -0.0035449341513142463 0.002468754149027255 0 -0.0042861417897818253 0.0015305490932250294 0 -0.0035449341513142463 0.002468754149027255 0 -0.0043134952227879804 0.0035022073009485458 0 -0.0042861417897818253 0.0015305490932250294 0 -0.0032120172376361006 0.0014997520431859709 0 -0.0035449341513142463 0.002468754149027255 0 0.00202796777309134 0.034214019049684803 0 0.00056390190013619519 0.035261515076840159 0 0.0011487834341380105 0.035966529683785595 0 0.00056390190013619519 0.035261515076840159 0 0.00050541614459183261 0.035852665881106895 0 0.0011487834341380105 0.035966529683785595 0 -0.0011345553198573407 0.01820530009294365 0 -0.001595867953015714 0.018360738055901028 0 0.00047597858145396332 0.035670603199503451 0 0.00056390190013619519 0.035261515076840159 0 0.00050541614459183261 0.035852665881106895 0 0.00039813669588384279 0.036152585370178701 0 0.00050541614459183261 0.035852665881106895 0 0.00075979295143558908 0.03615175247218784 0 0.00050541614459183261 0.035852665881106895 0 0.0011487834341380105 0.035966529683785595 0 0.00075979295143558908 0.03615175247218784 0 0.0011487834341380105 0.035966529683785595 0 0.00075979295143558908 0.03615175247218784 0 0.00095019201249925704 0.036299463474761047 0 -0.001595867953015714 0.018360738055901028 0 -0.0010094569515265437 0.026708904791262526 0 0.00075979295143558908 0.03615175247218784 0 0.0005805672123092864 0.036348138820103633 0 0.00095019201249925704 0.036299463474761047 0 0.00039813669588384279 0.036152585370178701 0 0.00075979295143558908 0.03615175247218784 0 0.0005805672123092864 0.036348138820103633 0 0.0013474029396650748 0.037197572676469795 0 -0.0010094569515265437 0.026708904791262526 0 0.0010319228111260522 0.036190177209813247 0 0.0011635131059580515 0.036276732572410972 0 0.00090352999188166917 0.036379650067310934 0 0.0011635131059580515 0.036276732572410972 0 0.0012530556638599252 0.036202927036149093 0 0.0012278224599107559 0.036378486822382261 0 0.0010319228111260522 0.036190177209813247 0 0.0011635131059580515 0.036276732572410972 0 0.0012530556638599252 0.036202927036149093 0 -0.0010094569515265437 0.026708904791262526 0 0.00052878731437241522 0.028028370997871359 0 -0.0010094569515265437 0.026708904791262526 0 -0.0022871952385392761 0.012464588438515519 0 -0.0010824668433455763 0.019218098469511391 0 -0.00015806270085807781 0.019231425130363248 0 -0.00038581462766221658 0.020200445148471365 0 -0.00015806270085807781 0.019231425130363248 0 0.00033821183558548735 0.020091536731470558 0 -0.00038581462766221658 0.020200445148471365 0 -0.0043466837112938368 0.0052975501184245955 0 -0.0032874466579170475 0.005214580633578803 0 -0.0036185960179938212 0.0045304979195268241 0 -0.0043134952227879804 0.0035022073009485458 0 -0.0043466837112938368 0.0052975501184245955 0 -0.0036185960179938212 0.0045304979195268241 0 -0.0032874466579170475 0.005214580633578803 0 -0.0036185960179938212 0.0045304979195268241 0 -0.0026919242080277513 0.0043497052436530315 0 -0.0032824210151966653 0.0039288290870036005 0 -0.0036185960179938212 0.0045304979195268241 0 -0.0026919242080277513 0.0043497052436530315 0 -0.0026919242080277513 0.0043497052436530315 0 -0.0019956721679474806 0.0038724536212753403 0 -0.001898542264565706 0.0044515617018760535 0 -0.0026278008075631587 0.0034393205606453241 0 -0.0026919242080277513 0.0043497052436530315 0 -0.0019956721679474806 0.0038724536212753403 0 -0.0026919242080277513 0.0043497052436530315 0 -0.0022505115751835459 0.0050697163452604306 0 -0.001898542264565706 0.0044515617018760535 0 -0.00015806270085807781 0.019231425130363248 0 0.00080092208693397274 0.01924586621969273 0 0.00033821183558548735 0.020091536731470558 0 -0.0032874466579170475 0.005214580633578803 0 -0.0026919242080277513 0.0043497052436530315 0 -0.0022505115751835459 0.0050697163452604306 0 -0.0022871952385392761 0.012464588438515519 0 -7.6678291032683006e-05 0.010876353556840475 0 -0.0023672882779638298 0.0048388594239036692 0 -0.0014485419685721381 0.0048685518648414758 0 -0.0022933056022388155 0.0063628425914280138 0 -0.0022505115751835459 0.0050697163452604306 0 -0.0014485419685721381 0.0048685518648414758 0 -0.001898542264565706 0.0044515617018760535 0 -7.6678291032683006e-05 0.010876353556840475 0 -0.0023865199552568386 0.0056062955227656466 0 -0.0014485419685721381 0.0048685518648414758 0 -0.00048638218226216694 0.0050427676512867841 0 -0.00089369699797722942 0.0045230830172445493 0 -0.00048638218226216694 0.0050427676512867841 0 -0.00089369699797722942 0.0045230830172445493 0 -0.00035974770498619653 0.0042239982064716537 0 -0.00089369699797722942 0.0045230830172445493 0 -0.00035974770498619653 0.0042239982064716537 0 -0.0012063934216189173 0.004047986229717874 0 -0.0014485419685721381 0.0048685518648414758 0 -0.00089369699797722942 0.0045230830172445493 0 -0.0012063934216189173 0.004047986229717874 0 -0.00035974770498619653 0.0042239982064716537 0 -0.0012063934216189173 0.004047986229717874 0 -0.00037930062110968084 0.0036407070706432885 0 -0.0014485419685721381 0.0048685518648414758 0 -0.0012063934216189173 0.004047986229717874 0 -0.001898542264565706 0.0044515617018760535 0 -0.0012063934216189173 0.004047986229717874 0 -0.0019956721679474806 0.0038724536212753403 0 -0.001898542264565706 0.0044515617018760535 0 0.0007623871367290685 0.0044287158801721311 0 0.00071301801757985754 0.0040861353515852438 0 0.00072026355346573717 0.0038151172042894662 0 0.0007623871367290685 0.0044287158801721311 0 0.00071925832681002454 0.0039756373707430653 0 0.00071301801757985754 0.0040861353515852438 0 -0.00048638218226216694 0.0050427676512867841 0 -0.00035974770498619653 0.0042239982064716537 0 0.0007623871367290685 0.0044287158801721311 0 -0.00035974770498619653 0.0042239982064716537 0 0.0007623871367290685 0.0044287158801721311 0 0.0003185339711631149 0.0039576144450144991 0 -0.00035974770498619653 0.0042239982064716537 0 0.0003185339711631149 0.0039576144450144991 0 -0.00037930062110968084 0.0036407070706432885 0 0.0003185339711631149 0.0039576144450144991 0 5.9282739198970019e-05 0.0033709175005611166 0 -0.00037930062110968084 0.0036407070706432885 0 0.0003185339711631149 0.0039576144450144991 0 0.00047691758727074423 0.0035979942872488794 0 5.9282739198970019e-05 0.0033709175005611166 0 0.0007623871367290685 0.0044287158801721311 0 0.0003185339711631149 0.0039576144450144991 0 0.00071925832681002454 0.0039756373707430653 0 0.0003185339711631149 0.0039576144450144991 0 0.00071925832681002454 0.0039756373707430653 0 0.00047691758727074423 0.0035979942872488794 0 0.00071925832681002454 0.0039756373707430653 0 0.00080471050241735732 0.0033800161532654182 0 0.00047691758727074423 0.0035979942872488794 0 0.00080471050241735732 0.0033800161532654182 0 0.00047691758727074423 0.0035979942872488794 0 0.00027358652778493417 0.0031328008853874693 0 0.00027358652778493417 0.0031328008853874693 0 5.9282739198970019e-05 0.0033709175005611166 0 2.3417544292058971e-06 0.0028681951521332318 0 0.00047691758727074423 0.0035979942872488794 0 0.00027358652778493417 0.0031328008853874693 0 5.9282739198970019e-05 0.0033709175005611166 0 5.9282739198970019e-05 0.0033709175005611166 0 -0.00037930062110968084 0.0036407070706432885 0 -0.00039557036017855363 0.0028868688789085691 0 5.9282739198970019e-05 0.0033709175005611166 0 2.3417544292058971e-06 0.0028681951521332318 0 -0.00039557036017855363 0.0028868688789085691 0 -0.00016766244162021943 0.0025090683076740626 0 2.3417544292058971e-06 0.0028681951521332318 0 -0.00039557036017855363 0.0028868688789085691 0 -0.00016766244162021943 0.0025090683076740626 0 1.9298255747193988e-05 0.0023596380869799522 0 9.107535664181793e-06 0.0021817156149126818 0 -0.00016766244162021943 0.0025090683076740626 0 -0.00065422255386806359 0.0023177967159259344 0 9.107535664181793e-06 0.0021817156149126818 0 -0.00016766244162021943 0.0025090683076740626 0 1.9298255747193988e-05 0.0023596380869799522 0 2.3417544292058971e-06 0.0028681951521332318 0 0.00027358652778493417 0.0031328008853874693 0 1.9298255747193988e-05 0.0023596380869799522 0 2.3417544292058971e-06 0.0028681951521332318 0 0.00080471050241735732 0.0033800161532654182 0 0.00027358652778493417 0.0031328008853874693 0 1.9298255747193988e-05 0.0023596380869799522 0 1.9298255747193988e-05 0.0023596380869799522 0 9.107535664181793e-06 0.0021817156149126818 0 -6.8169220554898825e-05 0.0025797257551817159 0 -0.0022232905281836827 0.00033432290859461151 0 -0.0022829994205378111 0.00052192899047310008 0 -0.0043702445962086967 -0.0014686123844142073 0 -0.0045069259696160326 -0.0014836587791105249 0 -0.0045536540017184993 -0.0015745881803916272 0 0.0003269928653137709 0.002933857204727261 0 3.3536038475354988e-05 0.0024288175718607335 0 -8.7259629690242764e-05 0.0025371105697256291 0 1.9298255747193988e-05 0.0023596380869799522 0 -6.8169220554898825e-05 0.0025797257551817159 0 -0.0012063934216189173 0.004047986229717874 0 -0.0016125747322856387 0.0031140707148109049 0 -0.00089231099855361479 0.0032972118640706952 0 -0.0012063934216189173 0.004047986229717874 0 -0.0019956721679474806 0.0038724536212753403 0 -0.0016125747322856387 0.0031140707148109049 0 -0.0026278008075631587 0.0034393205606453241 0 -0.0019956721679474806 0.0038724536212753403 0 -0.0016125747322856387 0.0031140707148109049 0 -0.0012063934216189173 0.004047986229717874 0 -0.00089231099855361479 0.0032972118640706952 0 -0.00037930062110968084 0.0036407070706432885 0 -0.00089231099855361479 0.0032972118640706952 0 -0.00097230548162851769 0.0027867194181774042 0 -0.00039557036017855363 0.0028868688789085691 0 -0.00089231099855361479 0.0032972118640706952 0 -0.00037930062110968084 0.0036407070706432885 0 -0.00039557036017855363 0.0028868688789085691 0 -0.0016125747322856387 0.0031140707148109049 0 -0.00089231099855361479 0.0032972118640706952 0 -0.00097230548162851769 0.0027867194181774042 0 -0.00097230548162851769 0.0027867194181774042 0 -0.00065422255386806359 0.0023177967159259344 0 -0.0014095784285735578 0.0023047504494493423 0 -0.00097230548162851769 0.0027867194181774042 0 -0.00039557036017855363 0.0028868688789085691 0 -0.00065422255386806359 0.0023177967159259344 0 -0.00016766244162021943 0.0025090683076740626 0 -0.00039557036017855363 0.0028868688789085691 0 -0.00065422255386806359 0.0023177967159259344 0 -0.0023121313834202789 0.0015136372307257382 0 -0.0024993692747696567 0.0025898624759588553 0 -0.0014095784285735578 0.0023047504494493423 0 -0.0024993692747696567 0.0025898624759588553 0 -0.0016125747322856387 0.0031140707148109049 0 -0.0014095784285735578 0.0023047504494493423 0 -0.0016125747322856387 0.0031140707148109049 0 -0.00097230548162851769 0.0027867194181774042 0 -0.0014095784285735578 0.0023047504494493423 0 -0.0023121313834202789 0.0015136372307257382 0 -0.0014095784285735578 0.0023047504494493423 0 -0.0013260918666649997 0.0010457758464179415 0 -0.0037698552954269038 -0.00043438248327890954 0 -0.0039985624130818419 -0.0011355732913353037 0 -0.0041997847633576686 -0.00084761621618645452 0 -0.0042846925437026269 -0.0011740450673749618 0 -0.0043764412104173554 -0.00110627776593962 0 -0.0041997847633576686 -0.00084761621618645452 0 -0.0039985624130818419 -0.0011355732913353037 0 -0.0042846925437026269 -0.0011740450673749618 0 -0.0041997847633576686 -0.00084761621618645452 0 -0.0039985624130818419 -0.0011355732913353037 0 -0.0042846925437026269 -0.0011740450673749618 0 -0.0043702445962086967 -0.0014686123844142073 0 -0.00065422255386806359 0.0023177967159259344 0 -0.0014095784285735578 0.0023047504494493423 0 -0.0013260918666649997 0.0010457758464179415 0 -0.00065422255386806359 0.0023177967159259344 0 -0.0013260918666649997 0.0010457758464179415 0 9.107535664181793e-06 0.0021817156149126818 0 -0.0027049093208274468 -3.5558555719643663e-05 0 -0.0022232905281836827 0.00033432290859461151 0 -0.0042846925437026269 -0.0011740450673749618 0 -0.0043702445962086967 -0.0014686123844142073 0 -0.0044447275854453631 -0.0013522790073451153 0 -0.0043702445962086967 -0.0014686123844142073 0 -0.0044447275854453631 -0.0013522790073451153 0 -0.0045069259696160326 -0.0014836587791105249 0 -0.0044447275854453631 -0.0013522790073451153 0 -0.0045069259696160326 -0.0014836587791105249 0 -0.0045272884050070149 -0.001452446708074888 0 -0.0045069259696160326 -0.0014836587791105249 0 -0.0045272884050070149 -0.001452446708074888 0 -0.0045697348004808134 -0.0015546174597882959 0 -0.0045272884050070149 -0.001452446708074888 0 -0.0044788471140037138 -0.001304823921168463 0 -0.0045308989281285924 -0.0014611282924111976 0 -0.0044447275854453631 -0.0013522790073451153 0 -0.0045272884050070149 -0.001452446708074888 0 -0.0044788471140037138 -0.001304823921168463 0 -0.0042846925437026269 -0.0011740450673749618 0 -0.0044447275854453631 -0.0013522790073451153 0 -0.0043764412104173554 -0.00110627776593962 0 -0.0044447275854453631 -0.0013522790073451153 0 -0.0044788471140037138 -0.001304823921168463 0 -0.0043764412104173554 -0.00110627776593962 0 -0.0043764412104173554 -0.00110627776593962 0 -0.0044552529066214774 -0.0011843260805688258 0 -0.0043608699249509447 -0.00086124585575400256 0 -0.0044788471140037138 -0.001304823921168463 0 -0.0043764412104173554 -0.00110627776593962 0 -0.0044552529066214774 -0.0011843260805688258 0 -0.0044788471140037138 -0.001304823921168463 0 -0.0044552529066214774 -0.0011843260805688258 0 -0.0045308989281285924 -0.0014611282924111976 0 -0.0044661167894075211 -0.0013288907516406888 0 -0.0044552529066214774 -0.0011843260805688258 0 -0.0045308989281285924 -0.0014611282924111976 0 -0.0044031586098182227 -0.0010650017864390307 0 -0.0044661167894075211 -0.0013288907516406888 0 -0.0044552529066214774 -0.0011843260805688258 0 -0.0044031586098182227 -0.0010650017864390307 0 -0.0044552529066214774 -0.0011843260805688258 0 -0.0043608699249509447 -0.00086124585575400256 0 -0.0043880632170845537 -0.00074500219457838924 0 -0.0044031586098182227 -0.0010650017864390307 0 -0.0043608699249509447 -0.00086124585575400256 0 -0.0043880632170845537 -0.00074500219457838924 0 -0.0043608699249509447 -0.00086124585575400256 0 -0.0041454422276072109 -0.00049662076623727656 0 -0.0043880632170845537 -0.00074500219457838924 0 -0.0041462056897421861 -0.0002744198628888271 0 -0.0041454422276072109 -0.00049662076623727656 0 -0.0039646433023232822 -0.00024782939892216296 0 -0.0041462056897421861 -0.0002744198628888271 0 -0.0041454422276072109 -0.00049662076623727656 0 -0.0037698552954269038 -0.00043438248327890954 0 -0.0041454422276072109 -0.00049662076623727656 0 -0.0041997847633576686 -0.00084761621618645452 0 -0.0039646433023232822 -0.00024782939892216296 0 -0.0037698552954269038 -0.00043438248327890954 0 -0.0041454422276072109 -0.00049662076623727656 0 -0.0043764412104173554 -0.00110627776593962 0 -0.0043608699249509447 -0.00086124585575400256 0 -0.0041997847633576686 -0.00084761621618645452 0 -0.0043608699249509447 -0.00086124585575400256 0 -0.0041454422276072109 -0.00049662076623727656 0 -0.0041997847633576686 -0.00084761621618645452 0 -0.0045169627997848393 -0.002065583947252468 0 -0.0045468408687686116 -0.0018014009957489463 0 -0.00449634313267712 -0.0021677534905488074 0 -0.0045169627997848393 -0.002065583947252468 0 -0.0045433893302205958 -0.0019011991233251276 0 -0.0045468408687686116 -0.0018014009957489463 0 -0.0044949217918723271 -0.0021597439360103977 0 -0.0045169627997848393 -0.002065583947252468 0 -0.00449634313267712 -0.0021677534905488074 0 -0.0045199138609722756 -0.0022406456000310091 0 -0.0045169627997848393 -0.002065583947252468 0 -0.0045433893302205958 -0.0019011991233251276 0 -0.0045433893302205958 -0.0019011991233251276 0 -0.0045299711941134456 -0.0016188703526153563 0 -0.0045468408687686116 -0.0018014009957489463 0 -0.0044661167894075211 -0.0013288907516406888 0 -0.0045299711941134456 -0.0016188703526153563 0 -0.0045308989281285924 -0.0014611282924111976 0 -0.0045299711941134456 -0.0016188703526153563 0 -0.0045308989281285924 -0.0014611282924111976 0 -0.0045468408687686116 -0.0018014009957489463 0 -0.0045468408687686116 -0.0018014009957489463 0 -0.0045643743528144915 -0.0015873597374364381 0 -0.0045742952430332835 -0.0016806479469131301 0 -0.0045308989281285924 -0.0014611282924111976 0 -0.0045468408687686116 -0.0018014009957489463 0 -0.0045643743528144915 -0.0015873597374364381 0 -0.0045272884050070149 -0.001452446708074888 0 -0.0045308989281285924 -0.0014611282924111976 0 -0.0045643743528144915 -0.0015873597374364381 0 -0.0045643743528144915 -0.0015873597374364381 0 -0.0045697348004808134 -0.0015546174597882959 0 -0.0045742952430332835 -0.0016806479469131301 0 -0.0045272884050070149 -0.001452446708074888 0 -0.0045643743528144915 -0.0015873597374364381 0 -0.0045697348004808134 -0.0015546174597882959 0 -0.0045697348004808134 -0.0015546174597882959 0 -0.0045742952430332835 -0.0016806479469131301 0 -0.0045800422320983322 -0.0015818898571433792 0 -0.0045742952430332835 -0.0016806479469131301 0 -0.0045210974117420805 -0.0018675515376255234 0 -0.0044772258721389466 -0.0016587901985003468 0 -0.0045468408687686116 -0.0018014009957489463 0 -0.0045742952430332835 -0.0016806479469131301 0 -0.0045210974117420805 -0.0018675515376255234 0 -0.0045468408687686116 -0.0018014009957489463 0 -0.0045210974117420805 -0.0018675515376255234 0 -0.00449634313267712 -0.0021677534905488074 0 -0.0042524397495695195 -0.0018692786345844235 0 -0.0045210974117420805 -0.0018675515376255234 0 -0.00449634313267712 -0.0021677534905488074 0 -0.0042524397495695195 -0.0018692786345844235 0 -0.0045210974117420805 -0.0018675515376255234 0 -0.0044772258721389466 -0.0016587901985003468 0 -0.0042524397495695195 -0.0018692786345844235 0 -0.0042953813914990823 -0.0016162169748692129 0 -0.0044772258721389466 -0.0016587901985003468 0 -0.0041922319799672031 -0.001432873261717292 0 -0.0042953813914990823 -0.0016162169748692129 0 -0.0043794912453251752 -0.001490079566777894 0 -0.0042953813914990823 -0.0016162169748692129 0 -0.0044772258721389466 -0.0016587901985003468 0 -0.0043794912453251752 -0.001490079566777894 0 -0.0045742952430332835 -0.0016806479469131301 0 -0.0044772258721389466 -0.0016587901985003468 0 -0.0045499503043231132 -0.0015858282784009096 0 -0.0044772258721389466 -0.0016587901985003468 0 -0.0044777759322984266 -0.0015085372217059257 0 -0.0045499503043231132 -0.0015858282784009096 0 -0.0044772258721389466 -0.0016587901985003468 0 -0.0044777759322984266 -0.0015085372217059257 0 -0.0043794912453251752 -0.001490079566777894 0 -0.0026890242111742876 0.00038526387009203564 0 -0.0020125237593919799 0.0014704318925534325 0 -0.0044777759322984266 -0.0015085372217059257 0 -0.004578159721180323 -0.0015015856908813232 0 -0.0043656206497789752 -0.0012811163480067596 0 -0.0044777759322984266 -0.0015085372217059257 0 -0.0045499503043231132 -0.0015858282784009096 0 -0.004578159721180323 -0.0015015856908813232 0 -0.0041391686409178834 -0.0012790940103917414 0 -0.0041922319799672031 -0.001432873261717292 0 -0.0043656206497789752 -0.0012811163480067596 0 -0.0041922319799672031 -0.001432873261717292 0 -0.0043794912453251752 -0.001490079566777894 0 -0.0043656206497789752 -0.0012811163480067596 0 -0.0044777759322984266 -0.0015085372217059257 0 -0.0043794912453251752 -0.001490079566777894 0 -0.0043656206497789752 -0.0012811163480067596 0 -0.0045697348004808134 -0.0015546174597882959 0 -0.0045536540017184993 -0.0015745881803916272 0 -0.0045800422320983322 -0.0015818898571433792 0 -0.0045536540017184993 -0.0015745881803916272 0 -0.0045800422320983322 -0.0015818898571433792 0 -0.004578159721180323 -0.0015015856908813232 0 -0.0045069259696160326 -0.0014836587791105249 0 -0.0045697348004808134 -0.0015546174597882959 0 -0.0045536540017184993 -0.0015745881803916272 0 -0.0045800422320983322 -0.0015818898571433792 0 -0.0045499503043231132 -0.0015858282784009096 0 -0.004578159721180323 -0.0015015856908813232 0 -0.0045742952430332835 -0.0016806479469131301 0 -0.0045800422320983322 -0.0015818898571433792 0 -0.0045499503043231132 -0.0015858282784009096 0 -0.00050595805940675147 0.0025802075226524952 0 -0.00026847981994086148 0.0025283198102808001 0 -0.000382048391551657 0.0023935142165793159 0 -6.8169220554898825e-05 0.0025797257551817159 0 -0.00050595805940675147 0.0025802075226524952 0 -0.00026847981994086148 0.0025283198102808001 0 0.0003269928653137709 0.002933857204727261 0 0.00020259837641294643 0.0031734246099125872 0 -0.0022829994205378111 0.00052192899047310008 0 -0.0026890242111742876 0.00038526387009203564 0 -8.7259629690242764e-05 0.0025371105697256291 0 -0.00026847981994086148 0.0025283198102808001 0 -0.000382048391551657 0.0023935142165793159 0 -8.7259629690242764e-05 0.0025371105697256291 0 -6.8169220554898825e-05 0.0025797257551817159 0 -0.00026847981994086148 0.0025283198102808001 0 0.00071925832681002454 0.0039756373707430653 0 0.00080471050241735732 0.0033800161532654182 0 0.0007989363271300896 0.0039763300901644186 0 0.00071925832681002454 0.0039756373707430653 0 0.0007989363271300896 0.0039763300901644186 0 0.00073882361644336879 0.0039964576100239594 0 0.0007989363271300896 0.0039763300901644186 0 0.00064482971494642181 0.0039175705806760519 0 0.00073882361644336879 0.0039964576100239594 0 -0.000382048391551657 0.0023935142165793159 0 -0.0005701886035680972 0.002404531705895168 0 -0.00061237258202605411 0.002379503700931524 0 -0.00050595805940675147 0.0025802075226524952 0 -0.000382048391551657 0.0023935142165793159 0 -0.00051349870338039704 0.0024164196763507523 0 0.00020259837641294643 0.0031734246099125872 0 -9.8644097181687867e-05 0.0031032668359468342 0 -0.000382048391551657 0.0023935142165793159 0 -0.00051349870338039704 0.0024164196763507523 0 -0.0005701886035680972 0.002404531705895168 0 0.00048958256617496782 0.0036694533499752168 0 0.00064482971494642181 0.0039175705806760519 0 0.00039183423331766009 0.0039163531788011857 0 0.0007989363271300896 0.0039763300901644186 0 0.00064482971494642181 0.0039175705806760519 0 0.00039183423331766009 0.0039163531788011857 0 0.00048958256617496782 0.0036694533499752168 0 0.00039183423331766009 0.0039163531788011857 0 0.00024589722881821537 0.0033444324031499818 0 0.00048958256617496782 0.0036694533499752168 0 0.00064482971494642181 0.0039175705806760519 0 0.00056811520292487168 0.0037641449557159318 0 0.00064482971494642181 0.0039175705806760519 0 0.00073882361644336879 0.0039964576100239594 0 0.00071301801757985754 0.0040861353515852438 0 0.00064482971494642181 0.0039175705806760519 0 0.00071301801757985754 0.0040861353515852438 0 0.00056811520292487168 0.0037641449557159318 0 0.00071925832681002454 0.0039756373707430653 0 0.00073882361644336879 0.0039964576100239594 0 0.00071301801757985754 0.0040861353515852438 0 -0.002842587744512771 0.00031787089744251255 0 -0.0020125237593919799 0.0014704318925534325 0 -0.0009227796175854939 0.00238183326586673 0 -0.0020125237593919799 0.0014704318925534325 0 -0.00086266920464862231 0.0024685313437256633 0 -0.00072397257790083995 0.0025293654172788603 0 -0.00079063689868066173 0.0024284404286583484 0 -0.00072397257790083995 0.0025293654172788603 0 -0.00069499417923450928 0.0024294414887399232 0 -0.00079063689868066173 0.0024284404286583484 0 -0.00072397257790083995 0.0025293654172788603 0 -0.00062659124083679833 0.0024319508234222735 0 -0.00069499417923450928 0.0024294414887399232 0 -6.5744000036798594e-05 0.0026126295243151573 0 -0.0020125237593919799 0.0014704318925534325 0 -0.00051349870338039704 0.0024164196763507523 0 -0.00072397257790083995 0.0025293654172788603 0 -0.00062659124083679833 0.0024319508234222735 0 -0.00050595805940675147 0.0025802075226524952 0 -0.00051349870338039704 0.0024164196763507523 0 -0.00082667920701085418 0.0024518340958736401 0 -0.00051349870338039704 0.0024164196763507523 0 -0.0005701886035680972 0.002404531705895168 0 -0.00062659124083679833 0.0024319508234222735 0 -0.00062659124083679833 0.0024319508234222735 0 -0.00064417407970594417 0.0023996484236800753 0 -0.00069499417923450928 0.0024294414887399232 0 -0.00064417407970594417 0.0023996484236800753 0 -0.00061237258202605411 0.002379503700931524 0 -0.00060654478322128447 0.0024489964757909207 0 -0.0005701886035680972 0.002404531705895168 0 -0.00062659124083679833 0.0024319508234222735 0 -0.00064417407970594417 0.0023996484236800753 0 -0.0005701886035680972 0.002404531705895168 0 -0.00064417407970594417 0.0023996484236800753 0 -0.00061237258202605411 0.002379503700931524 0 -0.00064417407970594417 0.0023996484236800753 0 -0.00071623745550356054 0.0024132208578463515 0 -0.00060654478322128447 0.0024489964757909207 0 -0.00064417407970594417 0.0023996484236800753 0 -0.00071623745550356054 0.0024132208578463515 0 -0.00069499417923450928 0.0024294414887399232 0 -0.00071623745550356054 0.0024132208578463515 0 -0.00069499417923450928 0.0024294414887399232 0 -0.00079063689868066173 0.0024284404286583484 0 -0.00085024599833164382 0.0023913389751728364 0 -0.00071623745550356054 0.0024132208578463515 0 -0.00079063689868066173 0.0024284404286583484 0 -0.00085024599833164382 0.0023913389751728364 0 -0.00071623745550356054 0.0024132208578463515 0 -0.00083005916103543289 0.0023556169866326584 0 -0.00060654478322128447 0.0024489964757909207 0 -0.00018372324031140286 0.0019552406933501317 0 -0.0010194916593013485 0.0020329439598304028 0 -0.00071623745550356054 0.0024132208578463515 0 -0.00083005916103543289 0.0023556169866326584 0 -0.00060654478322128447 0.0024489964757909207 0 -0.00083005916103543289 0.0023556169866326584 0 -0.00060654478322128447 0.0024489964757909207 0 -0.0010194916593013485 0.0020329439598304028 0 0.00024589722881821537 0.0033444324031499818 0 -0.00018372324031140286 0.0019552406933501317 0 0.0010006162801999203 0.001526454249874397 0 -9.8644097181687867e-05 0.0031032668359468342 0 -0.00056887639544235113 0.0025415475992042625 0 -0.00060654478322128447 0.0024489964757909207 0 0.00024589722881821537 0.0033444324031499818 0 -0.00018372324031140286 0.0019552406933501317 0 0.00039183423331766009 0.0039163531788011857 0 -0.00060654478322128447 0.0024489964757909207 0 0.00024589722881821537 0.0033444324031499818 0 -0.00018372324031140286 0.0019552406933501317 0 0.0010006162801999203 0.001526454249874397 0 -5.6052427877454874e-05 0.00065491542987585274 0 0.0011174147565300582 -0.00027654848301462634 0 0.0011251772759151716 -0.00052974055603910051 0 -0.00018372324031140286 0.0019552406933501317 0 -0.0010194916593013485 0.0020329439598304028 0 -5.6052427877454874e-05 0.00065491542987585274 0 0.003211705912301637 -0.002552982570649542 0 0.0022177400386868668 -0.0017648108307072659 0 0.003165559876521807 -0.0020818642198378681 0 0.00071301801757985754 0.0040861353515852438 0 0.00056811520292487168 0.0037641449557159318 0 0.00072026355346573717 0.0038151172042894662 0 0.00056811520292487168 0.0037641449557159318 0 0.00049984363429877792 0.0035573933356779011 0 0.00072026355346573717 0.0038151172042894662 0 0.00024589722881821537 0.0033444324031499818 0 0.00042390587716400606 0.0035595627136065836 0 0.0003356889072107842 0.0034865621384659097 0 0.00028057962641395709 0.0033107129273175764 0 0.00063532295045715202 0.0024964283387092679 0 0.00056811520292487168 0.0037641449557159318 0 0.00042390587716400606 0.0035595627136065836 0 0.00049984363429877792 0.0035573933356779011 0 0.00048958256617496782 0.0036694533499752168 0 0.00056811520292487168 0.0037641449557159318 0 0.00042390587716400606 0.0035595627136065836 0 0.00048958256617496782 0.0036694533499752168 0 0.00024589722881821537 0.0033444324031499818 0 0.00042390587716400606 0.0035595627136065836 0 0.0003356889072107842 0.0034865621384659097 0 0.00049984363429877792 0.0035573933356779011 0 0.00047605365125621957 0.0033056856089276943 0 0.00042390587716400606 0.0035595627136065836 0 0.0003356889072107842 0.0034865621384659097 0 0.00049984363429877792 0.0035573933356779011 0 0.00049984363429877792 0.0035573933356779011 0 0.0006535848507074405 0.0034142733527709802 0 0.00072026355346573717 0.0038151172042894662 0 0.00049984363429877792 0.0035573933356779011 0 0.00047605365125621957 0.0033056856089276943 0 0.0006535848507074405 0.0034142733527709802 0 0.00047605365125621957 0.0033056856089276943 0 0.00069992743319881616 0.0030232129957905455 0 0.00029793265651785586 0.0029468196151683978 0 0.00047605365125621957 0.0033056856089276943 0 0.0006535848507074405 0.0034142733527709802 0 0.00069992743319881616 0.0030232129957905455 0 0.0014432445565693269 -0.00023928059037750475 0 0.0008542184838625657 0.00050283843990832583 0 0.0013300445871992017 -0.00044307000339794897 0 0.0013074033471251938 -0.0004935555746641932 0 0.0011251772759151716 -0.00052974055603910051 0 0.0010006162801999203 0.001526454249874397 0 0.0014432445565693269 -0.00023928059037750475 0 0.0008542184838625657 0.00050283843990832583 0 0.0008542184838625657 0.00050283843990832583 0 0.0013300445871992017 -0.00044307000339794897 0 -5.6052427877454874e-05 0.00065491542987585274 0 0.0003356889072107842 0.0034865621384659097 0 0.00047605365125621957 0.0033056856089276943 0 0.00029793265651785586 0.0029468196151683978 0 0.00063532295045715202 0.0024964283387092679 0 0.00085745832908487021 0.0013838844726862755 0 0.0014108342975665455 -0.00019103303744647261 0 0.0013300445871992017 -0.00044307000339794897 0 0.0019201930265327202 -0.00040409504422700703 0 0.0014108342975665455 -0.00019103303744647261 0 0.0013300445871992017 -0.00044307000339794897 0 0.00099506942744349565 -4.4300018318935425e-05 0 0.00069992743319881616 0.0030232129957905455 0 0.00029793265651785586 0.0029468196151683978 0 0.00056696590441249867 0.0026859293884071542 0 0.00085745832908487021 0.0013838844726862755 0 0.0007428553232285565 0.0010817439863492376 0 0.0014432445565693269 -0.00023928059037750475 0 0.0013300445871992017 -0.00044307000339794897 0 0.00099506942744349565 -4.4300018318935425e-05 0 0.00029793265651785586 0.0029468196151683978 0 0.00056696590441249867 0.0026859293884071542 0 0.00041920051758328238 0.0021743590297666798 0 0.00056696590441249867 0.0026859293884071542 0 0.00041920051758328238 0.0021743590297666798 0 0.00086029373111326708 0.0025875519660363594 0 0.0022177400386868668 -0.0017648108307072659 0 0.0025373583477826343 -0.0010466289897428141 0 0.003165559876521807 -0.0020818642198378681 0 0.0025373583477826343 -0.0010466289897428141 0 0.0032528797539030079 -0.0012857582517810191 0 0.003165559876521807 -0.0020818642198378681 0 0.0010006162801999203 0.001526454249874397 0 0.0008542184838625657 0.00050283843990832583 0 -5.6052427877454874e-05 0.00065491542987585274 0 0.0019201930265327202 -0.00040409504422700703 0 0.0025373583477826343 -0.0010466289897428141 0 0.0025288924975785535 -0.0001484695024048991 0 0.0022177400386868668 -0.0017648108307072659 0 0.0019201930265327202 -0.00040409504422700703 0 0.0025373583477826343 -0.0010466289897428141 0 0.0013300445871992017 -0.00044307000339794897 0 0.0022177400386868668 -0.0017648108307072659 0 0.0019201930265327202 -0.00040409504422700703 0 0.0047663625561372739 -0.005093990084655913 0 0.0042405713243644835 -0.004129373447170852 0 0.0038897817791186421 -0.0051659088679549573 0 0.003647784902164749 -0.0026307825193696683 0 0.0036821439216292145 -0.0026799838877619017 0 0.0025373583477826343 -0.0010466289897428141 0 0.0025288924975785535 -0.0001484695024048991 0 0.0032528797539030079 -0.0012857582517810191 0 0.0047663625561372739 -0.005093990084655913 0 0.0045740764717869236 -0.0056519336071172788 0 0.0038897817791186421 -0.0051659088679549573 0 0.0045740764717869236 -0.0056519336071172788 0 0.0039260128839630447 -0.0060265254779703114 0 0.0038897817791186421 -0.0051659088679549573 0 0.0044920013378694328 -0.0071184581025061401 0 0.0033280237218501663 -0.0063980475051688065 0 0.0045740764717869236 -0.0056519336071172788 0 0.0048924217135510742 -0.0060862724681040956 0 0.0039260128839630447 -0.0060265254779703114 0 0.0045740764717869236 -0.0056519336071172788 0 0.0051516908731270815 -0.0057867835051365569 0 0.0048924217135510742 -0.0060862724681040956 0 0.0047663625561372739 -0.005093990084655913 0 0.0045740764717869236 -0.0056519336071172788 0 0.0051516908731270815 -0.0057867835051365569 0 0.0025288924975785535 -0.0001484695024048991 0 0.0018937628683899127 0.00063869251493231202 0 0.0015237913427713361 5.881813402533081e-05 0 0.003647784902164749 -0.0026307825193696683 0 0.0035046994122990551 -0.0024825856724070444 0 0.0019201930265327202 -0.00040409504422700703 0 0.0025288924975785535 -0.0001484695024048991 0 0.0015237913427713361 5.881813402533081e-05 0 0.0014108342975665455 -0.00019103303744647261 0 0.0015237913427713361 5.881813402533081e-05 0 0.00099506942744349565 -4.4300018318935425e-05 0 0.0014108342975665455 -0.00019103303744647261 0 0.0019201930265327202 -0.00040409504422700703 0 0.0015237913427713361 5.881813402533081e-05 0 0.0015237913427713361 5.881813402533081e-05 0 0.00099506942744349565 -4.4300018318935425e-05 0 0.0014678949701621591 0.00046145885715160939 0 0.0018937628683899127 0.00063869251493231202 0 0.0015237913427713361 5.881813402533081e-05 0 0.0014678949701621591 0.00046145885715160939 0 0.00099506942744349565 -4.4300018318935425e-05 0 0.0011769299646072111 0.00074385547849338605 0 0.0014678949701621591 0.00046145885715160939 0 0.00099506942744349565 -4.4300018318935425e-05 0 0.0011769299646072111 0.00074385547849338605 0 0.00076308277205018593 0.0011999148635157306 0 0.0007428553232285565 0.0010817439863492376 0 0.00074887951443795278 0.0011601351684375179 0 0.0011769299646072111 0.00074385547849338605 0 0.0013770756292524478 0.00084565940552333314 0 0.0010204104254217371 0.0011080098397551362 0 0.0011769299646072111 0.00074385547849338605 0 0.0010204104254217371 0.0011080098397551362 0 0.00076308277205018593 0.0011999148635157306 0 0.0035046994122990551 -0.0024825856724070444 0 0.003237999245313821 -0.0030344346508494268 0 0.0018937628683899127 0.00063869251493231202 0 0.0013770756292524478 0.00084565940552333314 0 0.0012832357988966049 0.0012423481676681215 0 0.0051516908731270815 -0.0057867835051365569 0 0.0054437956268566338 -0.0061574512408893991 0 0.0048924217135510742 -0.0060862724681040956 0 0.0018937628683899127 0.00063869251493231202 0 0.0014678949701621591 0.00046145885715160939 0 0.0013770756292524478 0.00084565940552333314 0 0.0011769299646072111 0.00074385547849338605 0 0.0014678949701621591 0.00046145885715160939 0 0.0013770756292524478 0.00084565940552333314 0 0.0035512885773042895 -0.0072049975932584592 0 0.0034974025385340409 -0.0072985828611065633 0 0.0034324631381738384 -0.007266741117648811 0 0.003237999245313821 -0.0030344346508494268 0 0.0044920013378694328 -0.0071184581025061401 0 0.0035512885773042895 -0.0072049975932584592 0 0.0035707712727776433 -0.0072211180579124495 0 0.0034974025385340409 -0.0072985828611065633 0 0.0010204104254217371 0.0011080098397551362 0 0.00086909069239095998 0.001144005418448909 0 0.00076308277205018593 0.0011999148635157306 0 0.0010204104254217371 0.0011080098397551362 0 0.00097221770761392768 0.0011989699686061315 0 0.00086909069239095998 0.001144005418448909 0 0.0013770756292524478 0.00084565940552333314 0 0.0012832357988966049 0.0012423481676681215 0 0.0010204104254217371 0.0011080098397551362 0 0.0012832357988966049 0.0012423481676681215 0 0.0010204104254217371 0.0011080098397551362 0 0.00097221770761392768 0.0011989699686061315 0 0.0011526440862475967 0.0011036002128538057 0 0.00097221770761392768 0.0011989699686061315 0 0.0010144733388948218 0.0012551810390575362 0 0.003237999245313821 -0.0030344346508494268 0 0.0013816146108239094 -0.0012420384077598766 0 0.003237999245313821 -0.0030344346508494268 0 0.00025044764443964433 0.00036731617761940119 0 0.00097221770761392768 0.0011989699686061315 0 0.0010144733388948218 0.0012551810390575362 0 0.00089760994065307047 0.0011223650158978232 0 0.0013816146108239094 -0.0012420384077598766 0 -8.3408862571515759e-05 0.0037840175243117565 0 -0.0005157382069451694 0.004202802087451084 0 0.0010485770408753862 0.0023382956900022582 0 -7.807781706372197e-05 0.0032680229339831835 0 0.00090060075827380539 0.0031514895064074524 0 0.00018699579038308428 0.0038632895886683751 0 0.00013111071765435056 0.0025404968282375603 0 -0.00024921736335616366 0.0029891294923079636 0 0.00094366992729889799 0.0028767398598027547 0 0.00010588441310938049 0.0013780927782660753 0 1.1066696872437365e-05 0.0014863137608741822 0 0.00061883115919584327 0.0016241410740162054 0 -0.00063767409169596004 0.0041713580366778231 0 -0.00050540187146576158 0.0040205194988221548 0 -0.00036200503954607598 0.0043025647475186833 0 0.00019537753723686391 0.0014126730374206069 0 -8.3408862571515759e-05 0.0037840175243117565 0 0.00019537753723686391 0.0014126730374206069 0 -0.0005157382069451694 0.004202802087451084 0 0.00019537753723686391 0.0014126730374206069 0 0.0010485770408753862 0.0023382956900022582 0 0.0012724866953309525 -0.0013345817242951022 0 0.0013554725098837278 -0.001434747355237043 0 0.0017361805856449801 -0.0011594075462920523 0 0.00019537753723686391 0.0014126730374206069 0 0.0013816146108239094 -0.0012420384077598766 0 -7.807781706372197e-05 0.0032680229339831835 0 -0.00017165072215105179 0.0033778087297872631 0 0.00018699579038308428 0.0038632895886683751 0 -0.0005157382069451694 0.004202802087451084 0 -0.00073096851143327282 0.0043106782442372451 0 0.0013554725098837278 -0.001434747355237043 0 0.0019861519865550024 -0.0013602417342753019 0 0.0017361805856449801 -0.0011594075462920523 0 0.0013816146108239094 -0.0012420384077598766 0 0.0028586768442633915 -0.0042979114317960188 0 0.0019861519865550024 -0.0013602417342753019 0 0.0017361805856449801 -0.0011594075462920523 0 0.0026156526100508705 -0.0012936536134774558 0 0.00090060075827380539 0.0031514895064074524 0 0.0013642318812974923 0.0033204295432882141 0 0.00079056421660419476 0.003742145768877366 0 0.0010485770408753862 0.0023382956900022582 0 0.0013733179671833438 0.0031704499748738801 0 0.00086714301474427992 0.0031110532647789287 0 0.0013642318812974923 0.0033204295432882141 0 0.0018062285424554601 0.0029824088232624454 0 0.0028586768442633915 -0.0042979114317960188 0 0.0026069356873886784 -0.0034880468420299036 0 0.0010485770408753862 0.0023382956900022582 0 0.0026069356873886784 -0.0034880468420299036 0 0.0034974025385340409 -0.0072985828611065633 0 0.0033565935550421639 -0.0074279149868541616 0 0.0034324631381738384 -0.007266741117648811 0 0.0013642318812974923 0.0033204295432882141 0 0.0018062285424554601 0.0029824088232624454 0 0.0020859210922461731 0.0033980574751906584 0 0.0026069356873886784 -0.0034880468420299036 0 0.0024315440224330258 -0.0080653825530576598 0 0.0018062285424554601 0.0029824088232624454 0 0.0020859210922461731 0.0033980574751906584 0 0.0025868590411251822 0.0030417885647521406 0 0.0033565935550421639 -0.0074279149868541616 0 0.0030761923973048155 -0.0074127422614782895 0 0.0028599194253122163 -0.0076047579112369446 0 0.0026888983392523288 -0.0074020725138935961 0 0.0020003067920923716 -0.0076390539501222767 0 0.0017629984914509383 -0.0074870780030334948 0 0.0026069356873886784 -0.0034880468420299036 0 0.0023318224895920209 -0.0021603437848838024 0 0.0033565935550421639 -0.0074279149868541616 0 0.0031590393812393563 -0.0072884739404365049 0 0.0033383545490329142 -0.0072839578764626271 0 0.0033565935550421639 -0.0074279149868541616 0 0.0030761923973048155 -0.0074127422614782895 0 0.0031590393812393563 -0.0072884739404365049 0 0.0031590393812393563 -0.0072884739404365049 0 0.0033831410014584641 -0.0071536058956777736 0 0.0029497861560018198 -0.0069346251658731987 0 0.0030761923973048155 -0.0074127422614782895 0 0.0031590393812393563 -0.0072884739404365049 0 0.002891262141141895 -0.0072799918545167555 0 0.0031590393812393563 -0.0072884739404365049 0 0.0033831410014584641 -0.0071536058956777736 0 0.0033383545490329142 -0.0072839578764626271 0 0.0033831410014584641 -0.0071536058956777736 0 0.0034324631381738384 -0.007266741117648811 0 0.0033383545490329142 -0.0072839578764626271 0 0.0035512885773042895 -0.0072049975932584592 0 0.0033831410014584641 -0.0071536058956777736 0 0.0034324631381738384 -0.007266741117648811 0 0.0033565935550421639 -0.0074279149868541616 0 0.0034324631381738384 -0.007266741117648811 0 0.0033383545490329142 -0.0072839578764626271 0 -0.00097426805528125692 0.010045703709942736 0 -0.00048280288427825056 0.0098411269568586032 0 -3.7513571953000543e-05 0.010504575555722546 0 -0.00097426805528125692 0.010045703709942736 0 -0.00048280288427825056 0.0098411269568586032 0 -0.00079258602089863944 0.0093900985812272273 0 -0.00097426805528125692 0.010045703709942736 0 -0.00079258602089863944 0.0093900985812272273 0 -0.0014113474768967865 0.009620406934118161 0 -0.00048280288427825056 0.0098411269568586032 0 5.3571827880009175e-05 0.0099363071093335528 0 -6.295652310953564e-05 0.0087963087818402168 0 -0.00048280288427825056 0.0098411269568586032 0 5.3571827880009175e-05 0.0099363071093335528 0 -3.7513571953000543e-05 0.010504575555722546 0 -0.0014610000842299024 0.020042966532962767 0 -0.0015720025292290769 0.018676886118623753 0 -0.00087240089554171149 0.019403405939258305 0 -0.00067417848254657463 0.01503401726901275 0 -0.0011931537980374145 0.011872423128072527 0 -6.295652310953564e-05 0.0087963087818402168 0 -0.00079258602089863944 0.0093900985812272273 0 -0.0012187703655336479 0.0088515955697674037 0 -0.00048280288427825056 0.0098411269568586032 0 -6.295652310953564e-05 0.0087963087818402168 0 -0.00079258602089863944 0.0093900985812272273 0 -0.0011931537980374145 0.011872423128072527 0 -0.0014746558737253784 0.0057331550318145226 0 -0.00079258602089863944 0.0093900985812272273 0 -0.0012187703655336479 0.0088515955697674037 0 -0.0014113474768967865 0.009620406934118161 0 -0.0012187703655336479 0.0088515955697674037 0 -0.0019412747814193509 0.0095027334652534375 0 -0.0014113474768967865 0.009620406934118161 0 -0.0014746558737253784 0.0057331550318145226 0 -0.00097538624961696378 0.0053111940630076217 0 -0.0015657605498097618 0.0036924531215214648 0 -0.00026852285596682931 0.0034758611184345883 0 -0.0004965902368400172 0.0038958981608627598 0 -0.0012187703655336479 0.0088515955697674037 0 -0.0023499799461962393 0.0089043570588674577 0 -0.0019412747814193509 0.0095027334652534375 0 -0.00026852285596682931 0.0034758611184345883 0 -0.00020837394619331248 0.003559273389811303 0 -0.0004965902368400172 0.0038958981608627598 0 -0.00073812495330917709 0.0048371408683129486 0 -0.0011355900596763178 0.004872560983295522 0 -0.0009669649644343701 0.0051044810472037775 0 -0.0005157382069451694 0.004202802087451084 0 -0.00097538624961696378 0.0053111940630076217 0 -0.00097538624961696378 0.0053111940630076217 0 -0.00073096851143327282 0.0043106782442372451 0 -0.00050540187146576158 0.0040205194988221548 0 -0.00043724924644162016 0.0040167495931055968 0 -0.00036200503954607598 0.0043025647475186833 0 -0.00097538624961696378 0.0053111940630076217 0 -0.0009162887288965202 0.0066186736002786153 0 -0.00043724924644162016 0.0040167495931055968 0 -0.00036200503954607598 0.0043025647475186833 0 -0.00021657759413752764 0.0043342641028006361 0 0.00089760994065307047 0.0011223650158978232 0 0.0010006888669891844 0.0010315967891422115 0 0.00086909069239095998 0.001144005418448909 0 0.00097221770761392768 0.0011989699686061315 0 0.00089760994065307047 0.0011223650158978232 0 0.00086909069239095998 0.001144005418448909 0 -8.3408862571515759e-05 0.0037840175243117565 0 -0.0010011591157602648 0.0064138231973619678 0 -0.00061527090340762346 0.0052010744921037501 0 -0.00042264036269339621 0.005242607547233968 0 -0.00037309833352121394 0.0053150918767114483 0 -8.3408862571515759e-05 0.0037840175243117565 0 -0.0009162887288965202 0.0066186736002786153 0 -0.0009162887288965202 0.0066186736002786153 0 -0.0010011591157602648 0.0064138231973619678 0 0.0010006888669891844 0.0010315967891422115 0 0.00086909069239095998 0.001144005418448909 0 0.00076308277205018593 0.0011999148635157306 0 -0.0010990241273386254 0.01024906573435513 0 -0.0010011591157602648 0.0064138231973619678 0 -0.0010011591157602648 0.0064138231973619678 0 -0.00014070608072581611 0.0056144771074601984 0 -0.00097426805528125692 0.010045703709942736 0 -0.0018792458977842242 0.0095988514351214461 0 -0.0014113474768967865 0.009620406934118161 0 -0.001123705531844259 0.0099298131195554862 0 -0.0022960651325280041 0.0093708912973777883 0 -0.0015497587347637056 0.010453710429353644 0 -0.0019502607532987412 0.0094928212650506275 0 -0.0018792458977842242 0.0095988514351214461 0 -0.0014113474768967865 0.009620406934118161 0 -0.0009162887288965202 0.0066186736002786153 0 -0.0015028742278794627 0.0088658722279541333 0 0.0014652490488838152 0.0015341748325061921 0 0.0010798929980067879 0.0016518252292915779 0 0.0013654894448065287 0.0021492333107238741 0 0.0010006888669891844 0.0010315967891422115 0 0.0014652490488838152 0.0015341748325061921 0 0.0010798929980067879 0.0016518252292915779 0 0.0010006888669891844 0.0010315967891422115 0 0.00076308277205018593 0.0011999148635157306 0 0.0010798929980067879 0.0016518252292915779 0 0.00041920051758328238 0.0021743590297666798 0 0.00076308277205018593 0.0011999148635157306 0 0.0010798929980067879 0.0016518252292915779 0 0.00041920051758328238 0.0021743590297666798 0 0.0010798929980067879 0.0016518252292915779 0 0.0010517533639967673 0.0022383561904987005 0 0.00041920051758328238 0.0021743590297666798 0 0.0010517533639967673 0.0022383561904987005 0 0.00086029373111326708 0.0025875519660363594 0 0.0014652490488838152 0.0015341748325061921 0 0.0013654894448065287 0.0021492333107238741 0 0.0016716949267865848 0.0022914264955065087 0 0.0010798929980067879 0.0016518252292915779 0 0.0010517533639967673 0.0022383561904987005 0 0.0013654894448065287 0.0021492333107238741 0 0.0010517533639967673 0.0022383561904987005 0 0.0013654894448065287 0.0021492333107238741 0 0.0012820881120403948 0.0025650312986873394 0 0.0013654894448065287 0.0021492333107238741 0 0.0016716949267865848 0.0022914264955065087 0 0.0015727809952384101 0.0025317753256696987 0 -0.00014070608072581611 0.0056144771074601984 0 0.00044030209751814693 0.0082687136979063582 0 0.0016716949267865848 0.0022914264955065087 0 0.001842725984433182 0.0022779386036791858 0 0.00179075680925813 0.0025440092256657451 0 0.0014652490488838152 0.0015341748325061921 0 0.0016716949267865848 0.0022914264955065087 0 0.0019174756092194102 0.0022401168980548634 0 0.0022362448408982812 0.005689591630887272 0 0.00044030209751814693 0.0082687136979063582 0 -0.00082138365509760634 0.011450185167333066 0 -0.00076808286077768503 0.010674933248539487 0 -0.0003608923429160369 0.010952023887950465 0 -0.0010990241273386254 0.01024906573435513 0 -0.0001103023540239092 0.010408914707973527 0 -0.0015497587347637056 0.010453710429353644 0 -0.00082138365509760634 0.011450185167333066 0 -0.00076808286077768503 0.010674933248539487 0 -0.001123705531844259 0.0099298131195554862 0 -0.00076808286077768503 0.010674933248539487 0 -3.7513571953000543e-05 0.010504575555722546 0 -0.001123705531844259 0.0099298131195554862 0 -0.0015497587347637056 0.010453710429353644 0 -0.00076808286077768503 0.010674933248539487 0 -0.0014610000842299024 0.020042966532962767 0 -0.0013472725673318055 0.021401253018156461 0 -0.00088232752549404056 0.021288199959107461 0 5.3571827880009175e-05 0.0099363071093335528 0 -3.7513571953000543e-05 0.010504575555722546 0 0.00017025848960719675 0.011188696189885265 0 -0.00067417848254657463 0.01503401726901275 0 -0.00046599486116919255 0.017969372778644209 0 -0.00076808286077768503 0.010674933248539487 0 -3.7513571953000543e-05 0.010504575555722546 0 -0.0003608923429160369 0.010952023887950465 0 -3.7513571953000543e-05 0.010504575555722546 0 0.00017025848960719675 0.011188696189885265 0 -0.0003608923429160369 0.010952023887950465 0 0.00044030209751814693 0.0082687136979063582 0 -0.00046599486116919255 0.017969372778644209 0 0.00062574731446494232 0.015522798380885919 0 -0.0012795120584742816 0.016101021140178199 0 -0.001360006854915303 0.015140426032008339 0 0.00044274413837006488 0.024532801875079779 0 0.00043613648259476152 0.02441023372049865 0 0.00031605020469822263 0.024576541276532995 0 -0.00082138365509760634 0.011450185167333066 0 0.00017025848960719675 0.011188696189885265 0 -0.0003608923429160369 0.010952023887950465 0 -0.00046599486116919255 0.017969372778644209 0 -8.2098624647252338e-05 0.026562404172097709 0 -2.1615361512483088e-05 0.021327568056192372 0 0.00065636473132267071 0.020290637757711432 0 -0.00017466789001452479 0.019135606656758099 0 -8.2098624647252338e-05 0.026562404172097709 0 0.00038099314876294764 0.02234441573680962 0 -8.2098624647252338e-05 0.026562404172097709 0 -4.1608800991372712e-06 0.010321704826703392 0 0.00062574731446494232 0.015522798380885919 0 -0.001360006854915303 0.015140426032008339 0 -0.00056041504478848247 0.013904727535782757 0 0.001842725984433182 0.0022779386036791858 0 0.0021560159929319804 0.0027917954287467453 0 0.00179075680925813 0.0025440092256657451 0 0.0021560159929319804 0.0027917954287467453 0 0.00179075680925813 0.0025440092256657451 0 0.0017099758609519494 0.0028269517258506308 0 0.00044030209751814693 0.0082687136979063582 0 -4.1608800991372712e-06 0.010321704826703392 0 0.00179075680925813 0.0025440092256657451 0 0.0017099758609519494 0.0028269517258506308 0 0.0015727809952384101 0.0025317753256696987 0 0.0016716949267865848 0.0022914264955065087 0 0.00179075680925813 0.0025440092256657451 0 0.0015727809952384101 0.0025317753256696987 0 0.0021560159929319804 0.0027917954287467453 0 0.0017099758609519494 0.0028269517258506308 0 0.0017654617452764897 0.0032990662715061837 0 -4.1608800991372712e-06 0.010321704826703392 0 0.00086937634299832987 0.0047025663086521299 0 0.0017099758609519494 0.0028269517258506308 0 0.0017654617452764897 0.0032990662715061837 0 0.0014359299312169027 0.0030264808505944623 0 -0.001464965925046196 0.0091171825249302032 0 -0.00059651001607960539 0.0076454117525255171 0 -0.0021986757009629667 0.0080975131124317312 0 -4.1608800991372712e-06 0.010321704826703392 0 0.00038099314876294764 0.02234441573680962 0 0.00069992743319881616 0.0030232129957905455 0 0.00086029373111326708 0.0025875519660363594 0 0.0011378343431925125 0.0028975290764397302 0 0.00069992743319881616 0.0030232129957905455 0 0.00056696590441249867 0.0026859293884071542 0 0.00086029373111326708 0.0025875519660363594 0 0.0010517533639967673 0.0022383561904987005 0 0.00086029373111326708 0.0025875519660363594 0 0.0012820881120403948 0.0025650312986873394 0 0.00086029373111326708 0.0025875519660363594 0 0.0012820881120403948 0.0025650312986873394 0 0.0011378343431925125 0.0028975290764397302 0 0.0012820881120403948 0.0025650312986873394 0 0.0014523695737311789 0.0027775479653615546 0 0.0011378343431925125 0.0028975290764397302 0 0.0013654894448065287 0.0021492333107238741 0 0.0012820881120403948 0.0025650312986873394 0 0.0015727809952384101 0.0025317753256696987 0 0.0012820881120403948 0.0025650312986873394 0 0.0015727809952384101 0.0025317753256696987 0 0.0014523695737311789 0.0027775479653615546 0 0.0017099758609519494 0.0028269517258506308 0 0.0014523695737311789 0.0027775479653615546 0 0.0014359299312169027 0.0030264808505944623 0 0.0017099758609519494 0.0028269517258506308 0 0.0015727809952384101 0.0025317753256696987 0 0.0014523695737311789 0.0027775479653615546 0 0.0017654617452764897 0.0032990662715061837 0 0.0014359299312169027 0.0030264808505944623 0 0.0010934404888726984 0.0033348140733127207 0 0.0014359299312169027 0.0030264808505944623 0 0.0011378343431925125 0.0028975290764397302 0 0.0010934404888726984 0.0033348140733127207 0 0.0014523695737311789 0.0027775479653615546 0 0.0014359299312169027 0.0030264808505944623 0 0.0011378343431925125 0.0028975290764397302 0 0.0006535848507074405 0.0034142733527709802 0 0.00069992743319881616 0.0030232129957905455 0 0.0010934404888726984 0.0033348140733127207 0 0.00069992743319881616 0.0030232129957905455 0 0.0011378343431925125 0.0028975290764397302 0 0.0010934404888726984 0.0033348140733127207 0 0.0010934404888726984 0.0033348140733127207 0 0.0013502480710828129 0.0038002307562149422 0 0.00072026355346573717 0.0038151172042894662 0 0.0006535848507074405 0.0034142733527709802 0 0.0010934404888726984 0.0033348140733127207 0 0.00072026355346573717 0.0038151172042894662 0 0.0017654617452764897 0.0032990662715061837 0 0.0010934404888726984 0.0033348140733127207 0 0.0013502480710828129 0.0038002307562149422 0 -0.00048638218226216694 0.0050427676512867841 0 0.0007623871367290685 0.0044287158801721311 0 0.00015596582393026303 0.0061619936556192171 0 0.00082843543545149602 0.0044495294722235309 0 0.00064630464213795327 0.0051281018204291772 0 0.0007623871367290685 0.0044287158801721311 0 0.0013502480710828129 0.0038002307562149422 0 0.00072026355346573717 0.0038151172042894662 0 0.00038099314876294764 0.02234441573680962 0 -0.00089858297617575577 0.012303482915553951 0 -0.0021986757009629667 0.0080975131124317312 0 -0.0010635818769184758 0.0063488867955741263 0 -0.0022933056022388155 0.0063628425914280138 0 -0.00059651001607960539 0.0076454117525255171 0 -0.0021986757009629667 0.0080975131124317312 0 -0.0010635818769184758 0.0063488867955741263 0 0.00086937634299832987 0.0047025663086521299 0 0.00064630464213795327 0.0051281018204291772 0 -0.00059651001607960539 0.0076454117525255171 0 0.00015596582393026303 0.0061619936556192171 0 -0.0010635818769184758 0.0063488867955741263 0 -0.0014485419685721381 0.0048685518648414758 0 -0.00048638218226216694 0.0050427676512867841 0 -0.0010635818769184758 0.0063488867955741263 0 -0.00048638218226216694 0.0050427676512867841 0 0.00015596582393026303 0.0061619936556192171 0 -0.0010635818769184758 0.0063488867955741263 0 -0.0014485419685721381 0.0048685518648414758 0 -0.0010635818769184758 0.0063488867955741263 0 -0.0022933056022388155 0.0063628425914280138 0 0.0009312734824102291 0.02071629465351264 0 0.00033821183558548735 0.020091536731470558 0 0.00032263696922213631 0.021196242955602965 0 -7.6678291032683006e-05 0.010876353556840475 0 -0.00089858297617575577 0.012303482915553951 0 0.00080092208693397274 0.01924586621969273 0 0.0009312734824102291 0.02071629465351264 0 0.00033821183558548735 0.020091536731470558 0 0.00033821183558548735 0.020091536731470558 0 0.00032263696922213631 0.021196242955602965 0 -0.00038581462766221658 0.020200445148471365 0 0.00038099314876294764 0.02234441573680962 0 0.0014472125994363005 0.029789266763365393 0 0.001037192817697025 0.022216637444835933 0 0.0009312734824102291 0.02071629465351264 0 0.00032263696922213631 0.021196242955602965 0 0.0014073660430943854 0.036321254686862182 0 0.0013074349702555644 0.036446116206511878 0 0.0013786513176491054 0.036436992460060477 0 0.0015012483681273124 0.036309405824526568 0 0.0014073660430943854 0.036321254686862182 0 0.0013786513176491054 0.036436992460060477 0 0.0014472125994363005 0.029789266763365393 0 0.00052878731437241522 0.028028370997871359 0 0.0014073660430943854 0.036321254686862182 0 0.0015061428151274836 0.03595822072684577 0 0.0012349892399147878 0.036403671179738938 0 0.0015012483681273124 0.036309405824526568 0 0.0014073660430943854 0.036321254686862182 0 0.0015061428151274836 0.03595822072684577 0 0.0012530556638599252 0.036202927036149093 0 0.0012278224599107559 0.036378486822382261 0 0.0012349892399147878 0.036403671179738938 0 -0.0010094569515265437 0.026708904791262526 0 0.0017618617877932479 0.040319667207829056 0 0.0010802954854156591 0.035282529620980697 0 0.0015061428151274836 0.03595822072684577 0 0.0012349892399147878 0.036403671179738938 0 0.0012278224599107559 0.036378486822382261 0 0.0012656407866292645 0.036494039203200358 0 0.0012349892399147878 0.036403671179738938 0 0.0011635131059580515 0.036276732572410972 0 0.0012278224599107559 0.036378486822382261 0 0.00090352999188166917 0.036379650067310934 0 0.0012251149038472757 0.036398326371238833 0 0.001091228639634588 0.036459670759640822 0 0.0012278224599107559 0.036378486822382261 0 0.0012656407866292645 0.036494039203200358 0 0.0012732610040237207 0.036561116040967796 0 0.0012886732926317031 0.03658831379323603 0 0.001279736958032307 0.036485275204830428 0 0.0013153170894114924 0.03654217644613332 0 0.0012656407866292645 0.036494039203200358 0 0.0012886732926317031 0.03658831379323603 0 0.0012642365413452043 0.03661986169763199 0 0.0012656407866292645 0.036494039203200358 0 0.0012886732926317031 0.03658831379323603 0 0.001279736958032307 0.036485275204830428 0 0.0014073660430943854 0.036321254686862182 0 0.0012349892399147878 0.036403671179738938 0 0.0013074349702555644 0.036446116206511878 0 0.0012349892399147878 0.036403671179738938 0 0.001279736958032307 0.036485275204830428 0 0.0013074349702555644 0.036446116206511878 0 0.0012656407866292645 0.036494039203200358 0 0.0012349892399147878 0.036403671179738938 0 0.001279736958032307 0.036485275204830428 0 0.001279736958032307 0.036485275204830428 0 0.0013074349702555644 0.036446116206511878 0 0.0013153170894114924 0.03654217644613332 0 0.0013153170894114924 0.03654217644613332 0 0.0013623844610548661 0.036510779519200072 0 0.0013786513176491054 0.036436992460060477 0 0.0013074349702555644 0.036446116206511878 0 0.0013153170894114924 0.03654217644613332 0 0.0013786513176491054 0.036436992460060477 0 0.0013153170894114924 0.03654217644613332 0 0.0013267023396257519 0.036675682380889384 0 0.0013379156021945358 0.036629103472811522 0 0.0012886732926317031 0.03658831379323603 0 0.0013153170894114924 0.03654217644613332 0 0.0013267023396257519 0.036675682380889384 0 0.0013379156021945358 0.036629103472811522 0 0.0013592119136304657 0.036798876945651399 0 0.0013709860833477153 0.036584210601946304 0 0.0013267023396257519 0.036675682380889384 0 0.0013379156021945358 0.036629103472811522 0 0.0013592119136304657 0.036798876945651399 0 0.0013153170894114924 0.03654217644613332 0 0.0013379156021945358 0.036629103472811522 0 0.0013623844610548661 0.036510779519200072 0 0.0013379156021945358 0.036629103472811522 0 0.0013623844610548661 0.036510779519200072 0 0.0013518659079980852 0.03653099539435907 0 0.0013623844610548661 0.036510779519200072 0 0.0013933963426900073 0.036449573861673357 0 0.0013518659079980852 0.03653099539435907 0 0.0013623844610548661 0.036510779519200072 0 0.0013933963426900073 0.036449573861673357 0 0.0014182241582071453 0.036409955226384502 0 0.0014330687124085367 0.036378196076981451 0 0.0014485811303269743 0.036313894207062068 0 0.0014217956425971727 0.036387341541787209 0 0.0013933963426900073 0.036449573861673357 0 0.0014217956425971727 0.036387341541787209 0 0.0014182241582071453 0.036409955226384502 0 0.0014330687124085367 0.036378196076981451 0 0.0013933963426900073 0.036449573861673357 0 0.0014217956425971727 0.036387341541787209 0 0.0014485811303269743 0.036313894207062068 0 0.0015012483681273124 0.036309405824526568 0 0.0014182241582071453 0.036409955226384502 0 0.0014485811303269743 0.036313894207062068 0 0.0014217956425971727 0.036387341541787209 0 0.0014182241582071453 0.036409955226384502 0 0.0015012483681273124 0.036309405824526568 0 0.0014182241582071453 0.036409955226384502 0 0.0013786513176491054 0.036436992460060477 0 0.0013623844610548661 0.036510779519200072 0 0.0014182241582071453 0.036409955226384502 0 0.0013786513176491054 0.036436992460060477 0 0.00088189470105316217 0.03686142920074531 0 0.00081763158915916609 0.036886894514998818 0 0.00076917857486356032 0.036867119744382809 0 0.00088189470105316217 0.03686142920074531 0 0.00088177078213486147 0.036829572789167327 0 0.0010310653406810683 0.036823188613064335 0 0.00088177078213486147 0.036829572789167327 0 0.00081763158915916609 0.036886894514998818 0 0.00078211798721413816 0.037016048042723633 0 0.00088189470105316217 0.03686142920074531 0 0.00088177078213486147 0.036829572789167327 0 0.00081763158915916609 0.036886894514998818 0 0.00088177078213486147 0.036829572789167327 0 0.00082442949472050599 0.036808990961974958 0 0.00078211798721413816 0.037016048042723633 0 0.00082442949472050599 0.036808990961974958 0 0.00077741142203047978 0.036584577334294856 0 0.00046298645036559023 0.036561569319866573 0 0.00082442949472050599 0.036808990961974958 0 0.00077741142203047978 0.036584577334294856 0 0.00096587429748700782 0.036704620087516224 0 0.00088177078213486147 0.036829572789167327 0 0.00082442949472050599 0.036808990961974958 0 0.00096587429748700782 0.036704620087516224 0 0.00088177078213486147 0.036829572789167327 0 0.00096587429748700782 0.036704620087516224 0 0.0010655640185161005 0.036736345905155204 0 0.0011204785647379427 0.036496999671047727 0 0.00077741142203047978 0.036584577334294856 0 0.00096587429748700782 0.036704620087516224 0 0.00096587429748700782 0.036704620087516224 0 0.0011117394372659067 0.036650975645780272 0 0.0010655640185161005 0.036736345905155204 0 0.0011204785647379427 0.036496999671047727 0 0.00096587429748700782 0.036704620087516224 0 0.0011117394372659067 0.036650975645780272 0 0.0011204785647379427 0.036496999671047727 0 0.0011117394372659067 0.036650975645780272 0 0.0011952634452308067 0.03660110605882709 0 0.0011117394372659067 0.036650975645780272 0 0.0010655640185161005 0.036736345905155204 0 0.0011792921846728349 0.036682074011053535 0 0.0010655640185161005 0.036736345905155204 0 0.0011498671379748121 0.036769178765427006 0 0.0011792921846728349 0.036682074011053535 0 0.00088177078213486147 0.036829572789167327 0 0.0010655640185161005 0.036736345905155204 0 0.0010310653406810683 0.036823188613064335 0 0.0010655640185161005 0.036736345905155204 0 0.0010310653406810683 0.036823188613064335 0 0.0011498671379748121 0.036769178765427006 0 0.0010310653406810683 0.036823188613064335 0 0.0011498671379748121 0.036769178765427006 0 0.0011523569672494387 0.036865192040477751 0 0.0011498671379748121 0.036769178765427006 0 0.0012256490612898509 0.036709636187546829 0 0.0012311474653996849 0.036805364631139044 0 0.0012256490612898509 0.036709636187546829 0 0.0011792921846728349 0.036682074011053535 0 0.0012642365413452043 0.03661986169763199 0 0.0011498671379748121 0.036769178765427006 0 0.0012256490612898509 0.036709636187546829 0 0.0011792921846728349 0.036682074011053535 0 0.0011204785647379427 0.036496999671047727 0 0.0011952634452308067 0.03660110605882709 0 0.0012732610040237207 0.036561116040967796 0 0.0011117394372659067 0.036650975645780272 0 0.0011792921846728349 0.036682074011053535 0 0.0011952634452308067 0.03660110605882709 0 0.0011792921846728349 0.036682074011053535 0 0.0011952634452308067 0.03660110605882709 0 0.0012642365413452043 0.03661986169763199 0 0.0012656407866292645 0.036494039203200358 0 0.0012732610040237207 0.036561116040967796 0 0.0012642365413452043 0.03661986169763199 0 0.0011952634452308067 0.03660110605882709 0 0.0012732610040237207 0.036561116040967796 0 0.0012642365413452043 0.03661986169763199 0 0.0012256490612898509 0.036709636187546829 0 0.0012642365413452043 0.03661986169763199 0 0.0012778823626414947 0.03670488504782924 0 0.0012886732926317031 0.03658831379323603 0 0.0012642365413452043 0.03661986169763199 0 0.0012778823626414947 0.03670488504782924 0 0.0013267023396257519 0.036675682380889384 0 0.0012778823626414947 0.03670488504782924 0 0.0012995435819582251 0.03684402667515696 0 0.0012886732926317031 0.03658831379323603 0 0.0013267023396257519 0.036675682380889384 0 0.0012778823626414947 0.03670488504782924 0 0.0013592119136304657 0.036798876945651399 0 0.0012995435819582251 0.03684402667515696 0 0.0013223170387621117 0.037001588682765832 0 0.0013267023396257519 0.036675682380889384 0 0.0013592119136304657 0.036798876945651399 0 0.0012995435819582251 0.03684402667515696 0 0.0012995435819582251 0.03684402667515696 0 0.001300593170609681 0.037057634739360426 0 0.0012458304905082994 0.036938598433886256 0 0.0012995435819582251 0.03684402667515696 0 0.001300593170609681 0.037057634739360426 0 0.0013223170387621117 0.037001588682765832 0 0.0012458304905082994 0.036938598433886256 0 0.0012311474653996849 0.036805364631139044 0 0.0011523569672494387 0.036865192040477751 0 0.0012778823626414947 0.03670488504782924 0 0.0012995435819582251 0.03684402667515696 0 0.0012311474653996849 0.036805364631139044 0 0.0012995435819582251 0.03684402667515696 0 0.0012458304905082994 0.036938598433886256 0 0.0012311474653996849 0.036805364631139044 0 0.0012256490612898509 0.036709636187546829 0 0.0012778823626414947 0.03670488504782924 0 0.0012311474653996849 0.036805364631139044 0 0.0011498671379748121 0.036769178765427006 0 0.0012311474653996849 0.036805364631139044 0 0.0011523569672494387 0.036865192040477751 0 0.0010310653406810683 0.036823188613064335 0 0.0011523569672494387 0.036865192040477751 0 0.001016550465850002 0.036921156099653255 0 0.0011523569672494387 0.036865192040477751 0 0.0011731122227351526 0.036962658208481929 0 0.001016550465850002 0.036921156099653255 0 0.0012458304905082994 0.036938598433886256 0 0.0011523569672494387 0.036865192040477751 0 0.0011731122227351526 0.036962658208481929 0 0.0012458304905082994 0.036938598433886256 0 0.0011731122227351526 0.036962658208481929 0 0.0012329509688093923 0.03712518842019992 0 0.001300593170609681 0.037057634739360426 0 0.0012458304905082994 0.036938598433886256 0 0.0012329509688093923 0.03712518842019992 0 0.0011731122227351526 0.036962658208481929 0 0.0012329509688093923 0.03712518842019992 0 0.001016550465850002 0.036921156099653255 0 0.0012329509688093923 0.03712518842019992 0 0.0009781897743047106 0.037132806363575389 0 0.001016550465850002 0.036921156099653255 0 0.0009781897743047106 0.037132806363575389 0 0.00081800467931234043 0.036940913037781596 0 0.001016550465850002 0.036921156099653255 0 0.00081800467931234043 0.036940913037781596 0 0.001016550465850002 0.036921156099653255 0 0.00084194166003717815 0.036881722783940397 0 0.00081800467931234043 0.036940913037781596 0 0.00084194166003717815 0.036881722783940397 0 0.0007537517221462872 0.036869948377286001 0 0.00088189470105316217 0.03686142920074531 0 0.0010310653406810683 0.036823188613064335 0 0.001016550465850002 0.036921156099653255 0 0.00088189470105316217 0.03686142920074531 0 0.001016550465850002 0.036921156099653255 0 0.00084194166003717815 0.036881722783940397 0 0.00088189470105316217 0.03686142920074531 0 0.00084194166003717815 0.036881722783940397 0 0.00076917857486356032 0.036867119744382809 0 0.0013848831491416033 0.037530428952440534 0 0.0014885034575686483 0.039397726337204515 0 0.00047603024710595718 0.038344460253812336 0 0.0013848831491416033 0.037530428952440534 0 0.00070705262056842565 0.037496517150906919 0 0.00047603024710595718 0.038344460253812336 0 0.0012329509688093923 0.03712518842019992 0 0.0009781897743047106 0.037132806363575389 0 0.0013848831491416033 0.037530428952440534 0 0.0009781897743047106 0.037132806363575389 0 0.0013848831491416033 0.037530428952440534 0 0.00070705262056842565 0.037496517150906919 0 0.001300593170609681 0.037057634739360426 0 0.0012329509688093923 0.03712518842019992 0 0.0013747263272814577 0.037197490421909167 0 0.0012329509688093923 0.03712518842019992 0 0.0013848831491416033 0.037530428952440534 0 0.0013747263272814577 0.037197490421909167 0 0.0013848831491416033 0.037530428952440534 0 0.0014585521595035654 0.037038453569734314 0 0.0013747263272814577 0.037197490421909167 0 0.0014269967104324343 0.03750619187318463 0 0.0019648868187065807 0.037906915611455635 0 0.0013848831491416033 0.037530428952440534 0 0.0024913402660248041 0.0387284255385471 0 0.0014885034575686483 0.039397726337204515 0 0.0014585521595035654 0.037038453569734314 0 0.0013436442297472986 0.03705776371905492 0 0.0013785438147288034 0.036919051116797108 0 0.0014585521595035654 0.037038453569734314 0 0.0013747263272814577 0.037197490421909167 0 0.0013436442297472986 0.03705776371905492 0 0.0013747263272814577 0.037197490421909167 0 0.0013223170387621117 0.037001588682765832 0 0.0013436442297472986 0.03705776371905492 0 0.001300593170609681 0.037057634739360426 0 0.0013747263272814577 0.037197490421909167 0 0.0013223170387621117 0.037001588682765832 0 0.0013223170387621117 0.037001588682765832 0 0.0013192284028297741 0.037013134789309218 0 0.0013436442297472986 0.03705776371905492 0 0.0013592119136304657 0.036798876945651399 0 0.0013223170387621117 0.037001588682765832 0 0.0013336239545319341 0.037000216191613561 0 0.0013223170387621117 0.037001588682765832 0 0.0013192284028297741 0.037013134789309218 0 0.0013336239545319341 0.037000216191613561 0 0.0013192284028297741 0.037013134789309218 0 0.0013436442297472986 0.03705776371905492 0 0.0013785438147288034 0.036919051116797108 0 0.0013192284028297741 0.037013134789309218 0 0.0013785438147288034 0.036919051116797108 0 0.0012504698172333885 0.036938029687583258 0 0.0013785438147288034 0.036919051116797108 0 0.0012504698172333885 0.036938029687583258 0 0.0012647600783801454 0.036650832673302963 0 0.0013785438147288034 0.036919051116797108 0 0.0014885348539041079 0.036710785658462086 0 0.0012647600783801454 0.036650832673302963 0 0.0032457830453665325 0.039746730426178649 0 0.0030048776471538405 0.040798449740679844 0 0.0038007609493902498 0.040507975220613897 0 0.0022455598995912286 0.038030554919171386 0 0.0028517362822352735 0.039424465974258957 0 0.0014885348539041079 0.036710785658462086 0 0.0012647600783801454 0.036650832673302963 0 0.0013542074411836199 0.036255313506390177 0 0.0032457830453665325 0.039746730426178649 0 0.002560175533467332 0.040152383272178183 0 0.0030048776471538405 0.040798449740679844 0 0.0019648868187065807 0.037906915611455635 0 0.0022455598995912286 0.038030554919171386 0 0.0024913402660248041 0.0387284255385471 0 0.0032457830453665325 0.039746730426178649 0 0.002560175533467332 0.040152383272178183 0 0.0014585521595035654 0.037038453569734314 0 0.0013785438147288034 0.036919051116797108 0 0.0014885348539041079 0.036710785658462086 0 0.0024913402660248041 0.0387284255385471 0 0.002560175533467332 0.040152383272178183 0 0.0014885034575686483 0.039397726337204515 0 0.0017820194237249697 0.040286820738486009 0 0.002560175533467332 0.040152383272178183 0 0.0023518668557150468 0.041149156767895212 0 0.0017820194237249697 0.040286820738486009 0 0.002560175533467332 0.040152383272178183 0 0.0014885034575686483 0.039397726337204515 0 0.0011003177855133063 0.040461480428194682 0 0.0014885034575686483 0.039397726337204515 0 0.00055034685829790655 0.039734069846350986 0 0.0017820194237249697 0.040286820738486009 0 0.0011003177855133063 0.040461480428194682 0 0.0014885034575686483 0.039397726337204515 0 0.0017820194237249697 0.040286820738486009 0 0.0011003177855133063 0.040461480428194682 0 0.0015947923694535438 0.041203362989653512 0 0.0014870594242973323 0.030119389344716554 0 0.000598844272290348 0.030321901974917059 0 0.0011597101899032392 0.029490087092125791 0 0.0014870594242973323 0.030119389344716554 0 0.0011597101899032392 0.029490087092125791 0 0.001675844968641319 0.029628696065180506 0 0.0015270369877825407 0.033642930858272392 0 -0.0001313727712755312 0.027816218307710201 0 -0.0014610000842299024 0.020042966532962767 0 -0.00088232752549404056 0.021288199959107461 0 -0.00016233157995158078 0.02020738635018722 0 -0.0001313727712755312 0.027816218307710201 0 0.00073769757112642496 0.023870879923810085 0 0.0013933963426900073 0.036449573861673357 0 0.0013570548589345204 0.036510862849466093 0 0.00141217673940301 0.036430167428444321 0 0.0014330687124085367 0.036378196076981451 0 0.0013933963426900073 0.036449573861673357 0 0.00141217673940301 0.036430167428444321 0 -0.00046599486116919255 0.017969372778644209 0 -0.0001313727712755312 0.027816218307710201 0 -8.2098624647252338e-05 0.026562404172097709 0 -0.0001313727712755312 0.027816218307710201 0 0.0013933963426900073 0.036449573861673357 0 0.0013570548589345204 0.036510862849466093 0 0.0013518659079980852 0.03653099539435907 0 0.0013379156021945358 0.036629103472811522 0 0.0013518659079980852 0.03653099539435907 0 0.0013493487902102863 0.036549256863082094 0 0.0013570548589345204 0.036510862849466093 0 0.0013518659079980852 0.03653099539435907 0 0.0013493487902102863 0.036549256863082094 0 0.0013379156021945358 0.036629103472811522 0 0.0013493487902102863 0.036549256863082094 0 0.0013709860833477153 0.036584210601946304 0 0.0013018221928955663 0.036694348615753318 0 0.0014827451806203665 0.037047335413046098 0 0.0013493487902102863 0.036549256863082094 0 0.0013709860833477153 0.036584210601946304 0 0.0013600186593405686 0.036520977591023046 0 0.0013192284028297741 0.037013134789309218 0 0.0013336239545319341 0.037000216191613561 0 0.0012504698172333885 0.036938029687583258 0 0.0013336239545319341 0.037000216191613561 0 0.0012455708718592548 0.036940394752972262 0 0.0012504698172333885 0.036938029687583258 0 0.0014827451806203665 0.037047335413046098 0 0.0017897120800882049 0.034544161659615963 0 0.0017897120800882049 0.034544161659615963 0 0.0008490425060629107 0.036368001209950429 0 0.0010206243914637728 0.036994030768742296 0 0.0012504698172333885 0.036938029687583258 0 0.0010917389889009877 0.036752202738779882 0 0.0015270369877825407 0.033642930858272392 0 0.0017897120800882049 0.034544161659615963 0 0.0013570548589345204 0.036510862849466093 0 0.0013493487902102863 0.036549256863082094 0 0.0013600186593405686 0.036520977591023046 0 0.0014870594242973323 0.030119389344716554 0 0.0023992208339891248 0.029919172528897139 0 0.001675844968641319 0.029628696065180506 0 0.002066713660953809 0.02926917483379967 0 0.0017255283620139898 0.028627088603052225 0 0.001675844968641319 0.029628696065180506 0 0.0023992208339891248 0.029919172528897139 0 0.002066713660953809 0.02926917483379967 0 0.001675844968641319 0.029628696065180506 0 0.0017897120800882049 0.034544161659615963 0 0.0017277740088726336 0.03343971904085738 0 0.0010206243914637728 0.036994030768742296 0 0.00084333440699938737 0.036686058940927212 0 0.0010917389889009877 0.036752202738779882 0 0.0012504698172333885 0.036938029687583258 0 0.0010917389889009877 0.036752202738779882 0 0.0012647600783801454 0.036650832673302963 0 0.0010917389889009877 0.036752202738779882 0 0.0012647600783801454 0.036650832673302963 0 0.0010452285471135576 0.036497614286192172 0 0.00084333440699938737 0.036686058940927212 0 0.0010917389889009877 0.036752202738779882 0 0.0010452285471135576 0.036497614286192172 0 0.0012647600783801454 0.036650832673302963 0 0.0011610431513376228 0.036347640350715561 0 0.0013542074411836199 0.036255313506390177 0 0.0012647600783801454 0.036650832673302963 0 0.0010452285471135576 0.036497614286192172 0 0.0011610431513376228 0.036347640350715561 0 0.0010452285471135576 0.036497614286192172 0 0.0010125194989324031 0.03622670881690486 0 0.0011610431513376228 0.036347640350715561 0 0.00084333440699938737 0.036686058940927212 0 0.00086798865562073856 0.036298166352553507 0 0.00066184423414007633 0.036326352182141197 0 0.00084333440699938737 0.036686058940927212 0 0.0010452285471135576 0.036497614286192172 0 0.00086798865562073856 0.036298166352553507 0 0.0017277740088726336 0.03343971904085738 0 0.0013356563835635606 0.027499691940120634 0 0.00086798865562073856 0.036298166352553507 0 0.00081711662440713635 0.036091932992560742 0 0.00092713406784294581 0.036168149804185173 0 0.0010452285471135576 0.036497614286192172 0 0.0010125194989324031 0.03622670881690486 0 0.00086798865562073856 0.036298166352553507 0 0.0010125194989324031 0.03622670881690486 0 0.00086798865562073856 0.036298166352553507 0 0.00092713406784294581 0.036168149804185173 0 0.0013356563835635606 0.027499691940120634 0 0.0022044628214411954 0.026392851031779244 0 0.0014522263888668335 0.02515246699839517 0 0.00088370877607047815 0.024085717542945983 0 0.0022215814189757302 0.023985965316610205 0 0.00086798865562073856 0.036298166352553507 0 0.00066184423414007633 0.036326352182141197 0 0.00081711662440713635 0.036091932992560742 0 0.00054812227989581525 0.019160010243229789 0 -0.00017984643719494195 0.019214064227296261 0 -0.00016233157995158078 0.02020738635018722 0 0.00054812227989581525 0.019160010243229789 0 -0.00017984643719494195 0.019214064227296261 0 0.00026931212637021433 0.018621172230878009 0 -0.00017984643719494195 0.019214064227296261 0 -0.00064589898678663819 0.018650827451789965 0 0.00026931212637021433 0.018621172230878009 0 0.0013356563835635606 0.027499691940120634 0 0.0005605693842906102 0.01947900490210849 0 0.0017255283620139898 0.028627088603052225 0 0.0011597101899032392 0.029490087092125791 0 0.001675844968641319 0.029628696065180506 0 0.0013356563835635606 0.027499691940120634 0 0.00073769757112642496 0.023870879923810085 0 -0.00017984643719494195 0.019214064227296261 0 -0.00016233157995158078 0.02020738635018722 0 -0.00087240089554171149 0.019403405939258305 0 -0.0014610000842299024 0.020042966532962767 0 -0.00016233157995158078 0.02020738635018722 0 -0.00087240089554171149 0.019403405939258305 0 -0.0015720025292290769 0.018676886118623753 0 -0.00087240089554171149 0.019403405939258305 0 -0.00064589898678663819 0.018650827451789965 0 -0.00017984643719494195 0.019214064227296261 0 -0.00087240089554171149 0.019403405939258305 0 -0.00064589898678663819 0.018650827451789965 0 -0.0011931537980374145 0.011872423128072527 0 -0.00056469915931170532 0.017508335787338101 0 -0.00027719555278365977 0.016301968315375157 0 -0.00039646210287603103 0.015792257760958057 0 -0.00084328081802393002 0.01573558434184244 0 -0.00027719555278365977 0.016301968315375157 0 8.7309058332467532e-05 0.0158478978568161 0 -0.00039646210287603103 0.015792257760958057 0 8.7309058332467532e-05 0.0158478978568161 0 -0.00027704681622226331 0.015390580620077471 0 0.00022611851785922185 0.015277002828292295 0 8.7309058332467532e-05 0.0158478978568161 0 -0.00039646210287603103 0.015792257760958057 0 -0.00027704681622226331 0.015390580620077471 0 -0.00039646210287603103 0.015792257760958057 0 -0.00062078955806428484 0.015452729662399146 0 -0.00027704681622226331 0.015390580620077471 0 -0.00039646210287603103 0.015792257760958057 0 -0.00062078955806428484 0.015452729662399146 0 -0.00084328081802393002 0.01573558434184244 0 -0.00034574009080106234 0.014928659826660976 0 0.00022611851785922185 0.015277002828292295 0 -0.0001920676544187415 0.014415192139949854 0 0.00024651418176342146 0.015600410172284427 0 -0.00012119887664238359 0.014706235948182782 0 0.00042912985511588516 0.016491276526912752 0 -0.0001920676544187415 0.014415192139949854 0 0.00040516570446785279 0.014624010305406537 0 -0.00062731954169060035 0.015110124981841324 0 -0.00027704681622226331 0.015390580620077471 0 -0.00034574009080106234 0.014928659826660976 0 -0.00062731954169060035 0.015110124981841324 0 -0.00072167929881131502 0.01482740153215494 0 -0.00097851919406400116 0.015091151125992316 0 -0.00062078955806428484 0.015452729662399146 0 -0.00062731954169060035 0.015110124981841324 0 -0.00097851919406400116 0.015091151125992316 0 -0.00062078955806428484 0.015452729662399146 0 -0.00062731954169060035 0.015110124981841324 0 -0.00027704681622226331 0.015390580620077471 0 -0.00027704681622226331 0.015390580620077471 0 -0.00034574009080106234 0.014928659826660976 0 0.00022611851785922185 0.015277002828292295 0 -0.00050931502003752078 0.014649292338030594 0 -0.00034574009080106234 0.014928659826660976 0 -0.0001920676544187415 0.014415192139949854 0 -0.00050931502003752078 0.014649292338030594 0 -0.00072167929881131502 0.01482740153215494 0 -0.00088345734138610573 0.014457180620574321 0 -0.00062731954169060035 0.015110124981841324 0 -0.00072167929881131502 0.01482740153215494 0 -0.00034574009080106234 0.014928659826660976 0 -0.00050931502003752078 0.014649292338030594 0 -0.00072167929881131502 0.01482740153215494 0 -0.00034574009080106234 0.014928659826660976 0 0.002225789459296659 0.01857398475916007 0 0.00055445770285433079 0.014081930246126469 0 0.0014180569691618207 0.015964331583540443 0 0.0035586673096261977 0.015853102619535025 0 0.00040516570446785279 0.014624010305406537 0 0.0026039527384100845 0.015215810942114105 0 0.0017012224886660263 0.01462123223494315 0 0.00052623950698290115 0.014392238480623881 0 0.00042912985511588516 0.016491276526912752 0 0.0014180569691618207 0.015964331583540443 0 0.00040516570446785279 0.014624010305406537 0 0.00042912985511588516 0.016491276526912752 0 0.0014431047934276233 0.016819243913511313 0 0.0014180569691618207 0.015964331583540443 0 8.7309058332467532e-05 0.0158478978568161 0 0.00022611851785922185 0.015277002828292295 0 0.00073964063009203894 0.016236497835574654 0 0.00042912985511588516 0.016491276526912752 0 0.0014431047934276233 0.016819243913511313 0 0.0015015987796441295 0.018643601078280943 0 -0.00027719555278365977 0.016301968315375157 0 8.7309058332467532e-05 0.0158478978568161 0 0.00073964063009203894 0.016236497835574654 0 0.00024651418176342146 0.015600410172284427 0 0.0005605693842906102 0.01947900490210849 0 -0.00056469915931170532 0.017508335787338101 0 0.0005605693842906102 0.01947900490210849 0 0.0014431047934276233 0.016819243913511313 0 0.0015015987796441295 0.018643601078280943 0 0.0022428232751837839 0.017642787365366279 0 0.0005605693842906102 0.01947900490210849 0 0.0022044628214411954 0.026392851031779244 0 0.0015015987796441295 0.018643601078280943 0 0.0030163232582336593 0.018494257051840164 0 0.0022428232751837839 0.017642787365366279 0 0.00081711662440713635 0.036091932992560742 0 0.00099057796898733685 0.036090637717939557 0 0.0010141825003856411 0.035975286362020721 0 0.00081711662440713635 0.036091932992560742 0 0.00092713406784294581 0.036168149804185173 0 0.00099057796898733685 0.036090637717939557 0 0.0010125194989324031 0.03622670881690486 0 0.00092713406784294581 0.036168149804185173 0 0.00099057796898733685 0.036090637717939557 0 0.00081711662440713635 0.036091932992560742 0 0.0010141825003856411 0.035975286362020721 0 0.0010480734817545109 0.035739651133414305 0 0.0030163232582336593 0.018494257051840164 0 0.0029346975254166108 0.017355773623352572 0 0.0040602432879387014 0.016883732414166651 0 0.0022044628214411954 0.026392851031779244 0 0.0037753004531126872 0.030894827429888427 0 0.0029346975254166108 0.017355773623352572 0 0.0022428232751837839 0.017642787365366279 0 0.0026204013590401241 0.016953234832397832 0 0.0014431047934276233 0.016819243913511313 0 0.0022428232751837839 0.017642787365366279 0 0.0026204013590401241 0.016953234832397832 0 0.0030163232582336593 0.018494257051840164 0 0.0029346975254166108 0.017355773623352572 0 0.0022428232751837839 0.017642787365366279 0 0.0041240425395902185 0.040868376929539964 0 0.0038007609493902498 0.040507975220613897 0 0.0036775343111828097 0.040862865453903746 0 0.0011158983797327456 0.036074512274260243 0 0.0010480734817545109 0.035739651133414305 0 0.0013542074411836199 0.036255313506390177 0 0.0037753004531126872 0.030894827429888427 0 0.0028517362822352735 0.039424465974258957 0 0.0011610431513376228 0.036347640350715561 0 0.0011158983797327456 0.036074512274260243 0 0.0013542074411836199 0.036255313506390177 0 0.0010125194989324031 0.03622670881690486 0 0.0011610431513376228 0.036347640350715561 0 0.0011158983797327456 0.036074512274260243 0 0.0010125194989324031 0.03622670881690486 0 0.0011158983797327456 0.036074512274260243 0 0.00099057796898733685 0.036090637717939557 0 0.0011158983797327456 0.036074512274260243 0 0.00099057796898733685 0.036090637717939557 0 0.0010141825003856411 0.035975286362020721 0 0.0011158983797327456 0.036074512274260243 0 0.0010141825003856411 0.035975286362020721 0 0.0010480734817545109 0.035739651133414305 0 0.0041240425395902185 0.040868376929539964 0 0.0040894616698390002 0.04091680444983882 0 0.0036775343111828097 0.040862865453903746 0 0.0038445265611039667 0.033243620864279726 0 0.0043374234370701543 0.041418157464396609 0 0.0042555816347563877 0.041548260889245341 0 0.0048477767394934784 0.041416212050376364 0 0.0039370346116261844 0.041126452887254888 0 0.0037753004531126872 0.030894827429888427 0 0.0038445265611039667 0.033243620864279726 0 0.0046653629554724409 0.030755787789807199 0 0.0055481438773255171 0.029419740396989309 0 0.0021847558862247776 0.028030508488201922 0 0.0038445265611039667 0.033243620864279726 0 0.0027669388802271698 0.024410016316752985 0 0.0036172273329015889 0.027100095845223292 0 0.002225789459296659 0.01857398475916007 0 0.0025853635025910801 0.02574124673110886 0 0.0034057900117226937 0.025185121044165017 0 0.0035153844888895593 0.025299971586360277 0 0.0038445265611039667 0.033243620864279726 0 0.0036172273329015889 0.027100095845223292 0 0.003040756822229743 0.025050696433879058 0 0.0025853635025910801 0.02574124673110886 0 0.0034057900117226937 0.025185121044165017 0 0.0042555816347563877 0.041548260889245341 0 0.0048477767394934784 0.041416212050376364 0 0.0044887663711391992 0.041992358178827648 0 0.0014431047934276233 0.016819243913511313 0 0.0026204013590401241 0.016953234832397832 0 0.0034100213471720095 0.016161658595821849 0 0.0014431047934276233 0.016819243913511313 0 0.0014180569691618207 0.015964331583540443 0 0.0035586673096261977 0.015853102619535025 0 0.0023054957562966931 0.016363769863072138 0 0.002225789459296659 0.01857398475916007 0 0.0029346975254166108 0.017355773623352572 0 0.0026204013590401241 0.016953234832397832 0 0.0032134840376812409 0.016773070340496143 0 0.0029346975254166108 0.017355773623352572 0 0.0040602432879387014 0.016883732414166651 0 0.0032134840376812409 0.016773070340496143 0 0.0032134840376812409 0.016773070340496143 0 0.00359049855014553 0.016365756163001455 0 0.0034100213471720095 0.016161658595821849 0 0.0037753004531126872 0.030894827429888427 0 0.0027669388802271698 0.024410016316752985 0 0.0040602432879387014 0.016883732414166651 0 0.0032134840376812409 0.016773070340496143 0 0.00359049855014553 0.016365756163001455 0 0.0026204013590401241 0.016953234832397832 0 0.0032134840376812409 0.016773070340496143 0 0.0034100213471720095 0.016161658595821849 0 0.0027669388802271698 0.024410016316752985 0 0.002225789459296659 0.01857398475916007 0 0.0028530174287420946 0.013130954340914497 0 0.0029547805778559898 0.012494043638904684 0 0.0020447162556385865 0.012858017910797484 0 0.002225789459296659 0.01857398475916007 0 0.001482847948003212 0.012565079060187391 0 0.002744191976400575 0.013777939516627112 0 0.0028530174287420946 0.013130954340914497 0 0.0020447162556385865 0.012858017910797484 0 0.0026039527384100845 0.015215810942114105 0 0.0017012224886660263 0.01462123223494315 0 0.00117972953613334 0.013614527761610484 0 0.0033534905139183165 0.013503463652335318 0 0.0028530174287420946 0.013130954340914497 0 0.0029547805778559898 0.012494043638904684 0 0.0033534905139183165 0.013503463652335318 0 0.0029547805778559898 0.012494043638904684 0 0.0038921789803427111 0.012558539020005326 0 0.0033534905139183165 0.013503463652335318 0 0.002744191976400575 0.013777939516627112 0 0.0028530174287420946 0.013130954340914497 0 0.0029547805778559898 0.012494043638904684 0 0.0038921789803427111 0.012558539020005326 0 0.0031151563455514035 0.011481396742996692 0 0.0029547805778559898 0.012494043638904684 0 0.0020447162556385865 0.012858017910797484 0 0.0024061466013919814 0.011778765144487426 0 0.001482847948003212 0.012565079060187391 0 0.00062845787401648767 0.012210977586572013 0 0.0020447162556385865 0.012858017910797484 0 0.0013983215759492272 0.011959589436655201 0 0.0024061466013919814 0.011778765144487426 0 4.101842080234223e-05 0.013356175882179072 0 -0.00018040882971989829 0.012188472043646413 0 -0.0012942363954355715 0.013566441996424925 0 4.101842080234223e-05 0.013356175882179072 0 0.00117972953613334 0.013614527761610484 0 -0.00018040882971989829 0.012188472043646413 0 4.101842080234223e-05 0.013356175882179072 0 0.00052623950698290115 0.014392238480623881 0 -0.0012942363954355715 0.013566441996424925 0 0.00055445770285433079 0.014081930246126469 0 -0.0012372299954825656 0.013737389621064109 0 -0.0001920676544187415 0.014415192139949854 0 0.00040516570446785279 0.014624010305406537 0 -0.0012942363954355715 0.013566441996424925 0 -0.0001920676544187415 0.014415192139949854 0 -0.00088345734138610573 0.014457180620574321 0 -0.0012942363954355715 0.013566441996424925 0 -0.00050931502003752078 0.014649292338030594 0 -0.0001920676544187415 0.014415192139949854 0 -0.00088345734138610573 0.014457180620574321 0 0.0017012224886660263 0.01462123223494315 0 0.00052623950698290115 0.014392238480623881 0 0.00117972953613334 0.013614527761610484 0 4.101842080234223e-05 0.013356175882179072 0 0.00052623950698290115 0.014392238480623881 0 0.00117972953613334 0.013614527761610484 0 0.001181123129766094 0.04196930390109567 0 0.0015947923694535438 0.041203362989653512 0 0.0021996706378950206 0.042052735031476433 0 0.001181123129766094 0.04196930390109567 0 0.0021996706378950206 0.042052735031476433 0 0.0015443173126986445 0.042667309843018641 0 0.001181123129766094 0.04196930390109567 0 0.0015947923694535438 0.041203362989653512 0 0.00070435801893636754 0.041343099349884116 0 0.0011003177855133063 0.040461480428194682 0 0.0015947923694535438 0.041203362989653512 0 0.00070435801893636754 0.041343099349884116 0 0.0017820194237249697 0.040286820738486009 0 0.0015947923694535438 0.041203362989653512 0 0.0023518668557150468 0.041149156767895212 0 0.0023518668557150468 0.041149156767895212 0 0.0021996706378950206 0.042052735031476433 0 0.0030894677777007439 0.041574805320318063 0 0.0015947923694535438 0.041203362989653512 0 0.0023518668557150468 0.041149156767895212 0 0.0021996706378950206 0.042052735031476433 0 0.0021996706378950206 0.042052735031476433 0 0.0030894677777007439 0.041574805320318063 0 0.0033105377791046104 0.042614138045882134 0 0.0030894677777007439 0.041574805320318063 0 0.0030048776471538405 0.040798449740679844 0 0.0039370346116261844 0.041126452887254888 0 0.002560175533467332 0.040152383272178183 0 0.0023518668557150468 0.041149156767895212 0 0.0030048776471538405 0.040798449740679844 0 0.0023518668557150468 0.041149156767895212 0 0.0030894677777007439 0.041574805320318063 0 0.0030048776471538405 0.040798449740679844 0 0.0028685638196764719 0.040692598585088946 0 0.0043374234370701543 0.041418157464396609 0 0.0030048776471538405 0.040798449740679844 0 0.0038007609493902498 0.040507975220613897 0 0.0036775343111828097 0.040862865453903746 0 0.0042555816347563877 0.041548260889245341 0 0.0039370346116261844 0.041126452887254888 0 0.003781628779393319 0.04171612523528067 0 0.0030894677777007439 0.041574805320318063 0 0.0039370346116261844 0.041126452887254888 0 0.003781628779393319 0.04171612523528067 0 0.0030894677777007439 0.041574805320318063 0 0.003781628779393319 0.04171612523528067 0 0.0033105377791046104 0.042614138045882134 0 0.0042555816347563877 0.041548260889245341 0 0.0044887663711391992 0.041992358178827648 0 0.003781628779393319 0.04171612523528067 0 0.0036172273329015889 0.027100095845223292 0 0.0040928530477441476 0.019602457910893656 0 0.0044887663711391992 0.041992358178827648 0 0.003781628779393319 0.04171612523528067 0 0.0033105377791046104 0.042614138045882134 0 0.0036172273329015889 0.027100095845223292 0 0.0032252375660188582 0.03675312877708807 0 0.0036784227627762664 0.028957911189056801 0 0.0036694727927615877 0.028956009326999963 0 0.0036710783001480006 0.02899821298428901 0 0.0036863833981485216 0.028985767230467762 0 0.0037216676768825874 0.029053705509047373 0 0.0036817919379863485 0.02889978920148261 0 0.0036863833981485216 0.028985767230467762 0 0.0036710783001480006 0.02899821298428901 0 0.0037216676768825874 0.029053705509047373 0 0.0036694727927615877 0.028956009326999963 0 0.0036863833981485216 0.028985767230467762 0 0.0036710783001480006 0.02899821298428901 0 0.0036694727927615877 0.028956009326999963 0 0.0036863833981485216 0.028985767230467762 0 0.0036817919379863485 0.02889978920148261 0 0.0032252375660188582 0.03675312877708807 0 0.0029704347496455064 0.036032242584971737 0 0.0021996706378950206 0.042052735031476433 0 0.0033105377791046104 0.042614138045882134 0 0.0021299816340838709 0.043185926449368549 0 0.0021996706378950206 0.042052735031476433 0 0.0021299816340838709 0.043185926449368549 0 0.0015443173126986445 0.042667309843018641 0 0.0037216676768825874 0.029053705509047373 0 0.0038206417323687638 0.029092802898355537 0 0.0037565281120438541 0.02895455270693385 0 0.0029704347496455064 0.036032242584971737 0 0.0026116271758734864 0.036120631667054814 0 0.0021299816340838709 0.043185926449368549 0 0.000991692861022536 0.043658227352716704 0 0.0015443173126986445 0.042667309843018641 0 0.000991692861022536 0.043658227352716704 0 0.0015443173126986445 0.042667309843018641 0 0.0007739988539432975 0.042723543730844825 0 0.001181123129766094 0.04196930390109567 0 0.0015443173126986445 0.042667309843018641 0 0.0007739988539432975 0.042723543730844825 0 0.0038206417323687638 0.029092802898355537 0 0.0037565281120438541 0.02895455270693385 0 0.0038865220224298357 0.028900650281748409 0 0.0037565281120438541 0.02895455270693385 0 0.003722999938939629 0.028799535847078186 0 0.0038865220224298357 0.028900650281748409 0 0.0037216676768825874 0.029053705509047373 0 0.0037565281120438541 0.02895455270693385 0 0.0036817919379863485 0.02889978920148261 0 0.0037565281120438541 0.02895455270693385 0 0.0036817919379863485 0.02889978920148261 0 0.003722999938939629 0.028799535847078186 0 0.0043499892611783683 0.011703180630067015 0 0.0041184472634720661 0.010829472532230409 0 0.0047768147358423123 0.01095038573035741 0 0.0037417700656745688 0.020845477731803824 0 0.0049922131879594402 0.018289854142931175 0 0.0043499892611783683 0.011703180630067015 0 0.0037799527498632315 0.011435760868117727 0 0.0041184472634720661 0.010829472532230409 0 0.0040928530477441476 0.019602457910893656 0 0.0037417700656745688 0.020845477731803824 0 0.0038921789803427111 0.012558539020005326 0 0.0043499892611783683 0.011703180630067015 0 0.0037799527498632315 0.011435760868117727 0 0.0038921789803427111 0.012558539020005326 0 0.0037799527498632315 0.011435760868117727 0 0.0031151563455514035 0.011481396742996692 0 0.0037799527498632315 0.011435760868117727 0 0.0041184472634720661 0.010829472532230409 0 0.0034060970987592771 0.010677907896462509 0 0.003874569594764175 0.010096406305548108 0 0.0041184472634720661 0.010829472532230409 0 0.0034060970987592771 0.010677907896462509 0 0.003874569594764175 0.010096406305548108 0 0.0033146893527535044 0.010032843544070153 0 0.003621741003592774 0.0094713614870882527 0 0.003874569594764175 0.010096406305548108 0 0.0034060970987592771 0.010677907896462509 0 0.0033146893527535044 0.010032843544070153 0 0.003874569594764175 0.010096406305548108 0 0.0045097169836171343 0.010199053184569261 0 0.0041740573601767644 0.0095219985561245789 0 0.003874569594764175 0.010096406305548108 0 0.0045097169836171343 0.010199053184569261 0 0.0041184472634720661 0.010829472532230409 0 0.0045097169836171343 0.010199053184569261 0 0.0041184472634720661 0.010829472532230409 0 0.0047768147358423123 0.01095038573035741 0 0.0045097169836171343 0.010199053184569261 0 0.0047768147358423123 0.01095038573035741 0 0.0052339338122204034 0.010285219047839094 0 0.0049922131879594402 0.018289854142931175 0 0.0021775398726666412 0.027125059889784905 0 0.0021775398726666412 0.027125059889784905 0 0.00059318154240140853 0.016356699195259297 0 0.0045097169836171343 0.010199053184569261 0 0.0052339338122204034 0.010285219047839094 0 0.0048339052798690701 0.0095931974161747868 0 0.0020055743632241226 0.041809338934905071 0 0.0015420885217564699 0.041891662720424626 0 0.0017527052863836139 0.042512115585057374 0 0.003722999938939629 0.028799535847078186 0 0.0037917651615361997 0.028676352556762295 0 0.0038865220224298357 0.028900650281748409 0 0.0021775398726666412 0.027125059889784905 0 0.0032379246607967477 0.036143440543690446 0 0.002041773673540082 0.011087808450959436 0 0.0026728938566953522 0.010930053073607959 0 0.0022333287415166559 0.010447563804012346 0 0.002041773673540082 0.011087808450959436 0 0.001798392479808013 0.010581437917901228 0 0.0022333287415166559 0.010447563804012346 0 0.002041773673540082 0.011087808450959436 0 0.0015097322367102087 0.010876155200415936 0 0.001798392479808013 0.010581437917901228 0 0.0015097322367102087 0.010876155200415936 0 0.0013983215759492272 0.011959589436655201 0 0.0010241660144323023 0.010801128614464783 0 0.0015097322367102087 0.010876155200415936 0 0.001798392479808013 0.010581437917901228 0 0.0014320829722966923 0.010391324216173652 0 0.0015097322367102087 0.010876155200415936 0 0.0011339606580583136 0.01052107580984143 0 0.0010241660144323023 0.010801128614464783 0 0.0015097322367102087 0.010876155200415936 0 0.0014320829722966923 0.010391324216173652 0 0.0011339606580583136 0.01052107580984143 0 0.002041773673540082 0.011087808450959436 0 0.0015097322367102087 0.010876155200415936 0 0.0013983215759492272 0.011959589436655201 0 0.002041773673540082 0.011087808450959436 0 0.0013983215759492272 0.011959589436655201 0 0.0024061466013919814 0.011778765144487426 0 0.0024061466013919814 0.011778765144487426 0 0.0031151563455514035 0.011481396742996692 0 0.0026728938566953522 0.010930053073607959 0 0.0029547805778559898 0.012494043638904684 0 0.0024061466013919814 0.011778765144487426 0 0.0031151563455514035 0.011481396742996692 0 0.0031151563455514035 0.011481396742996692 0 0.0026728938566953522 0.010930053073607959 0 0.0034060970987592771 0.010677907896462509 0 0.0037799527498632315 0.011435760868117727 0 0.0031151563455514035 0.011481396742996692 0 0.0034060970987592771 0.010677907896462509 0 0.002041773673540082 0.011087808450959436 0 0.0024061466013919814 0.011778765144487426 0 0.0026728938566953522 0.010930053073607959 0 0.0026728938566953522 0.010930053073607959 0 0.00279436638706645 0.010190043254068798 0 0.0022333287415166559 0.010447563804012346 0 0.00279436638706645 0.010190043254068798 0 0.0022019860736694689 0.0098912027171278519 0 0.0022333287415166559 0.010447563804012346 0 0.00279436638706645 0.010190043254068798 0 0.0034060970987592771 0.010677907896462509 0 0.0033146893527535044 0.010032843544070153 0 0.0026728938566953522 0.010930053073607959 0 0.00279436638706645 0.010190043254068798 0 0.0034060970987592771 0.010677907896462509 0 0.00279436638706645 0.010190043254068798 0 0.0033146893527535044 0.010032843544070153 0 0.0031163178182628108 0.0094525348850581711 0 0.00279436638706645 0.010190043254068798 0 0.0025702402432851105 0.0094319581561203569 0 0.0031163178182628108 0.0094525348850581711 0 0.00279436638706645 0.010190043254068798 0 0.0022019860736694689 0.0098912027171278519 0 0.0025702402432851105 0.0094319581561203569 0 0.0022019860736694689 0.0098912027171278519 0 0.0020108707840417561 0.0093397946136970882 0 0.0025702402432851105 0.0094319581561203569 0 0.0022019860736694689 0.0098912027171278519 0 0.001785062584188092 0.0097368898543074654 0 0.0020108707840417561 0.0093397946136970882 0 0.0022019860736694689 0.0098912027171278519 0 0.0017731578280254681 0.010128749873635783 0 0.001785062584188092 0.0097368898543074654 0 0.0022019860736694689 0.0098912027171278519 0 0.0022333287415166559 0.010447563804012346 0 0.0017731578280254681 0.010128749873635783 0 0.001798392479808013 0.010581437917901228 0 0.0022333287415166559 0.010447563804012346 0 0.0017731578280254681 0.010128749873635783 0 0.0014320829722966923 0.010391324216173652 0 0.001326185336745772 0.010088780761287504 0 0.0011604025982385087 0.010272416204284105 0 0.0014320829722966923 0.010391324216173652 0 0.0011604025982385087 0.010272416204284105 0 0.0011339606580583136 0.01052107580984143 0 0.001798392479808013 0.010581437917901228 0 0.0014320829722966923 0.010391324216173652 0 0.0017731578280254681 0.010128749873635783 0 0.0014320829722966923 0.010391324216173652 0 0.0017731578280254681 0.010128749873635783 0 0.001326185336745772 0.010088780761287504 0 0.0017731578280254681 0.010128749873635783 0 0.001326185336745772 0.010088780761287504 0 0.001395745859784832 0.0097691271131934987 0 0.0017731578280254681 0.010128749873635783 0 0.001395745859784832 0.0097691271131934987 0 0.001785062584188092 0.0097368898543074654 0 0.001395745859784832 0.0097691271131934987 0 0.001785062584188092 0.0097368898543074654 0 0.0015888452831469705 0.0094501314569488699 0 0.001785062584188092 0.0097368898543074654 0 0.0015888452831469705 0.0094501314569488699 0 0.0020108707840417561 0.0093397946136970882 0 0.001395745859784832 0.0097691271131934987 0 0.0015888452831469705 0.0094501314569488699 0 0.0011821840499068716 0.0093413405162963911 0 0.001395745859784832 0.0097691271131934987 0 0.00091797360406000914 0.009634776501836086 0 0.0011821840499068716 0.0093413405162963911 0 0.00091797360406000914 0.009634776501836086 0 0.00070147474802429127 0.0091944143196233154 0 0.0011821840499068716 0.0093413405162963911 0 0.001395745859784832 0.0097691271131934987 0 0.00091797360406000914 0.009634776501836086 0 0.0009947316475533304 0.010026574427543943 0 0.00049668413152680806 0.0096127368118347056 0 0.00014291342859325032 0.00928912499495947 0 0.00070147474802429127 0.0091944143196233154 0 0.00091797360406000914 0.009634776501836086 0 0.00049668413152680806 0.0096127368118347056 0 0.00070147474802429127 0.0091944143196233154 0 0.00091797360406000914 0.009634776501836086 0 0.00049668413152680806 0.0096127368118347056 0 0.00068719962844042003 0.0099177608478296497 0 0.00049668413152680806 0.0096127368118347056 0 7.9184899897042049e-05 0.0097388944846182515 0 0.00014291342859325032 0.00928912499495947 0 0.00049668413152680806 0.0096127368118347056 0 0.00040685091480004322 0.010014919907845452 0 7.9184899897042049e-05 0.0097388944846182515 0 0.00049668413152680806 0.0096127368118347056 0 0.00040685091480004322 0.010014919907845452 0 0.00068719962844042003 0.0099177608478296497 0 0.00040685091480004322 0.010014919907845452 0 0.00063569935735805991 0.010285366270800357 0 0.00041946509220334993 0.010311730425651118 0 0.00040685091480004322 0.010014919907845452 0 0.00068719962844042003 0.0099177608478296497 0 0.00063569935735805991 0.010285366270800357 0 0.00040685091480004322 0.010014919907845452 0 7.9054103421504344e-05 0.010183223920099757 0 7.9184899897042049e-05 0.0097388944846182515 0 0.00040685091480004322 0.010014919907845452 0 0.00041946509220334993 0.010311730425651118 0 7.9054103421504344e-05 0.010183223920099757 0 0.001326185336745772 0.010088780761287504 0 0.001395745859784832 0.0097691271131934987 0 0.0009947316475533304 0.010026574427543943 0 0.001326185336745772 0.010088780761287504 0 0.0009947316475533304 0.010026574427543943 0 0.0011604025982385087 0.010272416204284105 0 0.00091797360406000914 0.009634776501836086 0 0.00068719962844042003 0.0099177608478296497 0 0.0009947316475533304 0.010026574427543943 0 0.00068719962844042003 0.0099177608478296497 0 0.00063569935735805991 0.010285366270800357 0 0.0009947316475533304 0.010026574427543943 0 0.00063569935735805991 0.010285366270800357 0 0.00093114647071375215 0.010343654260243017 0 0.00084761080437574391 0.010560743593260969 0 0.00063569935735805991 0.010285366270800357 0 0.0009947316475533304 0.010026574427543943 0 0.00093114647071375215 0.010343654260243017 0 0.0009947316475533304 0.010026574427543943 0 0.00093114647071375215 0.010343654260243017 0 0.0011604025982385087 0.010272416204284105 0 0.00093114647071375215 0.010343654260243017 0 0.0011604025982385087 0.010272416204284105 0 0.0011339606580583136 0.01052107580984143 0 0.00093114647071375215 0.010343654260243017 0 0.0011339606580583136 0.01052107580984143 0 0.00084761080437574391 0.010560743593260969 0 0.0011339606580583136 0.01052107580984143 0 0.0010241660144323023 0.010801128614464783 0 0.00084761080437574391 0.010560743593260969 0 0.0010241660144323023 0.010801128614464783 0 0.00080500656592600553 0.010835993005886236 0 0.00084761080437574391 0.010560743593260969 0 0.00073222691654878543 0.010591505909630336 0 -4.2382631394815875e-05 0.010778792662172338 0 -4.2382631394815875e-05 0.010778792662172338 0 0.0003844140041896531 0.010842773319416818 0 0.00063569935735805991 0.010285366270800357 0 0.00063230913250999251 0.010531884068223977 0 0.00084761080437574391 0.010560743593260969 0 0.00080500656592600553 0.010835993005886236 0 0.00063230913250999251 0.010531884068223977 0 0.00084761080437574391 0.010560743593260969 0 0.00063230913250999251 0.010531884068223977 0 0.00041946509220334993 0.010311730425651118 0 0.00032925362119586422 0.01051652308474325 0 0.00063569935735805991 0.010285366270800357 0 0.00063230913250999251 0.010531884068223977 0 0.00041946509220334993 0.010311730425651118 0 0.00074117966239817203 0.01062876579486762 0 0.00063230913250999251 0.010531884068223977 0 0.00032925362119586422 0.01051652308474325 0 0.00074117966239817203 0.01062876579486762 0 0.00032925362119586422 0.01051652308474325 0 0.00023345102582120813 0.010823740145661436 0 0.00041946509220334993 0.010311730425651118 0 0.00032925362119586422 0.01051652308474325 0 7.9054103421504344e-05 0.010183223920099757 0 -0.0014194544112335282 0.010871246487863615 0 -0.0027457301991843674 0.011713155400148292 0 -0.0017084943080394835 0.012522720226725466 0 -4.2382631394815875e-05 0.010778792662172338 0 -0.0013540363780285005 0.011458451857538235 0 0.00032925362119586422 0.01051652308474325 0 0.00023345102582120813 0.010823740145661436 0 0.00011503504982039997 0.01062519541357103 0 0.0013983215759492272 0.011959589436655201 0 0.0010241660144323023 0.010801128614464783 0 0.00070217241419952606 0.010995447806378872 0 0.00062845787401648767 0.012210977586572013 0 -4.2382631394815875e-05 0.010778792662172338 0 -0.00018040882971989829 0.012188472043646413 0 -0.0014194544112335282 0.010871246487863615 0 -0.0017084943080394835 0.012522720226725466 0 -0.00039717981083263655 0.010724756243474036 0 -0.00075237253748161527 0.010705212418429389 0 -0.00034252242779423048 0.010346955646864603 0 -0.00039717981083263655 0.010724756243474036 0 -0.00075237253748161527 0.010705212418429389 0 -0.00036327978861640161 0.011048508756300439 0 -0.00039717981083263655 0.010724756243474036 0 -9.8493778240076041e-05 0.010714198927279038 0 -0.00036327978861640161 0.011048508756300439 0 -0.0013540363780285005 0.011458451857538235 0 -0.0023342331442609515 0.010185158376613594 0 0.00023345102582120813 0.010823740145661436 0 -9.8493778240076041e-05 0.010714198927279038 0 -0.00039783213025509142 0.011177988681692909 0 -0.0001151463799097713 0.010691816020276199 0 -0.0023342331442609515 0.010185158376613594 0 0.00023345102582120813 0.010823740145661436 0 0.00011503504982039997 0.01062519541357103 0 -9.8493778240076041e-05 0.010714198927279038 0 0.00011503504982039997 0.01062519541357103 0 -9.8493778240076041e-05 0.010714198927279038 0 -2.0091232096332934e-05 0.010449904227580225 0 -0.00039717981083263655 0.010724756243474036 0 -9.8493778240076041e-05 0.010714198927279038 0 -0.00034252242779423048 0.010346955646864603 0 -9.8493778240076041e-05 0.010714198927279038 0 -2.0091232096332934e-05 0.010449904227580225 0 -0.00034252242779423048 0.010346955646864603 0 0.00032925362119586422 0.01051652308474325 0 0.00011503504982039997 0.01062519541357103 0 -2.0091232096332934e-05 0.010449904227580225 0 0.00032925362119586422 0.01051652308474325 0 -2.0091232096332934e-05 0.010449904227580225 0 7.9054103421504344e-05 0.010183223920099757 0 -2.0091232096332934e-05 0.010449904227580225 0 7.9054103421504344e-05 0.010183223920099757 0 -0.00034252242779423048 0.010346955646864603 0 7.9054103421504344e-05 0.010183223920099757 0 -0.00034252242779423048 0.010346955646864603 0 -0.00035977439921891258 0.0098860342424718726 0 -0.00075237253748161527 0.010705212418429389 0 -0.00034252242779423048 0.010346955646864603 0 -0.00082917021339701334 0.010045175815178531 0 -0.00034252242779423048 0.010346955646864603 0 -0.00035977439921891258 0.0098860342424718726 0 -0.00082917021339701334 0.010045175815178531 0 -0.00035977439921891258 0.0098860342424718726 0 -0.00030838703214688907 0.0094717130773991822 0 -0.0008292065115784457 0.0095086538664300221 0 -0.00035977439921891258 0.0098860342424718726 0 -0.0008292065115784457 0.0095086538664300221 0 -0.00082917021339701334 0.010045175815178531 0 7.9054103421504344e-05 0.010183223920099757 0 -0.00035977439921891258 0.0098860342424718726 0 7.9184899897042049e-05 0.0097388944846182515 0 -0.00035977439921891258 0.0098860342424718726 0 7.9184899897042049e-05 0.0097388944846182515 0 -0.00030838703214688907 0.0094717130773991822 0 0.00014291342859325032 0.00928912499495947 0 -0.00030838703214688907 0.0094717130773991822 0 -0.00032495283127452262 0.008906728283568352 0 7.9184899897042049e-05 0.0097388944846182515 0 0.00014291342859325032 0.00928912499495947 0 -0.00030838703214688907 0.0094717130773991822 0 -0.00070470984854114098 0.0091994340733222227 0 -0.00030838703214688907 0.0094717130773991822 0 -0.0008292065115784457 0.0095086538664300221 0 -0.00070470984854114098 0.0091994340733222227 0 -0.00030838703214688907 0.0094717130773991822 0 -0.00032495283127452262 0.008906728283568352 0 -0.00070470984854114098 0.0091994340733222227 0 -0.0012109151599212398 0.0090919328612376425 0 -0.0008292065115784457 0.0095086538664300221 0 -0.0012109151599212398 0.0090919328612376425 0 -0.0014653472369657913 0.009330997155608492 0 -0.0008292065115784457 0.0095086538664300221 0 -0.00070470984854114098 0.0091994340733222227 0 -0.0012109151599212398 0.0090919328612376425 0 -0.00087732382148461813 0.0088436381145241723 0 -0.0014653472369657913 0.009330997155608492 0 -0.0018241792632292049 0.0083763314454559906 0 -0.0012696041212798691 0.0070788057704437709 0 -0.0012109151599212398 0.0090919328612376425 0 -0.0014653472369657913 0.009330997155608492 0 -0.0015338149035505257 0.0087992501086325576 0 -0.0013919309328577576 0.0093986427542021335 0 -0.0015867271764212318 0.0075763496222660629 0 -0.0014653472369657913 0.009330997155608492 0 -0.0008292065115784457 0.0095086538664300221 0 -0.00082917021339701334 0.010045175815178531 0 -0.0031910772386665488 0.004821340175041401 0 -0.002963024014723844 0.0049338764399343643 0 -0.0033046060132498009 0.0086617783200040911 0 -0.0024594405887781497 0.0077417587722869744 0 -0.0031574902833855279 0.0068509667821849774 0 -0.0033046060132498009 0.0086617783200040911 0 -0.0024012520050785057 0.0087495160370013557 0 -0.0024594405887781497 0.0077417587722869744 0 -0.0014653472369657913 0.009330997155608492 0 -0.0024012520050785057 0.0087495160370013557 0 -0.0018241792632292049 0.0083763314454559906 0 -0.0024012520050785057 0.0087495160370013557 0 -0.0018241792632292049 0.0083763314454559906 0 -0.0024594405887781497 0.0077417587722869744 0 -0.0018241792632292049 0.0083763314454559906 0 -0.0019380497390732228 0.0076678848502128678 0 -0.00148875671161789 0.007290190343861567 0 -0.0018241792632292049 0.0083763314454559906 0 -0.0019380497390732228 0.0076678848502128678 0 -0.0024594405887781497 0.0077417587722869744 0 -0.0014653472369657913 0.009330997155608492 0 -0.0024838038245628305 0.0094490139606583715 0 -0.0018000454252142845 0.0099502073824135773 0 -0.0014653472369657913 0.009330997155608492 0 -0.0024012520050785057 0.0087495160370013557 0 -0.0024838038245628305 0.0094490139606583715 0 -0.0033046060132498009 0.0086617783200040911 0 -0.0024838038245628305 0.0094490139606583715 0 -0.0033416001220952858 0.0099712987159256417 0 -0.0031910772386665488 0.004821340175041401 0 -0.0013990110173904013 0.0016966224599579164 0 -0.0033046060132498009 0.0086617783200040911 0 -0.0024012520050785057 0.0087495160370013557 0 -0.0024838038245628305 0.0094490139606583715 0 -0.0033416001220952858 0.0099712987159256417 0 -0.0024576271563387137 0.010375477916991338 0 -0.0024886770208060673 0.01002345744745867 0 -0.0024838038245628305 0.0094490139606583715 0 -0.0033416001220952858 0.0099712987159256417 0 -0.0024886770208060673 0.01002345744745867 0 -0.00053450062990867018 0.00027062039375138654 0 -0.0020136998387752401 -0.0005389853761952765 0 -0.00031769102009815962 -0.0011273320309408111 0 -0.0013990110173904013 0.0016966224599579164 0 -0.0012125550306936763 0.0017045514506125819 0 -0.0013990110173904013 0.0016966224599579164 0 -0.00029168711161493035 -0.0048248234919797076 0 -0.0024576271563387137 0.010375477916991338 0 -0.0018000454252142845 0.0099502073824135773 0 -0.0013906186525804291 0.01083101817719773 0 -0.0024576271563387137 0.010375477916991338 0 -0.0024886770208060673 0.01002345744745867 0 -0.0018000454252142845 0.0099502073824135773 0 -0.0024838038245628305 0.0094490139606583715 0 -0.0024886770208060673 0.01002345744745867 0 -0.0018000454252142845 0.0099502073824135773 0 -0.00069467085607656021 -0.0062312243623173858 0 -0.0006341853720905913 -0.006607112813715457 0 -0.0012486840034135265 -0.0064796628769334223 0 -0.0012125550306936763 0.0017045514506125819 0 -0.0014027297829840384 0.0022241155053688961 0 -0.00069467085607656021 -0.0062312243623173858 0 -0.0006341853720905913 -0.006607112813715457 0 -0.00028348508157200998 -0.0064485902626554292 0 -0.0012125550306936763 0.0017045514506125819 0 -0.00029168711161493035 -0.0048248234919797076 0 -0.0003679582737093817 -0.0066502241809788479 0 -0.00028348508157200998 -0.0064485902626554292 0 -0.00027042612266157452 -0.0065513362913448767 0 -0.0006341853720905913 -0.006607112813715457 0 -0.0003679582737093817 -0.0066502241809788479 0 -0.00028348508157200998 -0.0064485902626554292 0 -0.0003679582737093817 -0.0066502241809788479 0 -0.0002498125299370307 -0.0067710999792673591 0 -0.00027042612266157452 -0.0065513362913448767 0 -0.0014653472369657913 0.009330997155608492 0 -0.00082917021339701334 0.010045175815178531 0 -0.0012738689680156577 0.010290241565374383 0 -0.00075237253748161527 0.010705212418429389 0 -0.00082917021339701334 0.010045175815178531 0 -0.0012738689680156577 0.010290241565374383 0 -0.0014653472369657913 0.009330997155608492 0 -0.0012738689680156577 0.010290241565374383 0 -0.0018000454252142845 0.0099502073824135773 0 -0.0012738689680156577 0.010290241565374383 0 -0.0018000454252142845 0.0099502073824135773 0 -0.0013906186525804291 0.01083101817719773 0 -0.00075237253748161527 0.010705212418429389 0 -0.0012738689680156577 0.010290241565374383 0 -0.0013906186525804291 0.01083101817719773 0 -0.00075237253748161527 0.010705212418429389 0 -0.0013906186525804291 0.01083101817719773 0 -0.00062633669476181667 0.011188027568384539 0 -0.0012486840034135265 -0.0064796628769334223 0 -0.0012666245829986498 -0.0071649707099264697 0 -0.001821784208589606 -0.0067093433772299369 0 -0.0014027297829840384 0.0022241155053688961 0 -0.0011464126978184921 0.0021545953160017166 0 -0.0012486840034135265 -0.0064796628769334223 0 -0.0012666245829986498 -0.0071649707099264697 0 -0.00077024292909035682 -0.0069627173755785945 0 -1.0089904974107789e-05 0.00053448673394576368 0 0.0001564818611339662 -0.00014647661159039707 0 -0.0011130716441053257 0.00038222785578722463 0 -1.0089904974107789e-05 0.00053448673394576368 0 -0.0013827718244173726 0.0014552587847020946 0 -0.0011130716441053257 0.00038222785578722463 0 -0.00054018636380736402 -0.0040301252525732269 0 -0.0011464126978184921 0.0021545953160017166 0 -0.0006341853720905913 -0.006607112813715457 0 -0.0004032186880921861 -0.0068578302175854606 0 -0.00077024292909035682 -0.0069627173755785945 0 -0.0004032186880921861 -0.0068578302175854606 0 -0.00077024292909035682 -0.0069627173755785945 0 -0.00045198444425001162 -0.0071761126906558703 0 -0.0003679582737093817 -0.0066502241809788479 0 -0.0004032186880921861 -0.0068578302175854606 0 -0.0002498125299370307 -0.0067710999792673591 0 -0.0006341853720905913 -0.006607112813715457 0 -0.0003679582737093817 -0.0066502241809788479 0 -0.0004032186880921861 -0.0068578302175854606 0 -0.0006341853720905913 -0.006607112813715457 0 -0.0012486840034135265 -0.0064796628769334223 0 -0.00077024292909035682 -0.0069627173755785945 0 -0.0012666245829986498 -0.0071649707099264697 0 -0.00077024292909035682 -0.0069627173755785945 0 -0.00069958306153455256 -0.0075925437987043997 0 -0.00077024292909035682 -0.0069627173755785945 0 -0.00045198444425001162 -0.0071761126906558703 0 -0.00069958306153455256 -0.0075925437987043997 0 -0.00045198444425001162 -0.0071761126906558703 0 -0.00033076391945721499 -0.0074816291865501469 0 -0.00069958306153455256 -0.0075925437987043997 0 -0.00045198444425001162 -0.0071761126906558703 0 -0.00033076391945721499 -0.0074816291865501469 0 -0.00014736406153327398 -0.0072608351125328444 0 -0.0004032186880921861 -0.0068578302175854606 0 -0.00045198444425001162 -0.0071761126906558703 0 -0.00014736406153327398 -0.0072608351125328444 0 -0.00033076391945721499 -0.0074816291865501469 0 -0.00069958306153455256 -0.0075925437987043997 0 -0.00014140565132333442 -0.0079465276735460957 0 0.0013464323638225373 -0.00066915641843731883 0 0.0012691274750064208 -0.00034335476299837057 0 0.0024727760558323655 -0.0012013441130673357 0 0.0016743230020595508 0.0021442958447913151 0 0.00053328301616322295 0.0019155879454670777 0 0.0013464323638225373 -0.00066915641843731883 0 0.0012691274750064208 -0.00034335476299837057 0 0.0001564818611339662 -0.00014647661159039707 0 0.0018569138704262007 0.0040075677745353613 0 0.00099146883471515628 0.0043531919863311992 0 0.0012582059941895747 0.0039000591759748961 0 -0.00054018636380736402 -0.0040301252525732269 0 0.00024179996549078699 -0.004026263172799565 0 0.0013642318812974923 0.0033204295432882141 0 0.0018569138704262007 0.0040075677745353613 0 0.0020859210922461731 0.0033980574751906584 0 0.0013642318812974923 0.0033204295432882141 0 0.0018569138704262007 0.0040075677745353613 0 0.0012582059941895747 0.0039000591759748961 0 0.0020859210922461731 0.0033980574751906584 0 0.0025868590411251822 0.0030417885647521406 0 0.0027457871887701687 0.0035619473318618949 0 0.0016743230020595508 0.0021442958447913151 0 0.001365087422349358 -0.0033864717319170004 0 0.0018569138704262007 0.0040075677745353613 0 0.0020859210922461731 0.0033980574751906584 0 0.0027457871887701687 0.0035619473318618949 0 0.00024179996549078699 -0.004026263172799565 0 0.001365087422349358 -0.0033864717319170004 0 0.00033000608149866224 0.004732464477038535 0 -0.00047779014324134095 0.004688006071393332 0 -0.00014093190162744101 0.0055396828579095964 0 0.00055854209371761221 0.0041593763201788697 0 0.00099146883471515628 0.0043531919863311992 0 0.00029479973856294924 0.0045921746863845023 0 0.00053328301616322295 0.0019155879454670777 0 0.00010234205256219276 0.0038486592664704715 0 0.00033000608149866224 0.004732464477038535 0 -0.00014907507120409463 0.0042844726963745978 0 -0.00047779014324134095 0.004688006071393332 0 0.00034641123763845717 0.0045821124833482409 0 0.00010234205256219276 0.0038486592664704715 0 -1.0089904974107789e-05 0.00053448673394576368 0 0.0012691274750064208 -0.00034335476299837057 0 0.0001564818611339662 -0.00014647661159039707 0 0.00099146883471515628 0.0043531919863311992 0 0.00088876392388747367 0.0040370188316263033 0 0.0012582059941895747 0.0039000591759748961 0 0.00055854209371761221 0.0041593763201788697 0 0.00099146883471515628 0.0043531919863311992 0 0.00088876392388747367 0.0040370188316263033 0 0.00088876392388747367 0.0040370188316263033 0 0.0012582059941895747 0.0039000591759748961 0 0.00079056421660419476 0.003742145768877366 0 0.0013642318812974923 0.0033204295432882141 0 0.0012582059941895747 0.0039000591759748961 0 0.00079056421660419476 0.003742145768877366 0 0.00090060075827380539 0.0031514895064074524 0 0.00079056421660419476 0.003742145768877366 0 0.00018699579038308428 0.0038632895886683751 0 0.00055854209371761221 0.0041593763201788697 0 0.00088876392388747367 0.0040370188316263033 0 0.00079056421660419476 0.003742145768877366 0 0.00034641123763845717 0.0045821124833482409 0 0.00078426550678319324 0.003791552663153661 0 0.00033000608149866224 0.004732464477038535 0 0.00079056421660419476 0.003742145768877366 0 0.00018699579038308428 0.0038632895886683751 0 0.00033000608149866224 0.004732464477038535 0 -0.00014907507120409463 0.0042844726963745978 0 0.00018699579038308428 0.0038632895886683751 0 -0.00073096851143327282 0.0043106782442372451 0 -0.00019924794806109466 0.0039191424673410621 0 -0.00014907507120409463 0.0042844726963745978 0 0.00018699579038308428 0.0038632895886683751 0 -0.0001577745514533576 0.0038749739162486914 0 -0.00017303501152852516 0.0034789380277925504 0 0.00018699579038308428 0.0038632895886683751 0 -0.0001577745514533576 0.0038749739162486914 0 -0.00073096851143327282 0.0043106782442372451 0 -0.00034229003485855699 0.0037761657223844797 0 -0.00014907507120409463 0.0042844726963745978 0 -0.0004965902368400172 0.0038958981608627598 0 -0.0001577745514533576 0.0038749739162486914 0 -0.00017303501152852516 0.0034789380277925504 0 -0.0004965902368400172 0.0038958981608627598 0 -0.0001577745514533576 0.0038749739162486914 0 -0.0004965902368400172 0.0038958981608627598 0 -0.00047779014324134095 0.004688006071393332 0 -0.0010533472944620386 0.0042871244434205275 0 -0.00014907507120409463 0.0042844726963745978 0 -0.0004965902368400172 0.0038958981608627598 0 -0.00047779014324134095 0.004688006071393332 0 -0.00047779014324134095 0.004688006071393332 0 -0.00092052939889655599 0.0052934424773798533 0 -0.00014093190162744101 0.0055396828579095964 0 -0.00047779014324134095 0.004688006071393332 0 -0.0011841843958252378 0.0048238109515203811 0 -0.0010533472944620386 0.0042871244434205275 0 -0.00047779014324134095 0.004688006071393332 0 -0.00092052939889655599 0.0052934424773798533 0 -0.0011841843958252378 0.0048238109515203811 0 -0.0014763071053178988 0.00537662735697638 0 -0.0011841843958252378 0.0048238109515203811 0 -0.0020253225733814243 0.0047174613050717257 0 -0.0011841843958252378 0.0048238109515203811 0 -0.0014860680143203525 0.0043739506631234118 0 -0.0020253225733814243 0.0047174613050717257 0 -0.00092052939889655599 0.0052934424773798533 0 -0.0014763071053178988 0.00537662735697638 0 -0.0011841843958252378 0.0048238109515203811 0 -0.0015657605498097618 0.0036924531215214648 0 -0.0004965902368400172 0.0038958981608627598 0 -0.0010533472944620386 0.0042871244434205275 0 -0.0015657605498097618 0.0036924531215214648 0 -0.0014860680143203525 0.0043739506631234118 0 -0.0020253225733814243 0.0047174613050717257 0 -0.0011841843958252378 0.0048238109515203811 0 -0.0014860680143203525 0.0043739506631234118 0 -0.0010533472944620386 0.0042871244434205275 0 -0.0015657605498097618 0.0036924531215214648 0 -0.0014860680143203525 0.0043739506631234118 0 -0.0010533472944620386 0.0042871244434205275 0 -0.0028418266344893911 0.0039101920740670917 0 -0.0015657605498097618 0.0036924531215214648 0 -0.0020253225733814243 0.0047174613050717257 0 -0.0011931537980374145 0.011872423128072527 0 -0.0028540353959486688 0.0099026995952963912 0 -0.0012912944494150285 0.01636904291032731 0 -0.00084328081802393002 0.01573558434184244 0 -0.0014807620049468596 0.014785395919786738 0 -0.0028418266344893911 0.0039101920740670917 0 -0.002739503940668562 0.0052139223762115968 0 -0.0020253225733814243 0.0047174613050717257 0 -0.0012912944494150285 0.01636904291032731 0 -0.00027719555278365977 0.016301968315375157 0 -0.00084328081802393002 0.01573558434184244 0 -0.00084328081802393002 0.01573558434184244 0 -0.00097851919406400116 0.015091151125992316 0 -0.0014807620049468596 0.014785395919786738 0 -0.00062078955806428484 0.015452729662399146 0 -0.00084328081802393002 0.01573558434184244 0 -0.00097851919406400116 0.015091151125992316 0 -0.0027225200024136552 0.010854183604457571 0 -0.0028540353959486688 0.0099026995952963912 0 -0.0015262577799885187 0.014618152887600183 0 -0.0014807620049468596 0.014785395919786738 0 -0.0012713498667855521 0.01472851718500375 0 -0.0015262577799885187 0.014618152887600183 0 -0.0013396721078498394 0.014523031416831141 0 -0.0012713498667855521 0.01472851718500375 0 -0.0014807620049468596 0.014785395919786738 0 -0.0011738287321017104 0.014853859580755477 0 -0.0012713498667855521 0.01472851718500375 0 -0.00097851919406400116 0.015091151125992316 0 -0.0014807620049468596 0.014785395919786738 0 -0.0011738287321017104 0.014853859580755477 0 -0.00097851919406400116 0.015091151125992316 0 -0.0011738287321017104 0.014853859580755477 0 -0.0010249356571957746 0.014758090511001944 0 -0.0011738287321017104 0.014853859580755477 0 -0.0012713498667855521 0.01472851718500375 0 -0.0010249356571957746 0.014758090511001944 0 -0.0013396721078498394 0.014523031416831141 0 -0.0012713498667855521 0.01472851718500375 0 -0.0011819715441186436 0.01453382376931683 0 -0.0012713498667855521 0.01472851718500375 0 -0.0011819715441186436 0.01453382376931683 0 -0.0010249356571957746 0.014758090511001944 0 -0.0011819715441186436 0.01453382376931683 0 -0.0010249356571957746 0.014758090511001944 0 -0.00088345734138610573 0.014457180620574321 0 -0.00072167929881131502 0.01482740153215494 0 -0.0010249356571957746 0.014758090511001944 0 -0.00088345734138610573 0.014457180620574321 0 -0.00072167929881131502 0.01482740153215494 0 -0.00097851919406400116 0.015091151125992316 0 -0.0010249356571957746 0.014758090511001944 0 -0.002739503940668562 0.0052139223762115968 0 -0.0020253225733814243 0.0047174613050717257 0 -0.00203114720243801 0.005593031869397508 0 -0.0014763071053178988 0.00537662735697638 0 -0.0020253225733814243 0.0047174613050717257 0 -0.00203114720243801 0.005593031869397508 0 -0.0028540353959486688 0.0099026995952963912 0 -0.0022108691620663845 0.0099290120793425769 0 -0.0015262577799885187 0.014618152887600183 0 -0.0015135253838304064 0.014788152347773458 0 -0.0025612711054599944 0.014159376081165234 0 -0.0015262577799885187 0.014618152887600183 0 -0.0025612711054599944 0.014159376081165234 0 -0.0019185052538183674 0.01369460280354901 0 -0.0025612711054599944 0.014159376081165234 0 -0.0019185052538183674 0.01369460280354901 0 -0.0025048393337916302 0.01313876336810422 0 -0.0025612711054599944 0.014159376081165234 0 -0.0025048393337916302 0.01313876336810422 0 -0.003617042503431088 0.013539500667018567 0 -0.00088345734138610573 0.014457180620574321 0 -0.0013816058772227835 0.014203044120172436 0 -0.0012942363954355715 0.013566441996424925 0 -0.0011819715441186436 0.01453382376931683 0 -0.00088345734138610573 0.014457180620574321 0 -0.0013816058772227835 0.014203044120172436 0 -0.0013396721078498394 0.014523031416831141 0 -0.0011819715441186436 0.01453382376931683 0 -0.0013816058772227835 0.014203044120172436 0 -0.0015262577799885187 0.014618152887600183 0 -0.0019185052538183674 0.01369460280354901 0 -0.0013816058772227835 0.014203044120172436 0 -0.0015262577799885187 0.014618152887600183 0 -0.0013396721078498394 0.014523031416831141 0 -0.0013816058772227835 0.014203044120172436 0 -0.0019185052538183674 0.01369460280354901 0 -0.0013816058772227835 0.014203044120172436 0 -0.0012942363954355715 0.013566441996424925 0 -0.0019185052538183674 0.01369460280354901 0 -0.0012942363954355715 0.013566441996424925 0 -0.0017084943080394835 0.012522720226725466 0 -0.00018040882971989829 0.012188472043646413 0 -0.0012942363954355715 0.013566441996424925 0 -0.0017084943080394835 0.012522720226725466 0 -0.0019185052538183674 0.01369460280354901 0 -0.0017084943080394835 0.012522720226725466 0 -0.0025048393337916302 0.01313876336810422 0 -0.0027457301991843674 0.011713155400148292 0 -0.0025048393337916302 0.01313876336810422 0 -0.0031682348200250962 0.012696200446883635 0 -0.0027457301991843674 0.011713155400148292 0 -0.0017084943080394835 0.012522720226725466 0 -0.0025048393337916302 0.01313876336810422 0 -0.0027457301991843674 0.011713155400148292 0 -0.0031682348200250962 0.012696200446883635 0 -0.0039301016585156631 0.012476227588416267 0 -0.0025048393337916302 0.01313876336810422 0 -0.0031682348200250962 0.012696200446883635 0 -0.0034328049801666174 0.013409820211050744 0 -0.0031682348200250962 0.012696200446883635 0 -0.0039301016585156631 0.012476227588416267 0 -0.0034328049801666174 0.013409820211050744 0 -0.00075237253748161527 0.010705212418429389 0 -0.00036327978861640161 0.011048508756300439 0 -0.00062633669476181667 0.011188027568384539 0 -0.0023342331442609515 0.010185158376613594 0 -0.0011464126978184921 0.0021545953160017166 0 -0.0011464126978184921 0.0021545953160017166 0 -0.0012962707179951191 0.0061193450614238738 0 -0.0023342331442609515 0.010185158376613594 0 -0.0012962707179951191 0.0061193450614238738 0 -0.0031735000361302721 0.007482951711020429 0 -7.568804758466109e-05 0.0055661401618782259 0 -0.0015759217898633391 0.0047466728261987886 0 -0.0039301016585156631 0.012476227588416267 0 -0.0042050396578155484 0.012949733109679387 0 -0.0034328049801666174 0.013409820211050744 0 -0.0013827718244173726 0.0014552587847020946 0 -0.0016477267488935222 0.0013182528412642479 0 -0.0011130716441053257 0.00038222785578722463 0 -0.0012962707179951191 0.0061193450614238738 0 0.00010234205256219276 0.0038486592664704715 0 -0.00092052939889655599 0.0052934424773798533 0 -0.00014093190162744101 0.0055396828579095964 0 -0.001309201170425125 0.0060031792661092145 0 0.00010234205256219276 0.0038486592664704715 0 -0.0023566972557718304 0.0097751137169678412 0 -0.00092666585393631241 0.00752737571281893 0 0.00017282663108419109 0.0056455812213771711 0 -0.0024736252709844689 0.0066914885766288321 0 -0.00092052939889655599 0.0052934424773798533 0 -0.0014763071053178988 0.00537662735697638 0 -0.001309201170425125 0.0060031792661092145 0 -0.0014763071053178988 0.00537662735697638 0 -0.00203114720243801 0.005593031869397508 0 -0.001309201170425125 0.0060031792661092145 0 -0.0022108691620663845 0.0099290120793425769 0 -0.0023566972557718304 0.0097751137169678412 0 -0.0033855345273693712 0.013325113880433604 0 -0.0023566972557718304 0.0097751137169678412 0 -0.0012962707179951191 0.0061193450614238738 0 -0.0023566972557718304 0.0097751137169678412 0 1.4287163878989352e-05 0.049860902190362801 0 4.0504720674226462e-05 0.049840459278987517 0 -6.759516352411261e-06 0.049720357355065289 0 1.4287163878989352e-05 0.049860902190362801 0 4.0504720674226462e-05 0.049840459278987517 0 0.00012298247252935744 0.049672769582325776 0 4.0504720674226462e-05 0.049840459278987517 0 -2.0373446986097585e-07 0.049999272891770953 0 -6.759516352411261e-06 0.049720357355065289 0 4.0504720674226462e-05 0.049840459278987517 0 -2.0373446986097585e-07 0.049999272891770953 0 0.00012298247252935744 0.049672769582325776 0 -2.0373446986097585e-07 0.049999272891770953 0 0.00012298247252935744 0.049672769582325776 0 4.4988107979844527e-08 0.04999951401050317 0 1.4287163878989352e-05 0.049860902190362801 0 0.00012298247252935744 0.049672769582325776 0 -0.00034269999923827249 0.049001035422015518 0 -0.00036912030459745491 0.048513087316793747 0 -0.00037007160474781858 0.048941557892549142 0 -0.00034269999923827249 0.049001035422015518 0 0.00013627663335866375 0.048509756439445953 0 -0.00012096684945998354 0.047906137398643231 0 0.00013627663335866375 0.048509756439445953 0 0.00061025425796842902 0.047672712979221744 0 0.00036147526244409021 0.048660009311436013 0 0.00061025425796842902 0.047672712979221744 0 -0.00012096684945998354 0.047906137398643231 0 -0.00018742756471222066 0.047007490720458983 0 0.00013627663335866375 0.048509756439445953 0 0.00061025425796842902 0.047672712979221744 0 -0.00012096684945998354 0.047906137398643231 0 -0.00087452154637431825 0.047208515942120485 0 -0.00012096684945998354 0.047906137398643231 0 -0.00018742756471222066 0.047007490720458983 0 -0.00087452154637431825 0.047208515942120485 0 -0.00034269999923827249 0.049001035422015518 0 -0.00012096684945998354 0.047906137398643231 0 -0.00087452154637431825 0.047208515942120485 0 -0.00036973052835176194 0.046432400010614043 0 -0.00028101662073532472 0.04622806481283856 0 -0.00087452154637431825 0.047208515942120485 0 -0.00018742756471222066 0.047007490720458983 0 -0.00036973052835176194 0.046432400010614043 0 -0.00018742756471222066 0.047007490720458983 0 -0.00036973052835176194 0.046432400010614043 0 -0.00022477673250640215 0.045919741489256635 0 -0.00086150541398678435 0.043881747823275183 0 -0.00076978015628043973 0.044757422483170446 0 -0.00022477673250640215 0.045919741489256635 0 0.00061025425796842902 0.047672712979221744 0 -0.00018742756471222066 0.047007490720458983 0 -0.00022477673250640215 0.045919741489256635 0 -0.00017597164960583801 0.045806404835747869 0 -0.00019104210220334287 0.0458995436363418 0 -0.00076978015628043973 0.044757422483170446 0 -0.00022477673250640215 0.045919741489256635 0 -0.00096124598978215262 0.04571186136309708 0 -0.00022477673250640215 0.045919741489256635 0 -0.00073435142322740121 0.046319399589885082 0 -0.00030161015819074897 0.046261750828262123 0 -0.00073435142322740121 0.046319399589885082 0 -0.00030161015819074897 0.046261750828262123 0 -0.00045969743649034562 0.04659345850775206 0 -0.00022477673250640215 0.045919741489256635 0 -0.00073435142322740121 0.046319399589885082 0 -0.00096124598978215262 0.04571186136309708 0 -0.00036973052835176194 0.046432400010614043 0 -0.00030161015819074897 0.046261750828262123 0 -0.00028101662073532472 0.04622806481283856 0 -0.00036973052835176194 0.046432400010614043 0 -0.00022477673250640215 0.045919741489256635 0 -0.00030161015819074897 0.046261750828262123 0 -0.00030161015819074897 0.046261750828262123 0 -0.00029434919494524193 0.04662157952888156 0 -0.00045969743649034562 0.04659345850775206 0 -0.00030161015819074897 0.046261750828262123 0 -0.00028101662073532472 0.04622806481283856 0 -0.00029434919494524193 0.04662157952888156 0 0.00037954628079745845 0.049212481822915315 0 -6.759516352411261e-06 0.049720357355065289 0 -0.00029191689081517632 0.049274458809608471 0 0.00037954628079745845 0.049212481822915315 0 -0.00029191689081517632 0.049274458809608471 0 8.0110742214615286e-06 0.047790512435837137 0 -0.00036912030459745491 0.048513087316793747 0 1.2578073499422827e-05 0.04776319315060662 0 1.4287163878989352e-05 0.049860902190362801 0 0.00037954628079745845 0.049212481822915315 0 -6.759516352411261e-06 0.049720357355065289 0 -4.8015951378034694e-08 0.049999839852142083 0 -9.4638045825860207e-05 0.049301950020350406 0 -2.0373446986097585e-07 0.049999272891770953 0 -6.759516352411261e-06 0.049720357355065289 0 -0.00029191689081517632 0.049274458809608471 0 -3.9979540152299763e-08 0.050002471476062904 0 -9.6124068058096735e-08 0.049996986939463424 0 0.00011271167117854011 0.049435885242977234 0 -9.6124068058096735e-08 0.049996986939463424 0 0.00011271167117854011 0.049435885242977234 0 -0.0001411614170564796 0.04842733783877011 0 -1.2953069796349163e-09 0.050000000779051923 0 2.3716703386731285e-09 0.04999998916435619 0 9.5495225678363633e-07 0.049996236060035407 0 -2.2131843818324908e-08 0.049999679404775232 0 -3.7388859822804849e-05 0.049197636186937635 0 -9.4638045825860207e-05 0.049301950020350406 0 4.4394612613221154e-05 0.047934209099704236 0 0.00011271167117854011 0.049435885242977234 0 -0.0001411614170564796 0.04842733783877011 0 8.0110742214615286e-06 0.047790512435837137 0 2.3716703386731285e-09 0.04999998916435619 0 9.5495225678363633e-07 0.049996236060035407 0 -9.9405145904308066e-07 0.049994779107285399 0 1.2578073499422827e-05 0.04776319315060662 0 0.00018513217628187347 0.047602386167542365 0 0.00037954628079745845 0.049212481822915315 0 8.0110742214615286e-06 0.047790512435837137 0 0.00020638083100945451 0.047585504804639606 0 -0.00028101662073532472 0.04622806481283856 0 0.00020638083100945451 0.047585504804639606 0 -0.00015128845394137274 0.047042097059613416 0 0.00020638083100945451 0.047585504804639606 0 3.1994733110413724e-05 0.047370765103709495 0 -0.00015128845394137274 0.047042097059613416 0 -3.7388859822804849e-05 0.049197636186937635 0 3.8929297178577902e-05 0.048570369999972766 0 -0.0001411614170564796 0.04842733783877011 0 8.0110742214615286e-06 0.047790512435837137 0 0.00010707927591439353 0.047230328492768314 0 0.00020638083100945451 0.047585504804639606 0 0.00010707927591439353 0.047230328492768314 0 3.1994733110413724e-05 0.047370765103709495 0 8.0110742214615286e-06 0.047790512435837137 0 0.00020638083100945451 0.047585504804639606 0 0.00010707927591439353 0.047230328492768314 0 0.00010707927591439353 0.047230328492768314 0 -0.00011405055068234069 0.047368205330506188 0 3.1994733110413724e-05 0.047370765103709495 0 9.5495225678363633e-07 0.049996236060035407 0 -3.5568442751285192e-06 0.049982807599146736 0 -9.9405145904308066e-07 0.049994779107285399 0 -3.5568442751285192e-06 0.049982807599146736 0 -9.9405145904308066e-07 0.049994779107285399 0 -1.1616582251419008e-08 0.049999973664743881 0 2.3716703386731285e-09 0.04999998916435619 0 -9.9405145904308066e-07 0.049994779107285399 0 -1.1616582251419008e-08 0.049999973664743881 0 -3.5568442751285192e-06 0.049982807599146736 0 -1.1616582251419008e-08 0.049999973664743881 0 -8.1712343864876409e-06 0.049982811418071843 0 3.8929297178577902e-05 0.048570369999972766 0 0.00012358869788858459 0.049427819194516609 0 -3.5568442751285192e-06 0.049982807599146736 0 -1.7451786584409111e-05 0.049965829844058854 0 -8.1712343864876409e-06 0.049982811418071843 0 -3.5568442751285192e-06 0.049982807599146736 0 -1.7451786584409111e-05 0.049965829844058854 0 -1.8071997478817033e-05 0.04995387271255352 0 -1.7451786584409111e-05 0.049965829844058854 0 -1.1454022551252091e-05 0.049976818199927241 0 -8.1712343864876409e-06 0.049982811418071843 0 -1.7451786584409111e-05 0.049965829844058854 0 -1.8071997478817033e-05 0.04995387271255352 0 -2.540706408382727e-05 0.049947818701364978 0 -3.9867627144654835e-05 0.049942567510456733 0 -2.2782414861857724e-05 0.04995894867299986 0 -2.540706408382727e-05 0.049947818701364978 0 -2.2782414861857724e-05 0.04995894867299986 0 -1.7451786584409111e-05 0.049965829844058854 0 -2.540706408382727e-05 0.049947818701364978 0 -2.2782414861857724e-05 0.04995894867299986 0 -1.7451786584409111e-05 0.049965829844058854 0 -1.1454022551252091e-05 0.049976818199927241 0 -1.1454022551252091e-05 0.049976818199927241 0 -5.1844370266630444e-09 0.049999955991637257 0 -8.1712343864876409e-06 0.049982811418071843 0 -1.1616582251419008e-08 0.049999973664743881 0 -5.1844370266630444e-09 0.049999955991637257 0 -8.1712343864876409e-06 0.049982811418071843 0 -0.0016390654259662311 0.048490206485052124 0 -0.0014416163300759966 0.048053100822271509 0 -0.00039004882084830842 0.049504611777049172 0 -0.00045212277542424912 0.049489156000507156 0 -0.0004821586388158566 0.049473675260521058 0 -0.00039682687870430005 0.049512161503303585 0 -0.00039004882084830842 0.049504611777049172 0 -0.00045212277542424912 0.049489156000507156 0 -0.0027884941176435866 0.047339805544773579 0 -0.002882350122164608 0.047221220483073749 0 -0.0029226658724231629 0.047122478791870391 0 -0.00031930056165444155 0.049678402174976037 0 -0.00043515141103678967 0.04951020644008243 0 -0.00022852992709788221 0.049871940341677877 0 -0.00017327840193344897 0.04973728133870231 0 -0.00045212277542424912 0.049489156000507156 0 7.0883060007779186e-06 0.04965673048195466 0 -0.00045212277542424912 0.049489156000507156 0 -0.0004821586388158566 0.049473675260521058 0 0.00012358869788858459 0.049427819194516609 0 -0.0014416163300759966 0.048053100822271509 0 -0.00017327840193344897 0.04973728133870231 0 7.0883060007779186e-06 0.04965673048195466 0 -0.00045212277542424912 0.049489156000507156 0 -0.00010075405205117535 0.049909235119383187 0 -0.00017327840193344897 0.04973728133870231 0 7.0883060007779186e-06 0.04965673048195466 0 -3.9867627144654835e-05 0.049942567510456733 0 -3.8256328011199224e-05 0.049934217892906446 0 -2.540706408382727e-05 0.049947818701364978 0 -0.00013117201385574111 0.049990908375587763 0 0.00012358869788858459 0.049427819194516609 0 0.00012358869788858459 0.049427819194516609 0 0.00010882679907042041 0.049549790817427219 0 -0.00011089677120992551 0.048157570237332435 0 -0.0004106047764069657 0.047507587690706538 0 -0.00011405055068234069 0.047368205330506188 0 -0.00011089677120992551 0.048157570237332435 0 -0.0004106047764069657 0.047507587690706538 0 -0.00075481576049616977 0.047611279836603279 0 0.00010707927591439353 0.047230328492768314 0 -0.00011089677120992551 0.048157570237332435 0 -0.00011405055068234069 0.047368205330506188 0 -0.0004106047764069657 0.047507587690706538 0 -0.00075481576049616977 0.047611279836603279 0 -0.00066847450826514293 0.047394964553899577 0 -0.00011089677120992551 0.048157570237332435 0 -0.00075481576049616977 0.047611279836603279 0 -0.0010123256159005787 0.047898779341715457 0 -0.00075481576049616977 0.047611279836603279 0 -0.0011057532228332617 0.047753256816754151 0 -0.0010123256159005787 0.047898779341715457 0 -0.00075481576049616977 0.047611279836603279 0 -0.00098143660332519907 0.047512763002792884 0 -0.0011057532228332617 0.047753256816754151 0 -0.00075481576049616977 0.047611279836603279 0 -0.00066847450826514293 0.047394964553899577 0 -0.00098143660332519907 0.047512763002792884 0 -0.00090353901620507198 0.047262065795341493 0 -0.00066847450826514293 0.047394964553899577 0 -0.00098143660332519907 0.047512763002792884 0 -0.00090353901620507198 0.047262065795341493 0 -0.00066847450826514293 0.047394964553899577 0 -0.00052208524966193429 0.047177624518799519 0 -0.0004106047764069657 0.047507587690706538 0 -0.00066847450826514293 0.047394964553899577 0 -0.00052208524966193429 0.047177624518799519 0 -0.00052208524966193429 0.047177624518799519 0 -0.00087774195029746845 0.046974555860056298 0 -0.00062644153733185223 0.046866753203105245 0 -0.00090353901620507198 0.047262065795341493 0 -0.00052208524966193429 0.047177624518799519 0 -0.00087774195029746845 0.046974555860056298 0 -0.0004106047764069657 0.047507587690706538 0 -0.00011405055068234069 0.047368205330506188 0 -0.0002992869504461975 0.047305762504779532 0 -0.0004106047764069657 0.047507587690706538 0 -0.00052208524966193429 0.047177624518799519 0 -0.0002992869504461975 0.047305762504779532 0 -0.00011405055068234069 0.047368205330506188 0 -0.0002992869504461975 0.047305762504779532 0 -0.00020494752596288775 0.047211024774800957 0 -0.00052208524966193429 0.047177624518799519 0 -0.00020494752596288775 0.047211024774800957 0 -0.00036917021949857539 0.046915970776977761 0 -0.00052208524966193429 0.047177624518799519 0 -0.0002992869504461975 0.047305762504779532 0 -0.00020494752596288775 0.047211024774800957 0 -0.00011405055068234069 0.047368205330506188 0 -0.00020494752596288775 0.047211024774800957 0 3.1994733110413724e-05 0.047370765103709495 0 -0.00020494752596288775 0.047211024774800957 0 3.1994733110413724e-05 0.047370765103709495 0 -0.00015128845394137274 0.047042097059613416 0 -0.00028101662073532472 0.04622806481283856 0 -0.00015128845394137274 0.047042097059613416 0 -0.00029434919494524193 0.04662157952888156 0 -0.00020494752596288775 0.047211024774800957 0 -0.00015128845394137274 0.047042097059613416 0 -0.00036917021949857539 0.046915970776977761 0 -0.00015128845394137274 0.047042097059613416 0 -0.00036917021949857539 0.046915970776977761 0 -0.00029434919494524193 0.04662157952888156 0 -0.00036917021949857539 0.046915970776977761 0 -0.00029434919494524193 0.04662157952888156 0 -0.00045969743649034562 0.04659345850775206 0 -0.00073435142322740121 0.046319399589885082 0 -0.00062644153733185223 0.046866753203105245 0 -0.0010333416623575975 0.046657502545317316 0 -0.00087774195029746845 0.046974555860056298 0 -0.00062644153733185223 0.046866753203105245 0 -0.0010333416623575975 0.046657502545317316 0 -0.00052208524966193429 0.047177624518799519 0 -0.00036917021949857539 0.046915970776977761 0 -0.00062644153733185223 0.046866753203105245 0 -0.00036917021949857539 0.046915970776977761 0 -0.00062644153733185223 0.046866753203105245 0 -0.00045969743649034562 0.04659345850775206 0 -0.00073435142322740121 0.046319399589885082 0 -0.00062644153733185223 0.046866753203105245 0 -0.00045969743649034562 0.04659345850775206 0 -0.00073435142322740121 0.046319399589885082 0 -0.0010333416623575975 0.046657502545317316 0 -0.0011767567553075953 0.046185189864788964 0 -0.0016161953924282168 0.046388670195474269 0 -0.0010333416623575975 0.046657502545317316 0 -0.0011767567553075953 0.046185189864788964 0 -0.0016161953924282168 0.046388670195474269 0 -0.0011767567553075953 0.046185189864788964 0 -0.0015505435752051792 0.045815509999799851 0 -0.0016161953924282168 0.046388670195474269 0 -0.0010333416623575975 0.046657502545317316 0 -0.0013646215145186804 0.046979045946249798 0 -0.002311502479773127 0.046282814252641108 0 -0.0026044150491925117 0.045474789090852979 0 -0.0020317908572368686 0.045882593777923364 0 -0.0016161953924282168 0.046388670195474269 0 -0.002311502479773127 0.046282814252641108 0 -0.0020317908572368686 0.045882593777923364 0 -0.0016161953924282168 0.046388670195474269 0 -0.0020317908572368686 0.045882593777923364 0 -0.0015505435752051792 0.045815509999799851 0 -0.0016161953924282168 0.046388670195474269 0 -0.002311502479773127 0.046282814252641108 0 -0.0020498103383341268 0.046983395695075411 0 -0.002311502479773127 0.046282814252641108 0 -0.0020498103383341268 0.046983395695075411 0 -0.0025389319565274314 0.046683730713699655 0 -0.0020498103383341268 0.046983395695075411 0 -0.0025066543406225619 0.047079719664637393 0 -0.0025389319565274314 0.046683730713699655 0 -0.0020498103383341268 0.046983395695075411 0 -0.0013646215145186804 0.046979045946249798 0 -0.0016663353817760866 0.047238382147830486 0 -0.0020498103383341268 0.046983395695075411 0 -0.0016663353817760866 0.047238382147830486 0 -0.0019693968975742172 0.047684980772557423 0 -0.0020498103383341268 0.046983395695075411 0 -0.0019693968975742172 0.047684980772557423 0 -0.0025066543406225619 0.047079719664637393 0 -0.00090353901620507198 0.047262065795341493 0 -0.00087774195029746845 0.046974555860056298 0 -0.0013646215145186804 0.046979045946249798 0 -0.00087774195029746845 0.046974555860056298 0 -0.0010333416623575975 0.046657502545317316 0 -0.0013646215145186804 0.046979045946249798 0 -0.0016161953924282168 0.046388670195474269 0 -0.0020498103383341268 0.046983395695075411 0 -0.0013646215145186804 0.046979045946249798 0 -0.0013646215145186804 0.046979045946249798 0 -0.0016663353817760866 0.047238382147830486 0 -0.0013031268360166981 0.047389943244201878 0 -0.0016663353817760866 0.047238382147830486 0 -0.0013031268360166981 0.047389943244201878 0 -0.0019693968975742172 0.047684980772557423 0 -0.00090353901620507198 0.047262065795341493 0 -0.0013646215145186804 0.046979045946249798 0 -0.0013031268360166981 0.047389943244201878 0 -0.00090353901620507198 0.047262065795341493 0 -0.0013031268360166981 0.047389943244201878 0 -0.00098143660332519907 0.047512763002792884 0 -0.0013031268360166981 0.047389943244201878 0 -0.0011057532228332617 0.047753256816754151 0 -0.0019693968975742172 0.047684980772557423 0 -0.0014416163300759966 0.048053100822271509 0 -0.0026133737900472286 0.047335307348454113 0 -0.0011057532228332617 0.047753256816754151 0 -0.0010015486674553463 0.047984440792236807 0 -0.0019693968975742172 0.047684980772557423 0 -0.0029226658724231629 0.047122478791870391 0 -0.0029846401180387205 0.047149025769691717 0 -0.0029678503958105672 0.047172889285532739 0 -0.0013031268360166981 0.047389943244201878 0 -0.00098143660332519907 0.047512763002792884 0 -0.0011057532228332617 0.047753256816754151 0 -0.0013563980595885786 0.047956552823434397 0 -0.0014416163300759966 0.048053100822271509 0 -0.0029846401180387205 0.047149025769691717 0 -0.0029678503958105672 0.047172889285532739 0 -0.0029984350961852033 0.047177406535442362 0 -0.0029846401180387205 0.047149025769691717 0 -0.0029984350961852033 0.047177406535442362 0 -0.0030279300343852142 0.047179708212533519 0 -0.0029678503958105672 0.047172889285532739 0 -0.0029984350961852033 0.047177406535442362 0 -0.002985340610078819 0.047173757915257027 0 -0.0029492696410879332 0.047184284177584482 0 -0.0029678503958105672 0.047172889285532739 0 -0.002985340610078819 0.047173757915257027 0 -0.0029492696410879332 0.047184284177584482 0 -0.0029678503958105672 0.047172889285532739 0 -0.0029321256574415451 0.047195438528282709 0 -0.0029201678544948776 0.04719760207795589 0 -0.002882350122164608 0.047221220483073749 0 -0.0029321256574415451 0.047195438528282709 0 -0.002882350122164608 0.047221220483073749 0 -0.0029226658724231629 0.047122478791870391 0 -0.0029321256574415451 0.047195438528282709 0 -0.0029226658724231629 0.047122478791870391 0 -0.0029678503958105672 0.047172889285532739 0 -0.0029321256574415451 0.047195438528282709 0 -0.0036090666070685341 0.041740734729693231 0 -0.0033039643060869105 0.04204045473192608 0 -0.0039515724043044003 0.042219288392624996 0 -0.0033039643060869105 0.04204045473192608 0 -0.0039515724043044003 0.042219288392624996 0 -0.0036123282685696909 0.042771952007383297 0 -0.0029984350961852033 0.047177406535442362 0 -0.002985340610078819 0.047173757915257027 0 -0.0029938776621743746 0.047179256997527029 0 -0.0029984350961852033 0.047177406535442362 0 -0.0029938776621743746 0.047179256997527029 0 -0.0030279300343852142 0.047179708212533519 0 -0.0035994833557687106 0.044913947000950617 0 -0.0035479007733502307 0.045190402071547092 0 -0.0029938776621743746 0.047179256997527029 0 -0.0031070835209342012 0.047190291244657213 0 -0.0031863309299382248 0.047170973184655962 0 -0.0029938776621743746 0.047179256997527029 0 -0.0030279300343852142 0.047179708212533519 0 -0.0031070835209342012 0.047190291244657213 0 -0.0026133737900472286 0.047335307348454113 0 -0.0029965347478538504 0.047232574489403191 0 -0.0029846401180387205 0.047149025769691717 0 -0.0030279300343852142 0.047179708212533519 0 -0.0031070835209342012 0.047190291244657213 0 -0.0039515724043044003 0.042219288392624996 0 -0.0036123282685696909 0.042771952007383297 0 -0.0039904732380027803 0.043382925320780315 0 -0.0036123282685696909 0.042771952007383297 0 -0.0033167863375397569 0.043297906910712863 0 -0.0030348676392399371 0.042952606130650967 0 -0.0036123282685696909 0.042771952007383297 0 -0.0033167863375397569 0.043297906910712863 0 -0.0036160241063025907 0.043319152461927003 0 -0.0033167863375397569 0.043297906910712863 0 -0.0036160241063025907 0.043319152461927003 0 -0.0034439074352571233 0.043681328133136986 0 -0.0036123282685696909 0.042771952007383297 0 -0.0036160241063025907 0.043319152461927003 0 -0.0039904732380027803 0.043382925320780315 0 -0.0036160241063025907 0.043319152461927003 0 -0.0036433575169649303 0.043626143059084903 0 -0.0039904732380027803 0.043382925320780315 0 -0.0036433575169649303 0.043626143059084903 0 -0.0034439074352571233 0.043681328133136986 0 -0.0035160126823864939 0.044069515826691157 0 -0.0036160241063025907 0.043319152461927003 0 -0.0036433575169649303 0.043626143059084903 0 -0.0034439074352571233 0.043681328133136986 0 -0.0036433575169649303 0.043626143059084903 0 -0.0039904732380027803 0.043382925320780315 0 -0.0035160126823864939 0.044069515826691157 0 -0.0034439074352571233 0.043681328133136986 0 -0.0032499320019551015 0.044113129031430956 0 -0.0031564769236483181 0.043663985701393362 0 -0.0033167863375397569 0.043297906910712863 0 -0.0034439074352571233 0.043681328133136986 0 -0.0031564769236483181 0.043663985701393362 0 -0.0019693968975742172 0.047684980772557423 0 -0.0025066543406225619 0.047079719664637393 0 -0.0031070835209342012 0.047190291244657213 0 -0.0031863309299382248 0.047170973184655962 0 -0.0028544281816900935 0.046868891538090832 0 -0.0028424224359277863 0.046152497464053172 0 -0.0025066543406225619 0.047079719664637393 0 -0.0031070835209342012 0.047190291244657213 0 -0.0028544281816900935 0.046868891538090832 0 -0.0031070835209342012 0.047190291244657213 0 -0.0031863309299382248 0.047170973184655962 0 -0.0028544281816900935 0.046868891538090832 0 -0.0025066543406225619 0.047079719664637393 0 -0.0028544281816900935 0.046868891538090832 0 -0.0025389319565274314 0.046683730713699655 0 -0.0031863309299382248 0.047170973184655962 0 -0.0028424224359277863 0.046152497464053172 0 -0.0034577476682667863 0.045091554187376821 0 -0.0035479007733502307 0.045190402071547092 0 -0.00349067980666125 0.045100072536726543 0 -0.002311502479773127 0.046282814252641108 0 -0.0025389319565274314 0.046683730713699655 0 -0.0028424224359277863 0.046152497464053172 0 -0.0028544281816900935 0.046868891538090832 0 -0.0025389319565274314 0.046683730713699655 0 -0.0028424224359277863 0.046152497464053172 0 -0.002311502479773127 0.046282814252641108 0 -0.0028424224359277863 0.046152497464053172 0 -0.0026044150491925117 0.045474789090852979 0 -0.0039904732380027803 0.043382925320780315 0 -0.0035160126823864939 0.044069515826691157 0 -0.0034577476682667863 0.045091554187376821 0 -0.0035160126823864939 0.044069515826691157 0 -0.0033712925567214043 0.044506577951671747 0 -0.0034577476682667863 0.045091554187376821 0 -0.0034439074352571233 0.043681328133136986 0 -0.0032499320019551015 0.044113129031430956 0 -0.0035160126823864939 0.044069515826691157 0 -0.0032499320019551015 0.044113129031430956 0 -0.0035160126823864939 0.044069515826691157 0 -0.0033712925567214043 0.044506577951671747 0 -0.0032499320019551015 0.044113129031430956 0 -0.0033712925567214043 0.044506577951671747 0 -0.0032631705516664687 0.044664669558517431 0 -0.0032631705516664687 0.044664669558517431 0 -0.0034305890965657506 0.044942727128371447 0 -0.0030263351364731017 0.044583463942035419 0 -0.0032631705516664687 0.044664669558517431 0 -0.0034577476682667863 0.045091554187376821 0 -0.0034305890965657506 0.044942727128371447 0 -0.0033712925567214043 0.044506577951671747 0 -0.0032631705516664687 0.044664669558517431 0 -0.0034577476682667863 0.045091554187376821 0 -0.0013654001885848206 0.043311720625605572 0 -0.0013626343652163352 0.043199125228731081 0 -0.0013653563744002932 0.043145224283179351 0 -0.0013654001885848206 0.043311720625605572 0 -0.0013626343652163352 0.043199125228731081 0 -0.0013064372293305872 0.043392050098478824 0 -0.0034305890965657506 0.044942727128371447 0 -0.0027130581599110943 0.045074068666886569 0 -0.0023027189345639835 0.044799788093709873 0 -0.0013654001885848206 0.043311720625605572 0 -0.0012168523985075792 0.043775019666044176 0 -0.0013064372293305872 0.043392050098478824 0 -0.0023636627514411149 0.044123627385394902 0 -0.0017086553142438145 0.044325157799212964 0 -0.0034305890965657506 0.044942727128371447 0 -0.0027130581599110943 0.045074068666886569 0 -0.0030642455476317162 0.045100641514604634 0 -0.0027130581599110943 0.045074068666886569 0 -0.0030642455476317162 0.045100641514604634 0 -0.0026044150491925117 0.045474789090852979 0 -0.0034577476682667863 0.045091554187376821 0 -0.0034305890965657506 0.044942727128371447 0 -0.0030642455476317162 0.045100641514604634 0 -0.0034577476682667863 0.045091554187376821 0 -0.0030642455476317162 0.045100641514604634 0 -0.0026044150491925117 0.045474789090852979 0 -0.0028424224359277863 0.046152497464053172 0 -0.0034577476682667863 0.045091554187376821 0 -0.0026044150491925117 0.045474789090852979 0 -0.0026044150491925117 0.045474789090852979 0 -0.0020317908572368686 0.045882593777923364 0 -0.002117905189484195 0.045388182976438964 0 -0.0020317908572368686 0.045882593777923364 0 -0.002117905189484195 0.045388182976438964 0 -0.0015505435752051792 0.045815509999799851 0 -0.0027130581599110943 0.045074068666886569 0 -0.0026044150491925117 0.045474789090852979 0 -0.002117905189484195 0.045388182976438964 0 -0.00073435142322740121 0.046319399589885082 0 -0.0011767567553075953 0.046185189864788964 0 -0.00096124598978215262 0.04571186136309708 0 -0.0011767567553075953 0.046185189864788964 0 -0.0015505435752051792 0.045815509999799851 0 -0.00096124598978215262 0.04571186136309708 0 -0.0015505435752051792 0.045815509999799851 0 -0.00096124598978215262 0.04571186136309708 0 -0.001537328481894519 0.045315578082638544 0 -0.002117905189484195 0.045388182976438964 0 -0.0015505435752051792 0.045815509999799851 0 -0.001537328481894519 0.045315578082638544 0 -0.00079693716993990867 0.044641160961255595 0 -0.0017086553142438145 0.044325157799212964 0 -0.00076978015628043973 0.044757422483170446 0 -0.001537328481894519 0.045315578082638544 0 -0.0023027189345639835 0.044799788093709873 0 -0.00076978015628043973 0.044757422483170446 0 -0.0011039805252541939 0.044005579653640589 0 -0.0012168523985075792 0.043775019666044176 0 -0.00076978015628043973 0.044757422483170446 0 -0.0011039805252541939 0.044005579653640589 0 -0.0010472453530573286 0.044135330598197797 0 -0.00076978015628043973 0.044757422483170446 0 -0.00096124598978215262 0.04571186136309708 0 -0.001537328481894519 0.045315578082638544 0 -0.0027130581599110943 0.045074068666886569 0 -0.002117905189484195 0.045388182976438964 0 -0.0023027189345639835 0.044799788093709873 0 -0.002117905189484195 0.045388182976438964 0 -0.001537328481894519 0.045315578082638544 0 -0.0023027189345639835 0.044799788093709873 0 -0.0011039805252541939 0.044005579653640589 0 -0.0012168523985075792 0.043775019666044176 0 -0.0012071084317841559 0.043155583370285154 0 -0.0011039805252541939 0.044005579653640589 0 -0.001166209192473877 0.043960995470124165 0 -0.0013117343714712938 0.043945340600947048 0 -0.001114158548023738 0.043947582340856446 0 -0.0012732634328270541 0.043555187663809281 0 -0.00086150541398678435 0.043881747823275183 0 -0.001166209192473877 0.043960995470124165 0 -0.0010472453530573286 0.044135330598197797 0 -0.0011039805252541939 0.044005579653640589 0 -0.001166209192473877 0.043960995470124165 0 -0.0010472453530573286 0.044135330598197797 0 -0.00086150541398678435 0.043881747823275183 0 -0.00076978015628043973 0.044757422483170446 0 -0.0010472453530573286 0.044135330598197797 0 -0.00086150541398678435 0.043881747823275183 0 -0.001166209192473877 0.043960995470124165 0 -0.0011749931506711707 0.043850479533938669 0 -0.00017597164960583801 0.045806404835747869 0 -0.00039704235138548826 0.046222310177402109 0 -0.0013117343714712938 0.043945340600947048 0 -0.0013418382174447045 0.043842731667390694 0 -0.0011749931506711707 0.043850479533938669 0 -0.001166209192473877 0.043960995470124165 0 -0.0013117343714712938 0.043945340600947048 0 -0.0011749931506711707 0.043850479533938669 0 -0.0012071084317841559 0.043155583370285154 0 -0.0013589645107427769 0.043025149097989421 0 -0.0013271805281414722 0.04289038761647497 0 -0.0012732634328270541 0.043555187663809281 0 -0.0013935745177127527 0.043367078546041798 0 -0.0012071084317841559 0.043155583370285154 0 -0.0013589645107427769 0.043025149097989421 0 -0.0013626343652163352 0.043199125228731081 0 -0.0013589645107427769 0.043025149097989421 0 -0.0013626343652163352 0.043199125228731081 0 -0.0013782808262309853 0.043017462671810017 0 -0.0012071084317841559 0.043155583370285154 0 -0.0013626343652163352 0.043199125228731081 0 -0.0013064372293305872 0.043392050098478824 0 -0.0012168523985075792 0.043775019666044176 0 -0.0012071084317841559 0.043155583370285154 0 -0.0013064372293305872 0.043392050098478824 0 -0.0013670758589152219 0.042934154998516508 0 -0.001349017625800886 0.042993954038681642 0 -0.0013782808262309853 0.043017462671810017 0 -0.0013670758589152219 0.042934154998516508 0 -0.001349017625800886 0.042993954038681642 0 -0.0013440963292389197 0.042884678073926416 0 -0.001349017625800886 0.042993954038681642 0 -0.0013255418978294126 0.042986185770894657 0 -0.0013294679615681656 0.043039592033839995 0 -0.001349017625800886 0.042993954038681642 0 -0.0013440963292389197 0.042884678073926416 0 -0.0013255418978294126 0.042986185770894657 0 -0.001349017625800886 0.042993954038681642 0 -0.0013782808262309853 0.043017462671810017 0 -0.0013539282849261581 0.043072247960328512 0 -0.0013626343652163352 0.043199125228731081 0 -0.0013782808262309853 0.043017462671810017 0 -0.0013653563744002932 0.043145224283179351 0 -0.0013782808262309853 0.043017462671810017 0 -0.0013539282849261581 0.043072247960328512 0 -0.0013653563744002932 0.043145224283179351 0 -0.0013589645107427769 0.043025149097989421 0 -0.0013782808262309853 0.043017462671810017 0 -0.0014195162150599848 0.042863267468306952 0 -0.0013782808262309853 0.043017462671810017 0 -0.0013922543685908418 0.042870709369697696 0 -0.0014195162150599848 0.042863267468306952 0 -0.0013670758589152219 0.042934154998516508 0 -0.0013782808262309853 0.043017462671810017 0 -0.0013922543685908418 0.042870709369697696 0 -0.0013670758589152219 0.042934154998516508 0 -0.0013922543685908418 0.042870709369697696 0 -0.001368590047083362 0.042801634236259725 0 -0.0013670758589152219 0.042934154998516508 0 -0.001368590047083362 0.042801634236259725 0 -0.0013440963292389197 0.042884678073926416 0 -0.0013922543685908418 0.042870709369697696 0 -0.001368590047083362 0.042801634236259725 0 -0.0014076241726927927 0.042768814011202604 0 -0.001368590047083362 0.042801634236259725 0 -0.0013466457586439162 0.042725360815613213 0 -0.0013644625132965776 0.042674280469190105 0 -0.0013466457586439162 0.042725360815613213 0 -0.0013426704687382214 0.042813501994463168 0 -0.0013440963292389197 0.042884678073926416 0 -0.001368590047083362 0.042801634236259725 0 -0.0013466457586439162 0.042725360815613213 0 -0.0013440963292389197 0.042884678073926416 0 -0.0013466457586439162 0.042725360815613213 0 -0.0013435260164538748 0.042652808285042504 0 -0.0013306445311107573 0.042534861235215889 0 -0.0013466457586439162 0.042725360815613213 0 -0.0013435260164538748 0.042652808285042504 0 -0.0013426704687382214 0.042813501994463168 0 -0.0013435260164538748 0.042652808285042504 0 -0.0013627826995599795 0.042832979040191524 0 -0.0014176343341693956 0.04276887367739126 0 -0.0013435260164538748 0.042652808285042504 0 -0.0013426704687382214 0.042813501994463168 0 -0.0013627826995599795 0.042832979040191524 0 -0.0013426704687382214 0.042813501994463168 0 -0.0013627826995599795 0.042832979040191524 0 -0.0013293090057287739 0.042914921825763577 0 -0.0013627826995599795 0.042832979040191524 0 -0.0013293090057287739 0.042914921825763577 0 -0.0013679553869507281 0.042951253338461309 0 -0.0013627826995599795 0.042832979040191524 0 -0.0013679553869507281 0.042951253338461309 0 -0.0014176343341693956 0.04276887367739126 0 -0.0013426704687382214 0.042813501994463168 0 -0.0013440963292389197 0.042884678073926416 0 -0.0013293090057287739 0.042914921825763577 0 -0.0013440963292389197 0.042884678073926416 0 -0.0013293090057287739 0.042914921825763577 0 -0.0013255418978294126 0.042986185770894657 0 -0.0013255418978294126 0.042986185770894657 0 -0.001302979015292332 0.043051217171542394 0 -0.0013294679615681656 0.043039592033839995 0 -0.0013255418978294126 0.042986185770894657 0 -0.0013131981006613237 0.043011481816666218 0 -0.001302979015292332 0.043051217171542394 0 -0.0013293090057287739 0.042914921825763577 0 -0.0013255418978294126 0.042986185770894657 0 -0.0013131981006613237 0.043011481816666218 0 -0.0013131981006613237 0.043011481816666218 0 -0.001302979015292332 0.043051217171542394 0 -0.0012800921268328422 0.043080411296251911 0 -0.0013131981006613237 0.043011481816666218 0 -0.0013612129928216045 0.043091693391616365 0 -0.0012800921268328422 0.043080411296251911 0 -0.0013293090057287739 0.042914921825763577 0 -0.0013131981006613237 0.043011481816666218 0 -0.0013679553869507281 0.042951253338461309 0 -0.0013131981006613237 0.043011481816666218 0 -0.0013679553869507281 0.042951253338461309 0 -0.0013612129928216045 0.043091693391616365 0 -0.0013679553869507281 0.042951253338461309 0 -0.0013612129928216045 0.043091693391616365 0 -0.0014493000138262658 0.043136166292205728 0 -0.0015951275561339013 0.043549118024622399 0 -0.0015203821453597074 0.043404244194798949 0 -0.0013612129928216045 0.043091693391616365 0 -0.0012800921268328422 0.043080411296251911 0 -0.0014866354471275037 0.043375093850149017 0 -0.0018191776646518131 0.043986056000385937 0 -0.0015772118380460555 0.04344763692393866 0 -0.0014866354471275037 0.043375093850149017 0 -0.0018191776646518131 0.043986056000385937 0 -0.0020976762513026941 0.043784229642735366 0 -0.0015772118380460555 0.04344763692393866 0 -0.001302979015292332 0.043051217171542394 0 -0.0012800921268328422 0.043080411296251911 0 -0.0013186613562254899 0.04306189168385207 0 -0.002165300947069097 0.044198381916785281 0 -0.0028514725820158386 0.044520568936442712 0 -0.0027322457912278132 0.044283154966789737 0 -0.0015951275561339013 0.043549118024622399 0 -0.0020673188836340226 0.043876529472807485 0 -0.0020976762513026941 0.043784229642735366 0 -0.0027620175922238926 0.044690588966020663 0 -0.0028514725820158386 0.044520568936442712 0 -0.0021185223318421422 0.043999776116755873 0 -0.0027917803728193563 0.044433240852106336 0 -0.0018191776646518131 0.043986056000385937 0 -0.0020976762513026941 0.043784229642735366 0 -0.0027620175922238926 0.044690588966020663 0 -0.0012800921268328422 0.043080411296251911 0 -0.0013186613562254899 0.04306189168385207 0 -0.0013535847208667039 0.043075442410420987 0 -0.001302979015292332 0.043051217171542394 0 -0.0013186613562254899 0.04306189168385207 0 -0.0013294679615681656 0.043039592033839995 0 -0.0013186613562254899 0.04306189168385207 0 -0.0013422261635137557 0.043078565541940138 0 -0.0013294679615681656 0.043039592033839995 0 -0.0013186613562254899 0.04306189168385207 0 -0.0013422261635137557 0.043078565541940138 0 -0.0013535847208667039 0.043075442410420987 0 -0.001349017625800886 0.042993954038681642 0 -0.0013539282849261581 0.043072247960328512 0 -0.0013294679615681656 0.043039592033839995 0 -0.0013422261635137557 0.043078565541940138 0 -0.0013539282849261581 0.043072247960328512 0 -0.0013294679615681656 0.043039592033839995 0 -0.0023636627514411149 0.044123627385394902 0 -0.0020673188836340226 0.043876529472807485 0 -0.0013654001885848206 0.043311720625605572 0 -0.0013610560201466522 0.043131772016603197 0 -0.0013535847208667039 0.043075442410420987 0 -0.0013654001885848206 0.043311720625605572 0 -0.0013653563744002932 0.043145224283179351 0 -0.0013610560201466522 0.043131772016603197 0 -0.0013539282849261581 0.043072247960328512 0 -0.0013653563744002932 0.043145224283179351 0 -0.0013610560201466522 0.043131772016603197 0 -0.0013422261635137557 0.043078565541940138 0 -0.0013539282849261581 0.043072247960328512 0 -0.0013610560201466522 0.043131772016603197 0 -0.0013422261635137557 0.043078565541940138 0 -0.0013610560201466522 0.043131772016603197 0 -0.0013535847208667039 0.043075442410420987 0 -0.0034305890965657506 0.044942727128371447 0 -0.0027620175922238926 0.044690588966020663 0 -0.0030263351364731017 0.044583463942035419 0 -0.0027620175922238926 0.044690588966020663 0 -0.0028514725820158386 0.044520568936442712 0 -0.0030263351364731017 0.044583463942035419 0 -0.0028514725820158386 0.044520568936442712 0 -0.0027322457912278132 0.044283154966789737 0 -0.0030263351364731017 0.044583463942035419 0 -0.0027322457912278132 0.044283154966789737 0 -0.0030263351364731017 0.044583463942035419 0 -0.0029699943129257718 0.04424330544661511 0 -0.0032631705516664687 0.044664669558517431 0 -0.0030263351364731017 0.044583463942035419 0 -0.0029699943129257718 0.04424330544661511 0 -0.0032499320019551015 0.044113129031430956 0 -0.0032631705516664687 0.044664669558517431 0 -0.0029699943129257718 0.04424330544661511 0 -0.0027322457912278132 0.044283154966789737 0 -0.0029699943129257718 0.04424330544661511 0 -0.0026061603847422421 0.044006547303112216 0 -0.0029699943129257718 0.04424330544661511 0 -0.0029307126071176316 0.043843698804391401 0 -0.0026061603847422421 0.044006547303112216 0 -0.0032499320019551015 0.044113129031430956 0 -0.0029699943129257718 0.04424330544661511 0 -0.0029307126071176316 0.043843698804391401 0 -0.0032499320019551015 0.044113129031430956 0 -0.0029307126071176316 0.043843698804391401 0 -0.0031564769236483181 0.043663985701393362 0 -0.002165300947069097 0.044198381916785281 0 -0.0027322457912278132 0.044283154966789737 0 -0.0026061603847422421 0.044006547303112216 0 -0.002165300947069097 0.044198381916785281 0 -0.0026061603847422421 0.044006547303112216 0 -0.002278733853974352 0.043791350195600966 0 -0.0026061603847422421 0.044006547303112216 0 -0.002278733853974352 0.043791350195600966 0 -0.0025237479437944113 0.043561431434198362 0 -0.0029307126071176316 0.043843698804391401 0 -0.0026061603847422421 0.044006547303112216 0 -0.0025237479437944113 0.043561431434198362 0 -0.0025237479437944113 0.043561431434198362 0 -0.0028692315252661785 0.043386485392640693 0 -0.0025423278762886393 0.042889820245684329 0 -0.0025237479437944113 0.043561431434198362 0 -0.0025423278762886393 0.042889820245684329 0 -0.0021101023250028124 0.043279942237249194 0 -0.002278733853974352 0.043791350195600966 0 -0.0025237479437944113 0.043561431434198362 0 -0.0021101023250028124 0.043279942237249194 0 -0.0033167863375397569 0.043297906910712863 0 -0.0031564769236483181 0.043663985701393362 0 -0.0028692315252661785 0.043386485392640693 0 -0.0029307126071176316 0.043843698804391401 0 -0.0031564769236483181 0.043663985701393362 0 -0.0028692315252661785 0.043386485392640693 0 -0.0029307126071176316 0.043843698804391401 0 -0.0025237479437944113 0.043561431434198362 0 -0.0028692315252661785 0.043386485392640693 0 -0.0028692315252661785 0.043386485392640693 0 -0.0030348676392399371 0.042952606130650967 0 -0.0025423278762886393 0.042889820245684329 0 -0.0033167863375397569 0.043297906910712863 0 -0.0028692315252661785 0.043386485392640693 0 -0.0030348676392399371 0.042952606130650967 0 -0.0036123282685696909 0.042771952007383297 0 -0.0030348676392399371 0.042952606130650967 0 -0.0028843334654224872 0.042414303432350038 0 -0.0030348676392399371 0.042952606130650967 0 -0.0025423278762886393 0.042889820245684329 0 -0.0028843334654224872 0.042414303432350038 0 -0.0025423278762886393 0.042889820245684329 0 -0.0021050278810092753 0.042566313885660179 0 -0.0021101023250028124 0.043279942237249194 0 -0.0025423278762886393 0.042889820245684329 0 -0.0024153453946568924 0.042234563202296647 0 -0.0028843334654224872 0.042414303432350038 0 -0.0025423278762886393 0.042889820245684329 0 -0.0024153453946568924 0.042234563202296647 0 -0.0021050278810092753 0.042566313885660179 0 -0.0024720174241880952 0.0417313153094057 0 -0.0024153453946568924 0.042234563202296647 0 -0.0028843334654224872 0.042414303432350038 0 -0.0024720174241880952 0.0417313153094057 0 -0.0033039643060869105 0.04204045473192608 0 -0.0028843334654224872 0.042414303432350038 0 -0.0033039643060869105 0.04204045473192608 0 -0.0036123282685696909 0.042771952007383297 0 -0.0028843334654224872 0.042414303432350038 0 -0.0017929728923161742 0.041846348948646132 0 -0.0013163275348956462 0.042306911623781633 0 -0.0010823920013605833 0.041552987041002132 0 -0.0018806397787640816 0.040283806948731335 0 -0.0027246027193209275 0.040202410714009623 0 -0.0010823920013605833 0.041552987041002132 0 -0.0021697469059491388 0.041037936875012324 0 -0.0011042355702081709 0.041531877867093135 0 -0.0024153453946568924 0.042234563202296647 0 -0.0017929728923161742 0.041846348948646132 0 -0.0021050278810092753 0.042566313885660179 0 -0.0024720174241880952 0.0417313153094057 0 -0.0024153453946568924 0.042234563202296647 0 -0.0017929728923161742 0.041846348948646132 0 -0.0025915063396408896 0.040670828906543062 0 -0.0021697469059491388 0.041037936875012324 0 -0.0021050278810092753 0.042566313885660179 0 -0.0016803529818252281 0.042653929490486769 0 -0.0021101023250028124 0.043279942237249194 0 -0.0017929728923161742 0.041846348948646132 0 -0.0021050278810092753 0.042566313885660179 0 -0.0016803529818252281 0.042653929490486769 0 -0.0017929728923161742 0.041846348948646132 0 -0.0016803529818252281 0.042653929490486769 0 -0.0013163275348956462 0.042306911623781633 0 -0.0016803529818252281 0.042653929490486769 0 -0.0013163275348956462 0.042306911623781633 0 -0.0011183939652968415 0.042983547268969857 0 -0.0011183939652968415 0.042983547268969857 0 -0.0016600356735391381 0.043303467456411664 0 -0.00142461757568736 0.043858183643739827 0 -0.0016803529818252281 0.042653929490486769 0 -0.0011183939652968415 0.042983547268969857 0 -0.0016600356735391381 0.043303467456411664 0 -0.0016803529818252281 0.042653929490486769 0 -0.0016600356735391381 0.043303467456411664 0 -0.0021101023250028124 0.043279942237249194 0 -0.0016600356735391381 0.043303467456411664 0 -0.0021101023250028124 0.043279942237249194 0 -0.00192321675311509 0.043708989892345722 0 -0.002165300947069097 0.044198381916785281 0 -0.00192321675311509 0.043708989892345722 0 -0.00142461757568736 0.043858183643739827 0 -0.0021185223318421422 0.043999776116755873 0 -0.0015259359681632193 0.043801015186590263 0 -0.002278733853974352 0.043791350195600966 0 -0.0021101023250028124 0.043279942237249194 0 -0.00192321675311509 0.043708989892345722 0 -0.002165300947069097 0.044198381916785281 0 -0.002278733853974352 0.043791350195600966 0 -0.00192321675311509 0.043708989892345722 0 -0.0016600356735391381 0.043303467456411664 0 -0.00192321675311509 0.043708989892345722 0 -0.00142461757568736 0.043858183643739827 0 -0.0012365380641025097 0.041937561683604442 0 -0.0016600060031132316 0.042436107486530546 0 -0.0015259359681632193 0.043801015186590263 0 -0.0012365380641025097 0.041937561683604442 0 -0.0015772118380460555 0.04344763692393866 0 -0.0015408674340251318 0.0434710779701954 0 -0.0014866354471275037 0.043375093850149017 0 -0.0016988373743839723 0.040409494331714806 0 -0.00099233795941386285 0.040861986315991097 0 -0.0016329670056646028 0.041614476424407028 0 -0.0016988373743839723 0.040409494331714806 0 -0.00099233795941386285 0.040861986315991097 0 -0.00090712355833893392 0.040162786436105873 0 -0.0010978202254251822 0.040230031161090037 0 -0.00090712355833893392 0.040162786436105873 0 -0.0009579181588218748 0.039952451568817861 0 -0.0012365380641025097 0.041937561683604442 0 -0.00083338374332492802 0.040235028276323082 0 -0.00090712355833893392 0.040162786436105873 0 -0.0009579181588218748 0.039952451568817861 0 -0.00074774210276961283 0.039868339831177026 0 -0.00090712355833893392 0.040162786436105873 0 -0.00074774210276961283 0.039868339831177026 0 -0.00058066726413207482 0.039907618950410201 0 -0.0011183939652968415 0.042983547268969857 0 -0.00052628528296471788 0.04354384177156418 0 -0.00063469119714267832 0.042218576743388747 0 -0.0012365380641025097 0.041937561683604442 0 -0.00083964104146948629 0.040951530174004998 0 -0.0011183939652968415 0.042983547268969857 0 -0.00142461757568736 0.043858183643739827 0 -0.00052628528296471788 0.04354384177156418 0 -0.0010978202254251822 0.040230031161090037 0 -0.0009579181588218748 0.039952451568817861 0 -0.0010881469334974843 0.039749785489548883 0 -0.0013163275348956462 0.042306911623781633 0 -0.0011183939652968415 0.042983547268969857 0 -0.00063469119714267832 0.042218576743388747 0 -0.0013163275348956462 0.042306911623781633 0 -0.00063469119714267832 0.042218576743388747 0 -0.0010823920013605833 0.041552987041002132 0 -0.0010881469334974843 0.039749785489548883 0 -0.00090134916631021979 0.039743420817224567 0 -0.0010076309788249434 0.039590166738960028 0 -0.0009579181588218748 0.039952451568817861 0 -0.00074774210276961283 0.039868339831177026 0 -0.00090134916631021979 0.039743420817224567 0 -0.0009579181588218748 0.039952451568817861 0 -0.0010881469334974843 0.039749785489548883 0 -0.00090134916631021979 0.039743420817224567 0 -0.00074774210276961283 0.039868339831177026 0 -0.00090134916631021979 0.039743420817224567 0 -0.00061845486154225426 0.039709657306684486 0 -0.00090134916631021979 0.039743420817224567 0 -0.00078915628466022796 0.039568824759708299 0 -0.00061845486154225426 0.039709657306684486 0 -0.00090134916631021979 0.039743420817224567 0 -0.0010076309788249434 0.039590166738960028 0 -0.00078915628466022796 0.039568824759708299 0 -0.00078915628466022796 0.039568824759708299 0 -0.00048385604649293923 0.039511102531149742 0 -0.00061845486154225426 0.039709657306684486 0 -0.00060196896521828229 0.039222155181443986 0 -0.00078915628466022796 0.039568824759708299 0 -0.00048385604649293923 0.039511102531149742 0 -0.00094136967438629285 0.039412586288605118 0 -0.00060196896521828229 0.039222155181443986 0 -0.00078915628466022796 0.039568824759708299 0 -0.00094136967438629285 0.039412586288605118 0 -0.0010076309788249434 0.039590166738960028 0 -0.00078915628466022796 0.039568824759708299 0 -0.0012841511961124256 0.039472528811895301 0 -0.00094136967438629285 0.039412586288605118 0 -0.0010076309788249434 0.039590166738960028 0 -0.0012841511961124256 0.039472528811895301 0 -0.00063469119714267832 0.042218576743388747 0 -0.0010823920013605833 0.041552987041002132 0 -0.001238935017924953 0.039564451586056003 0 -0.00083964104146948629 0.040951530174004998 0 -0.0012841511961124256 0.039472528811895301 0 -0.0018806397787640816 0.040283806948731335 0 -0.0010823920013605833 0.041552987041002132 0 -0.0012841511961124256 0.039472528811895301 0 -0.0010881469334974843 0.039749785489548883 0 -0.0010076309788249434 0.039590166738960028 0 0.00082442949472050599 0.036808990961974958 0 0.00078211798721413816 0.037016048042723633 0 0.00046298645036559023 0.036561569319866573 0 -2.6462462720856242e-05 0.036743189457583814 0 0.00078211798721413816 0.037016048042723633 0 0.00046298645036559023 0.036561569319866573 0 -0.00024025664636503547 0.039213039724534882 0 -0.00019012948365170751 0.039553697645520018 0 -0.00048385604649293923 0.039511102531149742 0 -0.00024025664636503547 0.039213039724534882 0 -0.00060196896521828229 0.039222155181443986 0 -0.00048385604649293923 0.039511102531149742 0 -0.00048385604649293923 0.039511102531149742 0 -0.00040551535149711165 0.039616114805264661 0 -0.00061845486154225426 0.039709657306684486 0 -0.00019012948365170751 0.039553697645520018 0 -0.00048385604649293923 0.039511102531149742 0 -0.00040551535149711165 0.039616114805264661 0 -0.00019012948365170751 0.039553697645520018 0 -0.00040551535149711165 0.039616114805264661 0 -0.00036720768235208991 0.039700030687805837 0 -0.00019012948365170751 0.039553697645520018 0 -0.00036720768235208991 0.039700030687805837 0 -0.00024475462512091117 0.039756762883068023 0 -0.00040551535149711165 0.039616114805264661 0 -0.00061845486154225426 0.039709657306684486 0 -0.00036720768235208991 0.039700030687805837 0 -0.00061845486154225426 0.039709657306684486 0 -0.00054484223773166695 0.03979711070277879 0 -0.00036720768235208991 0.039700030687805837 0 -0.00074774210276961283 0.039868339831177026 0 -0.00061845486154225426 0.039709657306684486 0 -0.00054484223773166695 0.03979711070277879 0 -0.00074774210276961283 0.039868339831177026 0 -0.00054484223773166695 0.03979711070277879 0 -0.00058066726413207482 0.039907618950410201 0 -0.00054484223773166695 0.03979711070277879 0 -0.00036720768235208991 0.039700030687805837 0 -0.00041204146771035274 0.039813426548275688 0 -0.00036720768235208991 0.039700030687805837 0 -0.00024475462512091117 0.039756762883068023 0 -0.00041204146771035274 0.039813426548275688 0 0.00076022737284155584 0.037127887830648555 0 0.00033571812068217556 0.038376888411124598 0 0.00078211798721413816 0.037016048042723633 0 -0.00024475462512091117 0.039756762883068023 0 1.8011641891584984e-05 0.03998849746978432 0 0.00078211798721413816 0.037016048042723633 0 0.00076917857486356032 0.036867119744382809 0 0.00069226253901992659 0.036815378070021401 0 0.00081763158915916609 0.036886894514998818 0 0.00078211798721413816 0.037016048042723633 0 0.00076917857486356032 0.036867119744382809 0 -7.7798619381686364e-05 0.038201152560441688 0 -0.00023189476368469031 0.039658402650619179 0 -2.6462462720856242e-05 0.036743189457583814 0 0.00078211798721413816 0.037016048042723633 0 -0.00024475462512091117 0.039756762883068023 0 0.00076917857486356032 0.036867119744382809 0 0.0007537517221462872 0.036869948377286001 0 0.00069226253901992659 0.036815378070021401 0 0.00084194166003717815 0.036881722783940397 0 0.00076917857486356032 0.036867119744382809 0 0.0007537517221462872 0.036869948377286001 0 -0.00024475462512091117 0.039756762883068023 0 1.8011641891584984e-05 0.03998849746978432 0 -0.00042685716049904623 0.040040914852322258 0 0.00069226253901992659 0.036815378070021401 0 0.00070563582642982261 0.03691385248323336 0 0.00056410193666252815 0.037062118883401149 0 0.00081800467931234043 0.036940913037781596 0 0.00070563582642982261 0.03691385248323336 0 0.00056410193666252815 0.037062118883401149 0 0.00081800467931234043 0.036940913037781596 0 0.0007537517221462872 0.036869948377286001 0 0.00070563582642982261 0.03691385248323336 0 0.0007537517221462872 0.036869948377286001 0 0.00069226253901992659 0.036815378070021401 0 0.00070563582642982261 0.03691385248323336 0 -0.00090712355833893392 0.040162786436105873 0 -0.00058066726413207482 0.039907618950410201 0 -0.00042685716049904623 0.040040914852322258 0 -0.00054484223773166695 0.03979711070277879 0 -0.00058066726413207482 0.039907618950410201 0 -0.00041204146771035274 0.039813426548275688 0 -0.00058066726413207482 0.039907618950410201 0 -0.00041204146771035274 0.039813426548275688 0 -0.00042685716049904623 0.040040914852322258 0 -0.00024475462512091117 0.039756762883068023 0 -0.00041204146771035274 0.039813426548275688 0 -0.00042685716049904623 0.040040914852322258 0 1.8011641891584984e-05 0.03998849746978432 0 -0.00042685716049904623 0.040040914852322258 0 -0.00047891556066737939 0.040399155352012106 0 -0.00090712355833893392 0.040162786436105873 0 -0.00042685716049904623 0.040040914852322258 0 -0.00047891556066737939 0.040399155352012106 0 1.8011641891584984e-05 0.03998849746978432 0 -0.00047891556066737939 0.040399155352012106 0 -0.00033234848515858529 0.041038466835382065 0 -0.00099233795941386285 0.040861986315991097 0 -0.00090712355833893392 0.040162786436105873 0 -0.00047891556066737939 0.040399155352012106 0 -0.00099233795941386285 0.040861986315991097 0 -0.00047891556066737939 0.040399155352012106 0 -0.00033234848515858529 0.041038466835382065 0 0.00033571812068217556 0.038376888411124598 0 -0.00013384809525324309 0.039198060601334593 0 0.0009781897743047106 0.037132806363575389 0 0.00056410193666252815 0.037062118883401149 0 0.00070705262056842565 0.037496517150906919 0 7.5608676660774815e-05 0.037282347413787519 0 0.00056410193666252815 0.037062118883401149 0 0.00070705262056842565 0.037496517150906919 0 0.00069226253901992659 0.036815378070021401 0 7.5608676660774815e-05 0.037282347413787519 0 0.00056410193666252815 0.037062118883401149 0 0.0009781897743047106 0.037132806363575389 0 0.00081800467931234043 0.036940913037781596 0 0.00056410193666252815 0.037062118883401149 0 7.5608676660774815e-05 0.037282347413787519 0 0.00070705262056842565 0.037496517150906919 0 0.00047603024710595718 0.038344460253812336 0 0.00047603024710595718 0.038344460253812336 0 -0.00058310111566146916 0.038476773623156262 0 -0.00015458244783715108 0.039356411555634206 0 -0.00033234848515858529 0.041038466835382065 0 -0.00086710512627119539 0.042221483511777028 0 -0.00103553270592909 0.041559173621561897 0 -0.00013384809525324309 0.039198060601334593 0 -0.00072932532072136425 0.04033346923165039 0 7.5608676660774815e-05 0.037282347413787519 0 0.00047603024710595718 0.038344460253812336 0 -0.00058310111566146916 0.038476773623156262 0 -0.00099233795941386285 0.040861986315991097 0 -0.00033234848515858529 0.041038466835382065 0 -0.00103553270592909 0.041559173621561897 0 -0.00099233795941386285 0.040861986315991097 0 -0.00103553270592909 0.041559173621561897 0 -0.0016329670056646028 0.041614476424407028 0 -0.00103553270592909 0.041559173621561897 0 -0.0016329670056646028 0.041614476424407028 0 -0.0012730171140135037 0.042028155593300073 0 -0.0015408674340251318 0.0434710779701954 0 -0.0014866354471275037 0.043375093850149017 0 -0.0016294318547503068 0.043270830203516034 0 -0.0014866354471275037 0.043375093850149017 0 -0.0016294318547503068 0.043270830203516034 0 -0.0014493000138262658 0.043136166292205728 0 -0.0013612129928216045 0.043091693391616365 0 -0.0014866354471275037 0.043375093850149017 0 -0.0014493000138262658 0.043136166292205728 0 -0.0016294318547503068 0.043270830203516034 0 -0.0014600966715510371 0.042936258399480003 0 -0.0015349477609949962 0.042674169757005088 0 -0.0013679553869507281 0.042951253338461309 0 -0.0014493000138262658 0.043136166292205728 0 -0.0014600966715510371 0.042936258399480003 0 -0.0016294318547503068 0.043270830203516034 0 -0.0014493000138262658 0.043136166292205728 0 -0.0014600966715510371 0.042936258399480003 0 -0.0013679553869507281 0.042951253338461309 0 -0.0014600966715510371 0.042936258399480003 0 -0.0014176343341693956 0.04276887367739126 0 -0.0016600060031132316 0.042436107486530546 0 -0.0015415694744784663 0.042678418379211949 0 -0.00086710512627119539 0.042221483511777028 0 -0.0012730171140135037 0.042028155593300073 0 -0.0015349477609949962 0.042674169757005088 0 -0.0016329670056646028 0.041614476424407028 0 -0.0012730171140135037 0.042028155593300073 0 -0.0015349477609949962 0.042674169757005088 0 -0.00086710512627119539 0.042221483511777028 0 -0.00103553270592909 0.041559173621561897 0 -0.0012730171140135037 0.042028155593300073 0 -0.00072932532072136425 0.04033346923165039 0 -0.0012665575835418181 0.041401537285304685 0 -0.00086710512627119539 0.042221483511777028 0 -0.0015349477609949962 0.042674169757005088 0 -0.0014939192883331022 0.042798683117397693 0 -0.0015349477609949962 0.042674169757005088 0 -0.0014480968254346964 0.042705041187012828 0 -0.0014939192883331022 0.042798683117397693 0 -0.0014600966715510371 0.042936258399480003 0 -0.0015349477609949962 0.042674169757005088 0 -0.0014176343341693956 0.04276887367739126 0 -0.0015349477609949962 0.042674169757005088 0 -0.0014480968254346964 0.042705041187012828 0 -0.0014176343341693956 0.04276887367739126 0 -0.0013435260164538748 0.042652808285042504 0 -0.0014480968254346964 0.042705041187012828 0 -0.0014176343341693956 0.04276887367739126 0 -0.0013435260164538748 0.042652808285042504 0 -0.0014480968254346964 0.042705041187012828 0 -0.0013647967587720649 0.042542581349998242 0 -0.0013435260164538748 0.042652808285042504 0 -0.0013647967587720649 0.042542581349998242 0 -0.0013088718111538874 0.042376297084722049 0 -0.0013647967587720649 0.042542581349998242 0 -0.0014939192883331022 0.042798683117397693 0 -0.0013370539435242578 0.042087952660779346 0 -0.0012665575835418181 0.041401537285304685 0 -0.0013618946158145348 0.042015382544555092 0 -0.0011441658864793024 0.040037550689222906 0 -0.00066787568126761151 0.041097564654393383 0 -0.0013370539435242578 0.042087952660779346 0 -0.0014480968254346964 0.042705041187012828 0 -0.0013647967587720649 0.042542581349998242 0 -0.0014939192883331022 0.042798683117397693 0 -0.00017264485579732914 0.040253612335184555 0 -8.3858279361977286e-05 0.041230261671045522 0 -0.00066787568126761151 0.041097564654393383 0 -0.0011441658864793024 0.040037550689222906 0 -0.00017264485579732914 0.040253612335184555 0 -0.00066787568126761151 0.041097564654393383 0 -0.00017264485579732914 0.040253612335184555 0 0.0004279597631912339 0.040722584080685909 0 -8.3858279361977286e-05 0.041230261671045522 0 -0.00017264485579732914 0.040253612335184555 0 0.0004279597631912339 0.040722584080685909 0 0.00055034685829790655 0.039734069846350986 0 0.0011003177855133063 0.040461480428194682 0 0.0004279597631912339 0.040722584080685909 0 0.00055034685829790655 0.039734069846350986 0 0.00047603024710595718 0.038344460253812336 0 0.00055034685829790655 0.039734069846350986 0 -0.00015458244783715108 0.039356411555634206 0 0.0014885034575686483 0.039397726337204515 0 0.00047603024710595718 0.038344460253812336 0 0.00055034685829790655 0.039734069846350986 0 -0.0011441658864793024 0.040037550689222906 0 -0.00017264485579732914 0.040253612335184555 0 -0.00015458244783715108 0.039356411555634206 0 -0.00058310111566146916 0.038476773623156262 0 -0.0011441658864793024 0.040037550689222906 0 -0.00015458244783715108 0.039356411555634206 0 -0.00017264485579732914 0.040253612335184555 0 0.00055034685829790655 0.039734069846350986 0 -0.00015458244783715108 0.039356411555634206 0 -4.2825355344757224e-05 0.042225161675641158 0 -0.00067078282763115521 0.041782071895146024 0 -0.00079281543646904503 0.042300957585409943 0 0.001181123129766094 0.04196930390109567 0 -4.2825355344757224e-05 0.042225161675641158 0 0.00070435801893636754 0.041343099349884116 0 0.001181123129766094 0.04196930390109567 0 -4.2825355344757224e-05 0.042225161675641158 0 0.0007739988539432975 0.042723543730844825 0 0.0004279597631912339 0.040722584080685909 0 0.00070435801893636754 0.041343099349884116 0 -8.3858279361977286e-05 0.041230261671045522 0 -4.2825355344757224e-05 0.042225161675641158 0 0.00070435801893636754 0.041343099349884116 0 -8.3858279361977286e-05 0.041230261671045522 0 0.0011003177855133063 0.040461480428194682 0 0.0004279597631912339 0.040722584080685909 0 0.00070435801893636754 0.041343099349884116 0 -4.2825355344757224e-05 0.042225161675641158 0 -8.3858279361977286e-05 0.041230261671045522 0 -0.00067078282763115521 0.041782071895146024 0 -8.3858279361977286e-05 0.041230261671045522 0 -0.00066787568126761151 0.041097564654393383 0 -0.00067078282763115521 0.041782071895146024 0 -0.00066787568126761151 0.041097564654393383 0 -0.0013370539435242578 0.042087952660779346 0 -0.00067078282763115521 0.041782071895146024 0 -0.0013370539435242578 0.042087952660779346 0 -0.00067078282763115521 0.041782071895146024 0 -0.00079281543646904503 0.042300957585409943 0 -0.0013370539435242578 0.042087952660779346 0 -0.0013088718111538874 0.042376297084722049 0 -0.00123770674106057 0.042428464442000512 0 -0.0013647967587720649 0.042542581349998242 0 -0.0013370539435242578 0.042087952660779346 0 -0.0013088718111538874 0.042376297084722049 0 -0.0013088718111538874 0.042376297084722049 0 -0.00123770674106057 0.042428464442000512 0 -0.0013059719391214654 0.042538799429659151 0 -0.00123770674106057 0.042428464442000512 0 -0.0013032755510532937 0.042704301463116191 0 -0.0013059719391214654 0.042538799429659151 0 -0.0013370539435242578 0.042087952660779346 0 -0.00123770674106057 0.042428464442000512 0 -0.00079281543646904503 0.042300957585409943 0 -0.00123770674106057 0.042428464442000512 0 -0.00079281543646904503 0.042300957585409943 0 -0.00075257674693552669 0.043088677085671857 0 -0.0012725174373902752 0.042091805881362659 0 -0.00076781363866756751 0.043971950981137042 0 -0.00123770674106057 0.042428464442000512 0 -0.0011480815530105365 0.042837461596795558 0 -0.0013032755510532937 0.042704301463116191 0 -0.00123770674106057 0.042428464442000512 0 -0.0011480815530105365 0.042837461596795558 0 -0.00073426044100692513 0.042928493323572743 0 -0.0011480815530105365 0.042837461596795558 0 -0.0010244384521883223 0.043129656303630366 0 -0.0013037723279363956 0.042991864428160519 0 -0.0011480815530105365 0.042837461596795558 0 -0.0010244384521883223 0.043129656303630366 0 -0.00073426044100692513 0.042928493323572743 0 -0.0010244384521883223 0.043129656303630366 0 -0.00073426044100692513 0.042928493323572743 0 -0.00074216136048813248 0.043217386573516661 0 -0.00075257674693552669 0.043088677085671857 0 0.00014478806336471427 0.043218408738526205 0 -2.4721114720940032e-05 0.044063520048535296 0 -0.00073426044100692513 0.042928493323572743 0 -0.00044936569277219147 0.043291572110277156 0 -0.00074216136048813248 0.043217386573516661 0 -0.00076781363866756751 0.043971950981137042 0 0.0012952774152927675 0.038643524361235325 0 -4.2825355344757224e-05 0.042225161675641158 0 -0.00079281543646904503 0.042300957585409943 0 -0.00075257674693552669 0.043088677085671857 0 -4.2825355344757224e-05 0.042225161675641158 0 -0.00075257674693552669 0.043088677085671857 0 0.00014478806336471427 0.043218408738526205 0 -4.2825355344757224e-05 0.042225161675641158 0 0.00014478806336471427 0.043218408738526205 0 0.0007739988539432975 0.042723543730844825 0 0.000991692861022536 0.043658227352716704 0 0.00014478806336471427 0.043218408738526205 0 -2.4721114720940032e-05 0.044063520048535296 0 0.000991692861022536 0.043658227352716704 0 0.00014478806336471427 0.043218408738526205 0 0.0007739988539432975 0.042723543730844825 0 0.0026116271758734864 0.036120631667054814 0 0.0012952774152927675 0.038643524361235325 0 0.0038206417323687638 0.029092802898355537 0 0.0039477517664823006 0.029113459860598018 0 0.0038865220224298357 0.028900650281748409 0 0.00088238375988963888 0.04176090401249484 0 0.001370412933742084 0.041335642922491672 0 0.0010683670179464347 0.042515203609016505 0 0.0012666474513411106 0.04119620559345874 0 0.00088238375988963888 0.04176090401249484 0 0.001370412933742084 0.041335642922491672 0 0.0012666474513411106 0.04119620559345874 0 0.001370412933742084 0.041335642922491672 0 0.001570577338187387 0.041475662449804419 0 0.0012952774152927675 0.038643524361235325 0 0.0032379246607967477 0.036143440543690446 0 0.001570577338187387 0.041475662449804419 0 0.0011283603657871058 0.041695379993408166 0 0.0015420885217564699 0.041891662720424626 0 0.001370412933742084 0.041335642922491672 0 0.001570577338187387 0.041475662449804419 0 0.0011283603657871058 0.041695379993408166 0 0.0020055743632241226 0.041809338934905071 0 0.001570577338187387 0.041475662449804419 0 0.0015420885217564699 0.041891662720424626 0 0.0013586458795272177 0.04138160387228141 0 0.0010871163309358778 0.042100575226805263 0 0.0011283603657871058 0.041695379993408166 0 0.00065225372156007969 0.042554809818878013 0 0.0012535401153485318 0.042270313651586761 0 0.0011283603657871058 0.041695379993408166 0 0.0015420885217564699 0.041891662720424626 0 0.0012535401153485318 0.042270313651586761 0 0.0010871163309358778 0.042100575226805263 0 0.00064880122830429329 0.042969410356250543 0 0.00031971743302435575 0.042895477280899763 0 0.00023446627324946826 0.042336783074955378 0 -0.00018523553912622661 0.042861043391608296 0 0.00031971743302435575 0.042895477280899763 0 -0.00018523553912622661 0.042861043391608296 0 -4.9352037574584738e-05 0.043303486681811262 0 0.0010683670179464347 0.042515203609016505 0 0.00031971743302435575 0.042895477280899763 0 0.00023446627324946826 0.042336783074955378 0 0.0010683670179464347 0.042515203609016505 0 0.00031971743302435575 0.042895477280899763 0 0.0006333557082170558 0.043368981489484468 0 0.00088238375988963888 0.04176090401249484 0 0.0010683670179464347 0.042515203609016505 0 0.00023446627324946826 0.042336783074955378 0 0.00023446627324946826 0.042336783074955378 0 0.00048770136354147768 0.041572610397854752 0 -0.00020616805541557275 0.042071098986203072 0 -0.00085652677334311256 0.043495363226029898 0 -0.0012315801491898702 0.043367244799957377 0 -0.0012299444162426805 0.043675811040332038 0 -0.00050383785834924165 0.043035109919228001 0 -0.00061933854469769026 0.042778272403447094 0 0.00088238375988963888 0.04176090401249484 0 0.00023446627324946826 0.042336783074955378 0 0.00048770136354147768 0.041572610397854752 0 0.0012666474513411106 0.04119620559345874 0 0.00088238375988963888 0.04176090401249484 0 0.00048770136354147768 0.041572610397854752 0 -0.0010244384521883223 0.043129656303630366 0 -0.00085652677334311256 0.043495363226029898 0 -0.00074216136048813248 0.043217386573516661 0 -0.00044936569277219147 0.043291572110277156 0 -0.00085652677334311256 0.043495363226029898 0 -0.00074216136048813248 0.043217386573516661 0 0.0012952774152927675 0.038643524361235325 0 -0.00050383785834924165 0.043035109919228001 0 -0.0010244384521883223 0.043129656303630366 0 -0.00085652677334311256 0.043495363226029898 0 -0.0012315801491898702 0.043367244799957377 0 -0.0012315801491898702 0.043367244799957377 0 -0.0013380677539664317 0.043445231171861359 0 -0.0013831142572081662 0.043217167402808711 0 -0.0012315801491898702 0.043367244799957377 0 -0.0013380677539664317 0.043445231171861359 0 -0.0013246771185424287 0.043564174949832044 0 -0.0014302047463977308 0.043633778793276373 0 -0.0016052705852161776 0.043033054657516299 0 -0.0013831142572081662 0.043217167402808711 0 -0.0013380677539664317 0.043445231171861359 0 -0.0014302047463977308 0.043633778793276373 0 -0.0013831142572081662 0.043217167402808711 0 -0.0013380677539664317 0.043445231171861359 0 -0.0014302047463977308 0.043633778793276373 0 -0.0013246771185424287 0.043564174949832044 0 -0.0014302047463977308 0.043633778793276373 0 -0.0013524781934137141 0.043651466820085368 0 -0.0014098438506035308 0.04376606205882716 0 -0.0014302047463977308 0.043633778793276373 0 -0.0013246771185424287 0.043564174949832044 0 -0.0013524781934137141 0.043651466820085368 0 -0.0012315801491898702 0.043367244799957377 0 -0.0013246771185424287 0.043564174949832044 0 -0.0012299444162426805 0.043675811040332038 0 -0.0013246771185424287 0.043564174949832044 0 -0.0013524781934137141 0.043651466820085368 0 -0.0012299444162426805 0.043675811040332038 0 -0.00061933854469769026 0.042778272403447094 0 -0.0010744861436072896 0.043010342849475226 0 -0.00020616805541557275 0.042071098986203072 0 -0.00031649421175774573 0.042526109569489219 0 -0.00078751624750286677 0.042521386302311899 0 0.00023446627324946826 0.042336783074955378 0 -0.00031649421175774573 0.042526109569489219 0 -0.00018523553912622661 0.042861043391608296 0 0.00023446627324946826 0.042336783074955378 0 -0.00020616805541557275 0.042071098986203072 0 -0.00031649421175774573 0.042526109569489219 0 -0.0013524781934137141 0.043651466820085368 0 -0.0013683190524334124 0.043496235818501906 0 -0.0012905162601589673 0.04332084999087412 0 -0.00031649421175774573 0.042526109569489219 0 -0.00078751624750286677 0.042521386302311899 0 -0.00059595867610401181 0.04283965659741671 0 -0.0013524781934137141 0.043651466820085368 0 -0.0012299444162426805 0.043675811040332038 0 -0.0013683190524334124 0.043496235818501906 0 -0.00078751624750286677 0.042521386302311899 0 -0.00059595867610401181 0.04283965659741671 0 -0.00085633909643875619 0.04285368076327805 0 -0.00059595867610401181 0.04283965659741671 0 -0.00085633909643875619 0.04285368076327805 0 -0.00091393522711613541 0.043021171382111527 0 -0.00059595867610401181 0.04283965659741671 0 -0.00091393522711613541 0.043021171382111527 0 -0.00071419591990568737 0.043247826715973887 0 -0.00059595867610401181 0.04283965659741671 0 -0.0003928515002503393 0.04315599378417153 0 -0.00071419591990568737 0.043247826715973887 0 -0.00031649421175774573 0.042526109569489219 0 -0.00059595867610401181 0.04283965659741671 0 -0.00018523553912622661 0.042861043391608296 0 -0.00059595867610401181 0.04283965659741671 0 -0.00018523553912622661 0.042861043391608296 0 -0.0003928515002503393 0.04315599378417153 0 -0.0012901605040190217 0.043061114879019299 0 -0.0013810887833755768 0.04320923644366878 0 -0.0013636798841831705 0.043033210475043417 0 -0.0012901605040190217 0.043061114879019299 0 -0.0013810887833755768 0.04320923644366878 0 -0.0011506805868367271 0.043176679894209313 0 -0.0011506805868367271 0.043176679894209313 0 -0.00091393522711613541 0.043021171382111527 0 -0.0010361690668135156 0.042967876929113469 0 -0.00091393522711613541 0.043021171382111527 0 -0.00092475043581236136 0.043212844458980486 0 -0.00071419591990568737 0.043247826715973887 0 -0.0011506805868367271 0.043176679894209313 0 -0.00091393522711613541 0.043021171382111527 0 -0.00092475043581236136 0.043212844458980486 0 -0.00085633909643875619 0.04285368076327805 0 -0.00091393522711613541 0.043021171382111527 0 -0.0010361690668135156 0.042967876929113469 0 -0.0012901605040190217 0.043061114879019299 0 -0.0011506805868367271 0.043176679894209313 0 -0.0010361690668135156 0.042967876929113469 0 -0.0010744861436072896 0.043010342849475226 0 -0.0012359173571258528 0.043044241665950035 0 -0.00078751624750286677 0.042521386302311899 0 -0.0012901605040190217 0.043061114879019299 0 -0.0010361690668135156 0.042967876929113469 0 -0.0013730619150594857 0.043671474502393164 0 -0.00142164686834063 0.043717282882055557 0 -0.0013683190524334124 0.043496235818501906 0 -0.0012901605040190217 0.043061114879019299 0 -0.0012905162601589673 0.04332084999087412 0 -0.00078751624750286677 0.042521386302311899 0 -0.00085633909643875619 0.04285368076327805 0 -0.0010361690668135156 0.042967876929113469 0 -0.0014337673755617296 0.044070279533434641 0 -0.0017180875247105735 0.044359917486403735 0 -0.0015626892975326499 0.044127736083229924 0 -0.00142164686834063 0.043717282882055557 0 -0.0014954387183853648 0.043536385004605431 0 -0.0012901605040190217 0.043061114879019299 0 -0.0012905162601589673 0.04332084999087412 0 -0.0013636798841831705 0.043033210475043417 0 -0.0017180875247105735 0.044359917486403735 0 -0.0015626892975326499 0.044127736083229924 0 -0.0016424485885877199 0.044289532102368925 0 -0.0014337673755617296 0.044070279533434641 0 -0.0015626892975326499 0.044127736083229924 0 -0.001453684699638244 0.043826178174465408 0 -0.0015626892975326499 0.044127736083229924 0 -0.001566817517212635 0.044048663029864231 0 -0.0016424485885877199 0.044289532102368925 0 -0.001453684699638244 0.043826178174465408 0 -0.0014868170211546374 0.043865664732528245 0 -0.001566817517212635 0.044048663029864231 0 -0.0015626892975326499 0.044127736083229924 0 -0.001453684699638244 0.043826178174465408 0 -0.001566817517212635 0.044048663029864231 0 -0.0013524781934137141 0.043651466820085368 0 -0.0014337673755617296 0.044070279533434641 0 -0.0014098438506035308 0.04376606205882716 0 -0.0014337673755617296 0.044070279533434641 0 -0.001453684699638244 0.043826178174465408 0 -0.0014098438506035308 0.04376606205882716 0 -0.0014302047463977308 0.043633778793276373 0 -0.001453684699638244 0.043826178174465408 0 -0.0014098438506035308 0.04376606205882716 0 -0.0014302047463977308 0.043633778793276373 0 -0.001453684699638244 0.043826178174465408 0 -0.0014664829689828537 0.043812402852993586 0 -0.0014250986588188522 0.04363347099195513 0 -0.0015209183091581995 0.043435333417306314 0 -0.001453684699638244 0.043826178174465408 0 -0.0014868170211546374 0.043865664732528245 0 -0.0014664829689828537 0.043812402852993586 0 -0.0014868170211546374 0.043865664732528245 0 -0.0015396912947680899 0.043834470592228177 0 -0.001566817517212635 0.044048663029864231 0 -0.0015019684258193331 0.043794196906824553 0 -0.0014664829689828537 0.043812402852993586 0 -0.0015396912947680899 0.043834470592228177 0 -0.0014868170211546374 0.043865664732528245 0 -0.0014664829689828537 0.043812402852993586 0 -0.0015396912947680899 0.043834470592228177 0 -0.0014952843868083498 0.043317058800968179 0 -0.0015209183091581995 0.043435333417306314 0 -0.0014933698761820941 0.042818813236256484 0 -0.0016052705852161776 0.043033054657516299 0 -0.0014677107004781001 0.042862224147062561 0 -0.0013831142572081662 0.043217167402808711 0 -0.0013037723279363956 0.042991864428160519 0 -0.0014677107004781001 0.042862224147062561 0 -0.0016052705852161776 0.043033054657516299 0 -0.0013831142572081662 0.043217167402808711 0 -0.0014677107004781001 0.042862224147062561 0 -0.0010244384521883223 0.043129656303630366 0 -0.0012315801491898702 0.043367244799957377 0 -0.0013037723279363956 0.042991864428160519 0 -0.0012315801491898702 0.043367244799957377 0 -0.0013831142572081662 0.043217167402808711 0 -0.0013037723279363956 0.042991864428160519 0 -0.0011480815530105365 0.042837461596795558 0 -0.0013037723279363956 0.042991864428160519 0 -0.0013032755510532937 0.042704301463116191 0 -0.0013037723279363956 0.042991864428160519 0 -0.0013703407724840295 0.042804743019680451 0 -0.0013032755510532937 0.042704301463116191 0 -0.0013037723279363956 0.042991864428160519 0 -0.0013703407724840295 0.042804743019680451 0 -0.0014677107004781001 0.042862224147062561 0 -0.0013703407724840295 0.042804743019680451 0 -0.0014677107004781001 0.042862224147062561 0 -0.0013863964104129038 0.042689707176819719 0 -0.0013863964104129038 0.042689707176819719 0 -0.0014076241726927927 0.042768814011202604 0 -0.0014524328743607353 0.042790294753157258 0 -0.0014677107004781001 0.042862224147062561 0 -0.0013863964104129038 0.042689707176819719 0 -0.0014524328743607353 0.042790294753157258 0 -0.0013032755510532937 0.042704301463116191 0 -0.0013863964104129038 0.042689707176819719 0 -0.0013059719391214654 0.042538799429659151 0 -0.0013863964104129038 0.042689707176819719 0 -0.0013059719391214654 0.042538799429659151 0 -0.0013306445311107573 0.042534861235215889 0 -0.0013703407724840295 0.042804743019680451 0 -0.0013032755510532937 0.042704301463116191 0 -0.0013863964104129038 0.042689707176819719 0 -0.0013863964104129038 0.042689707176819719 0 -0.0013306445311107573 0.042534861235215889 0 -0.0013644625132965776 0.042674280469190105 0 -0.0013435260164538748 0.042652808285042504 0 -0.0013088718111538874 0.042376297084722049 0 -0.0013306445311107573 0.042534861235215889 0 -0.0013088718111538874 0.042376297084722049 0 -0.0013059719391214654 0.042538799429659151 0 -0.0013306445311107573 0.042534861235215889 0 -0.0013466457586439162 0.042725360815613213 0 -0.0013306445311107573 0.042534861235215889 0 -0.0013644625132965776 0.042674280469190105 0 -0.0013863964104129038 0.042689707176819719 0 -0.0013644625132965776 0.042674280469190105 0 -0.0014076241726927927 0.042768814011202604 0 -0.001368590047083362 0.042801634236259725 0 -0.0013644625132965776 0.042674280469190105 0 -0.0014076241726927927 0.042768814011202604 0 -0.0014076241726927927 0.042768814011202604 0 -0.0014195162150599848 0.042863267468306952 0 -0.0014524328743607353 0.042790294753157258 0 -0.0013922543685908418 0.042870709369697696 0 -0.0014076241726927927 0.042768814011202604 0 -0.0014195162150599848 0.042863267468306952 0 -0.0014933698761820941 0.042818813236256484 0 -0.0014195162150599848 0.042863267468306952 0 -0.0013271805281414722 0.04289038761647497 0 -0.0014933698761820941 0.042818813236256484 0 -0.0014195162150599848 0.042863267468306952 0 -0.0014524328743607353 0.042790294753157258 0 -0.0014933698761820941 0.042818813236256484 0 -0.0014677107004781001 0.042862224147062561 0 -0.0014524328743607353 0.042790294753157258 0 -0.0014580380406059973 0.043841232500847677 0 -0.0013418382174447045 0.043842731667390694 0 -0.0014751242426121374 0.043798988236847101 0 -0.0014952843868083498 0.043317058800968179 0 -0.0013935745177127527 0.043367078546041798 0 -0.0015019684258193331 0.043794196906824553 0 -0.0014580380406059973 0.043841232500847677 0 -0.0014751242426121374 0.043798988236847101 0 -0.0013589645107427769 0.043025149097989421 0 -0.0014195162150599848 0.042863267468306952 0 -0.0013271805281414722 0.04289038761647497 0 -0.0013117343714712938 0.043945340600947048 0 -0.0014580380406059973 0.043841232500847677 0 -0.0013418382174447045 0.043842731667390694 0 -0.0013418382174447045 0.043842731667390694 0 -0.0011749931506711707 0.043850479533938669 0 -0.0013661782587493577 0.043811473089989339 0 0.00036147526244409021 0.048660009311436013 0 3.6166158854476262e-06 0.048803035168065875 0 0.00013043039071748835 0.048786672090242129 0 -0.00039704235138548826 0.046222310177402109 0 -0.0006862133867431596 0.046298674966902958 0 3.6166158854476262e-06 0.048803035168065875 0 0.00020287313417674871 0.048712230859767489 0 0.00013043039071748835 0.048786672090242129 0 -0.0013418382174447045 0.043842731667390694 0 -0.0013661782587493577 0.043811473089989339 0 -0.0014751242426121374 0.043798988236847101 0 -0.00051576271132339712 0.048423046407450085 0 0.00045909248993847323 0.04843808463442674 0 0.00020287313417674871 0.048712230859767489 0 -0.0013661782587493577 0.043811473089989339 0 -0.0015451823355142114 0.043823743727363945 0 -0.0014751242426121374 0.043798988236847101 0 -0.00051576271132339712 0.048423046407450085 0 0.00021589418509647938 0.046967635785785368 0 0.00045909248993847323 0.04843808463442674 0 -0.0006862133867431596 0.046298674966902958 0 -0.0010346990049854121 0.046104794266277498 0 3.6166158854476262e-06 0.048803035168065875 0 -0.00051576271132339712 0.048423046407450085 0 0.00020287313417674871 0.048712230859767489 0 -0.0015451823355142114 0.043823743727363945 0 -0.0014751242426121374 0.043798988236847101 0 -0.0015396912947680899 0.043834470592228177 0 -0.0015019684258193331 0.043794196906824553 0 -0.0014751242426121374 0.043798988236847101 0 -0.0015396912947680899 0.043834470592228177 0 -0.0015396912947680899 0.043834470592228177 0 -0.0017136321469281752 0.043961176197366572 0 -0.001566817517212635 0.044048663029864231 0 -0.0010346990049854121 0.046104794266277498 0 -0.0014851307994182569 0.045398132950788192 0 -0.0015451823355142114 0.043823743727363945 0 -0.0015396912947680899 0.043834470592228177 0 -0.0017136321469281752 0.043961176197366572 0 -0.0014851307994182569 0.045398132950788192 0 -0.001723228936748523 0.044649188706035882 0 -0.0013145378436879226 0.046838804399585564 0 -0.0017311629661587195 0.044563396609665289 0 -0.00062322811039954538 0.045027360969000098 0 -0.0017136321469281752 0.043961176197366572 0 -0.001566817517212635 0.044048663029864231 0 -0.0017311629661587195 0.044563396609665289 0 -0.0017180875247105735 0.044359917486403735 0 -0.0016424485885877199 0.044289532102368925 0 -0.0017311629661587195 0.044563396609665289 0 -0.001566817517212635 0.044048663029864231 0 -0.0016424485885877199 0.044289532102368925 0 -0.0017311629661587195 0.044563396609665289 0 -0.0017180875247105735 0.044359917486403735 0 -0.0017311629661587195 0.044563396609665289 0 -0.0015631805040160576 0.044021962121725565 0 -0.0017311629661587195 0.044563396609665289 0 -0.0015631805040160576 0.044021962121725565 0 -0.00062322811039954538 0.045027360969000098 0 -0.0013573154945891413 0.045395778538115369 0 0.00038192389236434322 0.04758635841449356 0 -0.0013573154945891413 0.045395778538115369 0 -0.00096641884284190069 0.047134207013826236 0 0.0010809174264319724 0.049715113262949542 0 0.00089551926073660462 0.049690620300664831 0 0.00093364161623124 0.049472322725447271 0 -0.0014954387183853648 0.043536385004605431 0 -0.0013573154945891413 0.045395778538115369 0 -0.0013810887833755768 0.04320923644366878 0 -0.0013636798841831705 0.043033210475043417 0 -0.0016925146251070451 0.043159657571885834 0 0.00073269652651297874 0.049687825242270736 0 0.00045693424778345921 0.049687935705146499 0 0.00049658348172645591 0.050040911969089059 0 0.00073269652651297874 0.049687825242270736 0 0.00089551926073660462 0.049690620300664831 0 0.00082600677566108224 0.04988204565428906 0 0.0010809174264319724 0.049715113262949542 0 0.00089551926073660462 0.049690620300664831 0 0.00082600677566108224 0.04988204565428906 0 0.00073269652651297874 0.049687825242270736 0 0.00089551926073660462 0.049690620300664831 0 0.00093364161623124 0.049472322725447271 0 0.00073269652651297874 0.049687825242270736 0 0.00093364161623124 0.049472322725447271 0 0.00068292836663055964 0.049443515507976411 0 0.00073269652651297874 0.049687825242270736 0 0.00068292836663055964 0.049443515507976411 0 0.00045693424778345921 0.049687935705146499 0 0.00068292836663055964 0.049443515507976411 0 0.00080482197940392238 0.049093262564527888 0 0.00031750446551296409 0.049268668435643891 0 0.00093364161623124 0.049472322725447271 0 0.00068292836663055964 0.049443515507976411 0 0.00080482197940392238 0.049093262564527888 0 0.00038192389236434322 0.04758635841449356 0 0.00040937748785424365 0.047919981125210766 0 -0.0013145378436879226 0.046838804399585564 0 -0.00062322811039954538 0.045027360969000098 0 0.00021589418509647938 0.046967635785785368 0 -0.00051576271132339712 0.048423046407450085 0 -0.0013145378436879226 0.046838804399585564 0 0.00021589418509647938 0.046967635785785368 0 0.00040937748785424365 0.047919981125210766 0 0.00049698265460433881 0.048392933613323863 0 0.00080482197940392238 0.049093262564527888 0 0.00031750446551296409 0.049268668435643891 0 0.00045909248993847323 0.04843808463442674 0 0.00031750446551296409 0.049268668435643891 0 0.00012857630367889086 0.048743481619197955 0 0.00045909248993847323 0.04843808463442674 0 0.00031750446551296409 0.049268668435643891 0 -0.00013575742262160462 0.048944218136536592 0 0.00012857630367889086 0.048743481619197955 0 0.00031750446551296409 0.049268668435643891 0 -4.0725822730006071e-05 0.049738804659635087 0 -0.00013575742262160462 0.048944218136536592 0 0.00031750446551296409 0.049268668435643891 0 0.00045693424778345921 0.049687935705146499 0 0.00017767851011044414 0.049739358006440429 0 0.00068292836663055964 0.049443515507976411 0 0.00031750446551296409 0.049268668435643891 0 0.00045693424778345921 0.049687935705146499 0 0.00031750446551296409 0.049268668435643891 0 0.00017767851011044414 0.049739358006440429 0 -4.0725822730006071e-05 0.049738804659635087 0 0.00017767851011044414 0.049739358006440429 0 3.5354970063025405e-05 0.049899562383202256 0 0.000222383259764504 0.049933643931023272 0 0.00045693424778345921 0.049687935705146499 0 0.000222383259764504 0.049933643931023272 0 0.00049658348172645591 0.050040911969089059 0 0.00045693424778345921 0.049687935705146499 0 0.00017767851011044414 0.049739358006440429 0 0.000222383259764504 0.049933643931023272 0 -1.0008405865023412e-07 0.049999704919583277 0 6.9497528874153712e-06 0.049980488665396554 0 4.584032990178402e-09 0.050000124844515409 0 3.5354970063025405e-05 0.049899562383202256 0 -1.0008405865023412e-07 0.049999704919583277 0 6.9497528874153712e-06 0.049980488665396554 0 0.00017767851011044414 0.049739358006440429 0 3.5354970063025405e-05 0.049899562383202256 0 -4.0725822730006071e-05 0.049738804659635087 0 3.5354970063025405e-05 0.049899562383202256 0 -4.0725822730006071e-05 0.049738804659635087 0 -1.0008405865023412e-07 0.049999704919583277 0 -4.0725822730006071e-05 0.049738804659635087 0 -1.0008405865023412e-07 0.049999704919583277 0 8.5126608522079225e-08 0.049999881254665583 0 -4.0725822730006071e-05 0.049738804659635087 0 8.5126608522079225e-08 0.049999881254665583 0 -4.0627668710083552e-05 0.049983922784374475 0 -4.8215213488537895e-05 0.049721945560200126 0 -7.5147952701333449e-05 0.049474448956025707 0 8.5126608522079225e-08 0.049999881254665583 0 -4.0627668710083552e-05 0.049983922784374475 0 -4.0968952698035179e-08 0.04999998851933702 0 -4.0627668710083552e-05 0.049983922784374475 0 -4.0968952698035179e-08 0.04999998851933702 0 -6.4443567543600383e-06 0.050002304957591129 0 -4.0968952698035179e-08 0.04999998851933702 0 -6.4443567543600383e-06 0.050002304957591129 0 3.8776989380732975e-08 0.050000177332233817 0 4.200948118264199e-06 0.04865222446712008 0 0.00017096165589452732 0.048634171071202048 0 4.0339878090107605e-05 0.048692543963965391 0 -7.5147952701333449e-05 0.049474448956025707 0 -5.6467002621789382e-06 0.049334725537061017 0 -0.00013575742262160462 0.048944218136536592 0 4.200948118264199e-06 0.04865222446712008 0 0.00012857630367889086 0.048743481619197955 0 0.00012857630367889086 0.048743481619197955 0 0.00045909248993847323 0.04843808463442674 0 0.00017096165589452732 0.048634171071202048 0 4.200948118264199e-06 0.04865222446712008 0 0.00012857630367889086 0.048743481619197955 0 0.00017096165589452732 0.048634171071202048 0 0.00020287313417674871 0.048712230859767489 0 0.00017096165589452732 0.048634171071202048 0 9.3888954369261726e-05 0.048740038844627964 0 0.00045909248993847323 0.04843808463442674 0 0.00020287313417674871 0.048712230859767489 0 0.00017096165589452732 0.048634171071202048 0 0.00017096165589452732 0.048634171071202048 0 4.0339878090107605e-05 0.048692543963965391 0 9.3888954369261726e-05 0.048740038844627964 0 4.0339878090107605e-05 0.048692543963965391 0 9.3888954369261726e-05 0.048740038844627964 0 -7.0383510370590591e-05 0.048801657979074861 0 9.3888954369261726e-05 0.048740038844627964 0 -7.0383510370590591e-05 0.048801657979074861 0 0.00013043039071748835 0.048786672090242129 0 0.00020287313417674871 0.048712230859767489 0 9.3888954369261726e-05 0.048740038844627964 0 0.00013043039071748835 0.048786672090242129 0 0.00013627663335866375 0.048509756439445953 0 0.00036147526244409021 0.048660009311436013 0 0.00013043039071748835 0.048786672090242129 0 -0.00034269999923827249 0.049001035422015518 0 0.00013627663335866375 0.048509756439445953 0 0.00013043039071748835 0.048786672090242129 0 -0.00034269999923827249 0.049001035422015518 0 -7.0383510370590591e-05 0.048801657979074861 0 0.00013043039071748835 0.048786672090242129 0 -0.00034269999923827249 0.049001035422015518 0 -7.0383510370590591e-05 0.048801657979074861 0 8.4262123949386752e-05 0.048747355526959336 0 0.00012298247252935744 0.049672769582325776 0 -0.00034269999923827249 0.049001035422015518 0 8.4262123949386752e-05 0.048747355526959336 0 4.4988107979844527e-08 0.04999951401050317 0 3.8776989380732975e-08 0.050000177332233817 0 3.8946126822739454e-05 0.050020353936975986 0 0.00012298247252935744 0.049672769582325776 0 4.4988107979844527e-08 0.04999951401050317 0 3.8946126822739454e-05 0.050020353936975986 0 0.00011489469209495639 0.049643167686050788 0 6.0873113962148554e-05 0.049389245909547075 0 -6.4443567543600383e-06 0.050002304957591129 0 3.8776989380732975e-08 0.050000177332233817 0 3.8946126822739454e-05 0.050020353936975986 0 4.200948118264199e-06 0.04865222446712008 0 4.0339878090107605e-05 0.048692543963965391 0 8.4262123949386752e-05 0.048747355526959336 0 4.0339878090107605e-05 0.048692543963965391 0 -7.0383510370590591e-05 0.048801657979074861 0 8.4262123949386752e-05 0.048747355526959336 0 -5.6467002621789382e-06 0.049334725537061017 0 6.0873113962148554e-05 0.049389245909547075 0 6.4015079959389695e-09 0.049999541923815498 0 7.106246157596411e-08 0.049999612101911416 0 3.4374849240701023e-05 0.04988308814418338 0 0.000112767173901666 0.049673216452266911 0 6.4015079959389695e-09 0.049999541923815498 0 0.0001252690872229055 0.049640434356410204 0 -2.7833232642398079e-05 0.04945983219461994 0 -0.00017355286909485407 0.04929712028581195 0 -7.5908890017312757e-05 0.049592618258145801 0 -2.7833232642398079e-05 0.04945983219461994 0 -1.4377053480270933e-05 0.049718003783748924 0 -7.5908890017312757e-05 0.049592618258145801 0 -2.7833232642398079e-05 0.04945983219461994 0 -1.4377053480270933e-05 0.049718003783748924 0 1.2963542078511063e-07 0.049999269681965254 0 2.2793479557235421e-05 0.049559074590574972 0 9.6833871586822018e-09 0.049999823353900734 0 6.4015079959389695e-09 0.049999541923815498 0 0.0001252690872229055 0.049640434356410204 0 3.4374849240701023e-05 0.04988308814418338 0 0.0001252690872229055 0.049640434356410204 0 -3.496613865471035e-05 0.049279981813314444 0 4.6559618804366571e-06 0.048881932239105828 0 7.452750511512586e-05 0.049470018469396616 0 0.00013465931746794863 0.049743479696707442 0 0.0001252690872229055 0.049640434356410204 0 0.00013977657305640339 0.049917771884086248 0 3.4374849240701023e-05 0.04988308814418338 0 0.000112767173901666 0.049673216452266911 0 0.0001252690872229055 0.049640434356410204 0 -3.496613865471035e-05 0.049279981813314444 0 -3.496613865471035e-05 0.049279981813314444 0 -0.00018368173477619737 0.048979082566091528 0 4.6559618804366571e-06 0.048881932239105828 0 0.000112767173901666 0.049673216452266911 0 -3.496613865471035e-05 0.049279981813314444 0 -0.00019740446247179009 0.049116791262810107 0 -3.496613865471035e-05 0.049279981813314444 0 -0.00018368173477619737 0.048979082566091528 0 -0.00019740446247179009 0.049116791262810107 0 -0.00023251629777576931 0.049010288391639088 0 -0.00019673946790306891 0.048620404144321595 0 -0.00020054288414683721 0.048748466027263918 0 -0.00019740446247179009 0.049116791262810107 0 -0.00018215270916067296 0.048518780785165985 0 -0.0003128382148866011 0.048920137047320587 0 -0.00033463876818032166 0.048805288869721845 0 -0.00018215270916067296 0.048518780785165985 0 -0.00020054288414683721 0.048748466027263918 0 -0.00018368173477619737 0.048979082566091528 0 -0.00019740446247179009 0.049116791262810107 0 -0.00033463876818032166 0.048805288869721845 0 -0.00049183358582048891 0.049276734759894809 0 -0.00093082050168048303 0.048802823866504544 0 -0.00033463876818032166 0.048805288869721845 0 -0.00028573392965528584 0.049123494953393111 0 -0.00049183358582048891 0.049276734759894809 0 -0.0003128382148866011 0.048920137047320587 0 -0.00033463876818032166 0.048805288869721845 0 -0.00028573392965528584 0.049123494953393111 0 2.2793479557235421e-05 0.049559074590574972 0 -0.00023251629777576931 0.049010288391639088 0 -2.7833232642398079e-05 0.04945983219461994 0 -0.0003128382148866011 0.048920137047320587 0 -0.00017355286909485407 0.04929712028581195 0 -0.0003128382148866011 0.048920137047320587 0 -0.00028573392965528584 0.049123494953393111 0 -0.00017355286909485407 0.04929712028581195 0 -0.00028573392965528584 0.049123494953393111 0 -0.00017355286909485407 0.04929712028581195 0 -0.000206401290296279 0.049457206916452744 0 -0.000206401290296279 0.049457206916452744 0 -0.00013114462833790734 0.049802542461359352 0 -7.5908890017312757e-05 0.049592618258145801 0 -0.00017355286909485407 0.04929712028581195 0 -0.000206401290296279 0.049457206916452744 0 -7.5908890017312757e-05 0.049592618258145801 0 -0.00028573392965528584 0.049123494953393111 0 -0.000206401290296279 0.049457206916452744 0 -0.00049183358582048891 0.049276734759894809 0 -0.000206401290296279 0.049457206916452744 0 -0.00049183358582048891 0.049276734759894809 0 -0.00031297991054069158 0.04968707143880928 0 -0.00031297991054069158 0.04968707143880928 0 -0.00024834003069133012 0.050010521297367654 0 -0.00065562394210227665 0.049806613002817163 0 -0.00049183358582048891 0.049276734759894809 0 -0.00031297991054069158 0.04968707143880928 0 -0.00065562394210227665 0.049806613002817163 0 -0.00031297991054069158 0.04968707143880928 0 -0.00013114462833790734 0.049802542461359352 0 -0.00024834003069133012 0.050010521297367654 0 -0.000206401290296279 0.049457206916452744 0 -0.00031297991054069158 0.04968707143880928 0 -0.00013114462833790734 0.049802542461359352 0 -0.00013114462833790734 0.049802542461359352 0 -7.4048774125955995e-06 0.049815353659818554 0 -4.5886125701024934e-05 0.049955288238084816 0 -0.00013114462833790734 0.049802542461359352 0 -7.4048774125955995e-06 0.049815353659818554 0 -7.5908890017312757e-05 0.049592618258145801 0 -1.4377053480270933e-05 0.049718003783748924 0 -7.4048774125955995e-06 0.049815353659818554 0 -7.5908890017312757e-05 0.049592618258145801 0 1.2963542078511063e-07 0.049999269681965254 0 -7.4048774125955995e-06 0.049815353659818554 0 4.2599931590457197e-09 0.049999806640028302 0 -1.4377053480270933e-05 0.049718003783748924 0 1.2963542078511063e-07 0.049999269681965254 0 -7.4048774125955995e-06 0.049815353659818554 0 -7.4048774125955995e-06 0.049815353659818554 0 4.2599931590457197e-09 0.049999806640028302 0 -4.5886125701024934e-05 0.049955288238084816 0 4.2599931590457197e-09 0.049999806640028302 0 -4.5886125701024934e-05 0.049955288238084816 0 -2.1659959148161528e-09 0.050000116855484 0 -4.5886125701024934e-05 0.049955288238084816 0 -9.0554718291997456e-05 0.050073530046281588 0 -0.00024834003069133012 0.050010521297367654 0 -1.3191248309694688e-05 0.049987705885245946 0 -4.5966051741070867e-09 0.049999983377572964 0 -7.739680017083862e-10 0.049999998211600311 0 -4.5886125701024934e-05 0.049955288238084816 0 -9.0554718291997456e-05 0.050073530046281588 0 -2.1659959148161528e-09 0.050000116855484 0 -0.00094127599133223959 0.048476438086608134 0 5.1648929794950242e-07 0.050000638112962043 0 -7.739680017083862e-10 0.049999998211600311 0 -5.1725367665656289e-06 0.04999896056128969 0 -1.0391515159369486e-09 0.050000004997544624 0 -1.3191248309694688e-05 0.049987705885245946 0 -7.739680017083862e-10 0.049999998211600311 0 -5.1725367665656289e-06 0.04999896056128969 0 -0.00094127599133223959 0.048476438086608134 0 0.00021162052941542031 0.050201571230832381 0 5.1066889462376333e-05 0.050136053999493453 0 2.3946819577280894e-06 0.050058827842217962 0 8.3951030763161749e-05 0.050042773318327682 0 3.5354970063025405e-05 0.049899562383202256 0 8.3951030763161749e-05 0.050042773318327682 0 6.9497528874153712e-06 0.049980488665396554 0 2.3946819577280894e-06 0.050058827842217962 0 8.3951030763161749e-05 0.050042773318327682 0 6.9497528874153712e-06 0.049980488665396554 0 2.3946819577280894e-06 0.050058827842217962 0 6.9497528874153712e-06 0.049980488665396554 0 4.584032990178402e-09 0.050000124844515409 0 0.00021162052941542031 0.050201571230832381 0 -1.4132211379020383e-07 0.049999884008405424 0 0.000222383259764504 0.049933643931023272 0 0.00021617215774386605 0.050113605848912099 0 0.00049658348172645591 0.050040911969089059 0 3.5354970063025405e-05 0.049899562383202256 0 8.3951030763161749e-05 0.050042773318327682 0 0.000222383259764504 0.049933643931023272 0 8.3951030763161749e-05 0.050042773318327682 0 0.000222383259764504 0.049933643931023272 0 0.00021617215774386605 0.050113605848912099 0 5.1066889462376333e-05 0.050136053999493453 0 8.3951030763161749e-05 0.050042773318327682 0 0.00021617215774386605 0.050113605848912099 0 -0.00094127599133223959 0.048476438086608134 0 -0.0020055352137263844 0.047395196701632801 0 -0.0038933336944965398 0.044760852828736493 0 -0.0033925623496595379 0.045126555591097885 0 -0.0034132632445145823 0.044457302037714003 0 -0.0020055352137263844 0.047395196701632801 0 -0.0014285573090518713 0.047231152482213642 0 -0.0038933336944965398 0.044760852828736493 0 -0.0039170296305370937 0.045425146133746652 0 -0.0033925623496595379 0.045126555591097885 0 -0.0043084633827216341 0.045017618431427084 0 -0.0038933336944965398 0.044760852828736493 0 -0.0039170296305370937 0.045425146133746652 0 -0.00094127599133223959 0.048476438086608134 0 -0.0023611029748181029 0.047495364410762519 0 -0.00013114462833790734 0.049802542461359352 0 -4.5886125701024934e-05 0.049955288238084816 0 -0.00024834003069133012 0.050010521297367654 0 -0.0039170296305370937 0.045425146133746652 0 -0.0033925623496595379 0.045126555591097885 0 -0.0035145033841280206 0.045920028028122437 0 -0.0023611029748181029 0.047495364410762519 0 -0.0020319701716517533 0.047915467886368544 0 -0.0031100767008790057 0.045544674866325033 0 -0.0033925623496595379 0.045126555591097885 0 -0.0035145033841280206 0.045920028028122437 0 -0.0027407789684037874 0.045726261931731967 0 -0.0031100767008790057 0.045544674866325033 0 -0.0027344045518357045 0.045117989275505359 0 -0.0027344045518357045 0.045117989275505359 0 -0.0033925623496595379 0.045126555591097885 0 -0.0029877422102236196 0.044673270454334758 0 -0.0031100767008790057 0.045544674866325033 0 -0.0027344045518357045 0.045117989275505359 0 -0.0033925623496595379 0.045126555591097885 0 -0.0033925623496595379 0.045126555591097885 0 -0.0029877422102236196 0.044673270454334758 0 -0.0034132632445145823 0.044457302037714003 0 -0.0027344045518357045 0.045117989275505359 0 -0.0029877422102236196 0.044673270454334758 0 -0.002512090484890941 0.04450789262785397 0 -0.0029877422102236196 0.044673270454334758 0 -0.0028762529319124003 0.044153130817486508 0 -0.002512090484890941 0.04450789262785397 0 0.00073269652651297874 0.049687825242270736 0 0.00082600677566108224 0.04988204565428906 0 0.00049658348172645591 0.050040911969089059 0 -0.00096641884284190069 0.047134207013826236 0 -0.0014285573090518713 0.047231152482213642 0 -0.0029877422102236196 0.044673270454334758 0 -0.0028762529319124003 0.044153130817486508 0 -0.0034132632445145823 0.044457302037714003 0 -0.0013810887833755768 0.04320923644366878 0 -0.0016925146251070451 0.043159657571885834 0 -0.0015290055145629445 0.0434476444340339 0 -0.0013573154945891413 0.045395778538115369 0 -0.001948411981061104 0.043536832151525769 0 -0.0023486537831931128 0.043896534169183425 0 -0.0019703397157466635 0.044337701864508638 0 -0.002512090484890941 0.04450789262785397 0 -0.0023486537831931128 0.043896534169183425 0 -0.0028762529319124003 0.044153130817486508 0 -0.002512090484890941 0.04450789262785397 0 -0.0019703397157466635 0.044337701864508638 0 -0.002512090484890941 0.04450789262785397 0 -0.0021337286017056563 0.044870896015904098 0 -0.0019703397157466635 0.044337701864508638 0 -0.0021337286017056563 0.044870896015904098 0 -0.0015502769935793847 0.044710284427340208 0 -0.0021337286017056563 0.044870896015904098 0 -0.0022324716195673165 0.045490248474885399 0 -0.0017951530197362832 0.045134771276654988 0 -0.0027344045518357045 0.045117989275505359 0 -0.002512090484890941 0.04450789262785397 0 -0.0021337286017056563 0.044870896015904098 0 -0.0027344045518357045 0.045117989275505359 0 -0.0021337286017056563 0.044870896015904098 0 -0.0022324716195673165 0.045490248474885399 0 -0.0027407789684037874 0.045726261931731967 0 -0.0027344045518357045 0.045117989275505359 0 -0.0022324716195673165 0.045490248474885399 0 -0.0022324716195673165 0.045490248474885399 0 -0.0017638808681920981 0.045625496145038656 0 -0.0017951530197362832 0.045134771276654988 0 -0.0022324716195673165 0.045490248474885399 0 -0.002028037396804024 0.046004373927107982 0 -0.0024044438051128627 0.046096471229455961 0 -0.0022324716195673165 0.045490248474885399 0 -0.002028037396804024 0.046004373927107982 0 -0.0017638808681920981 0.045625496145038656 0 -0.002028037396804024 0.046004373927107982 0 -0.0020752821136126982 0.046463211103614219 0 -0.0024044438051128627 0.046096471229455961 0 -0.002028037396804024 0.046004373927107982 0 -0.0020752821136126982 0.046463211103614219 0 -0.0016193061585893357 0.046337783620807607 0 -0.0020752821136126982 0.046463211103614219 0 -0.0018472063019127564 0.046833233046569715 0 -0.0016193061585893357 0.046337783620807607 0 -0.0020752821136126982 0.046463211103614219 0 -0.002145031643573052 0.046809296035251781 0 -0.0024522199493123647 0.046554236613069122 0 -0.0020752821136126982 0.046463211103614219 0 -0.002145031643573052 0.046809296035251781 0 -0.0018472063019127564 0.046833233046569715 0 -0.0024522199493123647 0.046554236613069122 0 -0.0031208426937422025 0.046577397814916925 0 -0.0023448595882306572 0.047038336831306898 0 -0.002145031643573052 0.046809296035251781 0 -0.0024522199493123647 0.046554236613069122 0 -0.0023448595882306572 0.047038336831306898 0 -0.0020752821136126982 0.046463211103614219 0 -0.0024522199493123647 0.046554236613069122 0 -0.0024044438051128627 0.046096471229455961 0 -0.0024522199493123647 0.046554236613069122 0 -0.0024044438051128627 0.046096471229455961 0 -0.0027614325302382551 0.046178077607221403 0 -0.0027407789684037874 0.045726261931731967 0 -0.0024044438051128627 0.046096471229455961 0 -0.0027614325302382551 0.046178077607221403 0 -0.0027407789684037874 0.045726261931731967 0 -0.0022324716195673165 0.045490248474885399 0 -0.0024044438051128627 0.046096471229455961 0 -0.0027407789684037874 0.045726261931731967 0 -0.0030641180059294204 0.04599894533737664 0 -0.0027614325302382551 0.046178077607221403 0 -0.0027407789684037874 0.045726261931731967 0 -0.0031100767008790057 0.045544674866325033 0 -0.0030641180059294204 0.04599894533737664 0 -0.0031100767008790057 0.045544674866325033 0 -0.0030641180059294204 0.04599894533737664 0 -0.0035145033841280206 0.045920028028122437 0 -0.0030641180059294204 0.04599894533737664 0 -0.0035145033841280206 0.045920028028122437 0 -0.0031208426937422025 0.046577397814916925 0 -0.00049183358582048891 0.049276734759894809 0 -0.0014526432724720391 0.049134021693041791 0 -0.00093082050168048303 0.048802823866504544 0 -0.0020319701716517533 0.047915467886368544 0 -0.0022690638062338375 0.047836203164638783 0 -0.00049183358582048891 0.049276734759894809 0 -0.00065562394210227665 0.049806613002817163 0 -0.0014526432724720391 0.049134021693041791 0 -0.0030641180059294204 0.04599894533737664 0 -0.0027614325302382551 0.046178077607221403 0 -0.0031208426937422025 0.046577397814916925 0 -0.0024522199493123647 0.046554236613069122 0 -0.0027614325302382551 0.046178077607221403 0 -0.0031208426937422025 0.046577397814916925 0 -0.0014526432724720391 0.049134021693041791 0 -0.00144367757688543 0.048034208075811755 0 -0.002330229637945198 0.047622064627178641 0 -0.0022690638062338375 0.047836203164638783 0 -0.0023096590324262149 0.047682015091786094 0 -0.0014526432724720391 0.049134021693041791 0 -0.00144367757688543 0.048034208075811755 0 -0.00093082050168048303 0.048802823866504544 0 -0.00033463876818032166 0.048805288869721845 0 -0.00144367757688543 0.048034208075811755 0 -0.00093082050168048303 0.048802823866504544 0 -0.00033463876818032166 0.048805288869721845 0 -0.00022203781092909901 0.048457236975298038 0 -0.00018215270916067296 0.048518780785165985 0 -0.00035814972087550511 0.048709216300236231 0 -0.00085647048891809396 0.04826094253852297 0 -0.00018215270916067296 0.048518780785165985 0 -9.3175279504076664e-05 0.048393170909380293 0 -0.00020741849611966668 0.048358544036948808 0 -0.00020054288414683721 0.048748466027263918 0 -0.00018215270916067296 0.048518780785165985 0 -9.3175279504076664e-05 0.048393170909380293 0 -0.00022203781092909901 0.048457236975298038 0 -0.00037536006701464913 0.048146354792789822 0 -0.00061518580253310169 0.048011500678218674 0 -0.00022203781092909901 0.048457236975298038 0 -0.00020741849611966668 0.048358544036948808 0 -0.00037536006701464913 0.048146354792789822 0 -0.00022203781092909901 0.048457236975298038 0 -0.00018215270916067296 0.048518780785165985 0 -0.00020741849611966668 0.048358544036948808 0 -0.00020741849611966668 0.048358544036948808 0 -0.00022422010106385392 0.04819012448132115 0 -0.00037536006701464913 0.048146354792789822 0 -0.00022422010106385392 0.04819012448132115 0 -0.00037536006701464913 0.048146354792789822 0 -0.00023156155222919645 0.047807148769814949 0 -9.3175279504076664e-05 0.048393170909380293 0 -0.00022422010106385392 0.04819012448132115 0 -0.00023156155222919645 0.047807148769814949 0 -9.3175279504076664e-05 0.048393170909380293 0 -0.00020741849611966668 0.048358544036948808 0 -0.00022422010106385392 0.04819012448132115 0 -0.00037536006701464913 0.048146354792789822 0 -0.00056765835264401617 0.047746593768248392 0 -0.00023156155222919645 0.047807148769814949 0 -0.00037536006701464913 0.048146354792789822 0 -0.00061518580253310169 0.048011500678218674 0 -0.00056765835264401617 0.047746593768248392 0 -0.00061518580253310169 0.048011500678218674 0 -0.00074923828008965682 0.047741030262725026 0 -0.00085767993960162434 0.047834843444063198 0 -0.00061518580253310169 0.048011500678218674 0 -0.00074923828008965682 0.047741030262725026 0 -0.00056765835264401617 0.047746593768248392 0 -0.00085647048891809396 0.04826094253852297 0 -0.001648093411733624 0.047729014376491768 0 -0.00022203781092909901 0.048457236975298038 0 -0.00061518580253310169 0.048011500678218674 0 -0.00096026750063082824 0.047998051274720968 0 -0.00061518580253310169 0.048011500678218674 0 -0.00096026750063082824 0.047998051274720968 0 -0.00085767993960162434 0.047834843444063198 0 -0.00085767993960162434 0.047834843444063198 0 -0.0010838969414539762 0.047651770206827058 0 -0.00092003084222432594 0.0476251394776274 0 -0.00096026750063082824 0.047998051274720968 0 -0.00085767993960162434 0.047834843444063198 0 -0.0010838969414539762 0.047651770206827058 0 -0.00074923828008965682 0.047741030262725026 0 -0.00085767993960162434 0.047834843444063198 0 -0.00092003084222432594 0.0476251394776274 0 -0.00096026750063082824 0.047998051274720968 0 -0.0010838969414539762 0.047651770206827058 0 -0.0015038639530908025 0.047448449935011024 0 -0.0024173629777746114 0.047447944698054779 0 -0.0019031365027360556 0.047167537900342081 0 -0.0015038639530908025 0.047448449935011024 0 -0.0010838969414539762 0.047651770206827058 0 -0.0015038639530908025 0.047448449935011024 0 -0.001125440642555839 0.047351176020396686 0 -0.001648093411733624 0.047729014376491768 0 -0.0015145710653121554 0.047502049698352693 0 -0.0024173629777746114 0.047447944698054779 0 -0.0022107225890913309 0.04729898650821418 0 -0.0019031365027360556 0.047167537900342081 0 -0.0022107225890913309 0.04729898650821418 0 -0.0019031365027360556 0.047167537900342081 0 -0.0020767045717604944 0.047062245312676186 0 -0.002145031643573052 0.046809296035251781 0 -0.0018472063019127564 0.046833233046569715 0 -0.0020767045717604944 0.047062245312676186 0 -0.0018472063019127564 0.046833233046569715 0 -0.0019031365027360556 0.047167537900342081 0 -0.0020767045717604944 0.047062245312676186 0 -0.0022107225890913309 0.04729898650821418 0 -0.0020767045717604944 0.047062245312676186 0 -0.0023448595882306572 0.047038336831306898 0 -0.002145031643573052 0.046809296035251781 0 -0.0020767045717604944 0.047062245312676186 0 -0.0023448595882306572 0.047038336831306898 0 -0.0031208426937422025 0.046577397814916925 0 -0.0023448595882306572 0.047038336831306898 0 -0.002330229637945198 0.047622064627178641 0 -0.00144367757688543 0.048034208075811755 0 -0.0024173629777746114 0.047447944698054779 0 -0.002330229637945198 0.047622064627178641 0 -0.0022107225890913309 0.04729898650821418 0 -0.0023448595882306572 0.047038336831306898 0 -0.002330229637945198 0.047622064627178641 0 -0.0024173629777746114 0.047447944698054779 0 -0.0022107225890913309 0.04729898650821418 0 -0.002330229637945198 0.047622064627178641 0 -0.0014350005324916201 0.046975221682985811 0 -0.0015038639530908025 0.047448449935011024 0 -0.0013118106079730708 0.047239119092321501 0 -0.0014350005324916201 0.046975221682985811 0 -0.0013118106079730708 0.047239119092321501 0 -0.000972961121691555 0.046971412038721516 0 -0.0018472063019127564 0.046833233046569715 0 -0.0019031365027360556 0.047167537900342081 0 -0.0014350005324916201 0.046975221682985811 0 -0.0019031365027360556 0.047167537900342081 0 -0.0014350005324916201 0.046975221682985811 0 -0.0015038639530908025 0.047448449935011024 0 -0.0013118106079730708 0.047239119092321501 0 -0.0012914407326690301 0.047268916966104808 0 -0.0016001103746807719 0.047179875187475434 0 -0.0015038639530908025 0.047448449935011024 0 -0.0013118106079730708 0.047239119092321501 0 -0.0016001103746807719 0.047179875187475434 0 -0.0013118106079730708 0.047239119092321501 0 -0.0012914407326690301 0.047268916966104808 0 -0.000972961121691555 0.046971412038721516 0 -0.00035587414146510011 0.045008376406032953 0 -0.00023260714093609837 0.044915025469024032 0 -0.00038875642263003105 0.044846902880393197 0 -0.00072317757112937218 0.044269205237803352 0 -0.00066911624987633391 0.04627558220516452 0 -0.00072317757112937218 0.044269205237803352 0 -0.00091328586992216231 0.040274234845940442 0 -0.0019878065948332898 0.035704143630903955 0 -0.0013422035191033525 0.035472998154284507 0 -0.0013810951221357845 0.035144172171376199 0 -0.0013422035191033525 0.035472998154284507 0 -0.0013810951221357845 0.035144172171376199 0 -0.00074011662477781669 0.034568589952234892 0 -0.0011787881393600205 0.029458810429971873 0 -0.0015945183427659658 0.032884093468560374 0 -0.00024775954938582639 0.044819075120070849 0 -0.00023260714093609837 0.044915025469024032 0 -4.00846817091287e-05 0.04481147320554342 0 -0.00091328586992216231 0.040274234845940442 0 -0.0015945183427659658 0.032884093468560374 0 -0.00024775954938582639 0.044819075120070849 0 -0.00023260714093609837 0.044915025469024032 0 -0.00038875642263003105 0.044846902880393197 0 -0.00024775954938582639 0.044819075120070849 0 -0.00038875642263003105 0.044846902880393197 0 -0.00026952206441305856 0.044706566680482181 0 -0.00066911624987633391 0.04627558220516452 0 -0.00063440386375303423 0.045263395264089172 0 -0.00038875642263003105 0.044846902880393197 0 -0.00026952206441305856 0.044706566680482181 0 -0.00047607370803029063 0.044656118199021232 0 -0.00026952206441305856 0.044706566680482181 0 -8.4328477824667145e-05 0.04461188986421552 0 -4.00846817091287e-05 0.04481147320554342 0 -0.00024775954938582639 0.044819075120070849 0 -0.00026952206441305856 0.044706566680482181 0 -4.00846817091287e-05 0.04481147320554342 0 -0.00026952206441305856 0.044706566680482181 0 -8.4328477824667145e-05 0.04461188986421552 0 -0.00033347173369554568 0.044542346179584483 0 -8.4328477824667145e-05 0.04461188986421552 0 -0.00033347173369554568 0.044542346179584483 0 -3.3088737468533053e-06 0.044262505003959597 0 -0.00026952206441305856 0.044706566680482181 0 -0.00033347173369554568 0.044542346179584483 0 -0.00047607370803029063 0.044656118199021232 0 -0.00033347173369554568 0.044542346179584483 0 -0.00047607370803029063 0.044656118199021232 0 -0.00053398037742431574 0.044583955352846295 0 -0.0007249765747512389 0.046110620723871086 0 -0.0013432867673713103 0.045716781300421651 0 -0.00091156556489907015 0.044840045197315069 0 -0.0007249765747512389 0.046110620723871086 0 -0.0013432867673713103 0.045716781300421651 0 -0.0011993807115815605 0.04646911689798968 0 -0.0014350005324916201 0.046975221682985811 0 -0.000972961121691555 0.046971412038721516 0 -0.0011993807115815605 0.04646911689798968 0 -0.000972961121691555 0.046971412038721516 0 -0.0007249765747512389 0.046110620723871086 0 -0.0011993807115815605 0.04646911689798968 0 -0.0014350005324916201 0.046975221682985811 0 -0.0011993807115815605 0.04646911689798968 0 -0.0016193061585893357 0.046337783620807607 0 -0.0018472063019127564 0.046833233046569715 0 -0.0014350005324916201 0.046975221682985811 0 -0.0016193061585893357 0.046337783620807607 0 -0.0013432867673713103 0.045716781300421651 0 -0.0016193061585893357 0.046337783620807607 0 -0.0017638808681920981 0.045625496145038656 0 -0.002028037396804024 0.046004373927107982 0 -0.0016193061585893357 0.046337783620807607 0 -0.0017638808681920981 0.045625496145038656 0 -0.0013432867673713103 0.045716781300421651 0 -0.0011993807115815605 0.04646911689798968 0 -0.0016193061585893357 0.046337783620807607 0 -0.0013432867673713103 0.045716781300421651 0 -0.0017638808681920981 0.045625496145038656 0 -0.0014777160393317007 0.045149308215471848 0 -0.0017638808681920981 0.045625496145038656 0 -0.0014777160393317007 0.045149308215471848 0 -0.0017951530197362832 0.045134771276654988 0 -0.00063440386375303423 0.045263395264089172 0 -0.00072046557051517589 0.044763079936481341 0 -0.0007249765747512389 0.046110620723871086 0 -0.00091156556489907015 0.044840045197315069 0 -0.00074398843263281803 0.044703934259611784 0 -0.0013432867673713103 0.045716781300421651 0 -0.0014777160393317007 0.045149308215471848 0 -0.00091156556489907015 0.044840045197315069 0 -0.00091156556489907015 0.044840045197315069 0 -0.00074398843263281803 0.044703934259611784 0 -0.00082841567111689956 0.044206547869527893 0 -0.0014777160393317007 0.045149308215471848 0 -0.00091156556489907015 0.044840045197315069 0 -0.0015502769935793847 0.044710284427340208 0 -0.00082841567111689956 0.044206547869527893 0 -0.0013585938300652333 0.043914443882800663 0 -0.00099798738138999628 0.043738559748116482 0 -0.00096158514641598116 0.044812316195583443 0 -0.0013659739421879699 0.044411990379373593 0 -0.00091156556489907015 0.044840045197315069 0 -0.00082841567111689956 0.044206547869527893 0 -0.0013585938300652333 0.043914443882800663 0 -0.00074398843263281803 0.044703934259611784 0 -0.00082841567111689956 0.044206547869527893 0 -0.00063422661734184463 0.044388197953929696 0 -0.00082841567111689956 0.044206547869527893 0 -0.00099798738138999628 0.043738559748116482 0 -0.00066231491964074203 0.043919957215413828 0 -0.0021337286017056563 0.044870896015904098 0 -0.0017951530197362832 0.045134771276654988 0 -0.0015502769935793847 0.044710284427340208 0 -0.0014777160393317007 0.045149308215471848 0 -0.0017951530197362832 0.045134771276654988 0 -0.0015502769935793847 0.044710284427340208 0 -0.0015290055145629445 0.0434476444340339 0 -0.0013585938300652333 0.043914443882800663 0 -0.0012504207274055261 0.043456459488923793 0 -0.001948411981061104 0.043536832151525769 0 -0.0013659739421879699 0.044411990379373593 0 -0.0013585938300652333 0.043914443882800663 0 -0.00099798738138999628 0.043738559748116482 0 -0.0012504207274055261 0.043456459488923793 0 -0.00099798738138999628 0.043738559748116482 0 -0.00075001501876792529 0.043568547276015203 0 -0.00066231491964074203 0.043919957215413828 0 -0.00099798738138999628 0.043738559748116482 0 -0.00099408390069914612 0.043382523504755376 0 -0.00075001501876792529 0.043568547276015203 0 -0.00099798738138999628 0.043738559748116482 0 -0.00099408390069914612 0.043382523504755376 0 -0.0012504207274055261 0.043456459488923793 0 -0.00099408390069914612 0.043382523504755376 0 -0.00092475043581236136 0.043212844458980486 0 -0.00071419591990568737 0.043247826715973887 0 -0.0011506805868367271 0.043176679894209313 0 -0.00099408390069914612 0.043382523504755376 0 -0.00092475043581236136 0.043212844458980486 0 -0.0011506805868367271 0.043176679894209313 0 -0.00099408390069914612 0.043382523504755376 0 -0.0012504207274055261 0.043456459488923793 0 -0.0013810887833755768 0.04320923644366878 0 -0.0011506805868367271 0.043176679894209313 0 -0.0012504207274055261 0.043456459488923793 0 -0.0013810887833755768 0.04320923644366878 0 -0.0015290055145629445 0.0434476444340339 0 -0.0012504207274055261 0.043456459488923793 0 -0.00018523553912622661 0.042861043391608296 0 -4.9352037574584738e-05 0.043303486681811262 0 -0.0003928515002503393 0.04315599378417153 0 -4.9352037574584738e-05 0.043303486681811262 0 -0.0003928515002503393 0.04315599378417153 0 -0.00042796233109077464 0.043486388795378784 0 -4.9352037574584738e-05 0.043303486681811262 0 -0.00042796233109077464 0.043486388795378784 0 -0.00018019876674810114 0.043618761912259607 0 -0.0003928515002503393 0.04315599378417153 0 -0.00071419591990568737 0.043247826715973887 0 -0.00042796233109077464 0.043486388795378784 0 -0.00099408390069914612 0.043382523504755376 0 -0.00071419591990568737 0.043247826715973887 0 -0.00075001501876792529 0.043568547276015203 0 -0.00071419591990568737 0.043247826715973887 0 -0.00042796233109077464 0.043486388795378784 0 -0.00075001501876792529 0.043568547276015203 0 -0.00042796233109077464 0.043486388795378784 0 -0.00075001501876792529 0.043568547276015203 0 -0.00054852472362432745 0.043727902164865218 0 -0.00042796233109077464 0.043486388795378784 0 -0.00054852472362432745 0.043727902164865218 0 -0.00033772581719561216 0.04380180310196042 0 -0.00075001501876792529 0.043568547276015203 0 -0.00066231491964074203 0.043919957215413828 0 -0.00054852472362432745 0.043727902164865218 0 -0.00054852472362432745 0.043727902164865218 0 -0.00033772581719561216 0.04380180310196042 0 -0.00045842144767914092 0.044018746828758094 0 -0.00066231491964074203 0.043919957215413828 0 -0.00054852472362432745 0.043727902164865218 0 -0.00045842144767914092 0.044018746828758094 0 -4.9352037574584738e-05 0.043303486681811262 0 -0.00018019876674810114 0.043618761912259607 0 7.0843971310047569e-05 0.043656153446332335 0 -0.00033772581719561216 0.04380180310196042 0 -0.00018019876674810114 0.043618761912259607 0 -0.00013477475162656873 0.043843927742509108 0 -0.00042796233109077464 0.043486388795378784 0 -0.00033772581719561216 0.04380180310196042 0 -0.00018019876674810114 0.043618761912259607 0 -0.00018019876674810114 0.043618761912259607 0 -0.00013477475162656873 0.043843927742509108 0 7.0843971310047569e-05 0.043656153446332335 0 -0.00023910767992521464 0.044084184177654938 0 -3.3088737468533053e-06 0.044262505003959597 0 1.8967245512056936e-05 0.043918489231443078 0 -0.00013477475162656873 0.043843927742509108 0 -0.00023910767992521464 0.044084184177654938 0 1.8967245512056936e-05 0.043918489231443078 0 -0.00033772581719561216 0.04380180310196042 0 -0.00013477475162656873 0.043843927742509108 0 -0.00023910767992521464 0.044084184177654938 0 -0.00033772581719561216 0.04380180310196042 0 -0.00023910767992521464 0.044084184177654938 0 -0.00045842144767914092 0.044018746828758094 0 -0.00023910767992521464 0.044084184177654938 0 -0.00047889043713413715 0.044319497000680351 0 -0.00032095094088644175 0.044357723464277563 0 -0.00082841567111689956 0.044206547869527893 0 -0.00066231491964074203 0.043919957215413828 0 -0.0006008943115605156 0.044158979807276684 0 -0.00066231491964074203 0.043919957215413828 0 -0.0006008943115605156 0.044158979807276684 0 -0.00045842144767914092 0.044018746828758094 0 -0.00023910767992521464 0.044084184177654938 0 -0.00045842144767914092 0.044018746828758094 0 -0.00047889043713413715 0.044319497000680351 0 -0.0006008943115605156 0.044158979807276684 0 -0.00045842144767914092 0.044018746828758094 0 -0.00047889043713413715 0.044319497000680351 0 -0.00082841567111689956 0.044206547869527893 0 -0.0006008943115605156 0.044158979807276684 0 -0.00063422661734184463 0.044388197953929696 0 -0.0006008943115605156 0.044158979807276684 0 -0.00047889043713413715 0.044319497000680351 0 -0.00063422661734184463 0.044388197953929696 0 -0.00047889043713413715 0.044319497000680351 0 -0.00063422661734184463 0.044388197953929696 0 -0.00058855275700395182 0.044500384457398713 0 -0.00047607370803029063 0.044656118199021232 0 -0.00074398843263281803 0.044703934259611784 0 -0.00053398037742431574 0.044583955352846295 0 -0.00047889043713413715 0.044319497000680351 0 -0.00058855275700395182 0.044500384457398713 0 -0.00053398037742431574 0.044583955352846295 0 -0.00074398843263281803 0.044703934259611784 0 -0.00058855275700395182 0.044500384457398713 0 -0.00053398037742431574 0.044583955352846295 0 -0.00074398843263281803 0.044703934259611784 0 -0.00063422661734184463 0.044388197953929696 0 -0.00058855275700395182 0.044500384457398713 0 -0.00047889043713413715 0.044319497000680351 0 -0.00053398037742431574 0.044583955352846295 0 -0.00032095094088644175 0.044357723464277563 0 -0.00033347173369554568 0.044542346179584483 0 -0.00053398037742431574 0.044583955352846295 0 -0.00032095094088644175 0.044357723464277563 0 -0.00033347173369554568 0.044542346179584483 0 -0.00032095094088644175 0.044357723464277563 0 -3.3088737468533053e-06 0.044262505003959597 0 -0.00023910767992521464 0.044084184177654938 0 -0.00032095094088644175 0.044357723464277563 0 -3.3088737468533053e-06 0.044262505003959597 0 -3.3088737468533053e-06 0.044262505003959597 0 0.00028712925752355278 0.043823589283075719 0 0.00072814348565513937 0.044178790882930238 0 -3.3088737468533053e-06 0.044262505003959597 0 0.00072814348565513937 0.044178790882930238 0 0.00027669585041334064 0.044602109801083763 0 -3.3088737468533053e-06 0.044262505003959597 0 0.00028712925752355278 0.043823589283075719 0 1.8967245512056936e-05 0.043918489231443078 0 0.00028712925752355278 0.043823589283075719 0 1.8967245512056936e-05 0.043918489231443078 0 7.0843971310047569e-05 0.043656153446332335 0 -0.00013477475162656873 0.043843927742509108 0 1.8967245512056936e-05 0.043918489231443078 0 7.0843971310047569e-05 0.043656153446332335 0 0.00028712925752355278 0.043823589283075719 0 7.0843971310047569e-05 0.043656153446332335 0 0.0006333557082170558 0.043368981489484468 0 0.00028712925752355278 0.043823589283075719 0 0.00065225372156007969 0.042554809818878013 0 0.0013194269690007007 0.043391330515647898 0 0.00030939800676875559 0.043772032077961529 0 0.00064880122830429329 0.042969410356250543 0 0.00031971743302435575 0.042895477280899763 0 -4.9352037574584738e-05 0.043303486681811262 0 0.0006333557082170558 0.043368981489484468 0 -4.9352037574584738e-05 0.043303486681811262 0 7.0843971310047569e-05 0.043656153446332335 0 0.0006333557082170558 0.043368981489484468 0 0.0015420885217564699 0.041891662720424626 0 0.0017527052863836139 0.042512115585057374 0 0.0012535401153485318 0.042270313651586761 0 0.00065225372156007969 0.042554809818878013 0 0.0012535401153485318 0.042270313651586761 0 0.0013194269690007007 0.043391330515647898 0 0.0017527052863836139 0.042512115585057374 0 0.0012535401153485318 0.042270313651586761 0 0.0013194269690007007 0.043391330515647898 0 -0.0021984370615533481 0.025977327492187636 0 -0.0021732078975583631 0.025890054198927457 0 -0.0022456470899092041 0.025825430951763154 0 -0.00089834354159526041 0.035619886571142942 0 -0.00028638119648293501 0.034375862020666427 0 -0.0021732078975583631 0.025890054198927457 0 -0.0021916874773281986 0.025800496941353088 0 -0.0022456470899092041 0.025825430951763154 0 -0.00028638119648293501 0.034375862020666427 0 -0.00074672014319738383 0.034973302581099139 0 -0.0021732078975583631 0.025890054198927457 0 -0.0022388676672914507 0.025874132551517971 0 -0.0021916874773281986 0.025800496941353088 0 0.00028712925752355278 0.043823589283075719 0 0.0013194269690007007 0.043391330515647898 0 0.00072814348565513937 0.044178790882930238 0 -0.0022388676672914507 0.025874132551517971 0 -0.0021916874773281986 0.025800496941353088 0 -0.0022367021722161859 0.025825254611836559 0 -0.0021916874773281986 0.025800496941353088 0 -0.0022367021722161859 0.025825254611836559 0 -0.0021259768195133356 0.025713796605775989 0 -0.0022367021722161859 0.025825254611836559 0 -0.0022546259958250081 0.025815006878360341 0 -0.0021259768195133356 0.025713796605775989 0 -0.0022546259958250081 0.025815006878360341 0 -0.0023262129124302995 0.025852202692174302 0 -0.0021259768195133356 0.025713796605775989 0 -0.0022367021722161859 0.025825254611836559 0 -0.0022546259958250081 0.025815006878360341 0 -0.0022904803346324412 0.025854617065425772 0 -0.0023262129124302995 0.025852202692174302 0 -0.0023225335474224202 0.025819208555336325 0 -0.0022904803346324412 0.025854617065425772 0 -0.0022546259958250081 0.025815006878360341 0 -0.0023262129124302995 0.025852202692174302 0 -0.0022904803346324412 0.025854617065425772 0 -0.0023262129124302995 0.025852202692174302 0 -0.0023225335474224202 0.025819208555336325 0 -0.0023693116389927561 0.025727723440680486 0 -0.0023225335474224202 0.025819208555336325 0 -0.002274813737039041 0.025875470858110001 0 -0.0022907118271953768 0.025762928932414039 0 -0.002274813737039041 0.025875470858110001 0 -0.0022383406099909099 0.0258555989989636 0 -0.0022907118271953768 0.025762928932414039 0 -0.0023225335474224202 0.025819208555336325 0 -0.0023693116389927561 0.025727723440680486 0 -0.0022907118271953768 0.025762928932414039 0 -0.0023225335474224202 0.025819208555336325 0 -0.0022904803346324412 0.025854617065425772 0 -0.002274813737039041 0.025875470858110001 0 -0.0022904803346324412 0.025854617065425772 0 -0.002274813737039041 0.025875470858110001 0 -0.0022508177136097681 0.025906303784222467 0 -0.0022388676672914507 0.025874132551517971 0 -0.0022367021722161859 0.025825254611836559 0 -0.0022508177136097681 0.025906303784222467 0 -0.0022367021722161859 0.025825254611836559 0 -0.0022904803346324412 0.025854617065425772 0 -0.0022508177136097681 0.025906303784222467 0 -0.00074672014319738383 0.034973302581099139 0 -0.0011596273791584335 0.035797015842077777 0 -0.0022388676672914507 0.025874132551517971 0 -0.0022508177136097681 0.025906303784222467 0 -0.0023662111167754123 0.025934735701499456 0 -0.0022508177136097681 0.025906303784222467 0 -0.0023662111167754123 0.025934735701499456 0 -0.0022357072306901787 0.025994343911479416 0 -8.4328477824667145e-05 0.04461188986421552 0 -3.3088737468533053e-06 0.044262505003959597 0 0.00027669585041334064 0.044602109801083763 0 -0.0023662111167754123 0.025934735701499456 0 -0.0022357072306901787 0.025994343911479416 0 -0.0028578280777851253 0.02687210014069558 0 -0.0011596273791584335 0.035797015842077777 0 -0.0015945183427659658 0.032884093468560374 0 -0.0018731226706342843 0.024069790687921991 0 -0.0015945183427659658 0.032884093468560374 0 -8.4328477824667145e-05 0.04461188986421552 0 0.00027669585041334064 0.044602109801083763 0 -4.00846817091287e-05 0.04481147320554342 0 -0.0022357072306901787 0.025994343911479416 0 -0.0021427887741614147 0.025784211878328245 0 -0.0019118646681817429 0.025769013296371508 0 -0.002274813737039041 0.025875470858110001 0 -0.0022357072306901787 0.025994343911479416 0 -0.0022383406099909099 0.0258555989989636 0 -0.002274813737039041 0.025875470858110001 0 -0.0022508177136097681 0.025906303784222467 0 -0.0022357072306901787 0.025994343911479416 0 -0.0022357072306901787 0.025994343911479416 0 -0.0021427887741614147 0.025784211878328245 0 -0.0022383406099909099 0.0258555989989636 0 -0.0021427887741614147 0.025784211878328245 0 -0.0022383406099909099 0.0258555989989636 0 -0.0022907118271953768 0.025762928932414039 0 -0.0021427887741614147 0.025784211878328245 0 -0.0019118646681817429 0.025769013296371508 0 -0.0021977016743654708 0.025487751167507056 0 -0.0021427887741614147 0.025784211878328245 0 -0.0022612339205803048 0.025629005461217522 0 -0.0021977016743654708 0.025487751167507056 0 -0.0021427887741614147 0.025784211878328245 0 -0.0022612339205803048 0.025629005461217522 0 -0.0022907118271953768 0.025762928932414039 0 -0.0022612339205803048 0.025629005461217522 0 -0.0021977016743654708 0.025487751167507056 0 -0.0023036170437049273 0.025504690328430318 0 -0.0016873230360497352 0.025378361722606803 0 -0.0019118646681817429 0.025769013296371508 0 -0.0019858968919609539 0.025283350695832471 0 -0.0019118646681817429 0.025769013296371508 0 -0.0019858968919609539 0.025283350695832471 0 -0.0021977016743654708 0.025487751167507056 0 -0.0019858968919609539 0.025283350695832471 0 -0.0021977016743654708 0.025487751167507056 0 -0.0022539458440424443 0.025206440122846993 0 -0.0021977016743654708 0.025487751167507056 0 -0.0022969499060977055 0.025379836693995544 0 -0.0022539458440424443 0.025206440122846993 0 -0.0021977016743654708 0.025487751167507056 0 -0.0022969499060977055 0.025379836693995544 0 -0.0023036170437049273 0.025504690328430318 0 -0.0022969499060977055 0.025379836693995544 0 -0.0023447772028766935 0.025285758083945214 0 -0.0022539458440424443 0.025206440122846993 0 -0.0023781289103647885 0.025407627225043194 0 -0.0024803926978065821 0.025577155551327984 0 -0.0024631221704240493 0.025156257174568982 0 -0.0016451103506264634 0.024547010052782158 0 -0.0013398797232336392 0.023625368870020987 0 -0.0023447772028766935 0.025285758083945214 0 -0.0023781289103647885 0.025407627225043194 0 -0.0024631221704240493 0.025156257174568982 0 -0.0022969499060977055 0.025379836693995544 0 -0.0023447772028766935 0.025285758083945214 0 -0.0023781289103647885 0.025407627225043194 0 -0.0022969499060977055 0.025379836693995544 0 -0.0023781289103647885 0.025407627225043194 0 -0.0023036170437049273 0.025504690328430318 0 -0.0023781289103647885 0.025407627225043194 0 -0.0023036170437049273 0.025504690328430318 0 -0.00235561512018625 0.025600269052733906 0 -0.0023781289103647885 0.025407627225043194 0 -0.0024803926978065821 0.025577155551327984 0 -0.00235561512018625 0.025600269052733906 0 -0.00074032214077009129 0.022750894669583785 0 -0.00076031262867578544 0.023473008907669391 0 -0.00047545108650835208 0.022332191281575885 0 -0.00074032214077009129 0.022750894669583785 0 -0.00069918525776528444 0.02275165181334686 0 -0.00032771451257291223 0.022153743625662619 0 -0.00074032214077009129 0.022750894669583785 0 -0.00076031262867578544 0.023473008907669391 0 -0.0017029255526945413 0.023890528857724493 0 -0.00075141005631078545 0.022737501766494854 0 -0.001043089713670393 0.023098907696137261 0 -0.0023262129124302995 0.025852202692174302 0 -0.0024803926978065821 0.025577155551327984 0 -0.0023693116389927561 0.025727723440680486 0 -0.0014437701740355419 0.024851778508338335 0 -0.00076031262867578544 0.023473008907669391 0 -0.0017029255526945413 0.023890528857724493 0 -0.0018842186188217608 0.025307741718613087 0 -0.0016451103506264634 0.024547010052782158 0 -0.0023693116389927561 0.025727723440680486 0 -0.0022907118271953768 0.025762928932414039 0 -0.00235561512018625 0.025600269052733906 0 -0.0022612339205803048 0.025629005461217522 0 -0.0022907118271953768 0.025762928932414039 0 -0.00235561512018625 0.025600269052733906 0 -0.0022612339205803048 0.025629005461217522 0 -0.0023036170437049273 0.025504690328430318 0 -0.00235561512018625 0.025600269052733906 0 -0.0024803926978065821 0.025577155551327984 0 -0.0023693116389927561 0.025727723440680486 0 -0.00235561512018625 0.025600269052733906 0 -0.00085892622230847868 0.023405594924816385 0 -0.00087932351602549794 0.023135274481653284 0 -0.001359110081109683 0.023637710715679678 0 -0.00085892622230847868 0.023405594924816385 0 -0.00060406152704290316 0.02341007067317849 0 -0.000674018149500153 0.023185853763417034 0 -0.00085892622230847868 0.023405594924816385 0 -0.00074457732345823194 0.023644073367206093 0 -0.00060406152704290316 0.02341007067317849 0 -0.00085892622230847868 0.023405594924816385 0 -0.00074457732345823194 0.023644073367206093 0 -0.0010846447630784423 0.023827207981105082 0 -0.00074457732345823194 0.023644073367206093 0 -0.00060406152704290316 0.02341007067317849 0 -0.00044724317798306996 0.023696377329085788 0 -0.00060406152704290316 0.02341007067317849 0 -0.00044724317798306996 0.023696377329085788 0 -0.00029787177435198261 0.02325073406765614 0 -0.00060406152704290316 0.02341007067317849 0 -0.00051062846790285357 0.023145378015541739 0 -0.00029787177435198261 0.02325073406765614 0 -0.00060406152704290316 0.02341007067317849 0 -0.000674018149500153 0.023185853763417034 0 -0.00051062846790285357 0.023145378015541739 0 -0.000674018149500153 0.023185853763417034 0 -0.00051062846790285357 0.023145378015541739 0 -0.00058077834160292054 0.022989533724308783 0 -0.000674018149500153 0.023185853763417034 0 -0.00058077834160292054 0.022989533724308783 0 -0.00076169824970268637 0.023109130969227312 0 -0.00037846765384694952 0.023002688781218725 0 -0.00051062846790285357 0.023145378015541739 0 -0.00058077834160292054 0.022989533724308783 0 -0.00037846765384694952 0.023002688781218725 0 -0.00051062846790285357 0.023145378015541739 0 -0.00029787177435198261 0.02325073406765614 0 -0.00050099831635326824 0.022683796254234161 0 -0.00034658409242318135 0.022808384138918409 0 -0.00058077834160292054 0.022989533724308783 0 -0.00037846765384694952 0.023002688781218725 0 -0.00034658409242318135 0.022808384138918409 0 -0.00058077834160292054 0.022989533724308783 0 -0.00039831519638736709 0.022581559911987216 0 -0.0013398797232336392 0.023625368870020987 0 -0.00074032214077009129 0.022750894669583785 0 -0.00069918525776528444 0.02275165181334686 0 -0.00047545108650835208 0.022332191281575885 0 -0.00050099831635326824 0.022683796254234161 0 -0.00058077834160292054 0.022989533724308783 0 -0.00085822105673012683 0.023020720810846357 0 -0.00085845692135307105 0.023028728179973246 0 -0.00087932351602549794 0.023135274481653284 0 -0.001359110081109683 0.023637710715679678 0 -0.00085892622230847868 0.023405594924816385 0 -0.00087932351602549794 0.023135274481653284 0 -0.00079350203548540733 0.023209164385772779 0 -0.00058077834160292054 0.022989533724308783 0 -0.00085822105673012683 0.023020720810846357 0 -0.00076169824970268637 0.023109130969227312 0 -0.00085892622230847868 0.023405594924816385 0 -0.000674018149500153 0.023185853763417034 0 -0.00079350203548540733 0.023209164385772779 0 -0.00085822105673012683 0.023020720810846357 0 -0.00076169824970268637 0.023109130969227312 0 -0.00087932351602549794 0.023135274481653284 0 -0.00076169824970268637 0.023109130969227312 0 -0.00087932351602549794 0.023135274481653284 0 -0.00079350203548540733 0.023209164385772779 0 -0.0013398797232336392 0.023625368870020987 0 -0.0012412671294911794 0.023433123653521275 0 -0.000674018149500153 0.023185853763417034 0 -0.00076169824970268637 0.023109130969227312 0 -0.00079350203548540733 0.023209164385772779 0 -0.0023447772028766935 0.025285758083945214 0 -0.0024631221704240493 0.025156257174568982 0 -0.0022539458440424443 0.025206440122846993 0 -0.0024631221704240493 0.025156257174568982 0 -0.0022539458440424443 0.025206440122846993 0 -0.0021828827796965236 0.024857496458888313 0 -0.0013398797232336392 0.023625368870020987 0 -0.0018276479764571165 0.024325134964836622 0 -0.0019858968919609539 0.025283350695832471 0 -0.0022539458440424443 0.025206440122846993 0 -0.0021828827796965236 0.024857496458888313 0 -0.0019858968919609539 0.025283350695832471 0 -0.0021828827796965236 0.024857496458888313 0 -0.0018112218302548714 0.024957194872881869 0 -0.0018276479764571165 0.024325134964836622 0 -0.0017319170460097667 0.02436686303547269 0 -0.0021828827796965236 0.024857496458888313 0 -0.0017879666323026254 0.024444317797844561 0 -0.0018112218302548714 0.024957194872881869 0 -0.00085892622230847868 0.023405594924816385 0 -0.001359110081109683 0.023637710715679678 0 -0.0010846447630784423 0.023827207981105082 0 -0.001359110081109683 0.023637710715679678 0 -0.0010846447630784423 0.023827207981105082 0 -0.0013734166864367082 0.024307556171139253 0 -0.0013734166864367082 0.024307556171139253 0 -0.0009082349574909245 0.024420654647329967 0 -0.0008078676547243704 0.023993940808001647 0 -0.0010846447630784423 0.023827207981105082 0 -0.0013734166864367082 0.024307556171139253 0 -0.0008078676547243704 0.023993940808001647 0 -0.001359110081109683 0.023637710715679678 0 -0.0013734166864367082 0.024307556171139253 0 -0.0017879666323026254 0.024444317797844561 0 -0.0013734166864367082 0.024307556171139253 0 -0.0017828908872325397 0.024726458978277917 0 -0.0017879666323026254 0.024444317797844561 0 -0.0013734166864367082 0.024307556171139253 0 -0.0014903744880061737 0.024777168560973999 0 -0.0017828908872325397 0.024726458978277917 0 -0.0013734166864367082 0.024307556171139253 0 -0.0009082349574909245 0.024420654647329967 0 -0.0014903744880061737 0.024777168560973999 0 -0.0009082349574909245 0.024420654647329967 0 -0.0008078676547243704 0.023993940808001647 0 -0.00029671140969887326 0.024132916686371093 0 -0.00074457732345823194 0.023644073367206093 0 -0.0010846447630784423 0.023827207981105082 0 -0.0008078676547243704 0.023993940808001647 0 -0.00074457732345823194 0.023644073367206093 0 -0.0008078676547243704 0.023993940808001647 0 -0.00044724317798306996 0.023696377329085788 0 -0.0008078676547243704 0.023993940808001647 0 -0.00044724317798306996 0.023696377329085788 0 -0.00029671140969887326 0.024132916686371093 0 -0.0009082349574909245 0.024420654647329967 0 -0.00029671140969887326 0.024132916686371093 0 -0.00035298431308150336 0.024482116712953188 0 -0.00029671140969887326 0.024132916686371093 0 -0.00035298431308150336 0.024482116712953188 0 -7.1510209099733349e-05 0.024448272671897045 0 -0.00035298431308150336 0.024482116712953188 0 -0.00033633012991173943 0.024757842118746067 0 -1.8172271217479879e-05 0.024637688385462798 0 -0.00035298431308150336 0.024482116712953188 0 -1.8172271217479879e-05 0.024637688385462798 0 -7.1510209099733349e-05 0.024448272671897045 0 -0.0009082349574909245 0.024420654647329967 0 -0.00035298431308150336 0.024482116712953188 0 -0.0011259255029512796 0.024915791535968963 0 -0.00035298431308150336 0.024482116712953188 0 -0.00033633012991173943 0.024757842118746067 0 -0.00080573796288521443 0.024558731184801331 0 -0.00039712362437877523 0.024508321615767069 0 -0.00096340583518385553 0.024735330071568619 0 -0.00033633012991173943 0.024757842118746067 0 -0.0005791972030438139 0.025193583898199548 0 -0.00080573796288521443 0.024558731184801331 0 -0.00033633012991173943 0.024757842118746067 0 -1.8172271217479879e-05 0.024637688385462798 0 0.00014026396195830631 0.025084417564181571 0 -1.8172271217479879e-05 0.024637688385462798 0 0.00014026396195830631 0.025084417564181571 0 0.00017238063356721947 0.024615574890339026 0 0.00014026396195830631 0.025084417564181571 0 -0.0005791972030438139 0.025193583898199548 0 -0.00020364761545909241 0.025676707314193511 0 -0.00033633012991173943 0.024757842118746067 0 0.00014026396195830631 0.025084417564181571 0 -0.0005791972030438139 0.025193583898199548 0 -0.0005791972030438139 0.025193583898199548 0 -0.00020364761545909241 0.025676707314193511 0 -0.00076848165342004919 0.025644938550703121 0 -0.00020364761545909241 0.025676707314193511 0 -9.1913677004835668e-05 0.026999678692831021 0 0.00010215878562669126 0.025793835769229959 0 -9.1913677004835668e-05 0.026999678692831021 0 -7.5987018943142351e-07 0.026846743705930737 0 -4.2526570235423884e-07 0.029339709166406266 0 -0.00020364761545909241 0.025676707314193511 0 -9.1913677004835668e-05 0.026999678692831021 0 -0.00076848165342004919 0.025644938550703121 0 -9.1913677004835668e-05 0.026999678692831021 0 -7.5987018943142351e-07 0.026846743705930737 0 0.00010215878562669126 0.025793835769229959 0 0.00014026396195830631 0.025084417564181571 0 0.00010215878562669126 0.025793835769229959 0 1.6120986778665462e-06 0.024356156971624698 0 -7.5987018943142351e-07 0.026846743705930737 0 0.00010215878562669126 0.025793835769229959 0 1.6120986778665462e-06 0.024356156971624698 0 0.00014026396195830631 0.025084417564181571 0 -0.00020364761545909241 0.025676707314193511 0 0.00010215878562669126 0.025793835769229959 0 4.615549350500675e-06 0.030499747420325782 0 -4.2526570235423884e-07 0.029339709166406266 0 1.3037944067113166e-06 0.031831335371709742 0 -9.1913677004835668e-05 0.026999678692831021 0 -0.0013668634511644739 0.025836510085991343 0 -0.00076848165342004919 0.025644938550703121 0 -9.1913677004835668e-05 0.026999678692831021 0 4.615549350500675e-06 0.030499747420325782 0 -4.2526570235423884e-07 0.029339709166406266 0 -7.4204735474461443e-06 0.027232641175101751 0 -0.00047525145867392587 0.028245032535655527 0 -0.0005791972030438139 0.025193583898199548 0 -0.00076848165342004919 0.025644938550703121 0 -0.0012514088033568928 0.025246798169140702 0 -0.0013668634511644739 0.025836510085991343 0 -0.00076848165342004919 0.025644938550703121 0 -0.0012514088033568928 0.025246798169140702 0 -0.0013668634511644739 0.025836510085991343 0 -0.0012514088033568928 0.025246798169140702 0 -0.0018589907649172509 0.025521686059194096 0 -0.0012514088033568928 0.025246798169140702 0 -0.00080573796288521443 0.024558731184801331 0 -0.0015884915661073164 0.024931415889661999 0 -0.0005791972030438139 0.025193583898199548 0 -0.0012514088033568928 0.025246798169140702 0 -0.00080573796288521443 0.024558731184801331 0 -0.0009082349574909245 0.024420654647329967 0 -0.0011259255029512796 0.024915791535968963 0 -0.0014903744880061737 0.024777168560973999 0 -0.0014903744880061737 0.024777168560973999 0 -0.0016533469472182981 0.025101118799536137 0 -0.0017828908872325397 0.024726458978277917 0 -0.0011259255029512796 0.024915791535968963 0 -0.0014903744880061737 0.024777168560973999 0 -0.0016533469472182981 0.025101118799536137 0 -0.00096340583518385553 0.024735330071568619 0 -0.0016113601407827379 0.025017937425480977 0 -0.0018883498106499164 0.025019910521499853 0 -0.0016533469472182981 0.025101118799536137 0 -0.0017828908872325397 0.024726458978277917 0 -0.0018883498106499164 0.025019910521499853 0 -0.0019469968656402044 0.024900969023682652 0 -0.0017828908872325397 0.024726458978277917 0 -0.0018883498106499164 0.025019910521499853 0 -0.0020563346018331657 0.025104772654638369 0 -0.0019469968656402044 0.024900969023682652 0 -0.0018883498106499164 0.025019910521499853 0 -0.0020043629934786071 0.02523844396036598 0 -0.0020563346018331657 0.025104772654638369 0 -0.0018883498106499164 0.025019910521499853 0 -0.0020043629934786071 0.02523844396036598 0 -0.0016533469472182981 0.025101118799536137 0 -0.0020043629934786071 0.02523844396036598 0 -0.0015884915661073164 0.024931415889661999 0 -0.0018589907649172509 0.025521686059194096 0 -0.0019841937094102562 0.025212761473421351 0 -0.0016113601407827379 0.025017937425480977 0 -0.0012514088033568928 0.025246798169140702 0 -0.0015884915661073164 0.024931415889661999 0 -0.0018589907649172509 0.025521686059194096 0 -0.0020043629934786071 0.02523844396036598 0 -0.0018589907649172509 0.025521686059194096 0 -0.0021670720067142432 0.025385977847577255 0 -0.00084001514863417284 0.028363999462470264 0 -0.0016567864923162437 0.03281837450502105 0 0.00033073250719449894 0.032454380541689504 0 -1.7232275970539498e-06 0.034316811036635218 0 -0.0010944168295324631 0.03218860632341064 0 0.00033073250719449894 0.032454380541689504 0 -1.7232275970539498e-06 0.034316811036635218 0 1.3037944067113166e-06 0.031831335371709742 0 -0.00047525145867392587 0.028245032535655527 0 -0.00084001514863417284 0.028363999462470264 0 4.615549350500675e-06 0.030499747420325782 0 0.00033073250719449894 0.032454380541689504 0 1.3037944067113166e-06 0.031831335371709742 0 0.000107353636604234 0.036786708075326434 0 8.6561966037037201e-07 0.036537418663018462 0 0.00027008948842987336 0.037622293671200228 0 1.3260214637394633e-06 0.034325405677147446 0 -0.0016567864923162437 0.03281837450502105 0 -1.7708407824642187e-06 0.034325513558539744 0 0.000107353636604234 0.036786708075326434 0 8.6561966037037201e-07 0.036537418663018462 0 -1.7708407824642187e-06 0.034325513558539744 0 0.000107353636604234 0.036786708075326434 0 -0.00042067685741113936 0.037473413924525648 0 0.000107353636604234 0.036786708075326434 0 -0.00042067685741113936 0.037473413924525648 0 0.00026238857483378079 0.037565642291763117 0 0.000107353636604234 0.036786708075326434 0 0.00026238857483378079 0.037565642291763117 0 0.00027008948842987336 0.037622293671200228 0 -0.0016567864923162437 0.03281837450502105 0 -0.00085257312635148117 0.036380911400930749 0 -0.0019996683127586675 0.035131327726557526 0 -0.0024678990026751313 0.035814589316655612 0 -0.0016430884588583886 0.036099435001509729 0 -0.0028283719264665008 0.034845190363805172 0 -0.0019996683127586675 0.035131327726557526 0 -0.0024678990026751313 0.035814589316655612 0 -0.0016567864923162437 0.03281837450502105 0 -0.0028514535172060465 0.028963526875640449 0 -0.0021670720067142432 0.025385977847577255 0 -0.00221251936363608 0.02518354698261302 0 -0.0020563346018331657 0.025104772654638369 0 -0.0020043629934786071 0.02523844396036598 0 -0.0021670720067142432 0.025385977847577255 0 -0.0020563346018331657 0.025104772654638369 0 -0.00221251936363608 0.02518354698261302 0 -0.0020563346018331657 0.025104772654638369 0 -0.0020740465832395014 0.024948842694726678 0 -0.0020563346018331657 0.025104772654638369 0 -0.0020740465832395014 0.024948842694726678 0 -0.0019469968656402044 0.024900969023682652 0 -0.0028514535172060465 0.028963526875640449 0 -0.001676094665662416 0.037225640702153284 0 -0.00221251936363608 0.02518354698261302 0 -0.0022719666534428496 0.025025283269048834 0 -0.0020740465832395014 0.024948842694726678 0 -0.0024678990026751313 0.035814589316655612 0 -0.0020995912088148218 0.03678773858762515 0 -0.0016430884588583886 0.036099435001509729 0 -0.001676094665662416 0.037225640702153284 0 -0.0018096060272093037 0.04100470960110579 0 -0.0016260743747044239 0.045594478616002618 0 -0.0013670416350245965 0.046175246798071688 0 -0.0011233983906355526 0.045631607244861143 0 -0.001676094665662416 0.037225640702153284 0 -0.00042355360175560402 0.048468916254783917 0 -0.0015106106900290902 0.045700839710919261 0 -0.0013670416350245965 0.046175246798071688 0 -0.0017898917217147648 0.046409302606398237 0 -0.001676094665662416 0.037225640702153284 0 -0.0019195385100449381 0.035720370693113547 0 -0.0013670416350245965 0.046175246798071688 0 -0.0015764775235246008 0.046814742736375974 0 -0.0012765595795424345 0.046806805137783659 0 -0.0013670416350245965 0.046175246798071688 0 -0.0017898917217147648 0.046409302606398237 0 -0.0015764775235246008 0.046814742736375974 0 -0.0022719666534428496 0.025025283269048834 0 -0.0020059909752418886 0.024712903855674623 0 -0.0020740465832395014 0.024948842694726678 0 -0.0020059909752418886 0.024712903855674623 0 -0.0020740465832395014 0.024948842694726678 0 -0.0019317218775287239 0.02477669206767134 0 -0.0019469968656402044 0.024900969023682652 0 -0.0019317218775287239 0.02477669206767134 0 -0.0017828908872325397 0.024726458978277917 0 -0.0019317218775287239 0.02477669206767134 0 -0.0017828908872325397 0.024726458978277917 0 -0.0018301301066528113 0.024629690030810933 0 -0.0020740465832395014 0.024948842694726678 0 -0.0019469968656402044 0.024900969023682652 0 -0.0019317218775287239 0.02477669206767134 0 -0.0017828908872325397 0.024726458978277917 0 -0.0017879666323026254 0.024444317797844561 0 -0.0018301301066528113 0.024629690030810933 0 -0.0020059909752418886 0.024712903855674623 0 -0.0019317218775287239 0.02477669206767134 0 -0.0018301301066528113 0.024629690030810933 0 -0.0019375328872064904 0.021306036690610652 0 -0.0021576472488575881 0.03318202544892216 0 -0.0019195385100449381 0.035720370693113547 0 -0.0021576472488575881 0.03318202544892216 0 -0.0020059909752418886 0.024712903855674623 0 -0.0018301301066528113 0.024629690030810933 0 -0.0018670115338265364 0.024752650995574745 0 -0.0017879666323026254 0.024444317797844561 0 -0.0018301301066528113 0.024629690030810933 0 -0.0015434388699387218 0.024927046249391974 0 -0.0017879666323026254 0.024444317797844561 0 -0.0018112218302548714 0.024957194872881869 0 -0.0015434388699387218 0.024927046249391974 0 -0.0016873230360497352 0.025378361722606803 0 -0.0019858968919609539 0.025283350695832471 0 -0.0018112218302548714 0.024957194872881869 0 -0.0016873230360497352 0.025378361722606803 0 -0.0018112218302548714 0.024957194872881869 0 -0.0015434388699387218 0.024927046249391974 0 -0.00072317757112937218 0.044269205237803352 0 -0.0021576472488575881 0.03318202544892216 0 -0.0018904526863513231 0.047315278928556338 0 -0.0019588007386213942 0.046998455617474143 0 -0.0016001103746807719 0.047179875187475434 0 -0.0019878065948332898 0.035704143630903955 0 -0.0013422035191033525 0.035472998154284507 0 -0.0019205852121789721 0.03630855836493399 0 -0.0011787881393600205 0.029458810429971873 0 -0.0021576472488575881 0.03318202544892216 0 -0.00072317757112937218 0.044269205237803352 0 -0.0022136729600258551 0.047853378303190697 0 -0.0019588007386213942 0.046998455617474143 0 -0.0016001103746807719 0.047179875187475434 0 -0.0015764775235246008 0.046814742736375974 0 -0.0015038639530908025 0.047448449935011024 0 -0.0014329534645787672 0.047163815131057593 0 -0.001125440642555839 0.047351176020396686 0 -0.0016001103746807719 0.047179875187475434 0 -0.0014329534645787672 0.047163815131057593 0 -0.0015764775235246008 0.046814742736375974 0 -0.0015038639530908025 0.047448449935011024 0 -0.0016001103746807719 0.047179875187475434 0 -0.0014329534645787672 0.047163815131057593 0 -0.0014329534645787672 0.047163815131057593 0 -0.0015764775235246008 0.046814742736375974 0 -0.0012765595795424345 0.046806805137783659 0 -0.0017898917217147648 0.046409302606398237 0 -0.0019588007386213942 0.046998455617474143 0 -0.0015764775235246008 0.046814742736375974 0 -0.00070316732740897264 0.046932508626090108 0 -0.0009832082071276223 0.047006172365631954 0 -0.00080898006432593742 0.047398909384911203 0 -0.00070316732740897264 0.046932508626090108 0 -0.00035476849470950339 0.046905637331903623 0 -0.00056293019915226576 0.046475852976014607 0 -0.00070316732740897264 0.046932508626090108 0 -0.0009832082071276223 0.047006172365631954 0 -0.00095775808467669595 0.046533937083788779 0 -0.0012765595795424345 0.046806805137783659 0 -0.0009832082071276223 0.047006172365631954 0 -0.001125440642555839 0.047351176020396686 0 -0.0012765595795424345 0.046806805137783659 0 -0.0009832082071276223 0.047006172365631954 0 -0.00095775808467669595 0.046533937083788779 0 -0.0009832082071276223 0.047006172365631954 0 -0.001125440642555839 0.047351176020396686 0 -0.00080898006432593742 0.047398909384911203 0 -0.0014329534645787672 0.047163815131057593 0 -0.0012765595795424345 0.046806805137783659 0 -0.001125440642555839 0.047351176020396686 0 -0.0010838969414539762 0.047651770206827058 0 -0.001125440642555839 0.047351176020396686 0 -0.00092003084222432594 0.0476251394776274 0 -0.00074923828008965682 0.047741030262725026 0 -0.00092003084222432594 0.0476251394776274 0 -0.00080898006432593742 0.047398909384911203 0 -0.001125440642555839 0.047351176020396686 0 -0.00092003084222432594 0.0476251394776274 0 -0.00080898006432593742 0.047398909384911203 0 -0.00070316732740897264 0.046932508626090108 0 -0.00080898006432593742 0.047398909384911203 0 -0.00046398793697349495 0.047331373825916762 0 -0.00080898006432593742 0.047398909384911203 0 -0.00056765835264401617 0.047746593768248392 0 -0.00046398793697349495 0.047331373825916762 0 -0.00074923828008965682 0.047741030262725026 0 -0.00080898006432593742 0.047398909384911203 0 -0.00056765835264401617 0.047746593768248392 0 -0.00056765835264401617 0.047746593768248392 0 -0.00023156155222919645 0.047807148769814949 0 -0.00046398793697349495 0.047331373825916762 0 -0.00023156155222919645 0.047807148769814949 0 -0.00046398793697349495 0.047331373825916762 0 -5.246802971899993e-06 0.047110973944720434 0 -8.2416013868142195e-05 0.048401242855743813 0 0.00029321191457396694 0.048159813527702572 0 -0.00020054288414683721 0.048748466027263918 0 -9.3175279504076664e-05 0.048393170909380293 0 -0.00023450709942443964 0.048845142882554655 0 -9.3175279504076664e-05 0.048393170909380293 0 -0.00023156155222919645 0.047807148769814949 0 0.00075937517636490517 0.047456817246869058 0 -0.00023156155222919645 0.047807148769814949 0 -5.246802971899993e-06 0.047110973944720434 0 0.00075937517636490517 0.047456817246869058 0 -5.246802971899993e-06 0.047110973944720434 0 0.0005281001342002156 0.046610498067622012 0 0.00075937517636490517 0.047456817246869058 0 -5.246802971899993e-06 0.047110973944720434 0 -0.00013968668621800178 0.046525590913301523 0 0.0005281001342002156 0.046610498067622012 0 -0.00070316732740897264 0.046932508626090108 0 -0.00046398793697349495 0.047331373825916762 0 -0.00035476849470950339 0.046905637331903623 0 -0.00046398793697349495 0.047331373825916762 0 -5.246802971899993e-06 0.047110973944720434 0 -0.00035476849470950339 0.046905637331903623 0 -5.246802971899993e-06 0.047110973944720434 0 -0.00035476849470950339 0.046905637331903623 0 -0.00013968668621800178 0.046525590913301523 0 -0.00035476849470950339 0.046905637331903623 0 -0.00013968668621800178 0.046525590913301523 0 -0.00056293019915226576 0.046475852976014607 0 -0.00013968668621800178 0.046525590913301523 0 -0.00036330539679318925 0.045898506638431549 0 -0.00056293019915226576 0.046475852976014607 0 -0.00013968668621800178 0.046525590913301523 0 0.0005281001342002156 0.046610498067622012 0 0.00016510478911815785 0.045870065195186611 0 0.0005281001342002156 0.046610498067622012 0 0.00016510478911815785 0.045870065195186611 0 0.00090336979053898551 0.045868393860090582 0 0.00016510478911815785 0.045870065195186611 0 0.00027343302848685427 0.045417969080257595 0 0.00090336979053898551 0.045868393860090582 0 0.00016510478911815785 0.045870065195186611 0 -5.2661145727587315e-05 0.045526848147817982 0 0.00027343302848685427 0.045417969080257595 0 0.00016510478911815785 0.045870065195186611 0 -0.00036330539679318925 0.045898506638431549 0 -5.2661145727587315e-05 0.045526848147817982 0 -0.00013968668621800178 0.046525590913301523 0 0.00016510478911815785 0.045870065195186611 0 -0.00036330539679318925 0.045898506638431549 0 -0.00036330539679318925 0.045898506638431549 0 -5.2661145727587315e-05 0.045526848147817982 0 -0.00036951731440193762 0.045395332836360408 0 -0.00036330539679318925 0.045898506638431549 0 -0.00070365006705372911 0.045625933913081056 0 -0.00083782606460355402 0.046029633798882912 0 -0.00036330539679318925 0.045898506638431549 0 -0.00070365006705372911 0.045625933913081056 0 -0.00036951731440193762 0.045395332836360408 0 -0.00070365006705372911 0.045625933913081056 0 -0.00083782606460355402 0.046029633798882912 0 -0.0011233983906355526 0.045631607244861143 0 -0.00036330539679318925 0.045898506638431549 0 -0.00083782606460355402 0.046029633798882912 0 -0.00056293019915226576 0.046475852976014607 0 -0.00083782606460355402 0.046029633798882912 0 -0.00056293019915226576 0.046475852976014607 0 -0.00095775808467669595 0.046533937083788779 0 -0.00070316732740897264 0.046932508626090108 0 -0.00056293019915226576 0.046475852976014607 0 -0.00095775808467669595 0.046533937083788779 0 -0.0013670416350245965 0.046175246798071688 0 -0.0012765595795424345 0.046806805137783659 0 -0.00095775808467669595 0.046533937083788779 0 -0.0013670416350245965 0.046175246798071688 0 -0.00083782606460355402 0.046029633798882912 0 -0.00095775808467669595 0.046533937083788779 0 -0.0013670416350245965 0.046175246798071688 0 -0.00083782606460355402 0.046029633798882912 0 -0.0011233983906355526 0.045631607244861143 0 -0.0016260743747044239 0.045594478616002618 0 -0.0011233983906355526 0.045631607244861143 0 -0.0013607719004315709 0.045163945308599705 0 -0.0013607719004315709 0.045163945308599705 0 -0.00085362516238588013 0.04524684395604444 0 -0.0010915983793129923 0.044740025450040501 0 -0.0011233983906355526 0.045631607244861143 0 -0.0013607719004315709 0.045163945308599705 0 -0.00085362516238588013 0.04524684395604444 0 -0.00070365006705372911 0.045625933913081056 0 -0.00085362516238588013 0.04524684395604444 0 -0.00036951731440193762 0.045395332836360408 0 -0.00085362516238588013 0.04524684395604444 0 -0.00051848551073420857 0.044945999911186856 0 -0.00036951731440193762 0.045395332836360408 0 -0.00070365006705372911 0.045625933913081056 0 -0.0011233983906355526 0.045631607244861143 0 -0.00085362516238588013 0.04524684395604444 0 -0.00097165726831255762 0.04496964938764203 0 -0.0022476755141891446 0.044564427893498737 0 -0.0015295766736698059 0.043364546573770126 0 -0.00066386800991006048 0.045134840054739292 0 -0.001061198106401621 0.040439293733321814 0 -0.00085362516238588013 0.04524684395604444 0 -0.00051848551073420857 0.044945999911186856 0 -0.0010915983793129923 0.044740025450040501 0 -0.0019996683127586675 0.035131327726557526 0 -0.0016430884588583886 0.036099435001509729 0 -0.0011832122016223966 0.035422373457222857 0 -0.0018096060272093037 0.04100470960110579 0 -0.001061198106401621 0.040439293733321814 0 -0.00085257312635148117 0.036380911400930749 0 -0.001061198106401621 0.040439293733321814 0 0.00026238857483378079 0.037565642291763117 0 0.00015510832423835133 0.037535860671156857 0 0.00027008948842987336 0.037622293671200228 0 0.00015510832423835133 0.037535860671156857 0 0.00027008948842987336 0.037622293671200228 0 -0.00014633094031118763 0.038123137451956349 0 -0.00097165726831255762 0.04496964938764203 0 -0.0015295766736698059 0.043364546573770126 0 -0.00027052622950594153 0.044278107485444085 0 -0.001061198106401621 0.040439293733321814 0 -0.00075390914318933309 0.040836185225214344 0 -0.00075390914318933309 0.040836185225214344 0 -1.1475404790121434e-07 0.040971587025738734 0 -0.00014633094031118763 0.038123137451956349 0 8.5453482359891724e-07 0.038755766180819919 0 -1.7536909517660612e-06 0.040968441601838546 0 8.6561966037037201e-07 0.036537418663018462 0 0.00027008948842987336 0.037622293671200228 0 8.5453482359891724e-07 0.038755766180819919 0 0.00027008948842987336 0.037622293671200228 0 -0.00014633094031118763 0.038123137451956349 0 8.5453482359891724e-07 0.038755766180819919 0 1.4427176548857725e-06 0.043454892366376077 0 0.00015994355695018772 0.044030156164243592 0 0.00032561036681690475 0.044444914370482716 0 1.4427176548857725e-06 0.043454892366376077 0 -0.00010144427328055753 0.042992946450790687 0 0.00015994355695018772 0.044030156164243592 0 1.4427176548857725e-06 0.043454892366376077 0 -0.00010144427328055753 0.042992946450790687 0 -2.9465877340340707e-06 0.040977264316688009 0 -0.0015295766736698059 0.043364546573770126 0 -0.00010144427328055753 0.042992946450790687 0 -2.9465877340340707e-06 0.040977264316688009 0 -0.0015295766736698059 0.043364546573770126 0 -0.00010144427328055753 0.042992946450790687 0 -0.00027052622950594153 0.044278107485444085 0 -0.00010144427328055753 0.042992946450790687 0 -0.00027052622950594153 0.044278107485444085 0 0.00015994355695018772 0.044030156164243592 0 -0.00027052622950594153 0.044278107485444085 0 0.00015994355695018772 0.044030156164243592 0 0.00016921295799331886 0.044616711686282992 0 0.00015994355695018772 0.044030156164243592 0 0.00039008031795143125 0.044708044671758533 0 0.00032561036681690475 0.044444914370482716 0 0.00015994355695018772 0.044030156164243592 0 0.00016921295799331886 0.044616711686282992 0 0.00039008031795143125 0.044708044671758533 0 0.00016921295799331886 0.044616711686282992 0 0.00040320674278676729 0.044913900194641421 0 0.00039008031795143125 0.044708044671758533 0 0.00016921295799331886 0.044616711686282992 0 0.00040320674278676729 0.044913900194641421 0 3.8178840920375027e-05 0.045088335562067774 0 -0.00097165726831255762 0.04496964938764203 0 -0.00027052622950594153 0.044278107485444085 0 3.8178840920375027e-05 0.045088335562067774 0 -0.00066386800991006048 0.045134840054739292 0 -9.296271941503874e-05 0.045067462065814981 0 -0.00027052622950594153 0.044278107485444085 0 0.00016921295799331886 0.044616711686282992 0 3.8178840920375027e-05 0.045088335562067774 0 -0.00051848551073420857 0.044945999911186856 0 -0.00036951731440193762 0.045395332836360408 0 3.8178840920375027e-05 0.045088335562067774 0 -5.2661145727587315e-05 0.045526848147817982 0 -0.00036951731440193762 0.045395332836360408 0 3.8178840920375027e-05 0.045088335562067774 0 0.00040320674278676729 0.044913900194641421 0 0.00027343302848685427 0.045417969080257595 0 0.00090336979053898551 0.045868393860090582 0 0.00040320674278676729 0.044913900194641421 0 3.8178840920375027e-05 0.045088335562067774 0 0.00027343302848685427 0.045417969080257595 0 -5.2661145727587315e-05 0.045526848147817982 0 3.8178840920375027e-05 0.045088335562067774 0 0.00027343302848685427 0.045417969080257595 0 0.00040320674278676729 0.044913900194641421 0 0.00032953872800778458 0.044850996977887435 0 0.00034978346519276739 0.044543617423003577 0 7.1673200786788903e-07 0.04999578926835703 0 -2.6863872649838443e-07 0.04999262773661603 0 -1.6084784909037738e-07 0.050001005300215062 0 0.0004541198431795062 0.045081675512599437 0 0.00060901500579367508 0.044797410734201501 0 0.00012501005920553186 0.044933424098056694 0 -0.0001649075299681843 0.044684201961508366 0 0.00011302071794342124 0.044571493395205032 0 0.00032953872800778458 0.044850996977887435 0 0.00012501005920553186 0.044933424098056694 0 0.00011302071794342124 0.044571493395205032 0 0.00032953872800778458 0.044850996977887435 0 0.00012501005920553186 0.044933424098056694 0 0.00033863395118869597 0.045071932414050678 0 0.00040320674278676729 0.044913900194641421 0 0.00032953872800778458 0.044850996977887435 0 0.00039008031795143125 0.044708044671758533 0 0.00032953872800778458 0.044850996977887435 0 0.00039008031795143125 0.044708044671758533 0 0.00033863395118869597 0.045071932414050678 0 0.00039008031795143125 0.044708044671758533 0 0.00032561036681690475 0.044444914370482716 0 0.00033863395118869597 0.045071932414050678 0 0.00012501005920553186 0.044933424098056694 0 0.00033863395118869597 0.045071932414050678 0 0.00014797428113104492 0.045892102906098887 0 0.00033863395118869597 0.045071932414050678 0 1.2962335292423098e-06 0.045940645907126224 0 0.00014797428113104492 0.045892102906098887 0 0.00032561036681690475 0.044444914370482716 0 0.00033863395118869597 0.045071932414050678 0 1.2962335292423098e-06 0.045940645907126224 0 1.4427176548857725e-06 0.043454892366376077 0 0.00032561036681690475 0.044444914370482716 0 1.2962335292423098e-06 0.045940645907126224 0 7.1673200786788903e-07 0.04999578926835703 0 -4.4082495300289993e-06 0.049935778327226669 0 -2.6863872649838443e-07 0.04999262773661603 0 7.1673200786788903e-07 0.04999578926835703 0 -1.1490261922601669e-06 0.048429892037541167 0 -4.4082495300289993e-06 0.049935778327226669 0 -6.9582572316722233e-08 0.048423334179949935 0 -0.00041596710669774065 0.047495043360120136 0 1.2962335292423098e-06 0.045940645907126224 0 -2.3728997648453374e-06 0.048417727290837126 0 0.00014797428113104492 0.045892102906098887 0 -2.3728997648453374e-06 0.048417727290837126 0 0.00014797428113104492 0.045892102906098887 0 -0.00078380722866643775 0.045433982798619016 0 0.00014797428113104492 0.045892102906098887 0 -0.00078380722866643775 0.045433982798619016 0 -0.00030466683394981295 0.045019158056718953 0 -0.00078380722866643775 0.045433982798619016 0 -0.00030466683394981295 0.045019158056718953 0 -0.00056782390629807778 0.044657839793829771 0 -0.00041596710669774065 0.047495043360120136 0 2.2151973621656477e-05 0.048239538077189267 0 0.00012501005920553186 0.044933424098056694 0 0.00014797428113104492 0.045892102906098887 0 -0.00030466683394981295 0.045019158056718953 0 0.00012501005920553186 0.044933424098056694 0 -0.00030466683394981295 0.045019158056718953 0 -0.0001649075299681843 0.044684201961508366 0 -0.00030466683394981295 0.045019158056718953 0 -0.0001649075299681843 0.044684201961508366 0 -0.00056782390629807778 0.044657839793829771 0 -4.4082495300289993e-06 0.049935778327226669 0 -2.6863872649838443e-07 0.04999262773661603 0 -8.8737158908589406e-06 0.04999635888324104 0 -2.6863872649838443e-07 0.04999262773661603 0 -2.5065051679709474e-06 0.049995498571946781 0 -1.6084784909037738e-07 0.050001005300215062 0 -0.00037925756684903031 0.049155385724631961 0 2.2151973621656477e-05 0.048239538077189267 0 -1.6084784909037738e-07 0.050001005300215062 0 7.8232122037248419e-06 0.049999650141296155 0 7.106246157596411e-08 0.049999612101911416 0 2.2151973621656477e-05 0.048239538077189267 0 6.5256752572819817e-05 0.05070104719469385 0 2.3896964295597114e-05 0.04999186924890231 0 7.8232122037248419e-06 0.049999650141296155 0 5.6148226245468972e-05 0.049994982561051143 0 -2.5065051679709474e-06 0.049995498571946781 0 -1.6084784909037738e-07 0.050001005300215062 0 7.8232122037248419e-06 0.049999650141296155 0 7.8232122037248419e-06 0.049999650141296155 0 5.6148226245468972e-05 0.049994982561051143 0 5.644366559355367e-05 0.049978423519875359 0 5.6148226245468972e-05 0.049994982561051143 0 0.00012689033337532886 0.049965621165947355 0 5.644366559355367e-05 0.049978423519875359 0 -0.0001649075299681843 0.044684201961508366 0 -0.00011972662598574376 0.044414436930098569 0 0.00011302071794342124 0.044571493395205032 0 -0.0001649075299681843 0.044684201961508366 0 -0.00056782390629807778 0.044657839793829771 0 -0.00011972662598574376 0.044414436930098569 0 2.2151973621656477e-05 0.048239538077189267 0 -3.7280399905618645e-05 0.047007537362448337 0 0.00032953872800778458 0.044850996977887435 0 0.00011302071794342124 0.044571493395205032 0 0.00034978346519276739 0.044543617423003577 0 0.00060901500579367508 0.044797410734201501 0 0.0002405881619538872 0.047494063950762014 0 0.0005281001342002156 0.046610498067622012 0 0.00090336979053898551 0.045868393860090582 0 0.0013593043245939671 0.046789601309198264 0 -3.7280399905618645e-05 0.047007537362448337 0 0.0002405881619538872 0.047494063950762014 0 0.00011302071794342124 0.044571493395205032 0 0.00034978346519276739 0.044543617423003577 0 0.00017132762847510302 0.044199414762615082 0 -0.00011972662598574376 0.044414436930098569 0 0.00011302071794342124 0.044571493395205032 0 0.00017132762847510302 0.044199414762615082 0 0.0002405881619538872 0.047494063950762014 0 0.00013465931746794863 0.049743479696707442 0 0.00012689033337532886 0.049965621165947355 0 0.00013977657305640339 0.049917771884086248 0 5.644366559355367e-05 0.049978423519875359 0 -8.1242124020801149e-05 0.048676784243846576 0 -0.00023450709942443964 0.048845142882554655 0 4.6559618804366571e-06 0.048881932239105828 0 0.0002405881619538872 0.047494063950762014 0 0.00029321191457396694 0.048159813527702572 0 0.0005281001342002156 0.046610498067622012 0 0.0013593043245939671 0.046789601309198264 0 0.00075937517636490517 0.047456817246869058 0 -0.00020054288414683721 0.048748466027263918 0 -0.00018368173477619737 0.048979082566091528 0 -0.00023450709942443964 0.048845142882554655 0 -0.00018368173477619737 0.048979082566091528 0 -0.00023450709942443964 0.048845142882554655 0 4.6559618804366571e-06 0.048881932239105828 0 0.00013977657305640339 0.049917771884086248 0 3.4374849240701023e-05 0.04988308814418338 0 5.644366559355367e-05 0.049978423519875359 0 7.8232122037248419e-06 0.049999650141296155 0 7.106246157596411e-08 0.049999612101911416 0 5.644366559355367e-05 0.049978423519875359 0 7.106246157596411e-08 0.049999612101911416 0 3.4374849240701023e-05 0.04988308814418338 0 5.644366559355367e-05 0.049978423519875359 0 0.00021397675332977849 0.0039636399741964342 0 -0.00040479771269409345 0.0044352334455835217 0 -0.00047318040099058142 0.0037406030628922273 0 0.00021397675332977849 0.0039636399741964342 0 -0.00040479771269409345 0.0044352334455835217 0 0.00017526153192906375 0.004866712220565516 0 -0.00040479771269409345 0.0044352334455835217 0 -0.00047318040099058142 0.0037406030628922273 0 -0.00088926188873831734 0.0039938823376843699 0 -0.00040479771269409345 0.0044352334455835217 0 -0.00078136497836371588 0.0046456819738971561 0 -0.00032940456241355279 0.0050021977244584541 0 -0.00040479771269409345 0.0044352334455835217 0 0.00017526153192906375 0.004866712220565516 0 -0.00032940456241355279 0.0050021977244584541 0 -1.8531493338127531e-05 0.0048937056147863962 0 -0.00046197102107292432 0.00588446072362771 0 0.00017526153192906375 0.004866712220565516 0 0.0012454100413488106 0.0045556450958452394 0 0.0012888884557218665 0.0060435556800738279 0 0.0012454100413488106 0.0045556450958452394 0 0.0012888884557218665 0.0060435556800738279 0 0.0027619647768098612 0.0051916412147894339 0 0.0012454100413488106 0.0045556450958452394 0 0.001091450120278351 0.0035272822162938267 0 0.0022396152908562197 0.0040651624881763724 0 0.00021397675332977849 0.0039636399741964342 0 0.00017526153192906375 0.004866712220565516 0 0.0012454100413488106 0.0045556450958452394 0 0.00021397675332977849 0.0039636399741964342 0 0.0012454100413488106 0.0045556450958452394 0 0.001091450120278351 0.0035272822162938267 0 0.00021397675332977849 0.0039636399741964342 0 0.001091450120278351 0.0035272822162938267 0 0.00014090588509087354 0.0031759212578241422 0 0.001091450120278351 0.0035272822162938267 0 0.0017754249882253083 0.0027398768613690555 0 0.0022396152908562197 0.0040651624881763724 0 0.001091450120278351 0.0035272822162938267 0 0.0017754249882253083 0.0027398768613690555 0 0.00094817951917242874 0.0024102069793410378 0 0.001091450120278351 0.0035272822162938267 0 0.00094817951917242874 0.0024102069793410378 0 0.00014090588509087354 0.0031759212578241422 0 0.00094817951917242874 0.0024102069793410378 0 0.00021444340026904841 0.0024339690680253794 0 0.00014090588509087354 0.0031759212578241422 0 0.00021444340026904841 0.0024339690680253794 0 0.00014090588509087354 0.0031759212578241422 0 -0.00074287151633538242 0.0028788212662757824 0 0.00021397675332977849 0.0039636399741964342 0 0.00014090588509087354 0.0031759212578241422 0 -0.00047318040099058142 0.0037406030628922273 0 0.00014090588509087354 0.0031759212578241422 0 -0.00047318040099058142 0.0037406030628922273 0 -0.00074287151633538242 0.0028788212662757824 0 0.00026623372318710335 0.0010813228426864718 0 -0.00026660788450769899 0.0011807152145205276 0 -4.8467110524267495e-05 0.0020438631370191746 0 -0.00023658826332196529 0.0019955819995038128 0 -0.00058921402907154618 0.0027929175120198491 0 0.00026623372318710335 0.0010813228426864718 0 -0.00026660788450769899 0.0011807152145205276 0 1.7336666097740958e-05 0.00071870980293588065 0 -0.00026660788450769899 0.0011807152145205276 0 -0.0010201297973397897 0.0016512655209201458 0 -0.0010322511768249066 7.0772908711089848e-05 0 -0.0010201297973397897 0.0016512655209201458 0 -0.0010695621122363609 0.0025641793682607285 0 -4.8467110524267495e-05 0.0020438631370191746 0 -0.00026660788450769899 0.0011807152145205276 0 -0.0010201297973397897 0.0016512655209201458 0 -4.8467110524267495e-05 0.0020438631370191746 0 -0.0010695621122363609 0.0025641793682607285 0 -4.8467110524267495e-05 0.0020438631370191746 0 -0.001193279069141523 0.0035943337593656731 0 -0.00047318040099058142 0.0037406030628922273 0 -0.00074287151633538242 0.0028788212662757824 0 -0.0010378095985539805 0.0035235366020608737 0 -0.00068162936684876187 -0.00051102918158309348 0 -0.0010718123247576705 -0.0010571251993554017 0 -0.0010322511768249066 7.0772908711089848e-05 0 -0.00068162936684876187 -0.00051102918158309348 0 -0.0010718123247576705 -0.0010571251993554017 0 -0.00061410335872640097 -0.0012803247559801687 0 -0.0010201297973397897 0.0016512655209201458 0 -0.0020984891108337803 0.0017913274965072824 0 -0.0010322511768249066 7.0772908711089848e-05 0 -0.0015413483774235587 0.00039031713896811734 0 -0.0011343935136034326 9.8391212863063398e-05 0 -0.0015935625142122377 0.002535445797969224 0 -0.0020984891108337803 0.0017913274965072824 0 -0.0020255023079816074 0.0030447055814779331 0 -0.0010201297973397897 0.0016512655209201458 0 -0.0015935625142122377 0.002535445797969224 0 -0.0020984891108337803 0.0017913274965072824 0 -0.0010201297973397897 0.0016512655209201458 0 -0.0010695621122363609 0.0025641793682607285 0 -0.0015935625142122377 0.002535445797969224 0 -0.0010718123247576705 -0.0010571251993554017 0 -0.00067916170821939151 -0.0016042550129407435 0 -0.00093206231139379562 -0.0019442865506689876 0 -0.0015413483774235587 0.00039031713896811734 0 -0.0017397690230607043 0.00085964416049980551 0 -0.0010718123247576705 -0.0010571251993554017 0 -0.00061410335872640097 -0.0012803247559801687 0 -0.00067916170821939151 -0.0016042550129407435 0 -0.0020984891108337803 0.0017913274965072824 0 -0.0025597130515984147 0.0036813832362828595 0 -0.0020255023079816074 0.0030447055814779331 0 -0.00067916170821939151 -0.0016042550129407435 0 -0.00093206231139379562 -0.0019442865506689876 0 -0.00059879470627581869 -0.0019517020456475231 0 -0.0025597130515984147 0.0036813832362828595 0 -0.0021522797679965635 0.0037373689909019157 0 -0.0020255023079816074 0.0030447055814779331 0 -0.0025597130515984147 0.0036813832362828595 0 -0.0021522797679965635 0.0037373689909019157 0 -0.0022379014576697632 0.0039772902034629735 0 -0.0021522797679965635 0.0037373689909019157 0 -0.0016996164132246146 0.0034346956239466073 0 -0.0011436700437700712 0.004228070173629403 0 -0.0021522797679965635 0.0037373689909019157 0 -0.0020255023079816074 0.0030447055814779331 0 -0.0016996164132246146 0.0034346956239466073 0 -0.0015935625142122377 0.002535445797969224 0 -0.0020255023079816074 0.0030447055814779331 0 -0.0016996164132246146 0.0034346956239466073 0 -0.0010695621122363609 0.0025641793682607285 0 -0.0016996164132246146 0.0034346956239466073 0 -0.001193279069141523 0.0035943337593656731 0 -0.0010695621122363609 0.0025641793682607285 0 -0.0015935625142122377 0.002535445797969224 0 -0.0016996164132246146 0.0034346956239466073 0 -0.0020965704645939166 0.0037741271935493575 0 -0.0013948835926403771 0.004152220564247442 0 -0.0021522797679965635 0.0037373689909019157 0 -0.0020386468936874572 0.0041579667548139639 0 -0.0016169368683240988 0.0040671103941005695 0 -0.001846336373867995 0.0042982221297700393 0 -0.0020386468936874572 0.0041579667548139639 0 -0.0016169368683240988 0.0040671103941005695 0 -0.001846336373867995 0.0042982221297700393 0 -0.0020386468936874572 0.0041579667548139639 0 -0.0021086030780462102 0.0044538470815282411 0 -0.0020386468936874572 0.0041579667548139639 0 -0.0022794430684914052 0.0043032260557826513 0 -0.0022379014576697632 0.0039772902034629735 0 -0.0020386468936874572 0.0041579667548139639 0 -0.0022794430684914052 0.0043032260557826513 0 -0.0021086030780462102 0.0044538470815282411 0 -0.0021522797679965635 0.0037373689909019157 0 -0.0020386468936874572 0.0041579667548139639 0 -0.0022379014576697632 0.0039772902034629735 0 -0.00093206231139379562 -0.0019442865506689876 0 -0.00079559258295331498 -0.0026881352176761071 0 -0.0005708995085835952 -0.002258181546377384 0 -0.0025597130515984147 0.0036813832362828595 0 -0.0022794430684914052 0.0043032260557826513 0 -0.0022379014576697632 0.0039772902034629735 0 -0.0017397690230607043 0.00085964416049980551 0 -0.0016854808045775444 0.0010023148486377909 0 -0.0025597130515984147 0.0036813832362828595 0 -0.0022794430684914052 0.0043032260557826513 0 -0.0026092360429448083 0.0047284113708811887 0 -0.00093206231139379562 -0.0019442865506689876 0 -0.00059879470627581869 -0.0019517020456475231 0 -0.0005708995085835952 -0.002258181546377384 0 -0.00047318040099058142 0.0037406030628922273 0 -0.0010378095985539805 0.0035235366020608737 0 -0.00088926188873831734 0.0039938823376843699 0 -0.0010378095985539805 0.0035235366020608737 0 -0.00088926188873831734 0.0039938823376843699 0 -0.001193279069141523 0.0035943337593656731 0 -0.00058921402907154618 0.0027929175120198491 0 -0.0011649892430590219 0.0035386146649849298 0 -0.00088926188873831734 0.0039938823376843699 0 -0.001193279069141523 0.0035943337593656731 0 -0.0011436700437700712 0.004228070173629403 0 -0.0016996164132246146 0.0034346956239466073 0 -0.001193279069141523 0.0035943337593656731 0 -0.0011436700437700712 0.004228070173629403 0 -0.0016169368683240988 0.0040671103941005695 0 -0.00073608662328841638 0.0044447997654247489 0 -0.0014335122795592246 0.0044630709126195723 0 -0.0013948835926403771 0.004152220564247442 0 -0.00072307914609065949 0.0044845773171470951 0 -0.001846336373867995 0.0042982221297700393 0 -0.0016169368683240988 0.0040671103941005695 0 -0.0014335122795592246 0.0044630709126195723 0 -0.00040479771269409345 0.0044352334455835217 0 -0.00088926188873831734 0.0039938823376843699 0 -0.00078136497836371588 0.0046456819738971561 0 -0.00088926188873831734 0.0039938823376843699 0 -0.0011436700437700712 0.004228070173629403 0 -0.00078136497836371588 0.0046456819738971561 0 -0.00073608662328841638 0.0044447997654247489 0 -0.000678118819420764 0.0050324829703818942 0 -0.0013608191404831003 0.0049262736649356145 0 -0.0018377939495514552 0.0044108827271340939 0 -0.0017175846430953895 0.0052295081852656395 0 -0.001846336373867995 0.0042982221297700393 0 -0.0013608191404831003 0.0049262736649356145 0 -0.0018017175463838882 0.0056187617895475609 0 -0.00073608662328841638 0.0044447997654247489 0 -0.0014335122795592246 0.0044630709126195723 0 -0.0013608191404831003 0.0049262736649356145 0 -0.001846336373867995 0.0042982221297700393 0 -0.0014335122795592246 0.0044630709126195723 0 -0.0013608191404831003 0.0049262736649356145 0 -0.0013608191404831003 0.0049262736649356145 0 -0.0018017175463838882 0.0056187617895475609 0 -0.00076365902318893935 0.0058930898794522504 0 -0.000678118819420764 0.0050324829703818942 0 -0.0013608191404831003 0.0049262736649356145 0 -0.00076365902318893935 0.0058930898794522504 0 -0.0022794430684914052 0.0043032260557826513 0 -0.0026092360429448083 0.0047284113708811887 0 -0.0021086030780462102 0.0044538470815282411 0 -0.001846336373867995 0.0042982221297700393 0 -0.0016577821613602225 0.0050895321867259619 0 -0.0021375405213841341 0.0046981845644661572 0 -0.0026092360429448083 0.0047284113708811887 0 -0.0021375405213841341 0.0046981845644661572 0 -0.0021086030780462102 0.0044538470815282411 0 -0.001846336373867995 0.0042982221297700393 0 -0.0021375405213841341 0.0046981845644661572 0 -0.0021086030780462102 0.0044538470815282411 0 -0.0016577821613602225 0.0050895321867259619 0 -0.002613985326791763 0.0049996593924713862 0 -0.0021480449153601909 0.005655666029058367 0 -0.0016577821613602225 0.0050895321867259619 0 -0.0021375405213841341 0.0046981845644661572 0 -0.002613985326791763 0.0049996593924713862 0 -0.0026092360429448083 0.0047284113708811887 0 -0.0021375405213841341 0.0046981845644661572 0 -0.002613985326791763 0.0049996593924713862 0 -0.0026092360429448083 0.0047284113708811887 0 -0.002613985326791763 0.0049996593924713862 0 -0.0021585951381198603 0.0046841020963349269 0 -0.0016854808045775444 0.0010023148486377909 0 -0.0014016436524420337 0.00059041139403782895 0 -0.002613985326791763 0.0049996593924713862 0 -0.0021585951381198603 0.0046841020963349269 0 -0.0029131088771657434 0.0032665597554692675 0 -0.002613985326791763 0.0049996593924713862 0 -0.0021480449153601909 0.005655666029058367 0 -0.0031574902833855279 0.0068509667821849774 0 -0.0027112005603867223 0.0050255206518649391 0 -0.002963024014723844 0.0049338764399343643 0 -0.0023263024527165831 0.0065049987796690122 0 -0.0021480449153601909 0.005655666029058367 0 -0.0031574902833855279 0.0068509667821849774 0 -0.0016577821613602225 0.0050895321867259619 0 -0.0021480449153601909 0.005655666029058367 0 -0.0018112001378893935 0.0067006720381707144 0 -0.0023263024527165831 0.0065049987796690122 0 -0.0021480449153601909 0.005655666029058367 0 -0.0018112001378893935 0.0067006720381707144 0 -0.0018112001378893935 0.0067006720381707144 0 -0.0019550467726311884 0.0072518738355643502 0 -0.0023414800668516006 0.0070126567438520528 0 -0.0018112001378893935 0.0067006720381707144 0 -0.0016409634210639982 0.007067786300934977 0 -0.0013048114334714774 0.0070366219034067217 0 -0.0018112001378893935 0.0067006720381707144 0 -0.0016409634210639982 0.007067786300934977 0 -0.0019550467726311884 0.0072518738355643502 0 -0.0016409634210639982 0.007067786300934977 0 -0.0019550467726311884 0.0072518738355643502 0 -0.00148875671161789 0.007290190343861567 0 -0.0019380497390732228 0.0076678848502128678 0 -0.0019550467726311884 0.0072518738355643502 0 -0.00148875671161789 0.007290190343861567 0 -0.0019380497390732228 0.0076678848502128678 0 -0.0019550467726311884 0.0072518738355643502 0 -0.0024594405887781497 0.0077417587722869744 0 -0.0019550467726311884 0.0072518738355643502 0 -0.0024594405887781497 0.0077417587722869744 0 -0.0023414800668516006 0.0070126567438520528 0 -0.0024594405887781497 0.0077417587722869744 0 -0.0023414800668516006 0.0070126567438520528 0 -0.0031574902833855279 0.0068509667821849774 0 -0.0023263024527165831 0.0065049987796690122 0 -0.0023414800668516006 0.0070126567438520528 0 -0.0031574902833855279 0.0068509667821849774 0 -0.0023263024527165831 0.0065049987796690122 0 -0.0018112001378893935 0.0067006720381707144 0 -0.0023414800668516006 0.0070126567438520528 0 -0.0021585951381198603 0.0046841020963349269 0 -0.0029131088771657434 0.0032665597554692675 0 -0.001395926071840679 0.0021638660852040656 0 -0.0027494283969583602 0.00025985118293827641 0 -0.0029131088771657434 0.0032665597554692675 0 -0.001395926071840679 0.0021638660852040656 0 -0.0010584180808154678 0.008551488017974139 0 -0.0010663730222621587 0.0080933243932029362 0 -0.0015338149035505257 0.0087992501086325576 0 -0.0010584180808154678 0.008551488017974139 0 -0.0010663730222621587 0.0080933243932029362 0 -0.00068869858043874824 0.0084790078168438237 0 -0.0017175846430953895 0.0052295081852656395 0 -0.0015867271764212318 0.0075763496222660629 0 -0.0016577821613602225 0.0050895321867259619 0 -0.0018112001378893935 0.0067006720381707144 0 -0.0013048114334714774 0.0070366219034067217 0 -0.00087564725140023203 0.0070644557860783221 0 -0.0015867271764212318 0.0075763496222660629 0 -0.0018017175463838882 0.0056187617895475609 0 -0.00076365902318893935 0.0058930898794522504 0 -0.0017033721840667394 0.0069467908223989098 0 -0.0010584180808154678 0.008551488017974139 0 -0.0015338149035505257 0.0087992501086325576 0 -0.0011709981396259039 0.0088115769350300584 0 -0.0018241792632292049 0.0083763314454559906 0 -0.0012696041212798691 0.0070788057704437709 0 -0.00148875671161789 0.007290190343861567 0 -0.0016409634210639982 0.007067786300934977 0 -0.0013048114334714774 0.0070366219034067217 0 -0.00148875671161789 0.007290190343861567 0 -0.0015867271764212318 0.0075763496222660629 0 -0.0015030556631810477 0.0074621215390996967 0 -0.0012109151599212398 0.0090919328612376425 0 -0.0015338149035505257 0.0087992501086325576 0 -0.0011709981396259039 0.0088115769350300584 0 -0.0012109151599212398 0.0090919328612376425 0 -0.0011709981396259039 0.0088115769350300584 0 -0.00087732382148461813 0.0088436381145241723 0 -0.0010584180808154678 0.008551488017974139 0 -0.0011709981396259039 0.0088115769350300584 0 -0.00087732382148461813 0.0088436381145241723 0 -0.0010584180808154678 0.008551488017974139 0 -0.00087732382148461813 0.0088436381145241723 0 -0.00068869858043874824 0.0084790078168438237 0 -0.00087732382148461813 0.0088436381145241723 0 -0.00032495283127452262 0.008906728283568352 0 -0.00068869858043874824 0.0084790078168438237 0 -0.00070470984854114098 0.0091994340733222227 0 -0.00087732382148461813 0.0088436381145241723 0 -0.00032495283127452262 0.008906728283568352 0 0.00014291342859325032 0.00928912499495947 0 -0.00032495283127452262 0.008906728283568352 0 0.00026779654397673794 0.0087596240930972978 0 -0.00032495283127452262 0.008906728283568352 0 -0.00031078246028050095 0.0080843855089511168 0 0.00026779654397673794 0.0087596240930972978 0 -0.00031078246028050095 0.0080843855089511168 0 0.0005384587097814321 0.0082594211464624336 0 0.00026779654397673794 0.0087596240930972978 0 -0.00032495283127452262 0.008906728283568352 0 -0.00031078246028050095 0.0080843855089511168 0 -0.00068869858043874824 0.0084790078168438237 0 -0.0010663730222621587 0.0080933243932029362 0 -0.00031078246028050095 0.0080843855089511168 0 -0.00068869858043874824 0.0084790078168438237 0 -0.0010663730222621587 0.0080933243932029362 0 -0.00031078246028050095 0.0080843855089511168 0 -0.00043410871299289356 0.0072491127593924355 0 0.00017526153192906375 0.004866712220565516 0 -0.0014706793478637195 0.0065864482102621887 0 0.00038508513171871776 0.0075294679839876533 0 -0.000678118819420764 0.0050324829703818942 0 -0.00076365902318893935 0.0058930898794522504 0 0.0001505799719602253 0.004868508940997023 0 -0.00087564725140023203 0.0070644557860783221 0 -0.00046197102107292432 0.00588446072362771 0 -0.00031078246028050095 0.0080843855089511168 0 0.00038508513171871776 0.0075294679839876533 0 0.0005384587097814321 0.0082594211464624336 0 -0.00031078246028050095 0.0080843855089511168 0 -0.00043410871299289356 0.0072491127593924355 0 0.00038508513171871776 0.0075294679839876533 0 -0.00046197102107292432 0.00588446072362771 0 0.00021165969021731337 0.0077360363679145391 0 -0.00072307914609065949 0.0044845773171470951 0 -0.00046197102107292432 0.00588446072362771 0 -0.00073608662328841638 0.0044447997654247489 0 -0.000678118819420764 0.0050324829703818942 0 0.0001505799719602253 0.004868508940997023 0 0.00017526153192906375 0.004866712220565516 0 0.0012888884557218665 0.0060435556800738279 0 0.00038508513171871776 0.0075294679839876533 0 0.0012888884557218665 0.0060435556800738279 0 0.0013069307017396633 0.0077972827269497495 0 0.0027822874638714877 0.0065373965516940594 0 0.0012888884557218665 0.0060435556800738279 0 0.00038508513171871776 0.0075294679839876533 0 0.0013069307017396633 0.0077972827269497495 0 0.00038508513171871776 0.0075294679839876533 0 0.0013069307017396633 0.0077972827269497495 0 0.0005384587097814321 0.0082594211464624336 0 0.0013069307017396633 0.0077972827269497495 0 0.0013434061318494935 0.008331827218019814 0 0.0016923514657150153 0.0081006809072849389 0 0.0013434061318494935 0.008331827218019814 0 0.0010227226028533872 0.0087539400626453229 0 0.0016480962670954943 0.0086102823191070849 0 0.0013069307017396633 0.0077972827269497495 0 0.0013434061318494935 0.008331827218019814 0 0.0005384587097814321 0.0082594211464624336 0 0.0013434061318494935 0.008331827218019814 0 0.0005384587097814321 0.0082594211464624336 0 0.0010227226028533872 0.0087539400626453229 0 0.0005384587097814321 0.0082594211464624336 0 0.00026779654397673794 0.0087596240930972978 0 0.0010227226028533872 0.0087539400626453229 0 0.00026779654397673794 0.0087596240930972978 0 0.00070147474802429127 0.0091944143196233154 0 0.0010227226028533872 0.0087539400626453229 0 0.00014291342859325032 0.00928912499495947 0 0.00026779654397673794 0.0087596240930972978 0 0.00070147474802429127 0.0091944143196233154 0 0.0010227226028533872 0.0087539400626453229 0 0.0011821840499068716 0.0093413405162963911 0 0.0015622221330385501 0.0090698520271699033 0 0.00070147474802429127 0.0091944143196233154 0 0.0010227226028533872 0.0087539400626453229 0 0.0011821840499068716 0.0093413405162963911 0 0.0010227226028533872 0.0087539400626453229 0 0.0015622221330385501 0.0090698520271699033 0 0.0016480962670954943 0.0086102823191070849 0 0.0015888452831469705 0.0094501314569488699 0 0.0011821840499068716 0.0093413405162963911 0 0.0015622221330385501 0.0090698520271699033 0 0.0015888452831469705 0.0094501314569488699 0 0.0015622221330385501 0.0090698520271699033 0 0.0020108707840417561 0.0093397946136970882 0 0.0015622221330385501 0.0090698520271699033 0 0.0019598771283297536 0.0089210614161579372 0 0.0020108707840417561 0.0093397946136970882 0 0.0015622221330385501 0.0090698520271699033 0 0.0016480962670954943 0.0086102823191070849 0 0.0019598771283297536 0.0089210614161579372 0 0.0016480962670954943 0.0086102823191070849 0 0.0019598771283297536 0.0089210614161579372 0 0.0020995474784208652 0.0083632670673905781 0 0.0016480962670954943 0.0086102823191070849 0 0.0016923514657150153 0.0081006809072849389 0 0.0020995474784208652 0.0083632670673905781 0 0.0013434061318494935 0.008331827218019814 0 0.0016480962670954943 0.0086102823191070849 0 0.0016923514657150153 0.0081006809072849389 0 0.0023717146133159809 0.0089177948955926328 0 0.0019598771283297536 0.0089210614161579372 0 0.0020995474784208652 0.0083632670673905781 0 0.0023717146133159809 0.0089177948955926328 0 0.0025222943302634316 0.0081640746802615644 0 0.0020995474784208652 0.0083632670673905781 0 0.0023717146133159809 0.0089177948955926328 0 0.0020108707840417561 0.0093397946136970882 0 0.0025702402432851105 0.0094319581561203569 0 0.0023717146133159809 0.0089177948955926328 0 0.0019598771283297536 0.0089210614161579372 0 0.0020108707840417561 0.0093397946136970882 0 0.0023717146133159809 0.0089177948955926328 0 0.0025702402432851105 0.0094319581561203569 0 0.0028964371122400241 0.0087886318739473571 0 0.0025702402432851105 0.0094319581561203569 0 0.0031163178182628108 0.0094525348850581711 0 0.0028964371122400241 0.0087886318739473571 0 0.0031163178182628108 0.0094525348850581711 0 0.003621741003592774 0.0094713614870882527 0 0.0035634632348500047 0.0088655591025094248 0 0.0033146893527535044 0.010032843544070153 0 0.0031163178182628108 0.0094525348850581711 0 0.003621741003592774 0.0094713614870882527 0 0.0031163178182628108 0.0094525348850581711 0 0.0028964371122400241 0.0087886318739473571 0 0.0035634632348500047 0.0088655591025094248 0 0.0028964371122400241 0.0087886318739473571 0 0.0029999309272538441 0.0083281269284370164 0 0.0035634632348500047 0.0088655591025094248 0 0.0023717146133159809 0.0089177948955926328 0 0.0028964371122400241 0.0087886318739473571 0 0.0025222943302634316 0.0081640746802615644 0 0.0028964371122400241 0.0087886318739473571 0 0.0025222943302634316 0.0081640746802615644 0 0.0029999309272538441 0.0083281269284370164 0 0.0029999309272538441 0.0083281269284370164 0 0.0033652007189105006 0.0081609641577360063 0 0.0035634632348500047 0.0088655591025094248 0 0.0033652007189105006 0.0081609641577360063 0 0.0034716644896055928 0.0081300524792150344 0 0.0034407863601620069 0.0081463441346730763 0 0.0035953523822673775 0.0059834236042819716 0 0.0021243006026286544 0.012832176978208369 0 0.0029999309272538441 0.0083281269284370164 0 0.0029699671384346544 0.0076993795055160623 0 0.0033652007189105006 0.0081609641577360063 0 0.0029699671384346544 0.0076993795055160623 0 0.0033652007189105006 0.0081609641577360063 0 0.0032775338163594419 0.007259670962331646 0 0.0025222943302634316 0.0081640746802615644 0 0.0029999309272538441 0.0083281269284370164 0 0.0029699671384346544 0.0076993795055160623 0 0.0025222943302634316 0.0081640746802615644 0 0.0029699671384346544 0.0076993795055160623 0 0.0024889180492554757 0.0074581061657201511 0 0.0021818080722530949 0.0072532446640267015 0 0.0035685532290020403 0.0061260570275483324 0 0.0025222943302634316 0.0081640746802615644 0 0.0018632340036222471 0.0077713133017248397 0 0.0024889180492554757 0.0074581061657201511 0 0.0018632340036222471 0.0077713133017248397 0 0.0016923514657150153 0.0081006809072849389 0 0.0020995474784208652 0.0083632670673905781 0 0.0013967921253602411 0.0077450211785348123 0 0.0021818080722530949 0.0072532446640267015 0 0.0013069307017396633 0.0077972827269497495 0 0.0018632340036222471 0.0077713133017248397 0 0.0016923514657150153 0.0081006809072849389 0 0.0025222943302634316 0.0081640746802615644 0 0.0018632340036222471 0.0077713133017248397 0 0.0020995474784208652 0.0083632670673905781 0 -0.0021984370615533481 0.025977327492187636 0 -0.0023087509732240058 0.025870423927021879 0 -0.0022456470899092041 0.025825430951763154 0 0.0021775398726666412 0.027125059889784905 0 -0.00089834354159526041 0.035619886571142942 0 -0.0022286879970772216 0.026054537156827019 0 -0.0021984370615533481 0.025977327492187636 0 -0.002316223218368974 0.025934432975743958 0 -0.0021984370615533481 0.025977327492187636 0 -0.002316223218368974 0.025934432975743958 0 -0.0023087509732240058 0.025870423927021879 0 -0.002316223218368974 0.025934432975743958 0 -0.0023087509732240058 0.025870423927021879 0 -0.0024083965606698128 0.025815615310586404 0 0.00059318154240140853 0.016356699195259297 0 0.0011340803880919665 0.017691305274673347 0 -0.0023087509732240058 0.025870423927021879 0 -0.0024083965606698128 0.025815615310586404 0 -0.0023908615705013105 0.025753067138072964 0 0.0043922106698859814 0.0089499825579980544 0 0.0035634632348500047 0.0088655591025094248 0 0.0039877927005305255 0.0084450055247160694 0 0.0043922106698859814 0.0089499825579980544 0 0.0041740573601767644 0.0095219985561245789 0 0.0035634632348500047 0.0088655591025094248 0 0.0045097169836171343 0.010199053184569261 0 0.0048339052798690701 0.0095931974161747868 0 0.0041740573601767644 0.0095219985561245789 0 0.0048339052798690701 0.0095931974161747868 0 0.0043922106698859814 0.0089499825579980544 0 0.0041740573601767644 0.0095219985561245789 0 0.0041740573601767644 0.0095219985561245789 0 0.003621741003592774 0.0094713614870882527 0 0.0035634632348500047 0.0088655591025094248 0 0.003874569594764175 0.010096406305548108 0 0.0041740573601767644 0.0095219985561245789 0 0.003621741003592774 0.0094713614870882527 0 0.0033652007189105006 0.0081609641577360063 0 0.0035634632348500047 0.0088655591025094248 0 0.0037900869958795757 0.0083731946429226826 0 0.0051315289306335136 0.0060426799601398492 0 0.0012577628228189273 0.016472328200977403 0 0.0033652007189105006 0.0081609641577360063 0 0.0034716644896055928 0.0081300524792150344 0 0.0037900869958795757 0.0083731946429226826 0 0.0020027099597932688 0.014998240612819298 0 0.0012577628228189273 0.016472328200977403 0 -0.0024858860074233116 0.025692164176674186 0 -0.0023908615705013105 0.025753067138072964 0 -0.0024889121835740963 0.02559178536403392 0 0.0012577628228189273 0.016472328200977403 0 -0.0019454935193740429 0.025019249732905615 0 0.00034460063457187262 0.021624407071781163 0 0.00021278216818783861 0.02138062206943294 0 3.3279184697480391e-05 0.021731132287945897 0 -0.0024083965606698128 0.025815615310586404 0 -0.0024858860074233116 0.025692164176674186 0 -0.0023908615705013105 0.025753067138072964 0 0.0011340803880919665 0.017691305274673347 0 0.0012577628228189273 0.016472328200977403 0 -0.0023087509732240058 0.025870423927021879 0 -0.0023908615705013105 0.025753067138072964 0 -0.0022456470899092041 0.025825430951763154 0 -0.0023908615705013105 0.025753067138072964 0 -0.0024889121835740963 0.02559178536403392 0 -0.0021259768195133356 0.025713796605775989 0 -0.0023908615705013105 0.025753067138072964 0 -0.0022456470899092041 0.025825430951763154 0 -0.0021259768195133356 0.025713796605775989 0 -0.0021916874773281986 0.025800496941353088 0 -0.0022456470899092041 0.025825430951763154 0 -0.0021259768195133356 0.025713796605775989 0 -0.0014437701740355419 0.024851778508338335 0 -0.0023788518952925363 0.02507066976646307 0 -0.0017029255526945413 0.023890528857724493 0 -0.0010312287189502111 0.023203399891107004 0 -0.001043089713670393 0.023098907696137261 0 -0.0018842186188217608 0.025307741718613087 0 -0.0020901600390146251 0.025682670386646973 0 -0.0014437701740355419 0.024851778508338335 0 -0.0021259768195133356 0.025713796605775989 0 -0.0023788518952925363 0.02507066976646307 0 -0.0019454935193740429 0.025019249732905615 0 -0.0010312287189502111 0.023203399891107004 0 3.3279184697480391e-05 0.021731132287945897 0 -5.3356791500335436e-05 0.021939503956489442 0 0.00011249526732056971 0.021930449414367791 0 -0.0024889121835740963 0.02559178536403392 0 -0.0021259768195133356 0.025713796605775989 0 -0.0023788518952925363 0.02507066976646307 0 -5.3356791500335436e-05 0.021939503956489442 0 0.00011003486233911686 0.022059256389390287 0 0.00011249526732056971 0.021930449414367791 0 -5.3356791500335436e-05 0.021939503956489442 0 0.00011003486233911686 0.022059256389390287 0 1.5242969308669394e-05 0.022199366253877879 0 0.00011003486233911686 0.022059256389390287 0 0.00011249526732056971 0.021930449414367791 0 0.00022199624975601233 0.022102199387289946 0 0.00011249526732056971 0.021930449414367791 0 0.00022199624975601233 0.022102199387289946 0 0.00024732427144833282 0.021872606393126593 0 3.3279184697480391e-05 0.021731132287945897 0 0.00011249526732056971 0.021930449414367791 0 0.00024732427144833282 0.021872606393126593 0 0.00034460063457187262 0.021624407071781163 0 3.3279184697480391e-05 0.021731132287945897 0 0.00024732427144833282 0.021872606393126593 0 0.00034460063457187262 0.021624407071781163 0 0.00024732427144833282 0.021872606393126593 0 0.00043627793953803835 0.021842336407915143 0 0.0020027099597932688 0.014998240612819298 0 0.0021243006026286544 0.012832176978208369 0 0.00022199624975601233 0.022102199387289946 0 0.00024732427144833282 0.021872606393126593 0 0.00028048265589054915 0.022056462700023344 0 0.00024732427144833282 0.021872606393126593 0 0.00028048265589054915 0.022056462700023344 0 0.00043627793953803835 0.021842336407915143 0 0.00022199624975601233 0.022102199387289946 0 0.00028048265589054915 0.022056462700023344 0 0.000249968274323444 0.022169971128914959 0 0.000249968274323444 0.022169971128914959 0 0.00025739839298758994 0.022220489855239715 0 0.00021465647677963064 0.022241998223615653 0 0.00028048265589054915 0.022056462700023344 0 0.000249968274323444 0.022169971128914959 0 0.00021465647677963064 0.022241998223615653 0 0.00022199624975601233 0.022102199387289946 0 0.000249968274323444 0.022169971128914959 0 0.00025739839298758994 0.022220489855239715 0 0.00025739839298758994 0.022220489855239715 0 0.00024070401135932023 0.022215161998837454 0 0.00021465647677963064 0.022241998223615653 0 0.00030063185584861484 0.022260953781819377 0 0.0001542166968886263 0.02244202212148972 0 0.00069951090790047223 0.022294919928798746 0 0.00024070401135932023 0.022215161998837454 0 0.00030063185584861484 0.022260953781819377 0 0.00069951090790047223 0.022294919928798746 0 0.00025739839298758994 0.022220489855239715 0 0.00024070401135932023 0.022215161998837454 0 0.00030063185584861484 0.022260953781819377 0 0.00022199624975601233 0.022102199387289946 0 0.00025739839298758994 0.022220489855239715 0 0.00030063185584861484 0.022260953781819377 0 0.00011003486233911686 0.022059256389390287 0 0.00022199624975601233 0.022102199387289946 0 0.00030063185584861484 0.022260953781819377 0 0.00011003486233911686 0.022059256389390287 0 0.00030063185584861484 0.022260953781819377 0 1.5242969308669394e-05 0.022199366253877879 0 0.00030063185584861484 0.022260953781819377 0 1.5242969308669394e-05 0.022199366253877879 0 0.0001542166968886263 0.02244202212148972 0 1.5242969308669394e-05 0.022199366253877879 0 0.0001542166968886263 0.02244202212148972 0 -0.00017488486002425625 0.022420519821935665 0 -0.00069918525776528444 0.02275165181334686 0 -0.00017488486002425625 0.022420519821935665 0 -0.00032771451257291223 0.022153743625662619 0 0.0001542166968886263 0.02244202212148972 0 -0.00017488486002425625 0.022420519821935665 0 -0.00016753450695438209 0.022817363232745094 0 -0.00039831519638736709 0.022581559911987216 0 -0.00028425060744477698 0.022500895171927014 0 -0.00050099831635326824 0.022683796254234161 0 -0.00034658409242318135 0.022808384138918409 0 -0.00017488486002425625 0.022420519821935665 0 -5.3356791500335436e-05 0.021939503956489442 0 1.5242969308669394e-05 0.022199366253877879 0 -0.00032771451257291223 0.022153743625662619 0 1.5242969308669394e-05 0.022199366253877879 0 -0.00017488486002425625 0.022420519821935665 0 -0.00032771451257291223 0.022153743625662619 0 0.0027619647768098612 0.0051916412147894339 0 0.0037622135497941077 0.004722594821719813 0 0.0032117394501378757 0.0039934232500953275 0 0.0037622135497941077 0.004722594821719813 0 0.0041568867889554724 0.003943261228694748 0 0.0032117394501378757 0.0039934232500953275 0 0.0012454100413488106 0.0045556450958452394 0 0.0027619647768098612 0.0051916412147894339 0 0.0022396152908562197 0.0040651624881763724 0 0.0027619647768098612 0.0051916412147894339 0 0.0032117394501378757 0.0039934232500953275 0 0.0022396152908562197 0.0040651624881763724 0 0.0012888884557218665 0.0060435556800738279 0 0.0027822874638714877 0.0065373965516940594 0 0.0027619647768098612 0.0051916412147894339 0 0.0027619647768098612 0.0051916412147894339 0 0.0038228711114862298 0.0056109284622203378 0 0.0037622135497941077 0.004722594821719813 0 0.0027822874638714877 0.0065373965516940594 0 0.0027619647768098612 0.0051916412147894339 0 0.0038228711114862298 0.0056109284622203378 0 0.0035685532290020403 0.0061260570275483324 0 0.0023626136179164406 0.0082980700061855827 0 0.0038228711114862298 0.0056109284622203378 0 0.0048065215564011997 0.0048898219686638773 0 0.0037622135497941077 0.004722594821719813 0 0.0029699671384346544 0.0076993795055160623 0 0.0024889180492554757 0.0074581061657201511 0 0.0031296975407629109 0.0070497934512351607 0 0.0029699671384346544 0.0076993795055160623 0 0.0032775338163594419 0.007259670962331646 0 0.0031296975407629109 0.0070497934512351607 0 0.0021243006026286544 0.012832176978208369 0 0.0023626136179164406 0.0082980700061855827 0 -0.00032592139600224528 0.012641063578471222 0 -0.00028682465054688733 0.012611452893289705 0 -0.00010447633764993229 0.012975336860549438 0 0.0021243006026286544 0.012832176978208369 0 -0.00032406039623087232 0.018568734275008346 0 0.00028048265589054915 0.022056462700023344 0 0.00043627793953803835 0.021842336407915143 0 0.00021465647677963064 0.022241998223615653 0 -0.00035419657802883772 0.012473836288314746 0 -0.00032592139600224528 0.012641063578471222 0 -0.00038168680263043158 0.013034061107282826 0 -0.00035419657802883772 0.012473836288314746 0 -0.00032592139600224528 0.012641063578471222 0 -0.00027820941849205337 0.012608801639358028 0 0.0016231067674791586 0.0089500339215310126 0 0.0023626136179164406 0.0082980700061855827 0 0.0048065215564011997 0.0048898219686638773 0 0.0037622135497941077 0.004722594821719813 0 0.0041568867889554724 0.003943261228694748 0 0.0023626136179164406 0.0082980700061855827 0 0.0020155339840852993 0.0084812884075525594 0 0.0020155339840852993 0.0084812884075525594 0 0.0018603594187240938 0.0084581916028825151 0 -0.00010447633764993229 0.012975336860549438 0 -0.00038168680263043158 0.013034061107282826 0 -0.00015653464164344021 0.013279011027186351 0 -0.00032592139600224528 0.012641063578471222 0 -0.00010447633764993229 0.012975336860549438 0 -0.00038168680263043158 0.013034061107282826 0 -0.00038168680263043158 0.013034061107282826 0 -0.00015653464164344021 0.013279011027186351 0 -0.00038417875738540336 0.013541948459057089 0 0.00024070401135932023 0.022215161998837454 0 0.00021465647677963064 0.022241998223615653 0 -0.0003703300646005056 0.022052814221248024 0 -0.00032406039623087232 0.018568734275008346 0 -0.00036292648145093268 0.017540582511949343 0 -0.00015653464164344021 0.013279011027186351 0 -4.9131613162845511e-06 0.013547953766073526 0 -0.00038417875738540336 0.013541948459057089 0 -0.00010447633764993229 0.012975336860549438 0 -0.00015653464164344021 0.013279011027186351 0 8.9974060486502379e-05 0.013298976727504049 0 -0.00015653464164344021 0.013279011027186351 0 8.9974060486502379e-05 0.013298976727504049 0 -4.9131613162845511e-06 0.013547953766073526 0 0.0034847388930305222 0.0030897825910740214 0 0.0032117394501378757 0.0039934232500953275 0 0.0026465845206599891 0.0031877106484041991 0 0.0034847388930305222 0.0030897825910740214 0 0.0026465845206599891 0.0031877106484041991 0 0.0029233216858078918 0.0023599476624381176 0 0.0041568867889554724 0.003943261228694748 0 0.0034847388930305222 0.0030897825910740214 0 0.0032117394501378757 0.0039934232500953275 0 0.0017754249882253083 0.0027398768613690555 0 0.0022396152908562197 0.0040651624881763724 0 0.00256778813760997 0.0028750558856329282 0 0.0032117394501378757 0.0039934232500953275 0 0.0022396152908562197 0.0040651624881763724 0 0.0026465845206599891 0.0031877106484041991 0 0.0021766493093565821 0.004342587587075215 0 0.0028362253442238538 0.0021715033431732689 0 0.0017754249882253083 0.0027398768613690555 0 0.00256778813760997 0.0028750558856329282 0 0.0023380254406273541 0.0021187323043057055 0 0.0023380254406273541 0.0021187323043057055 0 0.0027098562223130548 0.0014582581140723278 0 0.0017332763689537367 0.0017794693486682279 0 0.00256778813760997 0.0028750558856329282 0 0.0023380254406273541 0.0021187323043057055 0 0.0028967170506706765 0.0017434976231896103 0 0.0028362253442238538 0.0021715033431732689 0 0.001904285556284632 0.0062371126085173645 0 0.0023380254406273541 0.0021187323043057055 0 0.0028967170506706765 0.0017434976231896103 0 0.0027098562223130548 0.0014582581140723278 0 0.0020506420387222824 0.0081665375166802608 0 0.00098275090023103393 0.0066046091296731793 0 0.0023467146262614274 0.0071535546138315111 0 0.00054775774490353865 0.0059939417827095214 0 0.0004697255574389091 0.0096091407131034933 0 0.001904285556284632 0.0062371126085173645 0 0.00054775774490353865 0.0059939417827095214 0 0.00010666001487894649 0.013974345113078077 0 2.29171541907791e-05 0.014195482662683416 0 0.0001917979653341001 0.014284559453860021 0 0.00054775774490353865 0.0059939417827095214 0 -0.00075767108422098318 0.0077484692642129007 0 0.00010666001487894649 0.013974345113078077 0 2.29171541907791e-05 0.014195482662683416 0 4.9755158365684309e-05 0.013944267838957356 0 0.00018310114335460718 0.014047865519230542 0 0.00012169217378997332 0.013829854723072693 0 0.00029421820489145597 0.013694710915548917 0 -9.9668356143468918e-05 0.014812656856721536 0 0.0004697255574389091 0.0096091407131034933 0 0.00018310114335460718 0.014047865519230542 0 0.00012169217378997332 0.013829854723072693 0 -5.1839729542807922e-05 0.014063891225737785 0 0.00012169217378997332 0.013829854723072693 0 0.00011510794735169924 0.013690156790682029 0 0.00029421820489145597 0.013694710915548917 0 0.00012169217378997332 0.013829854723072693 0 0.00011510794735169924 0.013690156790682029 0 -8.2109109916447562e-05 0.013821678352203395 0 8.9974060486502379e-05 0.013298976727504049 0 0.0003120862785725899 0.013621860232501013 0 -4.9131613162845511e-06 0.013547953766073526 0 0.0003120862785725899 0.013621860232501013 0 0.00011510794735169924 0.013690156790682029 0 -4.9131613162845511e-06 0.013547953766073526 0 0.0018603594187240938 0.0084581916028825151 0 0.001904285556284632 0.0062371126085173645 0 0.0003120862785725899 0.013621860232501013 0 0.00011510794735169924 0.013690156790682029 0 0.00029421820489145597 0.013694710915548917 0 0.001904285556284632 0.0062371126085173645 0 0.0004697255574389091 0.0096091407131034933 0 -4.9131613162845511e-06 0.013547953766073526 0 -0.00038417875738540336 0.013541948459057089 0 -8.2109109916447562e-05 0.013821678352203395 0 0.00011510794735169924 0.013690156790682029 0 -4.9131613162845511e-06 0.013547953766073526 0 -8.2109109916447562e-05 0.013821678352203395 0 -0.0003703300646005056 0.022052814221248024 0 -0.001133185438604816 0.020304302610840388 0 0.00011233956840625845 0.021238829474559986 0 -0.00036292648145093268 0.017540582511949343 0 -0.00072749104846498455 0.017196858548031609 0 -0.00038417875738540336 0.013541948459057089 0 -0.00036581183987817928 0.014049996354631639 0 -8.2109109916447562e-05 0.013821678352203395 0 -0.00036581183987817928 0.014049996354631639 0 -8.2109109916447562e-05 0.013821678352203395 0 -5.1839729542807922e-05 0.014063891225737785 0 0.00012169217378997332 0.013829854723072693 0 -8.2109109916447562e-05 0.013821678352203395 0 -5.1839729542807922e-05 0.014063891225737785 0 -5.1839729542807922e-05 0.014063891225737785 0 -0.00034374583546669345 0.01449836282305793 0 5.9976950754760107e-05 0.014350749466494695 0 -0.00036581183987817928 0.014049996354631639 0 -5.1839729542807922e-05 0.014063891225737785 0 -0.00034374583546669345 0.01449836282305793 0 -0.001133185438604816 0.020304302610840388 0 0.00011233956840625845 0.021238829474559986 0 -1.480294528457647e-05 0.018886466631445175 0 -0.00072749104846498455 0.017196858548031609 0 -0.0007362651988345242 0.016116341145941033 0 -0.001133185438604816 0.020304302610840388 0 -0.00123851422195748 0.017684181394700432 0 -1.480294528457647e-05 0.018886466631445175 0 -0.00123851422195748 0.017684181394700432 0 -1.480294528457647e-05 0.018886466631445175 0 -0.00012714390374330632 0.016757054981896224 0 -0.00034374583546669345 0.01449836282305793 0 5.9976950754760107e-05 0.014350749466494695 0 0.00015300057537612105 0.014732540583181875 0 5.9976950754760107e-05 0.014350749466494695 0 0.00017322401335151811 0.014465866378242915 0 0.00015300057537612105 0.014732540583181875 0 5.9976950754760107e-05 0.014350749466494695 0 0.00017322401335151811 0.014465866378242915 0 0.0001126834624420699 0.014326314857862834 0 0.00017322401335151811 0.014465866378242915 0 0.0001126834624420699 0.014326314857862834 0 0.0001917979653341001 0.014284559453860021 0 2.29171541907791e-05 0.014195482662683416 0 0.0001126834624420699 0.014326314857862834 0 0.0001917979653341001 0.014284559453860021 0 -9.9668356143468918e-05 0.014812656856721536 0 0.00013039209166597351 0.014083418107110422 0 2.29171541907791e-05 0.014195482662683416 0 5.9976950754760107e-05 0.014350749466494695 0 0.0001126834624420699 0.014326314857862834 0 0.00018310114335460718 0.014047865519230542 0 -5.1839729542807922e-05 0.014063891225737785 0 5.9976950754760107e-05 0.014350749466494695 0 -0.00029787177435198261 0.02325073406765614 0 0.00012242583111991701 0.023117022945278398 0 -8.3019768534057221e-05 0.023732072878702319 0 -0.00029787177435198261 0.02325073406765614 0 -0.00016753450695438209 0.022817363232745094 0 0.00012242583111991701 0.023117022945278398 0 -0.00044724317798306996 0.023696377329085788 0 -0.00029787177435198261 0.02325073406765614 0 -8.3019768534057221e-05 0.023732072878702319 0 -0.00034658409242318135 0.022808384138918409 0 -0.00017488486002425625 0.022420519821935665 0 -0.00016753450695438209 0.022817363232745094 0 -0.00037846765384694952 0.023002688781218725 0 -0.00029787177435198261 0.02325073406765614 0 -0.00016753450695438209 0.022817363232745094 0 -0.00037846765384694952 0.023002688781218725 0 -0.00034658409242318135 0.022808384138918409 0 -0.00016753450695438209 0.022817363232745094 0 0.0001542166968886263 0.02244202212148972 0 0.00012242583111991701 0.023117022945278398 0 0.00069951090790047223 0.022294919928798746 0 0.0001542166968886263 0.02244202212148972 0 -0.00016753450695438209 0.022817363232745094 0 0.00012242583111991701 0.023117022945278398 0 0.00012242583111991701 0.023117022945278398 0 0.00069951090790047223 0.022294919928798746 0 0.00071109120594666235 0.02359860237250264 0 0.00069951090790047223 0.022294919928798746 0 0.00011233956840625845 0.021238829474559986 0 0.0012700064779695894 0.019974021123556472 0 0.00076667428952887663 0.022217337832900252 0 0.00092984870434191719 0.02174131187315638 0 0.00024070401135932023 0.022215161998837454 0 -0.0003703300646005056 0.022052814221248024 0 0.00011233956840625845 0.021238829474559986 0 0.00024070401135932023 0.022215161998837454 0 0.00069951090790047223 0.022294919928798746 0 0.00011233956840625845 0.021238829474559986 0 -1.480294528457647e-05 0.018886466631445175 0 0.0010238026888994721 0.017499900381963234 0 0.0012700064779695894 0.019974021123556472 0 0.00011233956840625845 0.021238829474559986 0 -1.480294528457647e-05 0.018886466631445175 0 0.0012700064779695894 0.019974021123556472 0 -1.480294528457647e-05 0.018886466631445175 0 0.0010238026888994721 0.017499900381963234 0 -0.00012714390374330632 0.016757054981896224 0 0.00037289101218278492 0.024276230418686102 0 0.00025719335079896693 0.023906410029550278 0 9.4046875222542187e-05 0.024280145512568001 0 0.00068403920352869065 0.020916998065559966 0 0.00092984870434191719 0.02174131187315638 0 0.00037289101218278492 0.024276230418686102 0 0.00071109120594666235 0.02359860237250264 0 0.00025719335079896693 0.023906410029550278 0 0.00012242583111991701 0.023117022945278398 0 0.00071109120594666235 0.02359860237250264 0 0.00025719335079896693 0.023906410029550278 0 0.00012242583111991701 0.023117022945278398 0 0.00025719335079896693 0.023906410029550278 0 -8.3019768534057221e-05 0.023732072878702319 0 0.00025719335079896693 0.023906410029550278 0 9.4046875222542187e-05 0.024280145512568001 0 -8.3019768534057221e-05 0.023732072878702319 0 -0.00029671140969887326 0.024132916686371093 0 9.4046875222542187e-05 0.024280145512568001 0 -7.1510209099733349e-05 0.024448272671897045 0 -0.00029671140969887326 0.024132916686371093 0 9.4046875222542187e-05 0.024280145512568001 0 -8.3019768534057221e-05 0.023732072878702319 0 -0.00044724317798306996 0.023696377329085788 0 -0.00029671140969887326 0.024132916686371093 0 -8.3019768534057221e-05 0.023732072878702319 0 -1.8172271217479879e-05 0.024637688385462798 0 -7.1510209099733349e-05 0.024448272671897045 0 0.00010271878381323978 0.02454483774096855 0 -1.8172271217479879e-05 0.024637688385462798 0 0.00010271878381323978 0.02454483774096855 0 0.00017238063356721947 0.024615574890339026 0 9.4046875222542187e-05 0.024280145512568001 0 -7.1510209099733349e-05 0.024448272671897045 0 0.00010271878381323978 0.02454483774096855 0 9.4046875222542187e-05 0.024280145512568001 0 0.00010271878381323978 0.02454483774096855 0 0.00010065368148075201 0.024422430844562231 0 0.00010271878381323978 0.02454483774096855 0 -7.5859314161007328e-05 0.024371580345475045 0 0.00010065368148075201 0.024422430844562231 0 -7.5859314161007328e-05 0.024371580345475045 0 0.00010065368148075201 0.024422430844562231 0 -0.00012003192011310084 0.024399513592577058 0 0.00037289101218278492 0.024276230418686102 0 0.00010065368148075201 0.024422430844562231 0 -0.00012003192011310084 0.024399513592577058 0 0.00037289101218278492 0.024276230418686102 0 9.4046875222542187e-05 0.024280145512568001 0 0.00010065368148075201 0.024422430844562231 0 0.0010238026888994721 0.017499900381963234 0 0.00011217022752748839 0.015963660637028493 0 0.00013764936333189037 0.015766154659674247 0 0.00068403920352869065 0.020916998065559966 0 -0.00011766634960428818 0.019980802794123342 0 0.0010238026888994721 0.017499900381963234 0 -0.00012714390374330632 0.016757054981896224 0 0.00011217022752748839 0.015963660637028493 0 -0.00012714390374330632 0.016757054981896224 0 -0.00013414508959086867 0.016053924143878105 0 0.00011217022752748839 0.015963660637028493 0 -0.00013414508959086867 0.016053924143878105 0 0.00011217022752748839 0.015963660637028493 0 -0.00018971752273417561 0.016011152108729887 0 0.00025270446471077542 0.018795230339679239 0 -0.00011766634960428818 0.019980802794123342 0 0.00011217022752748839 0.015963660637028493 0 -7.2371974574039419e-05 0.015976432662797305 0 -0.00018971752273417561 0.016011152108729887 0 -0.00018971752273417561 0.016011152108729887 0 -0.00078236205625997551 0.016771728299860275 0 2.3765449358178743e-05 0.016417818443459933 0 -0.00011766634960428818 0.019980802794123342 0 -0.00032711618269093667 0.018461432895850467 0 -7.2371974574039419e-05 0.015976432662797305 0 -0.00018971752273417561 0.016011152108729887 0 -0.00078236205625997551 0.016771728299860275 0 -2.9271575952558441e-05 0.02066678780010581 0 3.9318733169854088e-08 0.019690817379836675 0 0.00012286933174574644 0.020539088076250874 0 -0.00078236205625997551 0.016771728299860275 0 -2.8687253951091178e-06 0.019680779394454333 0 2.3765449358178743e-05 0.016417818443459933 0 -0.00032711618269093667 0.018461432895850467 0 -1.7358224061428764e-07 0.019685835060903552 0 0.00012286933174574644 0.020539088076250874 0 -4.9806715556369299e-08 0.02186085245193773 0 1.3552566697046245e-05 0.020515628418420667 0 1.7533780983713386e-07 0.021865233435423129 0 -0.00029450124614950499 0.022611012067806056 0 3.9318733169854088e-08 0.019690817379836675 0 0.00012286933174574644 0.020539088076250874 0 -4.9806715556369299e-08 0.02186085245193773 0 -0.00011766634960428818 0.019980802794123342 0 -0.00029450124614950499 0.022611012067806056 0 -7.5859314161007328e-05 0.024371580345475045 0 -0.00012003192011310084 0.024399513592577058 0 -0.00050168278107361923 0.023914365150583303 0 -1.7976835367482753e-05 0.020688511304024985 0 -2.9271575952558441e-05 0.02066678780010581 0 1.3552566697046245e-05 0.020515628418420667 0 -2.9271575952558441e-05 0.02066678780010581 0 0.00012286933174574644 0.020539088076250874 0 1.3552566697046245e-05 0.020515628418420667 0 -7.5859314161007328e-05 0.024371580345475045 0 -0.00050168278107361923 0.023914365150583303 0 0.0002325316990047734 0.02415058361542129 0 0.00010271878381323978 0.02454483774096855 0 -7.5859314161007328e-05 0.024371580345475045 0 0.0002325316990047734 0.02415058361542129 0 -1.6971030374164907e-06 0.021870707887818749 0 -0.00050168278107361923 0.023914365150583303 0 0.0002325316990047734 0.02415058361542129 0 -1.6971030374164907e-06 0.021870707887818749 0 0.0002325316990047734 0.02415058361542129 0 1.6120986778665462e-06 0.024356156971624698 0 0.00014026396195830631 0.025084417564181571 0 0.0002325316990047734 0.02415058361542129 0 1.6120986778665462e-06 0.024356156971624698 0 0.00010271878381323978 0.02454483774096855 0 0.0002325316990047734 0.02415058361542129 0 0.00017238063356721947 0.024615574890339026 0 0.00014026396195830631 0.025084417564181571 0 0.0002325316990047734 0.02415058361542129 0 0.00017238063356721947 0.024615574890339026 0 0.00022681690746778412 0.014277088621769745 0 0.00015300057537612105 0.014732540583181875 0 0.00024262071197328895 0.015078712081271871 0 0.00017322401335151811 0.014465866378242915 0 0.00022681690746778412 0.014277088621769745 0 5.0202278431123621e-05 0.014283702112351585 0 0.00017322401335151811 0.014465866378242915 0 0.00022681690746778412 0.014277088621769745 0 0.00015300057537612105 0.014732540583181875 0 -0.00034374583546669345 0.01449836282305793 0 0.00015300057537612105 0.014732540583181875 0 -0.00029671105792713109 0.015460560897853446 0 -0.00123851422195748 0.017684181394700432 0 -0.00012714390374330632 0.016757054981896224 0 -0.00029671105792713109 0.015460560897853446 0 -0.0007362651988345242 0.016116341145941033 0 -0.00039427025739970344 0.015559856322844547 0 -0.00012714390374330632 0.016757054981896224 0 -0.00013414508959086867 0.016053924143878105 0 -0.00029671105792713109 0.015460560897853446 0 -0.00013414508959086867 0.016053924143878105 0 -0.00018971752273417561 0.016011152108729887 0 -0.00029671105792713109 0.015460560897853446 0 0.00015300057537612105 0.014732540583181875 0 -0.00029671105792713109 0.015460560897853446 0 0.00024262071197328895 0.015078712081271871 0 -0.00029671105792713109 0.015460560897853446 0 2.3765449358178743e-05 0.016417818443459933 0 0.00024262071197328895 0.015078712081271871 0 -0.00018971752273417561 0.016011152108729887 0 -0.00029671105792713109 0.015460560897853446 0 2.3765449358178743e-05 0.016417818443459933 0 -2.8687253951091178e-06 0.019680779394454333 0 2.3765449358178743e-05 0.016417818443459933 0 1.3803326642080254e-06 0.017010551596158333 0 2.3765449358178743e-05 0.016417818443459933 0 1.3803326642080254e-06 0.017010551596158333 0 0.00024262071197328895 0.015078712081271871 0 3.0530071259590595e-07 0.014335115718539477 0 0.00024262071197328895 0.015078712081271871 0 0.00018686098519345206 0.013423423871268344 0 1.3803326642080254e-06 0.017010551596158333 0 3.0530071259590595e-07 0.014335115718539477 0 0.00024262071197328895 0.015078712081271871 0 0.00022681690746778412 0.014277088621769745 0 0.00024262071197328895 0.015078712081271871 0 0.00018686098519345206 0.013423423871268344 0 3.0530071259590595e-07 0.014335115718539477 0 0.00018686098519345206 0.013423423871268344 0 3.7063376373719635e-07 0.011660177079864912 0 3.7063376373719635e-07 0.011660177079864912 0 -1.6260616942730999e-05 0.010967901901914585 0 -5.782942315631914e-05 0.012523334834619784 0 0.00018686098519345206 0.013423423871268344 0 3.7063376373719635e-07 0.011660177079864912 0 -5.782942315631914e-05 0.012523334834619784 0 3.7063376373719635e-07 0.011660177079864912 0 -1.6260616942730999e-05 0.010967901901914585 0 -2.0022313918129658e-07 0.0089851557989697167 0 -0.00042151615669843166 0.013750453447991187 0 -2.7307829499773168e-05 0.013787367085407816 0 -0.0006274822564343095 0.013210337769384781 0 -1.6260616942730999e-05 0.010967901901914585 0 -5.782942315631914e-05 0.012523334834619784 0 -0.00022928301305045719 0.010050522167467 0 9.0933351143149624e-06 0.013152267002587341 0 -0.00026185767791841324 0.011845430035325986 0 0.00022681690746778412 0.014277088621769745 0 0.00018686098519345206 0.013423423871268344 0 -5.782942315631914e-05 0.012523334834619784 0 0.00031856366526220042 0.014133021587517485 0 9.0933351143149624e-06 0.013152267002587341 0 -8.7253758734432148e-05 0.0069386155243472353 0 -1.0921134251320658e-06 0.006310875172048507 0 -2.0022313918129658e-07 0.0089851557989697167 0 -0.00061214620705094935 0.0083184373995490619 0 -0.0013260690304099079 0.008206913907845852 0 -0.00061214620705094935 0.0083184373995490619 0 -0.00026185767791841324 0.011845430035325986 0 -0.00073789243362479989 0.0052378271059295408 0 -0.0016818623341249919 0.0025395205663123021 0 -0.00023739533274537962 0.003878525790144327 0 -0.0015802295741159838 0.012630084082814179 0 -0.0006274822564343095 0.013210337769384781 0 -0.00094433740755847889 0.013605798977620497 0 -0.00071606827098252054 0.0080855200059063402 0 -0.00061214620705094935 0.0083184373995490619 0 -0.00013724345206662209 0.0057107384616102838 0 -0.00077821942481964758 0.0054320012698550885 0 -4.0443605043996916e-06 0.0063029441574124073 0 -0.00061214620705094935 0.0083184373995490619 0 -2.3846770989140633e-06 0.0063118045586714189 0 -8.7253758734432148e-05 0.0069386155243472353 0 -2.0022313918129658e-07 0.0089851557989697167 0 -0.00022928301305045719 0.010050522167467 0 -1.6260616942730999e-05 0.010967901901914585 0 -2.0022313918129658e-07 0.0089851557989697167 0 -0.00022928301305045719 0.010050522167467 0 -0.00042151615669843166 0.013750453447991187 0 -0.0006274822564343095 0.013210337769384781 0 -0.00094433740755847889 0.013605798977620497 0 -0.0016818623341249919 0.0025395205663123021 0 -0.00018325116885132458 0.0019869505224843387 0 -0.00023739533274537962 0.003878525790144327 0 -0.0016818623341249919 0.0025395205663123021 0 -0.0010973519287604467 0.0014963564040399698 0 -0.00018325116885132458 0.0019869505224843387 0 -0.0016818623341249919 0.0025395205663123021 0 -0.0010973519287604467 0.0014963564040399698 0 -0.0017115789401980148 0.0014482630537336145 0 -0.00042151615669843166 0.013750453447991187 0 -0.00094433740755847889 0.013605798977620497 0 -0.0003779642430378752 0.014200675707196336 0 -0.0013260690304099079 0.008206913907845852 0 -0.0010419620239635558 0.0078291759892967858 0 -0.0010973519287604467 0.0014963564040399698 0 -0.0017115789401980148 0.0014482630537336145 0 -0.0011154823677990264 0.00090477204305703079 0 -0.0017115789401980148 0.0014482630537336145 0 -0.0014654434527004191 0.00081247598064412136 0 -0.0011154823677990264 0.00090477204305703079 0 -0.0010973519287604467 0.0014963564040399698 0 -0.0011154823677990264 0.00090477204305703079 0 -0.00047506935927529094 0.0010084777738014715 0 0.00022681690746778412 0.014277088621769745 0 -2.7307829499773168e-05 0.013787367085407816 0 5.0202278431123621e-05 0.014283702112351585 0 -0.00042151615669843166 0.013750453447991187 0 -2.7307829499773168e-05 0.013787367085407816 0 -0.0003779642430378752 0.014200675707196336 0 -2.7307829499773168e-05 0.013787367085407816 0 -0.0003779642430378752 0.014200675707196336 0 5.0202278431123621e-05 0.014283702112351585 0 -0.0017115789401980148 0.0014482630537336145 0 -0.0016647280636506014 0.00090199933882523589 0 -0.0014654434527004191 0.00081247598064412136 0 -0.0003779642430378752 0.014200675707196336 0 5.0202278431123621e-05 0.014283702112351585 0 2.6834349205048718e-05 0.014421979615461301 0 -0.0010419620239635558 0.0078291759892967858 0 -0.00081915242858510921 0.0076317903359867777 0 0.00017322401335151811 0.014465866378242915 0 5.0202278431123621e-05 0.014283702112351585 0 2.6834349205048718e-05 0.014421979615461301 0 -0.00075767108422098318 0.0077484692642129007 0 -0.00081915242858510921 0.0076317903359867777 0 0.00017322401335151811 0.014465866378242915 0 0.0001917979653341001 0.014284559453860021 0 2.6834349205048718e-05 0.014421979615461301 0 -0.0015092400963842064 0.00075288242777172415 0 -0.0015437632320367324 0.00070817595469742454 0 -0.0016647280636506014 0.00090199933882523589 0 -0.0015092400963842064 0.00075288242777172415 0 -0.0015437632320367324 0.00070817595469742454 0 -0.001582660815460449 0.00078389943267794578 0 -0.0015437632320367324 0.00070817595469742454 0 -0.0013345784562444176 0.00047694754364390526 0 -0.001582660815460449 0.00078389943267794578 0 -0.00046554996768136033 0.0005717259067458089 0 -0.00027152111018888725 0.00011950297131608423 0 -0.0015437632320367324 0.00070817595469742454 0 -0.0016647280636506014 0.00090199933882523589 0 -0.0014654434527004191 0.00081247598064412136 0 -0.0014654434527004191 0.00081247598064412136 0 -0.0011154823677990264 0.00090477204305703079 0 -0.0013345784562444176 0.00047694754364390526 0 -0.0011154823677990264 0.00090477204305703079 0 -0.00037248791342958003 0.00045935294849517043 0 -0.00047506935927529094 0.0010084777738014715 0 -0.0011154823677990264 0.00090477204305703079 0 -0.0013345784562444176 0.00047694754364390526 0 -0.00037248791342958003 0.00045935294849517043 0 0.00023571888166188426 0.00040208495650042995 0 -4.9367638862065982e-05 0.00053123432798662452 0 -0.00037248791342958003 0.00045935294849517043 0 -0.00046554996768136033 0.0005717259067458089 0 -0.00038582489544284449 0.00043671972360410314 0 -0.0015437632320367324 0.00070817595469742454 0 -0.0014654434527004191 0.00081247598064412136 0 -0.0013345784562444176 0.00047694754364390526 0 8.8340612236322808e-05 0.0013651863509482926 0 0.0005988175048581533 0.00086201895675904936 0 0.0002190134880675767 0.00068125439905806432 0 0.00027332488642511498 0.00078258014182526242 0 0.0006332020008054561 0.00085608639073494293 0 0.00023571888166188426 0.00040208495650042995 0 0.0002190134880675767 0.00068125439905806432 0 0.0006332020008054561 0.00085608639073494293 0 0.0002190134880675767 0.00068125439905806432 0 -4.9367638862065982e-05 0.00053123432798662452 0 0.0001677176183048898 0.00067493143079714961 0 0.00023571888166188426 0.00040208495650042995 0 0.0002190134880675767 0.00068125439905806432 0 -4.9367638862065982e-05 0.00053123432798662452 0 -4.9367638862065982e-05 0.00053123432798662452 0 0.0001677176183048898 0.00067493143079714961 0 -0.00027808069626469818 0.00044100747390238434 0 0.00026623372318710335 0.0010813228426864718 0 0.0001677176183048898 0.00067493143079714961 0 0.00027332488642511498 0.00078258014182526242 0 -0.00023658826332196529 0.0019955819995038128 0 8.8340612236322808e-05 0.0013651863509482926 0 0.00026623372318710335 0.0010813228426864718 0 0.0001677176183048898 0.00067493143079714961 0 1.7336666097740958e-05 0.00071870980293588065 0 0.0002190134880675767 0.00068125439905806432 0 0.0001677176183048898 0.00067493143079714961 0 0.00027332488642511498 0.00078258014182526242 0 0.00021444340026904841 0.0024339690680253794 0 -0.00074287151633538242 0.0028788212662757824 0 -0.00019142841437776523 0.0019474612067197094 0 -0.00019142841437776523 0.0019474612067197094 0 0.00057082631809037758 0.0018026538175859768 0 0.0006332020008054561 0.00085608639073494293 0 0.00021444340026904841 0.0024339690680253794 0 -0.00019142841437776523 0.0019474612067197094 0 0.00057082631809037758 0.0018026538175859768 0 0.00094817951917242874 0.0024102069793410378 0 0.00021444340026904841 0.0024339690680253794 0 0.00057082631809037758 0.0018026538175859768 0 0.00094817951917242874 0.0024102069793410378 0 0.00057082631809037758 0.0018026538175859768 0 0.0010822235092161135 0.0015194689789764083 0 0.0017754249882253083 0.0027398768613690555 0 0.00094817951917242874 0.0024102069793410378 0 0.0017332763689537367 0.0017794693486682279 0 0.0017754249882253083 0.0027398768613690555 0 0.0023380254406273541 0.0021187323043057055 0 0.0017332763689537367 0.0017794693486682279 0 0.00094817951917242874 0.0024102069793410378 0 0.0010822235092161135 0.0015194689789764083 0 0.0017332763689537367 0.0017794693486682279 0 0.0010822235092161135 0.0015194689789764083 0 0.0017332763689537367 0.0017794693486682279 0 0.0012402680753896894 0.0008228758189136547 0 0.00054775774490353865 0.0059939417827095214 0 -0.00027152111018888725 0.00011950297131608423 0 -0.0012773359112629673 0.0010632470295379515 0 -0.0015092400963842064 0.00075288242777172415 0 -0.001582660815460449 0.00078389943267794578 0 0.0027098562223130548 0.0014582581140723278 0 0.0017332763689537367 0.0017794693486682279 0 0.0012402680753896894 0.0008228758189136547 0 0.00023571888166188426 0.00040208495650042995 0 0.0012402680753896894 0.0008228758189136547 0 0.0006332020008054561 0.00085608639073494293 0 0.00057082631809037758 0.0018026538175859768 0 0.0010822235092161135 0.0015194689789764083 0 0.0006332020008054561 0.00085608639073494293 0 0.0010822235092161135 0.0015194689789764083 0 0.0012402680753896894 0.0008228758189136547 0 0.0006332020008054561 0.00085608639073494293 0 -0.0010322511768249066 7.0772908711089848e-05 0 -0.00054928219485463363 -0.00011224157205344773 0 -0.00042297913848405899 -0.00014756948271151945 0 -0.0010322511768249066 7.0772908711089848e-05 0 -0.00052745734484138196 7.8907962594188774e-05 0 -0.00054928219485463363 -0.00011224157205344773 0 -0.00052128194479168907 -0.00014048782599082214 0 -0.0010322511768249066 7.0772908711089848e-05 0 -0.00042297913848405899 -0.00014756948271151945 0 -0.00068162936684876187 -0.00051102918158309348 0 -0.00052128194479168907 -0.00014048782599082214 0 -0.0010322511768249066 7.0772908711089848e-05 0 -0.0010322511768249066 7.0772908711089848e-05 0 -0.00031191683963139867 0.00048776979141360103 0 -0.00052745734484138196 7.8907962594188774e-05 0 -0.00026660788450769899 0.0011807152145205276 0 -0.0010322511768249066 7.0772908711089848e-05 0 -0.00031191683963139867 0.00048776979141360103 0 -0.00026660788450769899 0.0011807152145205276 0 -0.00031191683963139867 0.00048776979141360103 0 1.7336666097740958e-05 0.00071870980293588065 0 0.00012923120925684405 0.00062358783690836129 0 -0.00025120193023651108 0.00019567609568033265 0 0.0001677176183048898 0.00067493143079714961 0 1.7336666097740958e-05 0.00071870980293588065 0 -0.0002458321893733219 -8.44421587486069e-05 0 -0.00031191683963139867 0.00048776979141360103 0 1.7336666097740958e-05 0.00071870980293588065 0 -0.0002458321893733219 -8.44421587486069e-05 0 -0.00052745734484138196 7.8907962594188774e-05 0 -0.0002458321893733219 -8.44421587486069e-05 0 -0.00054928219485463363 -0.00011224157205344773 0 -0.00031191683963139867 0.00048776979141360103 0 -0.00052745734484138196 7.8907962594188774e-05 0 -0.0002458321893733219 -8.44421587486069e-05 0 -0.0002458321893733219 -8.44421587486069e-05 0 -0.0004320734136254388 -0.00023307346524271798 0 -0.00054928219485463363 -0.00011224157205344773 0 -0.00025120193023651108 0.00019567609568033265 0 -0.00018327919786550906 0.00012679956878967823 0 -4.9367638862065982e-05 0.00053123432798662452 0 -0.00027808069626469818 0.00044100747390238434 0 -0.00037248791342958003 0.00045935294849517043 0 -0.00027808069626469818 0.00044100747390238434 0 -0.00037248791342958003 0.00045935294849517043 0 -0.00017699033452156567 0.00062281899870709893 0 -0.00037248791342958003 0.00045935294849517043 0 -0.00017699033452156567 0.00062281899870709893 0 -0.00047506935927529094 0.0010084777738014715 0 -0.00017699033452156567 0.00062281899870709893 0 9.1520961528471876e-06 0.00052164057795507873 0 5.6897133053604512e-05 0.00070400025165671932 0 -0.00027808069626469818 0.00044100747390238434 0 -0.00017699033452156567 0.00062281899870709893 0 9.1520961528471876e-06 0.00052164057795507873 0 -0.0004320734136254388 -0.00023307346524271798 0 -0.00021048661227221344 -0.00027950189399034977 0 8.1851430759718937e-05 -5.9410416182346176e-05 0 -0.00018327919786550906 0.00012679956878967823 0 4.2465892901193211e-05 -7.8857233674410538e-06 0 -0.0004320734136254388 -0.00023307346524271798 0 -0.00054928219485463363 -0.00011224157205344773 0 -0.00021048661227221344 -0.00027950189399034977 0 -0.00042297913848405899 -0.00014756948271151945 0 -0.00021048661227221344 -0.00027950189399034977 0 -0.0001772243079162899 -0.00035853574434666243 0 -0.00054928219485463363 -0.00011224157205344773 0 -0.00042297913848405899 -0.00014756948271151945 0 -0.00021048661227221344 -0.00027950189399034977 0 8.1851430759718937e-05 -5.9410416182346176e-05 0 5.5041861119911214e-05 -0.00047519744284544294 0 0.0001950867851210097 -0.0005435480849659127 0 -0.00021048661227221344 -0.00027950189399034977 0 8.1851430759718937e-05 -5.9410416182346176e-05 0 5.5041861119911214e-05 -0.00047519744284544294 0 9.1520961528471876e-06 0.00052164057795507873 0 8.1851430759718937e-05 -5.9410416182346176e-05 0 5.6897133053604512e-05 0.00070400025165671932 0 8.1851430759718937e-05 -5.9410416182346176e-05 0 5.6897133053604512e-05 0.00070400025165671932 0 0.00026984099518005461 0.00059955851545965568 0 8.1851430759718937e-05 -5.9410416182346176e-05 0 0.00026984099518005461 0.00059955851545965568 0 0.0001950867851210097 -0.0005435480849659127 0 5.6897133053604512e-05 0.00070400025165671932 0 -0.00018325116885132458 0.0019869505224843387 0 0.00026984099518005461 0.00059955851545965568 0 -0.00017699033452156567 0.00062281899870709893 0 -0.00047506935927529094 0.0010084777738014715 0 5.6897133053604512e-05 0.00070400025165671932 0 -0.0010973519287604467 0.0014963564040399698 0 -0.00047506935927529094 0.0010084777738014715 0 -0.00018325116885132458 0.0019869505224843387 0 -0.00047506935927529094 0.0010084777738014715 0 5.6897133053604512e-05 0.00070400025165671932 0 -0.00018325116885132458 0.0019869505224843387 0 -0.00018325116885132458 0.0019869505224843387 0 1.8142091652691858e-06 0.0033335432449935437 0 0.00026984099518005461 0.00059955851545965568 0 -0.00013724345206662209 0.0057107384616102838 0 1.8142091652691858e-06 0.0033335432449935437 0 -0.00023739533274537962 0.003878525790144327 0 -0.00018325116885132458 0.0019869505224843387 0 1.8142091652691858e-06 0.0033335432449935437 0 -0.00023739533274537962 0.003878525790144327 0 -0.00013724345206662209 0.0057107384616102838 0 -4.0443605043996916e-06 0.0063029441574124073 0 1.8142091652691858e-06 0.0033335432449935437 0 -0.00013724345206662209 0.0057107384616102838 0 -0.00073789243362479989 0.0052378271059295408 0 -0.00023739533274537962 0.003878525790144327 0 0.00026984099518005461 0.00059955851545965568 0 1.9081376565224176e-07 0.00035861340228716645 0 0.00019154213787966101 -0.0011655460492845651 0 0.00026984099518005461 0.00059955851545965568 0 0.00019154213787966101 -0.0011655460492845651 0 0.0001950867851210097 -0.0005435480849659127 0 1.8142091652691858e-06 0.0033335432449935437 0 0.00026984099518005461 0.00059955851545965568 0 1.9081376565224176e-07 0.00035861340228716645 0 1.9081376565224176e-07 0.00035861340228716645 0 0.00019154213787966101 -0.0011655460492845651 0 4.2917242526687354e-07 -0.0026158319024097722 0 0.00019154213787966101 -0.0011655460492845651 0 0.00020992642533060026 -0.0032262166593035281 0 4.8832291526462397e-05 -0.0014227523530927879 0 0.00019154213787966101 -0.0011655460492845651 0 4.2917242526687354e-07 -0.0026158319024097722 0 0.00020992642533060026 -0.0032262166593035281 0 4.2917242526687354e-07 -0.0026158319024097722 0 8.6328874772544222e-07 -0.005589955345798773 0 0.00020992642533060026 -0.0032262166593035281 0 8.6328874772544222e-07 -0.005589955345798773 0 0.00012633025324937884 -0.0051177897528746387 0 0.00020992642533060026 -0.0032262166593035281 0 0.00012633025324937884 -0.0051177897528746387 0 0.00020992642533060026 -0.0032262166593035281 0 0.00021873529366767268 -0.0040418822594618835 0 -0.00014027313375252756 -0.0021513214396116894 0 0.00013643702342530447 -0.0015974944784862919 0 0.00020992642533060026 -0.0032262166593035281 0 0.0002710285589842393 -0.0031809878139266753 0 4.8832291526462397e-05 -0.0014227523530927879 0 0.00021873529366767268 -0.0040418822594618835 0 0.0002710285589842393 -0.0031809878139266753 0 3.3767408625074699e-05 -0.0037591946667702497 0 0.00020992642533060026 -0.0032262166593035281 0 0.00021873529366767268 -0.0040418822594618835 0 0.0002710285589842393 -0.0031809878139266753 0 -0.00014027313375252756 -0.0021513214396116894 0 -0.00023998177870991231 -0.0019894907090352528 0 -0.00075033281694847343 -0.0010293679045601796 0 -0.00064896392400821978 -0.0011400348398242336 0 -0.00083927749213423097 -0.0011390608109031852 0 -0.00075033281694847343 -0.0010293679045601796 0 -0.00064896392400821978 -0.0011400348398242336 0 -0.00064251785175142428 -0.00089044914316771756 0 -0.00064896392400821978 -0.0011400348398242336 0 -0.00037123748324104994 -0.00098043526933036767 0 -0.00055464959546682683 -0.00078365198833959431 0 -0.00064896392400821978 -0.0011400348398242336 0 -0.00055464959546682683 -0.00078365198833959431 0 -0.00064251785175142428 -0.00089044914316771756 0 -0.00064896392400821978 -0.0011400348398242336 0 -0.00037123748324104994 -0.00098043526933036767 0 4.8832291526462397e-05 -0.0014227523530927879 0 -0.00037123748324104994 -0.00098043526933036767 0 -0.00022633500303592194 -0.00067008717408461845 0 -0.00055464959546682683 -0.00078365198833959431 0 5.5041861119911214e-05 -0.00047519744284544294 0 4.8832291526462397e-05 -0.0014227523530927879 0 -0.00022633500303592194 -0.00067008717408461845 0 -0.00037123748324104994 -0.00098043526933036767 0 4.8832291526462397e-05 -0.0014227523530927879 0 -0.00022633500303592194 -0.00067008717408461845 0 5.5041861119911214e-05 -0.00047519744284544294 0 0.0001950867851210097 -0.0005435480849659127 0 4.8832291526462397e-05 -0.0014227523530927879 0 0.00019154213787966101 -0.0011655460492845651 0 0.0001950867851210097 -0.0005435480849659127 0 4.8832291526462397e-05 -0.0014227523530927879 0 0.00011721190954926856 -0.013416766769098899 0 -2.4456753120458189e-05 -0.012159823228170991 0 0.00031363636564229059 -0.013825825821558448 0 0.00011721190954926856 -0.013416766769098899 0 -2.4456753120458189e-05 -0.012159823228170991 0 -0.00035207391166113992 -0.012573246635409976 0 -2.4456753120458189e-05 -0.012159823228170991 0 -1.2647054359488313e-07 -0.011541070146689212 0 -0.00042962131636354488 -0.010292835331540259 0 -2.4456753120458189e-05 -0.012159823228170991 0 -1.2647054359488313e-07 -0.011541070146689212 0 0.00031363636564229059 -0.013825825821558448 0 -1.2647054359488313e-07 -0.011541070146689212 0 -0.00042962131636354488 -0.010292835331540259 0 -2.0797895737902366e-06 -0.0085655017995532028 0 -0.00042962131636354488 -0.010292835331540259 0 -0.00071770478402516456 -0.011637957176546499 0 -0.00093487496375834899 -0.009025923763074194 0 -0.00071770478402516456 -0.011637957176546499 0 -0.00099768627121283844 -0.012279975025654368 0 -0.00093487496375834899 -0.009025923763074194 0 -0.0019917640588081775 -0.0097929402517931974 0 -0.0013040878342840069 -0.0093868114246409822 0 -0.0028446350317698219 -0.0063841098354732676 0 -0.001361903683140444 -0.0070108110155594561 0 -0.00093487496375834899 -0.009025923763074194 0 -0.00035207391166113992 -0.012573246635409976 0 -0.00091444327828781838 -0.012219571694985894 0 -0.0002716657471735557 -0.01423473090324767 0 -0.0017576146282429967 -0.0062443234084976996 0 -0.0028446350317698219 -0.0063841098354732676 0 -0.001361903683140444 -0.0070108110155594561 0 -0.001977134101572442 -0.010295186640178765 0 -0.0019917640588081775 -0.0097929402517931974 0 -2.4456753120458189e-05 -0.012159823228170991 0 -0.00042962131636354488 -0.010292835331540259 0 -0.00071770478402516456 -0.011637957176546499 0 -0.00071770478402516456 -0.011637957176546499 0 -0.00035207391166113992 -0.012573246635409976 0 -0.00091444327828781838 -0.012219571694985894 0 -2.4456753120458189e-05 -0.012159823228170991 0 -0.00071770478402516456 -0.011637957176546499 0 -0.00035207391166113992 -0.012573246635409976 0 -0.001748220078864343 -0.0055523170811917133 0 -0.0028446350317698219 -0.0063841098354732676 0 -0.0018863356532130345 -0.0045281671498671669 0 -0.0019917640588081775 -0.0097929402517931974 0 -0.0026716321531439404 -0.0077112418469255295 0 -0.001748220078864343 -0.0055523170811917133 0 -0.0017576146282429967 -0.0062443234084976996 0 -0.0028446350317698219 -0.0063841098354732676 0 -0.001748220078864343 -0.0055523170811917133 0 -0.0010220074654598442 -0.0061179123318072974 0 -0.00082672808607542889 -0.005035817830796002 0 -0.0017576146282429967 -0.0062443234084976996 0 -0.0010220074654598442 -0.0061179123318072974 0 -0.001361903683140444 -0.0070108110155594561 0 -0.001748220078864343 -0.0055523170811917133 0 -0.0017576146282429967 -0.0062443234084976996 0 -0.0010220074654598442 -0.0061179123318072974 0 -0.0010220074654598442 -0.0061179123318072974 0 -0.00013071207182633029 -0.0055349327270923284 0 -0.00082672808607542889 -0.005035817830796002 0 -0.00060940731441541153 -0.0071462114662200595 0 -8.1504864758707754e-05 -0.0070040920035263328 0 -0.00013071207182633029 -0.0055349327270923284 0 -0.0010220074654598442 -0.0061179123318072974 0 -0.00060940731441541153 -0.0071462114662200595 0 -0.00013071207182633029 -0.0055349327270923284 0 -0.00060940731441541153 -0.0071462114662200595 0 -0.001361903683140444 -0.0070108110155594561 0 -0.00093487496375834899 -0.009025923763074194 0 -0.0010220074654598442 -0.0061179123318072974 0 -0.00060940731441541153 -0.0071462114662200595 0 -0.001361903683140444 -0.0070108110155594561 0 -0.00042962131636354488 -0.010292835331540259 0 -0.00093487496375834899 -0.009025923763074194 0 -2.0797895737902366e-06 -0.0085655017995532028 0 -0.00060940731441541153 -0.0071462114662200595 0 -0.00093487496375834899 -0.009025923763074194 0 -8.1504864758707754e-05 -0.0070040920035263328 0 -0.00093487496375834899 -0.009025923763074194 0 -2.0797895737902366e-06 -0.0085655017995532028 0 -8.1504864758707754e-05 -0.0070040920035263328 0 8.6328874772544222e-07 -0.005589955345798773 0 -2.0797895737902366e-06 -0.0085655017995532028 0 -8.1504864758707754e-05 -0.0070040920035263328 0 8.6328874772544222e-07 -0.005589955345798773 0 0.00012633025324937884 -0.0051177897528746387 0 -8.1504864758707754e-05 -0.0070040920035263328 0 0.00012633025324937884 -0.0051177897528746387 0 -8.1504864758707754e-05 -0.0070040920035263328 0 -0.00013071207182633029 -0.0055349327270923284 0 0.00012633025324937884 -0.0051177897528746387 0 0.00021873529366767268 -0.0040418822594618835 0 -0.00013071207182633029 -0.0055349327270923284 0 0.00021873529366767268 -0.0040418822594618835 0 -0.00013071207182633029 -0.0055349327270923284 0 -0.00010772940605619037 -0.004360766676810437 0 -0.00013071207182633029 -0.0055349327270923284 0 -0.00010772940605619037 -0.004360766676810437 0 -0.00082672808607542889 -0.005035817830796002 0 -0.00010772940605619037 -0.004360766676810437 0 3.3767408625074699e-05 -0.0037591946667702497 0 -0.00070255972977003981 -0.0042040712448052076 0 0.00021873529366767268 -0.0040418822594618835 0 -0.00010772940605619037 -0.004360766676810437 0 3.3767408625074699e-05 -0.0037591946667702497 0 -0.00075033281694847343 -0.0010293679045601796 0 -0.00083927749213423097 -0.0011390608109031852 0 -0.0010859727434936301 -0.0010887984491272141 0 -0.0003585596724642961 0.00050449556166505571 0 -0.0023717793380676759 -0.0065297491985878793 0 -0.00023998177870991231 -0.0019894907090352528 0 -0.0024951342049554298 -0.0069132881476415891 0 -0.00083927749213423097 -0.0011390608109031852 0 -0.0011186083325179855 -0.0012082984246757843 0 -0.0010859727434936301 -0.0010887984491272141 0 3.3767408625074699e-05 -0.0037591946667702497 0 -0.0014441752980391622 -0.0034629619985189122 0 -0.00070255972977003981 -0.0042040712448052076 0 -0.003788461819167472 -0.012026975316265199 0 -0.003296617318625857 -0.012555873606883183 0 -0.0039932342332794244 -0.012779981038975846 0 -0.0024951342049554298 -0.0069132881476415891 0 -0.0023717793380676759 -0.0065297491985878793 0 -0.0014441752980391622 -0.0034629619985189122 0 -0.00070255972977003981 -0.0042040712448052076 0 -0.0018863356532130345 -0.0045281671498671669 0 -0.00010772940605619037 -0.004360766676810437 0 -0.00070255972977003981 -0.0042040712448052076 0 -0.00082672808607542889 -0.005035817830796002 0 -0.00070255972977003981 -0.0042040712448052076 0 -0.00082672808607542889 -0.005035817830796002 0 -0.0018863356532130345 -0.0045281671498671669 0 -0.001748220078864343 -0.0055523170811917133 0 -0.00082672808607542889 -0.005035817830796002 0 -0.0018863356532130345 -0.0045281671498671669 0 -0.0019917640588081775 -0.0097929402517931974 0 -0.00115901060237337 -0.012924418509205327 0 -0.0034965133171986408 -0.010927768393933742 0 -0.0030214720864606514 -0.012164518309597668 0 -0.0022267717711799036 -0.011223996164072767 0 -0.0031892081048190361 -0.0098175794189880004 0 -0.0034965133171986408 -0.010927768393933742 0 -0.0022267717711799036 -0.011223996164072767 0 -0.0024951342049554298 -0.0069132881476415891 0 -0.0026716321531439404 -0.0077112418469255295 0 -0.0037934025434274939 -0.012025959120206963 0 -0.0034965133171986408 -0.010927768393933742 0 -0.0030214720864606514 -0.012164518309597668 0 -0.003788461819167472 -0.012026975316265199 0 -0.003296617318625857 -0.012555873606883183 0 -0.0030214720864606514 -0.012164518309597668 0 -0.0024951342049554298 -0.0069132881476415891 0 -0.0030349859268403567 -0.010373591583249591 0 -0.003296617318625857 -0.012555873606883183 0 -0.0030214720864606514 -0.012164518309597668 0 -0.0023783643043720228 -0.013260859008748467 0 -0.0030214720864606514 -0.012164518309597668 0 -0.0022261908341526591 -0.012334658011892107 0 -0.0022267717711799036 -0.011223996164072767 0 -0.0002716657471735557 -0.01423473090324767 0 0.00030651698648009634 -0.014372800508821353 0 0.00012281072193177326 -0.014940605197942679 0 -0.00115901060237337 -0.012924418509205327 0 -0.000609934700215306 -0.013766706254924562 0 -0.0022261908341526591 -0.012334658011892107 0 -0.0022267717711799036 -0.011223996164072767 0 -0.0012753749475394234 -0.012685531284866684 0 -0.0030214720864606514 -0.012164518309597668 0 -0.0022261908341526591 -0.012334658011892107 0 -0.0023783643043720228 -0.013260859008748467 0 0.00011721190954926856 -0.013416766769098899 0 -0.0002716657471735557 -0.01423473090324767 0 0.00030651698648009634 -0.014372800508821353 0 0.00011721190954926856 -0.013416766769098899 0 -0.00035207391166113992 -0.012573246635409976 0 -0.0002716657471735557 -0.01423473090324767 0 -0.0016990338795210955 -0.014265588988067393 0 -0.0024156460107267142 -0.013476298604269882 0 -0.0026576419200850868 -0.015205382330940294 0 -0.0016990338795210955 -0.014265588988067393 0 -0.0026576419200850868 -0.015205382330940294 0 -0.0013532596381566951 -0.015003009955093976 0 -0.0016990338795210955 -0.014265588988067393 0 -0.0024156460107267142 -0.013476298604269882 0 -0.00074747344398793996 -0.013846312074200114 0 -0.0023783643043720228 -0.013260859008748467 0 -0.00074747344398793996 -0.013846312074200114 0 -0.0012753749475394234 -0.012685531284866684 0 -0.0025341436315818541 -0.013956236436679403 0 -0.00080857118066476148 -0.013700567527424122 0 -0.0022261908341526591 -0.012334658011892107 0 -0.0023783643043720228 -0.013260859008748467 0 -0.0012753749475394234 -0.012685531284866684 0 -0.0024156460107267142 -0.013476298604269882 0 -0.003373134139701286 -0.013942436217657636 0 -0.0040203364219513196 -0.013047736694548541 0 -0.0025341436315818541 -0.013956236436679403 0 -0.0023717793380676759 -0.0065297491985878793 0 -0.003296617318625857 -0.012555873606883183 0 -0.0023783643043720228 -0.013260859008748467 0 -0.0039932342332794244 -0.012779981038975846 0 -0.0024156460107267142 -0.013476298604269882 0 -0.003373134139701286 -0.013942436217657636 0 -0.0026576419200850868 -0.015205382330940294 0 -0.0028965550486477996 -0.014539435001713386 0 -0.0016989772570757463 -0.015227210142163418 0 -0.0024242963347382556 -0.015568623201312666 0 -0.0019189872019944351 -0.011321435276709315 0 -0.0024156248575467301 -0.0155840038158941 0 -0.003373134139701286 -0.013942436217657636 0 -0.0043648253672696749 -0.014332219986702715 0 -0.0026576419200850868 -0.015205382330940294 0 -0.0027745924767914039 -0.014082825005395424 0 -0.0035927179215098845 -0.013709942742794561 0 -0.0030922989451564633 -0.015252092197945133 0 -0.0019189872019944351 -0.011321435276709315 0 -0.003296269741344587 -0.016039623570832738 0 -0.0019189872019944351 -0.011321435276709315 0 -0.0024833725167148586 -0.0049456093779605094 0 -0.00089190128526062237 -0.0010513141601080989 0 -0.00088615138746565478 -0.0010359948623899511 0 -0.00087506908585203871 -0.0010285520095146441 0 -0.003373134139701286 -0.013942436217657636 0 -0.0043648253672696749 -0.014332219986702715 0 -0.0040203364219513196 -0.013047736694548541 0 -0.00089190128526062237 -0.0010513141601080989 0 -0.0009369882581913801 -0.0010778475231480841 0 -0.00088615138746565478 -0.0010359948623899511 0 -0.0019189872019944351 -0.011321435276709315 0 -0.0023717793380676759 -0.0065297491985878793 0 -0.0009369882581913801 -0.0010778475231480841 0 -0.00088615138746565478 -0.0010359948623899511 0 -0.000861040741558461 -0.00099580337689535994 0 -0.0024833725167148586 -0.0049456093779605094 0 -0.00053413458888055046 -0.00079629025638295876 0 -0.00088615138746565478 -0.0010359948623899511 0 -0.00087506908585203871 -0.0010285520095146441 0 -0.000861040741558461 -0.00099580337689535994 0 -0.0009369882581913801 -0.0010778475231480841 0 -0.000861040741558461 -0.00099580337689535994 0 -0.00081825181533126407 -0.00099522979089561184 0 -0.00086822096471539975 -0.00095566499044734041 0 -0.00081825181533126407 -0.00099522979089561184 0 -0.00063761471967053519 -0.0008609753800586582 0 -0.00086822096471539975 -0.00095566499044734041 0 -0.000861040741558461 -0.00099580337689535994 0 -0.00081825181533126407 -0.00099522979089561184 0 -0.00021706793116781672 -0.0008955823161360979 0 -0.00063761471967053519 -0.0008609753800586582 0 -0.00046070056133917401 -0.00096601842526889781 0 -0.00075033281694847343 -0.0010293679045601796 0 -0.0009369882581913801 -0.0010778475231480841 0 -0.00081825181533126407 -0.00099522979089561184 0 -0.0024833725167148586 -0.0049456093779605094 0 -0.0020437193628107895 -0.0026689688344968621 0 -0.0024833725167148586 -0.0049456093779605094 0 -0.0019593315022542203 -0.0092591615378841488 0 -0.00021706793116781672 -0.0008955823161360979 0 -0.00032051241911191901 -0.0011877083975591878 0 -0.00046070056133917401 -0.00096601842526889781 0 -0.00021706793116781672 -0.0008955823161360979 0 -0.00032051241911191901 -0.0011877083975591878 0 -0.00010858068238957054 -0.0015650433897402346 0 -0.0035927179215098845 -0.013709942742794561 0 -0.0036457113347412281 -0.015807415978973598 0 -0.0030922989451564633 -0.015252092197945133 0 -0.00032051241911191901 -0.0011877083975591878 0 -0.00032138641118856839 -0.0013591619196223603 0 -0.00010858068238957054 -0.0015650433897402346 0 -0.00032138641118856839 -0.0013591619196223603 0 -0.00010858068238957054 -0.0015650433897402346 0 -0.00047966932906917529 -0.0015225115010920748 0 -0.0036457113347412281 -0.015807415978973598 0 -0.0031907001135327178 -0.016589432770885423 0 -0.003661645358385362 -0.017234825619438301 0 -0.00010858068238957054 -0.0015650433897402346 0 -0.00042213008513437275 -0.0019195886355459948 0 -0.00010967556925461949 -0.0024249514653167546 0 -0.0019593315022542203 -0.0092591615378841488 0 -0.00085924015870230091 -0.0095414158544840991 0 -0.0036457113347412281 -0.015807415978973598 0 -0.0029072277321205344 -0.016029554105505335 0 -0.0031907001135327178 -0.016589432770885423 0 -0.0029072277321205344 -0.016029554105505335 0 -0.0031907001135327178 -0.016589432770885423 0 -0.0026299435112239387 -0.016642615915618286 0 -0.0029072277321205344 -0.016029554105505335 0 -0.0026299435112239387 -0.016642615915618286 0 -0.0023525202531209529 -0.016275226639342825 0 -0.0028965550486477996 -0.014539435001713386 0 -0.0030922989451564633 -0.015252092197945133 0 -0.0024242963347382556 -0.015568623201312666 0 -0.0029072277321205344 -0.016029554105505335 0 -0.0024242963347382556 -0.015568623201312666 0 -0.0023525202531209529 -0.016275226639342825 0 -0.0029072277321205344 -0.016029554105505335 0 -0.0030922989451564633 -0.015252092197945133 0 -0.0024242963347382556 -0.015568623201312666 0 -0.0036457113347412281 -0.015807415978973598 0 -0.0029072277321205344 -0.016029554105505335 0 -0.0030922989451564633 -0.015252092197945133 0 -0.0024242963347382556 -0.015568623201312666 0 -0.0023525202531209529 -0.016275226639342825 0 -0.0016051792618839728 -0.016170606062379096 0 -0.0016989772570757463 -0.015227210142163418 0 -0.0024242963347382556 -0.015568623201312666 0 -0.0016051792618839728 -0.016170606062379096 0 -0.0016051792618839728 -0.016170606062379096 0 -0.001498409716103615 -0.01702651854754323 0 -0.0021043275925362423 -0.016914345207254641 0 -0.0026299435112239387 -0.016642615915618286 0 -0.0023525202531209529 -0.016275226639342825 0 -0.0021043275925362423 -0.016914345207254641 0 -0.0023525202531209529 -0.016275226639342825 0 -0.0016051792618839728 -0.016170606062379096 0 -0.0021043275925362423 -0.016914345207254641 0 -0.0016051792618839728 -0.016170606062379096 0 -0.00091967478248471926 -0.016625770297447624 0 -0.001498409716103615 -0.01702651854754323 0 -0.0016051792618839728 -0.016170606062379096 0 -0.00091967478248471926 -0.016625770297447624 0 -0.00050123137276536685 -0.015994732630126556 0 -0.00091967478248471926 -0.016625770297447624 0 -0.001498409716103615 -0.01702651854754323 0 -0.00085573400019821864 -0.017208430997992786 0 -0.0016989772570757463 -0.015227210142163418 0 -0.0016051792618839728 -0.016170606062379096 0 -0.00050123137276536685 -0.015994732630126556 0 -0.0026576419200850868 -0.015205382330940294 0 -0.00092943098306083605 -0.016078185285353212 0 -0.0013532596381566951 -0.015003009955093976 0 -0.0024156248575467301 -0.0155840038158941 0 -0.00067992783152395796 -0.016002713957922295 0 -0.00033741839379428307 -0.00032309102293772736 0 -0.00069117653472352332 -0.00068753849945709213 0 -0.00049744034196250089 -9.0179405999182195e-05 0 -0.00033741839379428307 -0.00032309102293772736 0 -0.0001772243079162899 -0.00035853574434666243 0 -0.00038459917800672048 -0.00057559640529511306 0 -0.00033741839379428307 -0.00032309102293772736 0 -0.00038459917800672048 -0.00057559640529511306 0 -0.00069117653472352332 -0.00068753849945709213 0 -0.00040603483623342078 -0.00026891923976634616 0 -0.00032705159744472474 -0.00050100726282188636 0 -0.00042297913848405899 -0.00014756948271151945 0 -0.00029213831177559666 -0.00025078285539097692 0 -0.0001772243079162899 -0.00035853574434666243 0 -0.00033741839379428307 -0.00032309102293772736 0 -0.00029213831177559666 -0.00025078285539097692 0 -0.00033725098044015483 -0.00018383512412442469 0 -0.00033741839379428307 -0.00032309102293772736 0 -0.00029213831177559666 -0.00025078285539097692 0 -0.0001772243079162899 -0.00035853574434666243 0 5.5041861119911214e-05 -0.00047519744284544294 0 -0.0001772243079162899 -0.00035853574434666243 0 -0.00022633500303592194 -0.00067008717408461845 0 -0.00021048661227221344 -0.00027950189399034977 0 5.5041861119911214e-05 -0.00047519744284544294 0 -0.0001772243079162899 -0.00035853574434666243 0 -0.0001772243079162899 -0.00035853574434666243 0 -0.00022633500303592194 -0.00067008717408461845 0 -0.00038459917800672048 -0.00057559640529511306 0 -0.00022633500303592194 -0.00067008717408461845 0 -0.00038459917800672048 -0.00057559640529511306 0 -0.00055464959546682683 -0.00078365198833959431 0 -0.00055464959546682683 -0.00078365198833959431 0 -0.00064251785175142428 -0.00089044914316771756 0 -0.00062047216596574359 -0.00081359179062482257 0 -0.00055464959546682683 -0.00078365198833959431 0 -0.00062047216596574359 -0.00081359179062482257 0 -0.00069117653472352332 -0.00068753849945709213 0 -0.00038459917800672048 -0.00057559640529511306 0 -0.00055464959546682683 -0.00078365198833959431 0 -0.00069117653472352332 -0.00068753849945709213 0 -0.00075033281694847343 -0.0010293679045601796 0 -0.00063761471967053519 -0.0008609753800586582 0 -0.00064251785175142428 -0.00089044914316771756 0 -0.00075033281694847343 -0.0010293679045601796 0 -0.00081825181533126407 -0.00099522979089561184 0 -0.00063761471967053519 -0.0008609753800586582 0 -0.00063761471967053519 -0.0008609753800586582 0 -0.00064251785175142428 -0.00089044914316771756 0 -0.00062047216596574359 -0.00081359179062482257 0 -0.00063761471967053519 -0.0008609753800586582 0 -0.00046070056133917401 -0.00096601842526889781 0 -0.00062047216596574359 -0.00081359179062482257 0 -0.00062047216596574359 -0.00081359179062482257 0 -0.00047188187224755213 -0.0011602192731800162 0 -0.00067977402622204934 -0.0011704026750062656 0 -0.00046070056133917401 -0.00096601842526889781 0 -0.00062047216596574359 -0.00081359179062482257 0 -0.00047188187224755213 -0.0011602192731800162 0 -0.00032051241911191901 -0.0011877083975591878 0 -0.00046070056133917401 -0.00096601842526889781 0 -0.00047188187224755213 -0.0011602192731800162 0 -0.00062047216596574359 -0.00081359179062482257 0 -0.00069117653472352332 -0.00068753849945709213 0 -0.00067977402622204934 -0.0011704026750062656 0 -0.00069117653472352332 -0.00068753849945709213 0 -0.00067977402622204934 -0.0011704026750062656 0 -0.0011166932318286001 -0.0011879239567668452 0 -0.00079674295128355976 -0.00077081832055791294 0 -0.00032705159744472474 -0.00050100726282188636 0 -0.00024492305482248702 -0.0010969028481656053 0 -0.00032705159744472474 -0.00050100726282188636 0 -0.00067977402622204934 -0.0011704026750062656 0 -0.00085153323053671105 -0.001759484782240364 0 -0.0011166932318286001 -0.0011879239567668452 0 0.00041327271021127787 -0.00062704998994225194 0 9.9165658605761741e-05 -0.00059260207199423134 0 0.00010715711284059186 -0.00017766826443481811 0 -0.00067977402622204934 -0.0011704026750062656 0 -0.00047966932906917529 -0.0015225115010920748 0 -0.00085153323053671105 -0.001759484782240364 0 -0.00032138641118856839 -0.0013591619196223603 0 -0.00047188187224755213 -0.0011602192731800162 0 -0.00047966932906917529 -0.0015225115010920748 0 -0.00032051241911191901 -0.0011877083975591878 0 -0.00032138641118856839 -0.0013591619196223603 0 -0.00047188187224755213 -0.0011602192731800162 0 -0.00047188187224755213 -0.0011602192731800162 0 -0.00067977402622204934 -0.0011704026750062656 0 -0.00047966932906917529 -0.0015225115010920748 0 -0.00042213008513437275 -0.0019195886355459948 0 -0.00085153323053671105 -0.001759484782240364 0 -0.00054960723467587652 -0.002358613335716991 0 -0.00024492305482248702 -0.0010969028481656053 0 -0.00012575761279171044 -0.0025413414342875542 0 -0.00047966932906917529 -0.0015225115010920748 0 -0.00042213008513437275 -0.0019195886355459948 0 -0.00085153323053671105 -0.001759484782240364 0 -0.00010858068238957054 -0.0015650433897402346 0 -0.00047966932906917529 -0.0015225115010920748 0 -0.00042213008513437275 -0.0019195886355459948 0 0.00041327271021127787 -0.00062704998994225194 0 0.00012351534554389646 -0.00079243638101948071 0 0.00034119035622778003 -0.0010568293540145735 0 0.00041327271021127787 -0.00062704998994225194 0 0.00012351534554389646 -0.00079243638101948071 0 9.9165658605761741e-05 -0.00059260207199423134 0 0.00012351534554389646 -0.00079243638101948071 0 9.9165658605761741e-05 -0.00059260207199423134 0 -0.00024645901639626302 -0.00077366031489763793 0 9.9165658605761741e-05 -0.00059260207199423134 0 0.00010715711284059186 -0.00017766826443481811 0 -0.00024645901639626302 -0.00077366031489763793 0 -0.00033741839379428307 -0.00032309102293772736 0 -0.00034812768797768914 -0.00022287315257919115 0 -0.00033725098044015483 -0.00018383512412442469 0 -0.00032705159744472474 -0.00050100726282188636 0 -0.00021080281330465781 -0.00048563642366111559 0 -0.00034812768797768914 -0.00022287315257919115 0 -0.00033725098044015483 -0.00018383512412442469 0 -0.00024481278893987584 -0.00029795096821498416 0 -0.00052128194479168907 -0.00014048782599082214 0 -0.00042297913848405899 -0.00014756948271151945 0 -0.00033725098044015483 -0.00018383512412442469 0 -0.00042297913848405899 -0.00014756948271151945 0 -0.00029213831177559666 -0.00025078285539097692 0 -0.00033725098044015483 -0.00018383512412442469 0 -0.00052128194479168907 -0.00014048782599082214 0 -0.00033725098044015483 -0.00018383512412442469 0 -0.00024481278893987584 -0.00029795096821498416 0 -0.00068162936684876187 -0.00051102918158309348 0 -0.00052128194479168907 -0.00014048782599082214 0 -0.00024481278893987584 -0.00029795096821498416 0 -0.00068162936684876187 -0.00051102918158309348 0 -0.00061410335872640097 -0.0012803247559801687 0 -0.00024481278893987584 -0.00029795096821498416 0 -0.00061410335872640097 -0.0012803247559801687 0 -0.00024645901639626302 -0.00077366031489763793 0 -0.00036773592622390275 -0.0014530914393592149 0 -0.00062609549906984341 -0.0012822158643806126 0 -0.00021080281330465781 -0.00048563642366111559 0 -0.00024645901639626302 -0.00077366031489763793 0 -7.9731518809011227e-05 -0.0013851931900714931 0 -0.00036773592622390275 -0.0014530914393592149 0 -0.00024645901639626302 -0.00077366031489763793 0 7.5295933415001802e-05 -0.0010731723201452997 0 -7.9731518809011227e-05 -0.0013851931900714931 0 0.00012351534554389646 -0.00079243638101948071 0 7.5295933415001802e-05 -0.0010731723201452997 0 0.00034119035622778003 -0.0010568293540145735 0 0.00012351534554389646 -0.00079243638101948071 0 -0.00024645901639626302 -0.00077366031489763793 0 7.5295933415001802e-05 -0.0010731723201452997 0 7.5295933415001802e-05 -0.0010731723201452997 0 -7.9731518809011227e-05 -0.0013851931900714931 0 0.00028427924492639494 -0.0013899104351183882 0 -7.9731518809011227e-05 -0.0013851931900714931 0 -0.00016751784591964496 -0.0017274691061554164 0 0.00014690219423452351 -0.0016919553828155451 0 -7.9731518809011227e-05 -0.0013851931900714931 0 0.00014690219423452351 -0.0016919553828155451 0 0.00028427924492639494 -0.0013899104351183882 0 -7.9731518809011227e-05 -0.0013851931900714931 0 -0.00036773592622390275 -0.0014530914393592149 0 -0.00016751784591964496 -0.0017274691061554164 0 -0.00061410335872640097 -0.0012803247559801687 0 -0.00067916170821939151 -0.0016042550129407435 0 -0.00036773592622390275 -0.0014530914393592149 0 -0.00067916170821939151 -0.0016042550129407435 0 -0.00044186138979702836 -0.0017827826682587158 0 -0.00059879470627581869 -0.0019517020456475231 0 -0.00067916170821939151 -0.0016042550129407435 0 -0.00036773592622390275 -0.0014530914393592149 0 -0.00044186138979702836 -0.0017827826682587158 0 -0.00044186138979702836 -0.0017827826682587158 0 -0.00059879470627581869 -0.0019517020456475231 0 -0.00028951531993222737 -0.0020858914367870153 0 -0.00044186138979702836 -0.0017827826682587158 0 -0.00016751784591964496 -0.0017274691061554164 0 -0.00028951531993222737 -0.0020858914367870153 0 -0.00036773592622390275 -0.0014530914393592149 0 -0.00044186138979702836 -0.0017827826682587158 0 -0.00016751784591964496 -0.0017274691061554164 0 -0.00016751784591964496 -0.0017274691061554164 0 0.00014690219423452351 -0.0016919553828155451 0 4.8545231337945023e-06 -0.0019902116628012769 0 0.00014690219423452351 -0.0016919553828155451 0 4.8545231337945023e-06 -0.0019902116628012769 0 0.00033781884191136401 -0.0020517808347777682 0 -0.00016751784591964496 -0.0017274691061554164 0 4.8545231337945023e-06 -0.0019902116628012769 0 -0.00028951531993222737 -0.0020858914367870153 0 4.8545231337945023e-06 -0.0019902116628012769 0 4.0005320481873177e-05 -0.0023181890050654316 0 -0.00028951531993222737 -0.0020858914367870153 0 4.8545231337945023e-06 -0.0019902116628012769 0 4.0005320481873177e-05 -0.0023181890050654316 0 0.00033781884191136401 -0.0020517808347777682 0 4.0005320481873177e-05 -0.0023181890050654316 0 0.00033670853276758278 -0.0024527049500762386 0 8.7922895419295557e-05 -0.0026589949727208561 0 4.0005320481873177e-05 -0.0023181890050654316 0 -0.00028951531993222737 -0.0020858914367870153 0 -0.00021347272480908166 -0.0025247457644190815 0 4.0005320481873177e-05 -0.0023181890050654316 0 -0.00021347272480908166 -0.0025247457644190815 0 8.7922895419295557e-05 -0.0026589949727208561 0 -0.0005708995085835952 -0.002258181546377384 0 -0.00028951531993222737 -0.0020858914367870153 0 -0.00021347272480908166 -0.0025247457644190815 0 -0.0005708995085835952 -0.002258181546377384 0 -0.00046299880526462842 -0.0025967476630429937 0 -0.00021347272480908166 -0.0025247457644190815 0 -0.00059879470627581869 -0.0019517020456475231 0 -0.0005708995085835952 -0.002258181546377384 0 -0.00028951531993222737 -0.0020858914367870153 0 0.0008092834291897052 -0.0023368207039520419 0 0.00063602680476111955 -0.0025554537832172355 0 0.0010680142873353217 -0.0025983238475688229 0 0.0008092834291897052 -0.0023368207039520419 0 0.0011553976308700759 -0.0021599392186984917 0 0.001126129889277233 -0.0026833262300954628 0 0.0008092834291897052 -0.0023368207039520419 0 0.00055513612200367107 -0.0022828611267237948 0 0.00075800364847455469 -0.0019547862481176493 0 -0.00013398561217052826 -0.002483874989748675 0 -5.7303104063709164e-06 -0.0078334803072956944 0 0.0008092834291897052 -0.0023368207039520419 0 0.00063602680476111955 -0.0025554537832172355 0 0.00055513612200367107 -0.0022828611267237948 0 0.00063602680476111955 -0.0025554537832172355 0 0.00033670853276758278 -0.0024527049500762386 0 0.00055513612200367107 -0.0022828611267237948 0 4.0005320481873177e-05 -0.0023181890050654316 0 0.00033670853276758278 -0.0024527049500762386 0 0.00033781884191136401 -0.0020517808347777682 0 0.00033670853276758278 -0.0024527049500762386 0 0.00055513612200367107 -0.0022828611267237948 0 0.00033781884191136401 -0.0020517808347777682 0 0.00033781884191136401 -0.0020517808347777682 0 0.00075800364847455469 -0.0019547862481176493 0 0.00049451048655111264 -0.0016492763568033831 0 0.00055513612200367107 -0.0022828611267237948 0 0.00033781884191136401 -0.0020517808347777682 0 0.00075800364847455469 -0.0019547862481176493 0 0.00014690219423452351 -0.0016919553828155451 0 0.00033781884191136401 -0.0020517808347777682 0 0.00049451048655111264 -0.0016492763568033831 0 0.00075800364847455469 -0.0019547862481176493 0 0.0011837151339310272 -0.001703002713623185 0 0.0011553976308700759 -0.0021599392186984917 0 0.00075800364847455469 -0.0019547862481176493 0 0.00075696835667787897 -0.0015409303811756796 0 0.00049451048655111264 -0.0016492763568033831 0 0.0008092834291897052 -0.0023368207039520419 0 0.00075800364847455469 -0.0019547862481176493 0 0.0011553976308700759 -0.0021599392186984917 0 0.00075800364847455469 -0.0019547862481176493 0 0.00075696835667787897 -0.0015409303811756796 0 0.0011837151339310272 -0.001703002713623185 0 0.00075696835667787897 -0.0015409303811756796 0 0.00079315950083407125 -0.0010968496604760191 0 0.0011837151339310272 -0.001703002713623185 0 0.00075696835667787897 -0.0015409303811756796 0 0.00056284095937478632 -0.001300222203723468 0 0.00079315950083407125 -0.0010968496604760191 0 -0.00012575761279171044 -0.0025413414342875542 0 -0.00037605855242213231 -0.0074284045217526545 0 0.00075696835667787897 -0.0015409303811756796 0 0.00049451048655111264 -0.0016492763568033831 0 0.00056284095937478632 -0.001300222203723468 0 0.00014690219423452351 -0.0016919553828155451 0 0.00049451048655111264 -0.0016492763568033831 0 0.00028427924492639494 -0.0013899104351183882 0 0.00049451048655111264 -0.0016492763568033831 0 0.00056284095937478632 -0.001300222203723468 0 0.00028427924492639494 -0.0013899104351183882 0 0.00056284095937478632 -0.001300222203723468 0 0.00034119035622778003 -0.0010568293540145735 0 0.00079315950083407125 -0.0010968496604760191 0 0.00041327271021127787 -0.00062704998994225194 0 0.00034119035622778003 -0.0010568293540145735 0 0.00071646420593508234 -0.0010927812621182515 0 0.00063164173820690376 -0.0011456344004330968 0 -0.00012575761279171044 -0.0025413414342875542 0 7.5295933415001802e-05 -0.0010731723201452997 0 0.00028427924492639494 -0.0013899104351183882 0 0.00034119035622778003 -0.0010568293540145735 0 0.00056284095937478632 -0.001300222203723468 0 0.00028427924492639494 -0.0013899104351183882 0 0.00034119035622778003 -0.0010568293540145735 0 -0.00042213008513437275 -0.0019195886355459948 0 -0.00054960723467587652 -0.002358613335716991 0 -0.00010967556925461949 -0.0024249514653167546 0 -0.00012575761279171044 -0.0025413414342875542 0 -0.00085924015870230091 -0.0095414158544840991 0 -0.00085924015870230091 -0.0095414158544840991 0 -0.0017304163971586764 -0.014722120336431504 0 -0.0011817374544328704 -0.011541275333233609 0 -0.00041298000697159053 -0.01163239117698703 0 -0.00070687828826316841 -0.011992913577740289 0 -0.0031907001135327178 -0.016589432770885423 0 -0.003661645358385362 -0.017234825619438301 0 -0.0025970526386798194 -0.017375019585819815 0 -0.0031907001135327178 -0.016589432770885423 0 -0.0026299435112239387 -0.016642615915618286 0 -0.0025970526386798194 -0.017375019585819815 0 -0.00041298000697159053 -0.01163239117698703 0 -0.00070687828826316841 -0.011992913577740289 0 -0.00025306632240166795 -0.012210396108373881 0 -0.00070687828826316841 -0.011992913577740289 0 -0.00025306632240166795 -0.012210396108373881 0 -0.00076715212477224592 -0.012401264539035188 0 -0.00070687828826316841 -0.011992913577740289 0 -0.00099298502688005812 -0.012140448343439214 0 -0.00076715212477224592 -0.012401264539035188 0 -0.00099298502688005812 -0.012140448343439214 0 -0.0011847986193582768 -0.01231612361577924 0 -0.00076715212477224592 -0.012401264539035188 0 -0.0011817374544328704 -0.011541275333233609 0 -0.00070687828826316841 -0.011992913577740289 0 -0.00099298502688005812 -0.012140448343439214 0 -0.00089172125237447207 -0.0059398178142689318 0 2.7084919529393519e-05 -0.0060214718722204717 0 -6.566159545153749e-05 -0.007198368167109892 0 -0.00085924015870230091 -0.0095414158544840991 0 -0.00037605855242213231 -0.0074284045217526545 0 -0.0011817374544328704 -0.011541275333233609 0 -0.00099298502688005812 -0.012140448343439214 0 -0.0012414710613813374 -0.012224257404604038 0 -0.00099298502688005812 -0.012140448343439214 0 -0.0012414710613813374 -0.012224257404604038 0 -0.0011847986193582768 -0.01231612361577924 0 -0.00037605855242213231 -0.0074284045217526545 0 -1.2550459392443677e-05 -0.0085468424480126086 0 -0.00083128590653383169 -0.016048455651385626 0 0.00032798308564946458 -0.018379739764823329 0 -0.0013501550506089272 -0.017400494343598003 0 -0.00083128590653383169 -0.016048455651385626 0 -0.001498409716103615 -0.01702651854754323 0 -0.001554773673507277 -0.017626563337648681 0 -0.00085573400019821864 -0.017208430997992786 0 -0.0017304163971586764 -0.014722120336431504 0 -0.00083128590653383169 -0.016048455651385626 0 -0.0025970526386798194 -0.017375019585819815 0 -0.0015481467453148786 -0.017500032553323538 0 -0.0021043275925362423 -0.016914345207254641 0 -0.001498409716103615 -0.01702651854754323 0 -0.0015481467453148786 -0.017500032553323538 0 -0.0021043275925362423 -0.016914345207254641 0 -0.0026299435112239387 -0.016642615915618286 0 -0.0025970526386798194 -0.017375019585819815 0 -0.0021043275925362423 -0.016914345207254641 0 0.0003564265406893709 -0.011723202573494421 0 -0.00025306632240166795 -0.012210396108373881 0 0.00029211100958738992 -0.012699852769810472 0 -0.00041298000697159053 -0.01163239117698703 0 0.0003564265406893709 -0.011723202573494421 0 -0.00025306632240166795 -0.012210396108373881 0 -0.00083128590653383169 -0.016048455651385626 0 0.00047037795504742701 -0.015646243529059647 0 0.00031975779189755848 -0.01845959175846295 0 0.00029464429725531432 -0.019067014639689562 0 0.00060599150339111466 -0.018848217161018192 0 0.00031975779189755848 -0.01845959175846295 0 0.00060599150339111466 -0.018848217161018192 0 0.00083754043282026954 -0.018514275180041503 0 0.00029464429725531432 -0.019067014639689562 0 0.00071908969340149466 -0.019434013746746328 0 0.00060599150339111466 -0.018848217161018192 0 -0.00025306632240166795 -0.012210396108373881 0 0.00029211100958738992 -0.012699852769810472 0 -0.00049443157090383401 -0.012766346601909728 0 0.00029211100958738992 -0.012699852769810472 0 -0.00027846808509912309 -0.01334568220711166 0 0.00024279211746140711 -0.013774379203808366 0 0.00047037795504742701 -0.015646243529059647 0 0.00018967446597647477 -0.016819881536874928 0 0.00029211100958738992 -0.012699852769810472 0 -0.00049443157090383401 -0.012766346601909728 0 -0.00027846808509912309 -0.01334568220711166 0 0.00029464429725531432 -0.019067014639689562 0 0.0003346528384585198 -0.019672524633739683 0 0.00071908969340149466 -0.019434013746746328 0 -0.00037605855242213231 -0.0074284045217526545 0 -8.1813495149721827e-05 -0.007451296722185057 0 -0.0012482063945055931 -0.012211867468761841 0 -0.0013149351284110807 -0.012813171225221506 0 -0.0011847986193582768 -0.01231612361577924 0 -0.00092793418131872289 -0.012689782091296252 0 -0.0013149351284110807 -0.012813171225221506 0 -0.0011847986193582768 -0.01231612361577924 0 -0.00092793418131872289 -0.012689782091296252 0 -0.0011847986193582768 -0.01231612361577924 0 -0.00076715212477224592 -0.012401264539035188 0 -0.00025306632240166795 -0.012210396108373881 0 -0.00076715212477224592 -0.012401264539035188 0 -0.00049443157090383401 -0.012766346601909728 0 -0.00092793418131872289 -0.012689782091296252 0 -0.00049443157090383401 -0.012766346601909728 0 -0.00084213432994589246 -0.013198092765372833 0 -0.00092793418131872289 -0.012689782091296252 0 -0.00076715212477224592 -0.012401264539035188 0 -0.00049443157090383401 -0.012766346601909728 0 -0.00049443157090383401 -0.012766346601909728 0 -0.00027846808509912309 -0.01334568220711166 0 -0.00084213432994589246 -0.013198092765372833 0 -0.0013149351284110807 -0.012813171225221506 0 -0.00084213432994589246 -0.013198092765372833 0 -0.0013840392874482426 -0.013433434071180295 0 -8.1813495149721827e-05 -0.007451296722185057 0 -5.7303104063709164e-06 -0.0078334803072956944 0 -0.00092793418131872289 -0.012689782091296252 0 -0.0013149351284110807 -0.012813171225221506 0 -0.00084213432994589246 -0.013198092765372833 0 -5.7303104063709164e-06 -0.0078334803072956944 0 -0.00034949408789967528 -0.013540143912254509 0 -5.7303104063709164e-06 -0.0078334803072956944 0 -0.00034475629583155662 -0.0080292042928916136 0 -0.0015514023710190429 -0.010943542756417939 0 0.00017687007245675848 -0.012538079263406679 0 -0.0017108517994237134 -0.013300264939183917 0 -0.00084213432994589246 -0.013198092765372833 0 -0.0013840392874482426 -0.013433434071180295 0 -0.00064761124420500363 -0.014179798809713767 0 -0.00027846808509912309 -0.01334568220711166 0 -0.00084213432994589246 -0.013198092765372833 0 -0.00064761124420500363 -0.014179798809713767 0 0.00017687007245675848 -0.012538079263406679 0 0.0021168113629812069 -0.01413055745491933 0 -7.4081519375368625e-05 -0.013893312830835149 0 0.00017687007245675848 -0.012538079263406679 0 -0.0017108517994237134 -0.013300264939183917 0 -7.4081519375368625e-05 -0.013893312830835149 0 0.0003346528384585198 -0.019672524633739683 0 0.00069240383647735241 -0.019966636550034417 0 0.00071908969340149466 -0.019434013746746328 0 -0.00027846808509912309 -0.01334568220711166 0 -0.00064761124420500363 -0.014179798809713767 0 0.00024279211746140711 -0.013774379203808366 0 -0.00064761124420500363 -0.014179798809713767 0 0.00024279211746140711 -0.013774379203808366 0 0.00015197098511323542 -0.014946564490270625 0 -0.00034949408789967528 -0.013540143912254509 0 0.00087347398653001701 -0.017361141836091828 0 0.00018967446597647477 -0.016819881536874928 0 0.00087347398653001701 -0.017361141836091828 0 0.00069240383647735241 -0.019966636550034417 0 0.0007807501387121638 -0.020232795014927613 0 0.00044821153054942482 -0.020188752062119428 0 0.0003346528384585198 -0.019672524633739683 0 0.00069240383647735241 -0.019966636550034417 0 0.00044821153054942482 -0.020188752062119428 0 0.00087347398653001701 -0.017361141836091828 0 0.0011979860876824007 -0.021222061495703767 0 0.0013837288535917651 -0.020488471664316929 0 0.0012138344432881774 -0.020153483144808353 0 0.00095282954112844965 -0.020230010230084187 0 0.0007807501387121638 -0.020232795014927613 0 0.00044821153054942482 -0.020188752062119428 0 0.00095282954112844965 -0.020230010230084187 0 0.0021168113629812069 -0.01413055745491933 0 0.0019429313764999516 -0.016721976849847681 0 0.00050303091178825667 -0.015319070008672072 0 0.00087347398653001701 -0.017361141836091828 0 0.0017356880184671401 -0.01837577529460277 0 0.0013837288535917651 -0.020488471664316929 0 0.0014268394425731978 -0.020050113142397324 0 0.0012138344432881774 -0.020153483144808353 0 0.00095282954112844965 -0.020230010230084187 0 0.0011051782041217781 -0.019949315421759602 0 0.00096338086212193765 -0.019835933268166205 0 0.0014268394425731978 -0.020050113142397324 0 0.0012138344432881774 -0.020153483144808353 0 0.0011051782041217781 -0.019949315421759602 0 0.0012138344432881774 -0.020153483144808353 0 0.00095282954112844965 -0.020230010230084187 0 0.0011051782041217781 -0.019949315421759602 0 -0.0017108517994237134 -0.013300264939183917 0 -0.0011163585165426197 -0.014382941684308983 0 -7.4081519375368625e-05 -0.013893312830835149 0 -0.0017108517994237134 -0.013300264939183917 0 -0.0011163585165426197 -0.014382941684308983 0 -0.0013762899183687126 -0.014694080102260003 0 -0.0011163585165426197 -0.014382941684308983 0 0.00050303091178825667 -0.015319070008672072 0 -7.4081519375368625e-05 -0.013893312830835149 0 0.0021168113629812069 -0.01413055745491933 0 0.00050303091178825667 -0.015319070008672072 0 -7.4081519375368625e-05 -0.013893312830835149 0 0.0019429313764999516 -0.016721976849847681 0 0.00050303091178825667 -0.015319070008672072 0 -0.00049730135409747651 -0.017159192255444381 0 -0.0011163585165426197 -0.014382941684308983 0 0.00050303091178825667 -0.015319070008672072 0 -0.00049730135409747651 -0.017159192255444381 0 -0.0011404532166955121 -0.014496039396922511 0 -0.00077453331666571762 -0.015974530023961712 0 -0.001153745090461905 -0.014776558228208499 0 -0.0013762899183687126 -0.014694080102260003 0 -0.001184680815878578 -0.014735516557231482 0 -0.0011163585165426197 -0.014382941684308983 0 -0.001153745090461905 -0.014776558228208499 0 -0.0013762899183687126 -0.014694080102260003 0 0.00093257618723295045 -0.0038891602521470567 0 0.0005639119749367914 -0.003779439427086802 0 0.000446542862387078 -0.0041361466100560858 0 0.00093257618723295045 -0.0038891602521470567 0 0.000446542862387078 -0.0041361466100560858 0 0.00087145669171180085 -0.0044888725533298581 0 -0.00023186279341603269 -0.0092791209889559311 0 -0.00016143446416904967 -0.0097007986772199278 0 -0.00034475629583155662 -0.0080292042928916136 0 -0.00023186279341603269 -0.0092791209889559311 0 0.0010053753009700941 -0.0032488475085858236 0 0.00093257618723295045 -0.0038891602521470567 0 0.00073670404862203589 -0.0035071143804230576 0 0.00093257618723295045 -0.0038891602521470567 0 0.00073670404862203589 -0.0035071143804230576 0 0.0005639119749367914 -0.003779439427086802 0 0.00073670404862203589 -0.0035071143804230576 0 0.00047955265830807527 -0.003442592638107071 0 0.0005639119749367914 -0.003779439427086802 0 0.00047955265830807527 -0.003442592638107071 0 0.00020214681065513522 -0.0037218337607314487 0 0.00019917491507276191 -0.0033254318845215274 0 0.00047955265830807527 -0.003442592638107071 0 0.0005639119749367914 -0.003779439427086802 0 0.00020214681065513522 -0.0037218337607314487 0 0.0005639119749367914 -0.003779439427086802 0 0.00020214681065513522 -0.0037218337607314487 0 0.000446542862387078 -0.0041361466100560858 0 0.00020214681065513522 -0.0037218337607314487 0 0.000446542862387078 -0.0041361466100560858 0 9.391892262115419e-05 -0.0040449812022179277 0 0.000446542862387078 -0.0041361466100560858 0 9.391892262115419e-05 -0.0040449812022179277 0 9.7331777180592811e-05 -0.0043524201465627455 0 9.391892262115419e-05 -0.0040449812022179277 0 -0.00015156976548349023 -0.0038365622613455324 0 -0.00012703045352945475 -0.0041668644812393315 0 0.00020214681065513522 -0.0037218337607314487 0 9.391892262115419e-05 -0.0040449812022179277 0 -0.00015156976548349023 -0.0038365622613455324 0 -0.0014016436524420337 0.00059041139403782895 0 -0.00094335347496138746 -0.00097978369014065786 0 -0.00015156976548349023 -0.0038365622613455324 0 -0.00048577007430122588 -0.0041056086227120774 0 -0.00037620846896435189 -0.0035858664110091192 0 -0.00015156976548349023 -0.0038365622613455324 0 -0.00048577007430122588 -0.0041056086227120774 0 -0.00012703045352945475 -0.0041668644812393315 0 -0.00015156976548349023 -0.0038365622613455324 0 -0.00037620846896435189 -0.0035858664110091192 0 -0.00014350711704106591 -0.003379999874260054 0 -0.00064930191634703755 -0.0034090921288440737 0 -0.00048577007430122588 -0.0041056086227120774 0 -0.00037620846896435189 -0.0035858664110091192 0 -0.00037620846896435189 -0.0035858664110091192 0 -0.00014350711704106591 -0.003379999874260054 0 -0.0004462490791856607 -0.0031862732880714689 0 -0.00064930191634703755 -0.0034090921288440737 0 -0.00037620846896435189 -0.0035858664110091192 0 -0.0004462490791856607 -0.0031862732880714689 0 0.00020214681065513522 -0.0037218337607314487 0 -0.00015156976548349023 -0.0038365622613455324 0 -0.00014350711704106591 -0.003379999874260054 0 0.00020214681065513522 -0.0037218337607314487 0 -0.00014350711704106591 -0.003379999874260054 0 0.00019917491507276191 -0.0033254318845215274 0 -0.00014350711704106591 -0.003379999874260054 0 0.00012566001328908328 -0.0029997091811936201 0 0.00019917491507276191 -0.0033254318845215274 0 -0.00014350711704106591 -0.003379999874260054 0 0.00012566001328908328 -0.0029997091811936201 0 -0.00027450088073061176 -0.002914905398640282 0 -0.00014350711704106591 -0.003379999874260054 0 -0.0004462490791856607 -0.0031862732880714689 0 -0.00027450088073061176 -0.002914905398640282 0 -0.00079559258295331498 -0.0026881352176761071 0 -0.00064930191634703755 -0.0034090921288440737 0 -0.0004462490791856607 -0.0031862732880714689 0 -0.00079559258295331498 -0.0026881352176761071 0 -0.0004462490791856607 -0.0031862732880714689 0 -0.00027450088073061176 -0.002914905398640282 0 -0.00079559258295331498 -0.0026881352176761071 0 -0.00027450088073061176 -0.002914905398640282 0 -0.00046299880526462842 -0.0025967476630429937 0 -0.00079559258295331498 -0.0026881352176761071 0 -0.0005708995085835952 -0.002258181546377384 0 -0.00046299880526462842 -0.0025967476630429937 0 -0.00027450088073061176 -0.002914905398640282 0 -0.00046299880526462842 -0.0025967476630429937 0 -0.00021347272480908166 -0.0025247457644190815 0 0.00012566001328908328 -0.0029997091811936201 0 -0.00027450088073061176 -0.002914905398640282 0 8.7922895419295557e-05 -0.0026589949727208561 0 -0.00027450088073061176 -0.002914905398640282 0 -0.00021347272480908166 -0.0025247457644190815 0 8.7922895419295557e-05 -0.0026589949727208561 0 0.00033670853276758278 -0.0024527049500762386 0 8.7922895419295557e-05 -0.0026589949727208561 0 0.00037544320012595041 -0.0027822521741807634 0 0.00012566001328908328 -0.0029997091811936201 0 0.00037544320012595041 -0.0027822521741807634 0 0.00041396004295249264 -0.0030961639064652313 0 0.00012566001328908328 -0.0029997091811936201 0 8.7922895419295557e-05 -0.0026589949727208561 0 0.00037544320012595041 -0.0027822521741807634 0 0.00037544320012595041 -0.0027822521741807634 0 0.00066895169862580324 -0.00286342318755983 0 0.00041396004295249264 -0.0030961639064652313 0 0.00063602680476111955 -0.0025554537832172355 0 0.00037544320012595041 -0.0027822521741807634 0 0.00066895169862580324 -0.00286342318755983 0 0.00063602680476111955 -0.0025554537832172355 0 0.00033670853276758278 -0.0024527049500762386 0 0.00037544320012595041 -0.0027822521741807634 0 0.0010680142873353217 -0.0025983238475688229 0 0.0010053753009700941 -0.0032488475085858236 0 0.00066895169862580324 -0.00286342318755983 0 0.00063602680476111955 -0.0025554537832172355 0 0.0010680142873353217 -0.0025983238475688229 0 0.00066895169862580324 -0.00286342318755983 0 0.0010053753009700941 -0.0032488475085858236 0 0.00066895169862580324 -0.00286342318755983 0 0.0006608228538199796 -0.0032323526895321722 0 0.0010053753009700941 -0.0032488475085858236 0 0.00073670404862203589 -0.0035071143804230576 0 0.0006608228538199796 -0.0032323526895321722 0 0.00073670404862203589 -0.0035071143804230576 0 0.00047955265830807527 -0.003442592638107071 0 0.0006608228538199796 -0.0032323526895321722 0 0.00047955265830807527 -0.003442592638107071 0 0.0006608228538199796 -0.0032323526895321722 0 0.00041396004295249264 -0.0030961639064652313 0 0.00047955265830807527 -0.003442592638107071 0 0.00019917491507276191 -0.0033254318845215274 0 0.00041396004295249264 -0.0030961639064652313 0 0.00012566001328908328 -0.0029997091811936201 0 0.00019917491507276191 -0.0033254318845215274 0 0.00041396004295249264 -0.0030961639064652313 0 0.00066895169862580324 -0.00286342318755983 0 0.0006608228538199796 -0.0032323526895321722 0 0.00041396004295249264 -0.0030961639064652313 0 0.0023100018631366541 -0.020324123250885666 0 0.003255570638192283 -0.019914634316957863 0 0.0026942632137143051 -0.020883234261759004 0 0.0023100018631366541 -0.020324123250885666 0 0.003006900129616697 -0.020262608624941975 0 0.0026755852337804727 -0.019631945718954318 0 0.0021798915901563962 -0.020510590515232408 0 0.003511029286433032 -0.01920489762197608 0 0.0023100018631366541 -0.020324123250885666 0 0.0020594724003570241 -0.019949330732332998 0 0.0017673237581313534 -0.020337997853960746 0 0.0020594724003570241 -0.019949330732332998 0 0.0019087716185262615 -0.019474902523935658 0 0.0026755852337804727 -0.019631945718954318 0 0.0023100018631366541 -0.020324123250885666 0 0.0020594724003570241 -0.019949330732332998 0 0.0026755852337804727 -0.019631945718954318 0 0.003006900129616697 -0.020262608624941975 0 0.0026755852337804727 -0.019631945718954318 0 0.0033917915801431379 -0.019661804875489932 0 0.003006900129616697 -0.020262608624941975 0 0.0033917915801431379 -0.019661804875489932 0 0.0036324516532464241 -0.020187196536619635 0 0.0017673753163598991 -0.031992383184107423 0 0.0014249891370345606 -0.032071420998189548 0 0.0020684866055876447 -0.033336514104227243 0 0.0020831248541472373 -0.024481692774372111 0 0.0034469161479494847 -0.027766784156052153 0 0.003511029286433032 -0.01920489762197608 0 0.0034469161479494847 -0.027766784156052153 0 0.003255570638192283 -0.019914634316957863 0 0.0039223254379326311 -0.02074227371778083 0 0.0045501212348182706 -0.019548144057012322 0 0.0026942632137143051 -0.020883234261759004 0 0.0039223254379326311 -0.02074227371778083 0 0.0034026063194454318 -0.021630670793150265 0 0.003255570638192283 -0.019914634316957863 0 0.0026942632137143051 -0.020883234261759004 0 0.0039223254379326311 -0.02074227371778083 0 0.0034026063194454318 -0.021630670793150265 0 0.00465903330250213 -0.021659976909163211 0 0.0041484248982039482 -0.022912696560324963 0 0.0039223254379326311 -0.02074227371778083 0 0.0034026063194454318 -0.021630670793150265 0 0.00465903330250213 -0.021659976909163211 0 0.0026942632137143051 -0.020883234261759004 0 0.0034026063194454318 -0.021630670793150265 0 0.0021888851908093872 -0.02157935267422521 0 0.0026942632137143051 -0.020883234261759004 0 0.0017853002865547707 -0.02094118749445624 0 0.0021888851908093872 -0.02157935267422521 0 0.0023100018631366541 -0.020324123250885666 0 0.0026942632137143051 -0.020883234261759004 0 0.0017853002865547707 -0.02094118749445624 0 0.0023100018631366541 -0.020324123250885666 0 0.0017853002865547707 -0.02094118749445624 0 0.0017673237581313534 -0.020337997853960746 0 0.0017853002865547707 -0.02094118749445624 0 0.0017940130100375935 -0.0212813333823198 0 0.0021888851908093872 -0.02157935267422521 0 0.0017853002865547707 -0.02094118749445624 0 0.0015612222319471437 -0.02112335297391741 0 0.0017940130100375935 -0.0212813333823198 0 0.0017853002865547707 -0.02094118749445624 0 0.0014721192000761124 -0.020929447601189685 0 0.0015612222319471437 -0.02112335297391741 0 0.0017853002865547707 -0.02094118749445624 0 0.0014721192000761124 -0.020929447601189685 0 0.0014778379747240624 -0.020596200185799059 0 0.0014721192000761124 -0.020929447601189685 0 0.0013479391182091307 -0.020759121795658406 0 0.0013191853942605717 -0.020950838291495161 0 0.0014721192000761124 -0.020929447601189685 0 0.0013479391182091307 -0.020759121795658406 0 0.0014778379747240624 -0.020596200185799059 0 0.0013479391182091307 -0.020759121795658406 0 0.0012249307580881113 -0.020776259600099451 0 0.0011878381107780158 -0.020489834708655813 0 0.0013479391182091307 -0.020759121795658406 0 0.0012249307580881113 -0.020776259600099451 0 0.0013191853942605717 -0.020950838291495161 0 0.0014778379747240624 -0.020596200185799059 0 0.0011878381107780158 -0.020489834708655813 0 0.0014156589717863077 -0.020255782087669823 0 0.0013479391182091307 -0.020759121795658406 0 0.0014778379747240624 -0.020596200185799059 0 0.0011878381107780158 -0.020489834708655813 0 0.0011878381107780158 -0.020489834708655813 0 0.0011632679839117055 -0.020155377462083093 0 0.0014156589717863077 -0.020255782087669823 0 0.0014778379747240624 -0.020596200185799059 0 0.0017673237581313534 -0.020337997853960746 0 0.0014156589717863077 -0.020255782087669823 0 0.0017853002865547707 -0.02094118749445624 0 0.0014778379747240624 -0.020596200185799059 0 0.0017673237581313534 -0.020337997853960746 0 0.0011114471661662919 -0.020714393571861583 0 0.00087541328692015237 -0.020393202810291118 0 0.0010968938530101177 -0.020909140443376779 0 0.000901401009779824 -0.020377227854435777 0 0.0010457869372497651 -0.020366346260846768 0 0.00095282954112844965 -0.020230010230084187 0 0.00087541328692015237 -0.020393202810291118 0 0.00096338086212193765 -0.019835933268166205 0 0.0011114471661662919 -0.020714393571861583 0 0.0012249307580881113 -0.020776259600099451 0 0.0011878381107780158 -0.020489834708655813 0 0.0011114471661662919 -0.020714393571861583 0 0.0011878381107780158 -0.020489834708655813 0 0.00087541328692015237 -0.020393202810291118 0 0.0011114471661662919 -0.020714393571861583 0 0.0012249307580881113 -0.020776259600099451 0 0.0011884342659925359 -0.020898933775749987 0 0.0011878381107780158 -0.020489834708655813 0 0.00087541328692015237 -0.020393202810291118 0 0.00093244723113557681 -0.02017867654062128 0 0.0011878381107780158 -0.020489834708655813 0 0.00093244723113557681 -0.02017867654062128 0 0.0011632679839117055 -0.020155377462083093 0 0.0007807501387121638 -0.020232795014927613 0 0.00095282954112844965 -0.020230010230084187 0 0.00087541328692015237 -0.020393202810291118 0 0.0007807501387121638 -0.020232795014927613 0 0.00087541328692015237 -0.020393202810291118 0 0.00093244723113557681 -0.02017867654062128 0 0.00069240383647735241 -0.019966636550034417 0 0.00093244723113557681 -0.02017867654062128 0 0.00098705676522314206 -0.019868619690667184 0 0.00069240383647735241 -0.019966636550034417 0 0.0007807501387121638 -0.020232795014927613 0 0.00093244723113557681 -0.02017867654062128 0 0.0011632679839117055 -0.020155377462083093 0 0.00098705676522314206 -0.019868619690667184 0 0.0013061283426087217 -0.019908003331493663 0 0.00093244723113557681 -0.02017867654062128 0 0.0011632679839117055 -0.020155377462083093 0 0.00098705676522314206 -0.019868619690667184 0 0.00098705676522314206 -0.019868619690667184 0 0.00071908969340149466 -0.019434013746746328 0 0.0011491757037864062 -0.019525319340699714 0 0.00098705676522314206 -0.019868619690667184 0 0.0013061283426087217 -0.019908003331493663 0 0.0011491757037864062 -0.019525319340699714 0 0.00069240383647735241 -0.019966636550034417 0 0.00098705676522314206 -0.019868619690667184 0 0.00071908969340149466 -0.019434013746746328 0 0.0020594724003570241 -0.019949330732332998 0 0.0017673237581313534 -0.020337997853960746 0 0.0016587822900020891 -0.019963781860110719 0 0.0017673237581313534 -0.020337997853960746 0 0.0014156589717863077 -0.020255782087669823 0 0.0016587822900020891 -0.019963781860110719 0 0.0014156589717863077 -0.020255782087669823 0 0.0013061283426087217 -0.019908003331493663 0 0.0016587822900020891 -0.019963781860110719 0 0.0011632679839117055 -0.020155377462083093 0 0.0014156589717863077 -0.020255782087669823 0 0.0013061283426087217 -0.019908003331493663 0 0.0013061283426087217 -0.019908003331493663 0 0.001503412497087698 -0.019602011576090365 0 0.0011491757037864062 -0.019525319340699714 0 0.0013061283426087217 -0.019908003331493663 0 0.0016587822900020891 -0.019963781860110719 0 0.001503412497087698 -0.019602011576090365 0 0.0020594724003570241 -0.019949330732332998 0 0.0016587822900020891 -0.019963781860110719 0 0.0019087716185262615 -0.019474902523935658 0 0.0016587822900020891 -0.019963781860110719 0 0.0019087716185262615 -0.019474902523935658 0 0.001503412497087698 -0.019602011576090365 0 0.0019087716185262615 -0.019474902523935658 0 0.001503412497087698 -0.019602011576090365 0 0.0014225998519477798 -0.019179140213548173 0 0.001503412497087698 -0.019602011576090365 0 0.0014225998519477798 -0.019179140213548173 0 0.0011491757037864062 -0.019525319340699714 0 0.0014225998519477798 -0.019179140213548173 0 0.0017838364363099645 -0.018935318254224388 0 0.0013215819584518364 -0.018505227377895582 0 0.0014225998519477798 -0.019179140213548173 0 0.001002323339190838 -0.019004016260506355 0 0.0013215819584518364 -0.018505227377895582 0 0.0019087716185262615 -0.019474902523935658 0 0.0014225998519477798 -0.019179140213548173 0 0.0017838364363099645 -0.018935318254224388 0 0.0014225998519477798 -0.019179140213548173 0 0.0011491757037864062 -0.019525319340699714 0 0.001002323339190838 -0.019004016260506355 0 0.00071908969340149466 -0.019434013746746328 0 0.0011491757037864062 -0.019525319340699714 0 0.001002323339190838 -0.019004016260506355 0 0.00071908969340149466 -0.019434013746746328 0 0.001002323339190838 -0.019004016260506355 0 0.00060599150339111466 -0.018848217161018192 0 0.001002323339190838 -0.019004016260506355 0 0.00060599150339111466 -0.018848217161018192 0 0.00083754043282026954 -0.018514275180041503 0 0.00032798308564946458 -0.018379739764823329 0 0.0010713381529912334 -0.018253594664971822 0 0.001002323339190838 -0.019004016260506355 0 0.00083754043282026954 -0.018514275180041503 0 0.0013215819584518364 -0.018505227377895582 0 0.00026642603019408513 -0.017391900307732917 0 -0.00030825750042301692 -0.017812563051297234 0 0.00079679732549221057 -0.01804546115285274 0 0.00026642603019408513 -0.017391900307732917 0 -0.00030825750042301692 -0.017812563051297234 0 -0.000116904024818527 -0.016790013825342998 0 0.00026642603019408513 -0.017391900307732917 0 0.00064079305259368349 -0.017267743311793728 0 0.00034833374662981813 -0.017072557641955428 0 -0.00030825750042301692 -0.017812563051297234 0 -0.00085573400019821864 -0.017208430997992786 0 -0.000116904024818527 -0.016790013825342998 0 -0.001554773673507277 -0.017626563337648681 0 -0.00030825750042301692 -0.017812563051297234 0 -0.00085573400019821864 -0.017208430997992786 0 0.0017838364363099645 -0.018935318254224388 0 0.0018772877396483814 -0.018382146157804796 0 0.0013215819584518364 -0.018505227377895582 0 0.0018568266589582239 -0.018375867355749826 0 0.0010713381529912334 -0.018253594664971822 0 0.00079679732549221057 -0.01804546115285274 0 0.00064079305259368349 -0.017267743311793728 0 0.0010190980324676121 -0.017387222987735016 0 0.00026642603019408513 -0.017391900307732917 0 0.00079679732549221057 -0.01804546115285274 0 0.00064079305259368349 -0.017267743311793728 0 0.00079679732549221057 -0.01804546115285274 0 0.0010190980324676121 -0.017387222987735016 0 0.0016417758620615279 -0.017617556809825932 0 0.0018772877396483814 -0.018382146157804796 0 0.00079679732549221057 -0.01804546115285274 0 0.0016417758620615279 -0.017617556809825932 0 0.0018772877396483814 -0.018382146157804796 0 0.0016417758620615279 -0.017617556809825932 0 0.002422546671843571 -0.017676000520236206 0 0.0018772877396483814 -0.018382146157804796 0 0.002422546671843571 -0.017676000520236206 0 0.002860447038183216 -0.018532651250844998 0 -0.00072487031249298989 -0.027569656517048208 0 0.000244874625760626 -0.02861029544355586 0 -0.003918377351476 -0.037466786611085809 0 -0.0023561105577922848 -0.037704762338375074 0 -0.0023350133861301113 -0.039462294513103791 0 0.0017838364363099645 -0.018935318254224388 0 0.0018772877396483814 -0.018382146157804796 0 0.0023195577923877122 -0.019063101020409538 0 0.0018772877396483814 -0.018382146157804796 0 0.002860447038183216 -0.018532651250844998 0 0.0023195577923877122 -0.019063101020409538 0 0.0019087716185262615 -0.019474902523935658 0 0.0017838364363099645 -0.018935318254224388 0 0.0023195577923877122 -0.019063101020409538 0 0.002860447038183216 -0.018532651250844998 0 0.0023195577923877122 -0.019063101020409538 0 0.0027628034939225876 -0.019111482048648931 0 0.0023195577923877122 -0.019063101020409538 0 0.0027628034939225876 -0.019111482048648931 0 0.0026755852337804727 -0.019631945718954318 0 0.0019087716185262615 -0.019474902523935658 0 0.0023195577923877122 -0.019063101020409538 0 0.0026755852337804727 -0.019631945718954318 0 0.000728525383163773 -0.037203846628904337 0 0.00035005175231592889 -0.032473492580872385 0 0.0017673753163598991 -0.031992383184107423 0 0.0014249891370345606 -0.032071420998189548 0 0.0007858600607117762 -0.030929016392006507 0 0.0020831248541472373 -0.024481692774372111 0 0.00035005175231592889 -0.032473492580872385 0 0.0026755852337804727 -0.019631945718954318 0 0.0033917915801431379 -0.019661804875489932 0 0.003187268241097821 -0.019160078705696922 0 0.002860447038183216 -0.018532651250844998 0 0.0027628034939225876 -0.019111482048648931 0 0.003187268241097821 -0.019160078705696922 0 0.0027628034939225876 -0.019111482048648931 0 0.0026755852337804727 -0.019631945718954318 0 0.003187268241097821 -0.019160078705696922 0 0.00035005175231592889 -0.032473492580872385 0 -6.9837733508215554e-05 -0.041575241771241396 0 -0.0010084049407465255 -0.04079460742986718 0 -0.00089543377360167876 -0.040252778671628346 0 -0.0015225802500200287 -0.039946484031597965 0 -0.0010084049407465255 -0.04079460742986718 0 -0.00089543377360167876 -0.040252778671628346 0 0.00037247482943303151 -0.04065322530985311 0 -6.1617929844478233e-05 -0.041862286360760337 0 -0.0010084049407465255 -0.04079460742986718 0 0.00037247482943303151 -0.04065322530985311 0 -0.00089543377360167876 -0.040252778671628346 0 -0.00062266462867598799 -0.039831191838139199 0 0.00037247482943303151 -0.04065322530985311 0 -0.00062266462867598799 -0.039831191838139199 0 0.00012262684006230984 -0.038333694776252286 0 0.00080029921612313434 -0.040332357433740432 0 -0.00056026033061779945 -0.040029687195663702 0 0.00065432783908191529 -0.041588545500617913 0 -0.00089543377360167876 -0.040252778671628346 0 -0.00062266462867598799 -0.039831191838139199 0 -0.0015225802500200287 -0.039946484031597965 0 -0.0023350133861301113 -0.039462294513103791 0 -0.00091447773100632364 -0.040946496428538398 0 -0.0015225802500200287 -0.039946484031597965 0 0.000244874625760626 -0.02861029544355586 0 0.00035005175231592889 -0.032473492580872385 0 -0.00062266462867598799 -0.039831191838139199 0 -0.0015225802500200287 -0.039946484031597965 0 -0.0013194372868492641 -0.038747911295042341 0 -0.0023350133861301113 -0.039462294513103791 0 -0.0015225802500200287 -0.039946484031597965 0 -0.0013194372868492641 -0.038747911295042341 0 -0.0023561105577922848 -0.037704762338375074 0 -0.0023350133861301113 -0.039462294513103791 0 -0.0013194372868492641 -0.038747911295042341 0 -0.0023561105577922848 -0.037704762338375074 0 -0.0013194372868492641 -0.038747911295042341 0 -0.0010814516298553881 -0.036797215505363641 0 -0.0013194372868492641 -0.038747911295042341 0 0.00012262684006230984 -0.038333694776252286 0 -0.0010814516298553881 -0.036797215505363641 0 -0.00062266462867598799 -0.039831191838139199 0 -0.0013194372868492641 -0.038747911295042341 0 0.00012262684006230984 -0.038333694776252286 0 0.00012262684006230984 -0.038333694776252286 0 -0.0010814516298553881 -0.036797215505363641 0 0.0010799653905618494 -0.036283392715315076 0 -0.0010814516298553881 -0.036797215505363641 0 -0.00018555436302299 -0.033747688747065373 0 0.0010799653905618494 -0.036283392715315076 0 -0.0010814516298553881 -0.036797215505363641 0 -0.0028325813644834849 -0.035280596143355845 0 -0.00018555436302299 -0.033747688747065373 0 -0.0023561105577922848 -0.037704762338375074 0 -0.0010814516298553881 -0.036797215505363641 0 -0.0028325813644834849 -0.035280596143355845 0 -0.003918377351476 -0.037466786611085809 0 -0.0023561105577922848 -0.037704762338375074 0 -0.0028325813644834849 -0.035280596143355845 0 -0.00072487031249298989 -0.027569656517048208 0 -0.0021356591039089177 -0.026420862688332141 0 0.0016417758620615279 -0.017617556809825932 0 0.002422546671843571 -0.017676000520236206 0 0.0017260527513495853 -0.016694139245936879 0 -0.003918377351476 -0.037466786611085809 0 -0.0028325813644834849 -0.035280596143355845 0 -0.0055724173498328082 -0.035284817551860116 0 -0.0028325813644834849 -0.035280596143355845 0 -0.0047250810024947326 -0.032767486963607338 0 -0.0055724173498328082 -0.035284817551860116 0 -0.0028325813644834849 -0.035280596143355845 0 -0.00222079185528591 -0.032548519250653801 0 -0.0047250810024947326 -0.032767486963607338 0 -0.00222079185528591 -0.032548519250653801 0 -0.0047250810024947326 -0.032767486963607338 0 -0.0040644393196946141 -0.030497591828977627 0 -0.0047250810024947326 -0.032767486963607338 0 -0.0040644393196946141 -0.030497591828977627 0 -0.0063626428672201316 -0.030388160813978771 0 -0.00222079185528591 -0.032548519250653801 0 -0.0040644393196946141 -0.030497591828977627 0 -0.0020400423656444658 -0.029067046552592429 0 -0.00222079185528591 -0.032548519250653801 0 -0.00054642770702044289 -0.030829483970222532 0 -0.0020400423656444658 -0.029067046552592429 0 -0.00054642770702044289 -0.030829483970222532 0 0.0016006583571526989 -0.030455735150292058 0 -0.00018555436302299 -0.033747688747065373 0 0.0016006583571526989 -0.030455735150292058 0 -0.00018555436302299 -0.033747688747065373 0 0.0023089402921125722 -0.033806844723041657 0 -0.0028325813644834849 -0.035280596143355845 0 -0.00222079185528591 -0.032548519250653801 0 -0.00018555436302299 -0.033747688747065373 0 -0.00222079185528591 -0.032548519250653801 0 -0.00054642770702044289 -0.030829483970222532 0 -0.00018555436302299 -0.033747688747065373 0 -0.00092943098306083605 -0.016078185285353212 0 -0.00037851194375968406 -0.015355639354469073 0 -0.0013532596381566951 -0.015003009955093976 0 -0.00091967478248471926 -0.016625770297447624 0 -0.00085573400019821864 -0.017208430997992786 0 -0.000116904024818527 -0.016790013825342998 0 -0.00091967478248471926 -0.016625770297447624 0 -0.00050123137276536685 -0.015994732630126556 0 -0.000116904024818527 -0.016790013825342998 0 -0.00067992783152395796 -0.016002713957922295 0 0.00051253854765256305 -0.016778290666990592 0 -0.00050123137276536685 -0.015994732630126556 0 -0.000116904024818527 -0.016790013825342998 0 0.00059567921568547003 -0.016838512420183031 0 -0.000116904024818527 -0.016790013825342998 0 0.00034833374662981813 -0.017072557641955428 0 0.00059567921568547003 -0.016838512420183031 0 0.00026642603019408513 -0.017391900307732917 0 -0.000116904024818527 -0.016790013825342998 0 0.00034833374662981813 -0.017072557641955428 0 0.00064079305259368349 -0.017267743311793728 0 0.00034833374662981813 -0.017072557641955428 0 0.00059567921568547003 -0.016838512420183031 0 -0.00092943098306083605 -0.016078185285353212 0 -0.00037851194375968406 -0.015355639354469073 0 0.0003833209489775783 -0.015823256602991317 0 -0.00092943098306083605 -0.016078185285353212 0 0.0003833209489775783 -0.015823256602991317 0 0.00059567921568547003 -0.016838512420183031 0 0.0003833209489775783 -0.015823256602991317 0 0.0007399349189158433 -0.016749859872891251 0 0.00057305965607879264 -0.015575217553749833 0 0.0011517046433687421 -0.016538593786432212 0 0.0007399349189158433 -0.016749859872891251 0 0.0011379116558468696 -0.016120840892038777 0 0.0014875031939696295 -0.0143710155177611 0 -0.00054985384461387742 -0.02122706748637334 0 0.0007399349189158433 -0.016749859872891251 0 0.00086864054754792579 -0.015329223497366014 0 0.00057305965607879264 -0.015575217553749833 0 0.0003833209489775783 -0.015823256602991317 0 0.0007399349189158433 -0.016749859872891251 0 0.00059567921568547003 -0.016838512420183031 0 0.0007399349189158433 -0.016749859872891251 0 0.00081598324698635904 -0.017030990341649142 0 0.00098487491893125916 -0.016808263803867039 0 0.0007399349189158433 -0.016749859872891251 0 0.00059567921568547003 -0.016838512420183031 0 0.00081598324698635904 -0.017030990341649142 0 0.00064079305259368349 -0.017267743311793728 0 0.0010190980324676121 -0.017387222987735016 0 0.00081598324698635904 -0.017030990341649142 0 0.00064079305259368349 -0.017267743311793728 0 0.00059567921568547003 -0.016838512420183031 0 0.00081598324698635904 -0.017030990341649142 0 0.0010190980324676121 -0.017387222987735016 0 0.00081598324698635904 -0.017030990341649142 0 0.0012164258775828206 -0.016973921049140792 0 0.0011517046433687421 -0.016538593786432212 0 0.0007399349189158433 -0.016749859872891251 0 0.00098487491893125916 -0.016808263803867039 0 0.0011517046433687421 -0.016538593786432212 0 0.00098487491893125916 -0.016808263803867039 0 0.0012164258775828206 -0.016973921049140792 0 0.00081598324698635904 -0.017030990341649142 0 0.00098487491893125916 -0.016808263803867039 0 0.0012164258775828206 -0.016973921049140792 0 0.0016417758620615279 -0.017617556809825932 0 0.0012164258775828206 -0.016973921049140792 0 0.0017260527513495853 -0.016694139245936879 0 0.0010190980324676121 -0.017387222987735016 0 0.0016417758620615279 -0.017617556809825932 0 0.0012164258775828206 -0.016973921049140792 0 -0.0021356591039089177 -0.026420862688332141 0 -0.00054985384461387742 -0.02122706748637334 0 0.0011517046433687421 -0.016538593786432212 0 0.0017260527513495853 -0.016694139245936879 0 0.0011379116558468696 -0.016120840892038777 0 0.0011517046433687421 -0.016538593786432212 0 0.0012164258775828206 -0.016973921049140792 0 0.0017260527513495853 -0.016694139245936879 0 0.00038983788214872118 -0.015053064241676045 0 0.0006688661314328692 -0.015261918881562062 0 0.00069111762358228866 -0.015290800843551231 0 -0.0047250810024947326 -0.032767486963607338 0 -0.0063626428672201316 -0.030388160813978771 0 -0.0073776755336000394 -0.032996082467235399 0 -0.0047250810024947326 -0.032767486963607338 0 -0.0055724173498328082 -0.035284817551860116 0 -0.0073776755336000394 -0.032996082467235399 0 -0.0034079270652521104 -0.023434024257358962 0 -0.00054985384461387742 -0.02122706748637334 0 0.00038983788214872118 -0.015053064241676045 0 0.00052820649046843911 -0.015145597935176022 0 0.0006688661314328692 -0.015261918881562062 0 0.00038983788214872118 -0.015053064241676045 0 0.0004783888241931129 -0.015014897472378821 0 0.00052820649046843911 -0.015145597935176022 0 0.00052820649046843911 -0.015145597935176022 0 0.00055836149145272232 -0.015277740321398442 0 0.0006688661314328692 -0.015261918881562062 0 0.00052820649046843911 -0.015145597935176022 0 0.00055836149145272232 -0.015277740321398442 0 0.00046869075860193367 -0.015336825656087896 0 0.00055836149145272232 -0.015277740321398442 0 0.0006688661314328692 -0.015261918881562062 0 0.00063810085823694023 -0.015370267999571788 0 0.00086864054754792579 -0.015329223497366014 0 0.00057305965607879264 -0.015575217553749833 0 0.00063810085823694023 -0.015370267999571788 0 0.0006688661314328692 -0.015261918881562062 0 0.00086864054754792579 -0.015329223497366014 0 0.00063810085823694023 -0.015370267999571788 0 -0.0010741703940118248 -0.019584038029663488 0 -0.00054985384461387742 -0.02122706748637334 0 0.00055836149145272232 -0.015277740321398442 0 0.00057305965607879264 -0.015575217553749833 0 0.00063810085823694023 -0.015370267999571788 0 0.0003833209489775783 -0.015823256602991317 0 0.00057305965607879264 -0.015575217553749833 0 0.00046869075860193367 -0.015336825656087896 0 0.00055836149145272232 -0.015277740321398442 0 0.00057305965607879264 -0.015575217553749833 0 0.00046869075860193367 -0.015336825656087896 0 0.0003833209489775783 -0.015823256602991317 0 0.00022522696482404794 -0.015216635253358054 0 0.00037040452460475321 -0.015360713712413661 0 -0.00037851194375968406 -0.015355639354469073 0 0.0003833209489775783 -0.015823256602991317 0 -0.00035257137761144107 -0.01430638440240348 0 0.00037942437245241565 -0.015720044909196689 0 -6.3778159543281918e-05 -0.014792153534273645 0 0.0003833209489775783 -0.015823256602991317 0 0.00037040452460475321 -0.015360713712413661 0 0.00046869075860193367 -0.015336825656087896 0 0.00022522696482404794 -0.015216635253358054 0 0.00037040452460475321 -0.015360713712413661 0 0.00039037288974710075 -0.015151956093677827 0 0.00037040452460475321 -0.015360713712413661 0 0.00046869075860193367 -0.015336825656087896 0 0.00039037288974710075 -0.015151956093677827 0 0.00052820649046843911 -0.015145597935176022 0 0.00046869075860193367 -0.015336825656087896 0 0.00039037288974710075 -0.015151956093677827 0 0.0004783888241931129 -0.015014897472378821 0 0.00052820649046843911 -0.015145597935176022 0 0.00039037288974710075 -0.015151956093677827 0 0.0004783888241931129 -0.015014897472378821 0 0.00039037288974710075 -0.015151956093677827 0 0.00035004824081531099 -0.015030633550081706 0 0.00022522696482404794 -0.015216635253358054 0 0.00039037288974710075 -0.015151956093677827 0 0.00035004824081531099 -0.015030633550081706 0 -0.00035257137761144107 -0.01430638440240348 0 -0.00074747344398793996 -0.013846312074200114 0 -0.0012753749475394234 -0.012685531284866684 0 -6.3778159543281918e-05 -0.014792153534273645 0 -0.000609934700215306 -0.013766706254924562 0 0.00022522696482404794 -0.015216635253358054 0 0.00035004824081531099 -0.015030633550081706 0 0.00012281072193177326 -0.014940605197942679 0 -0.0016990338795210955 -0.014265588988067393 0 -0.00093385014076871153 -0.014517874751804117 0 -0.0013532596381566951 -0.015003009955093976 0 -0.0016990338795210955 -0.014265588988067393 0 -0.00074747344398793996 -0.013846312074200114 0 -0.00093385014076871153 -0.014517874751804117 0 -0.00035257137761144107 -0.01430638440240348 0 -0.00074747344398793996 -0.013846312074200114 0 -0.00093385014076871153 -0.014517874751804117 0 -0.00037851194375968406 -0.015355639354469073 0 -0.00093385014076871153 -0.014517874751804117 0 -0.0013532596381566951 -0.015003009955093976 0 -0.00037851194375968406 -0.015355639354469073 0 -0.00035257137761144107 -0.01430638440240348 0 -0.00093385014076871153 -0.014517874751804117 0 0.00030651698648009634 -0.014372800508821353 0 0.00050747429273278978 -0.014799930833345692 0 0.00031363636564229059 -0.013825825821558448 0 0.00030651698648009634 -0.014372800508821353 0 0.00012281072193177326 -0.014940605197942679 0 0.00045313181075049567 -0.014843106244149128 0 0.00035004824081531099 -0.015030633550081706 0 0.00012281072193177326 -0.014940605197942679 0 0.00045313181075049567 -0.014843106244149128 0 0.0004783888241931129 -0.015014897472378821 0 0.00045313181075049567 -0.014843106244149128 0 0.00044014993542503016 -0.01504632604681444 0 0.0004783888241931129 -0.015014897472378821 0 0.00035004824081531099 -0.015030633550081706 0 0.00045313181075049567 -0.014843106244149128 0 0.00045313181075049567 -0.014843106244149128 0 0.00050747429273278978 -0.014799930833345692 0 0.00044014993542503016 -0.01504632604681444 0 0.00030651698648009634 -0.014372800508821353 0 0.00045313181075049567 -0.014843106244149128 0 0.00050747429273278978 -0.014799930833345692 0 0.00050747429273278978 -0.014799930833345692 0 0.00044014993542503016 -0.01504632604681444 0 0.00042166630714321652 -0.01557342691464594 0 0.00038983788214872118 -0.015053064241676045 0 0.0004783888241931129 -0.015014897472378821 0 0.00044014993542503016 -0.01504632604681444 0 -0.0034079270652521104 -0.023434024257358962 0 -0.002490285310741267 -0.021348541780947528 0 0.00038983788214872118 -0.015053064241676045 0 0.00044014993542503016 -0.01504632604681444 0 -7.6706381017948292e-05 -0.015392055377219561 0 0.00044014993542503016 -0.01504632604681444 0 -7.6706381017948292e-05 -0.015392055377219561 0 0.00042166630714321652 -0.01557342691464594 0 -7.6706381017948292e-05 -0.015392055377219561 0 0.00042166630714321652 -0.01557342691464594 0 -0.00046285487463511901 -0.016938168524186982 0 1.6102799147355558e-06 -0.017490722802881869 0 0.00042166630714321652 -0.01557342691464594 0 -0.00046285487463511901 -0.016938168524186982 0 1.6102799147355558e-06 -0.017490722802881869 0 0.00042166630714321652 -0.01557342691464594 0 8.0648492706514963e-07 -0.014515552840851587 0 0.00050747429273278978 -0.014799930833345692 0 0.00042166630714321652 -0.01557342691464594 0 0.00031363636564229059 -0.013825825821558448 0 0.00042166630714321652 -0.01557342691464594 0 8.0648492706514963e-07 -0.014515552840851587 0 0.00031363636564229059 -0.013825825821558448 0 -1.2647054359488313e-07 -0.011541070146689212 0 8.0648492706514963e-07 -0.014515552840851587 0 0.00031363636564229059 -0.013825825821558448 0 0.00011721190954926856 -0.013416766769098899 0 0.00030651698648009634 -0.014372800508821353 0 0.00031363636564229059 -0.013825825821558448 0 0.00074066621909715314 -0.026882562194541153 0 -0.0020400423656444658 -0.029067046552592429 0 -0.0016378997262157429 -0.026046347300916116 0 -0.0012303818906523119 -0.027995565917402578 0 0.00076799565161211566 -0.025634240916954133 0 0.0006691787984105358 -0.029483709391898143 0 -0.00040413740428759656 -0.031298404610119811 0 -0.0012303818906523119 -0.027995565917402578 0 0.0006691787984105358 -0.029483709391898143 0 -0.00054642770702044289 -0.030829483970222532 0 0.0016006583571526989 -0.030455735150292058 0 0.00074066621909715314 -0.026882562194541153 0 0.00057836764034532905 -0.030845341730391228 0 -0.00012716029858788187 -0.02738404602164585 0 -0.00054642770702044289 -0.030829483970222532 0 0.00074066621909715314 -0.026882562194541153 0 -0.0020400423656444658 -0.029067046552592429 0 -0.0040644393196946141 -0.030497591828977627 0 -0.0050897382869582106 -0.027521715349315912 0 -0.0020400423656444658 -0.029067046552592429 0 -0.0040644393196946141 -0.030497591828977627 0 -0.0063626428672201316 -0.030388160813978771 0 -0.0050897382869582106 -0.027521715349315912 0 -0.0050897382869582106 -0.027521715349315912 0 -0.0016378997262157429 -0.026046347300916116 0 -0.0033123089768350299 -0.024395990345009461 0 -0.002490285310741267 -0.021348541780947528 0 -0.0017759451109183968 -0.020754231327222764 0 -0.0050897382869582106 -0.027521715349315912 0 -0.0020400423656444658 -0.029067046552592429 0 -0.0016378997262157429 -0.026046347300916116 0 -0.0016378997262157429 -0.026046347300916116 0 -0.0033123089768350299 -0.024395990345009461 0 -0.00019834487277639392 -0.023255727842239546 0 -0.0017759451109183968 -0.020754231327222764 0 -7.6094055324529654e-07 -0.020465311322177718 0 1.6102799147355558e-06 -0.017490722802881869 0 -0.00046285487463511901 -0.016938168524186982 0 -3.4761157203700999e-06 -0.020460207745389005 0 -0.0033123089768350299 -0.024395990345009461 0 -7.1349824319409356e-06 -0.020469811049581461 0 -0.00019834487277639392 -0.023255727842239546 0 -7.1349824319409356e-06 -0.020469811049581461 0 1.4624110933525411e-06 -0.022382504274047237 0 -0.00019834487277639392 -0.023255727842239546 0 1.4624110933525411e-06 -0.022382504274047237 0 -2.3502729651808059e-05 -0.02359523936242329 0 2.9760631902213166e-07 -0.024295847480782975 0 -2.3502729651808059e-05 -0.02359523936242329 0 -0.00019834487277639392 -0.023255727842239546 0 -4.5877427487029013e-05 -0.024598551031928029 0 1.4624110933525411e-06 -0.022382504274047237 0 -2.3502729651808059e-05 -0.02359523936242329 0 -0.00019834487277639392 -0.023255727842239546 0 0.00074066621909715314 -0.026882562194541153 0 -0.0016378997262157429 -0.026046347300916116 0 -0.00019834487277639392 -0.023255727842239546 0 -0.0012303818906523119 -0.027995565917402578 0 -0.00019834487277639392 -0.023255727842239546 0 -4.5877427487029013e-05 -0.024598551031928029 0 -0.00012716029858788187 -0.02738404602164585 0 -0.00035558445520958182 -0.0236631150260233 0 -0.0012303818906523119 -0.027995565917402578 0 -4.5877427487029013e-05 -0.024598551031928029 0 0.00076799565161211566 -0.025634240916954133 0 -4.5877427487029013e-05 -0.024598551031928029 0 2.9760631902213166e-07 -0.024295847480782975 0 0.00076799565161211566 -0.025634240916954133 0 3.1417041451847396e-08 -0.024299171977019893 0 0.00024795191505292471 -0.026916055035511251 0 -2.3502729651808059e-05 -0.02359523936242329 0 -4.5877427487029013e-05 -0.024598551031928029 0 2.9760631902213166e-07 -0.024295847480782975 0 1.2947938293323279e-06 -0.026583745800365134 0 0.00033543795790943825 -0.028514522245223897 0 -0.00035651259844973851 -0.028063304473250464 0 -3.1436489870594636e-06 -0.024302581300239486 0 1.2947938293323279e-06 -0.026583745800365134 0 -0.00035651259844973851 -0.028063304473250464 0 1.2947938293323279e-06 -0.026583745800365134 0 0.00033543795790943825 -0.028514522245223897 0 7.9391496975919332e-07 -0.028869383470855398 0 0.00033543795790943825 -0.028514522245223897 0 0.00072919770225414243 -0.030018779494953383 0 7.9391496975919332e-07 -0.028869383470855398 0 0.00033543795790943825 -0.028514522245223897 0 0.0006691787984105358 -0.029483709391898143 0 0.00072919770225414243 -0.030018779494953383 0 0.00024795191505292471 -0.026916055035511251 0 0.00065320814075368351 -0.029090406842020917 0 0.00033543795790943825 -0.028514522245223897 0 -0.00035651259844973851 -0.028063304473250464 0 0.0006691787984105358 -0.029483709391898143 0 0.0006691787984105358 -0.029483709391898143 0 0.0011469192089307535 -0.030871335899245265 0 0.00072919770225414243 -0.030018779494953383 0 0.0006691787984105358 -0.029483709391898143 0 0.0012997755910957951 -0.031250668088770785 0 0.0011469192089307535 -0.030871335899245265 0 -0.00040413740428759656 -0.031298404610119811 0 0.0006691787984105358 -0.029483709391898143 0 0.0012997755910957951 -0.031250668088770785 0 0.0015708645112082573 -0.031952775805686846 0 0.0012709032735939377 -0.032771631788812532 0 0.0013879504978419877 -0.032701330473912327 0 0.001341265760259575 -0.03226659088647002 0 0.0015708645112082573 -0.031952775805686846 0 0.0012709032735939377 -0.032771631788812532 0 0.001341265760259575 -0.03226659088647002 0 0.0015708645112082573 -0.031952775805686846 0 0.0012632938097681468 -0.031454153650017365 0 0.0012997755910957951 -0.031250668088770785 0 0.0015708645112082573 -0.031952775805686846 0 0.0011469192089307535 -0.030871335899245265 0 0.0012997755910957951 -0.031250668088770785 0 0.0015708645112082573 -0.031952775805686846 0 0.0019768045394766994 -0.032036010115918605 0 0.0015708645112082573 -0.031952775805686846 0 0.0012632938097681468 -0.031454153650017365 0 0.0011469192089307535 -0.030871335899245265 0 0.0012632938097681468 -0.031454153650017365 0 0.0012140510141258362 -0.031855317019641491 0 0.00072919770225414243 -0.030018779494953383 0 0.0012632938097681468 -0.031454153650017365 0 0.0011469192089307535 -0.030871335899245265 0 0.00072919770225414243 -0.030018779494953383 0 0.001341265760259575 -0.03226659088647002 0 0.0012632938097681468 -0.031454153650017365 0 0.0012140510141258362 -0.031855317019641491 0 0.0012140510141258362 -0.031855317019641491 0 0.00060281514237182812 -0.030432898783061338 0 0.00040563898851372774 -0.030995527267962526 0 0.0012140510141258362 -0.031855317019641491 0 0.00060281514237182812 -0.030432898783061338 0 0.00072919770225414243 -0.030018779494953383 0 0.00060281514237182812 -0.030432898783061338 0 0.00072919770225414243 -0.030018779494953383 0 7.9391496975919332e-07 -0.028869383470855398 0 0.00060281514237182812 -0.030432898783061338 0 1.6512014701332624e-06 -0.031154731466907323 0 0.00040563898851372774 -0.030995527267962526 0 0.00060281514237182812 -0.030432898783061338 0 7.9391496975919332e-07 -0.028869383470855398 0 1.6512014701332624e-06 -0.031154731466907323 0 1.6512014701332624e-06 -0.031154731466907323 0 -1.2987534334775747e-06 -0.033436591063399801 0 0.00040563898851372774 -0.030995527267962526 0 3.6182572071190762e-07 -0.033439149699265321 0 0.00055682654814693188 -0.032525532397244199 0 9.7098472516774076e-07 -0.033444937331448668 0 0.00039775248208163478 -0.034451955732990876 0 0.00058498682534674094 -0.03408033455441422 0 9.7098472516774076e-07 -0.033444937331448668 0 0.00039775248208163478 -0.034451955732990876 0 0.00031357699295095245 -0.035614091847615173 0 0.00039775248208163478 -0.034451955732990876 0 0.00031357699295095245 -0.035614091847615173 0 0.0006353416215681215 -0.034209061059578022 0 0.00039775248208163478 -0.034451955732990876 0 0.00058498682534674094 -0.03408033455441422 0 0.00095086736616123413 -0.033128872618401889 0 0.0010243079289426881 -0.032031588096784802 0 0.00055682654814693188 -0.032525532397244199 0 0.0012140510141258362 -0.031855317019641491 0 0.00058498682534674094 -0.03408033455441422 0 0.00095086736616123413 -0.033128872618401889 0 2.8799979082179202e-07 -0.036017353408029237 0 0.00013328904578435513 -0.036893550722519902 0 3.9846905653932108e-07 -0.038597242562085979 0 2.8799979082179202e-07 -0.036017353408029237 0 0.00031357699295095245 -0.035614091847615173 0 0.00013328904578435513 -0.036893550722519902 0 9.7098472516774076e-07 -0.033444937331448668 0 2.8799979082179202e-07 -0.036017353408029237 0 0.00031357699295095245 -0.035614091847615173 0 0.00031357699295095245 -0.035614091847615173 0 0.00013328904578435513 -0.036893550722519902 0 -2.4495542283037633e-05 -0.036088803014050597 0 0.00013328904578435513 -0.036893550722519902 0 -2.4495542283037633e-05 -0.036088803014050597 0 0.00015057130540222909 -0.037386120083818024 0 -2.4495542283037633e-05 -0.036088803014050597 0 1.84187390098118e-05 -0.034878616278589118 0 -0.00061935098399741465 -0.03469101887281293 0 -2.4495542283037633e-05 -0.036088803014050597 0 0.00044274437914229559 -0.034949244379953545 0 1.84187390098118e-05 -0.034878616278589118 0 0.00031357699295095245 -0.035614091847615173 0 0.00044274437914229559 -0.034949244379953545 0 0.0006353416215681215 -0.034209061059578022 0 0.00031357699295095245 -0.035614091847615173 0 -2.4495542283037633e-05 -0.036088803014050597 0 0.00044274437914229559 -0.034949244379953545 0 0.00044274437914229559 -0.034949244379953545 0 0.00068079962630537697 -0.033985952939654458 0 0.0006353416215681215 -0.034209061059578022 0 0.00068079962630537697 -0.033985952939654458 0 0.00087862963957159742 -0.033377907012948037 0 0.00049036859545881 -0.033686753543636122 0 0.00068079962630537697 -0.033985952939654458 0 0.00032755478828491085 -0.034279426898590579 0 0.00049036859545881 -0.033686753543636122 0 0.00044274437914229559 -0.034949244379953545 0 0.00032755478828491085 -0.034279426898590579 0 1.84187390098118e-05 -0.034878616278589118 0 0.00044274437914229559 -0.034949244379953545 0 0.00068079962630537697 -0.033985952939654458 0 0.00032755478828491085 -0.034279426898590579 0 0.00032755478828491085 -0.034279426898590579 0 -0.00017794375883085006 -0.033979708415402834 0 0.00049036859545881 -0.033686753543636122 0 0.00032755478828491085 -0.034279426898590579 0 1.84187390098118e-05 -0.034878616278589118 0 -0.00017794375883085006 -0.033979708415402834 0 1.84187390098118e-05 -0.034878616278589118 0 -0.00017794375883085006 -0.033979708415402834 0 -0.00061935098399741465 -0.03469101887281293 0 0.001341265760259575 -0.03226659088647002 0 0.0012140510141258362 -0.031855317019641491 0 0.00095086736616123413 -0.033128872618401889 0 0.00039775248208163478 -0.034451955732990876 0 0.00095086736616123413 -0.033128872618401889 0 0.0006353416215681215 -0.034209061059578022 0 0.00095086736616123413 -0.033128872618401889 0 0.0006353416215681215 -0.034209061059578022 0 0.00096927566447345685 -0.033439005522792602 0 0.00096927566447345685 -0.033439005522792602 0 0.0011790680142771039 -0.032997021204920554 0 0.00087862963957159742 -0.033377907012948037 0 0.00068079962630537697 -0.033985952939654458 0 0.0006353416215681215 -0.034209061059578022 0 0.00096927566447345685 -0.033439005522792602 0 0.00068079962630537697 -0.033985952939654458 0 0.00096927566447345685 -0.033439005522792602 0 0.00087862963957159742 -0.033377907012948037 0 0.00096927566447345685 -0.033439005522792602 0 0.0012709032735939377 -0.032771631788812532 0 0.0011790680142771039 -0.032997021204920554 0 0.001341265760259575 -0.03226659088647002 0 0.00095086736616123413 -0.033128872618401889 0 0.0012709032735939377 -0.032771631788812532 0 0.00095086736616123413 -0.033128872618401889 0 0.00096927566447345685 -0.033439005522792602 0 0.0012709032735939377 -0.032771631788812532 0 0.0012709032735939377 -0.032771631788812532 0 0.0011790680142771039 -0.032997021204920554 0 0.0013879504978419877 -0.032701330473912327 0 0.0011790680142771039 -0.032997021204920554 0 0.0012587871711034744 -0.032871259218684529 0 0.0013879504978419877 -0.032701330473912327 0 0.0012587871711034744 -0.032871259218684529 0 0.0013879504978419877 -0.032701330473912327 0 0.0013429830590465067 -0.032800743650279303 0 0.0011790680142771039 -0.032997021204920554 0 0.00097470812081579001 -0.033055064447696396 0 0.0012587871711034744 -0.032871259218684529 0 0.00087862963957159742 -0.033377907012948037 0 0.00097470812081579001 -0.033055064447696396 0 0.00061071685657925075 -0.033258844756825529 0 0.0011790680142771039 -0.032997021204920554 0 0.00087862963957159742 -0.033377907012948037 0 0.00097470812081579001 -0.033055064447696396 0 0.00097470812081579001 -0.033055064447696396 0 0.0010904611035441156 -0.032841414698136895 0 0.0012587871711034744 -0.032871259218684529 0 0.00097470812081579001 -0.033055064447696396 0 0.0010904611035441156 -0.032841414698136895 0 0.0006909731071308386 -0.032886122753205321 0 0.0010904611035441156 -0.032841414698136895 0 0.0012914691418315877 -0.032805097250125786 0 0.0012587871711034744 -0.032871259218684529 0 0.0012914691418315877 -0.032805097250125786 0 0.0012587871711034744 -0.032871259218684529 0 0.0013429830590465067 -0.032800743650279303 0 -0.00017794375883085006 -0.033979708415402834 0 0.00011741034649779865 -0.033433568293651302 0 0.00049036859545881 -0.033686753543636122 0 -0.00038351685695463934 -0.03348201036532792 0 -0.00017794375883085006 -0.033979708415402834 0 0.00011741034649779865 -0.033433568293651302 0 -0.00038351685695463934 -0.03348201036532792 0 0.00011741034649779865 -0.033433568293651302 0 -7.6746896829230047e-05 -0.033178649126221128 0 0.00011741034649779865 -0.033433568293651302 0 0.00049036859545881 -0.033686753543636122 0 0.00061071685657925075 -0.033258844756825529 0 0.00087862963957159742 -0.033377907012948037 0 0.00049036859545881 -0.033686753543636122 0 0.00061071685657925075 -0.033258844756825529 0 0.0006909731071308386 -0.032886122753205321 0 0.00030471703741266057 -0.033112712969343004 0 0.00016541936628826297 -0.03280865594141498 0 0.00097470812081579001 -0.033055064447696396 0 0.00061071685657925075 -0.033258844756825529 0 0.0006909731071308386 -0.032886122753205321 0 0.00061071685657925075 -0.033258844756825529 0 0.0006909731071308386 -0.032886122753205321 0 0.00030471703741266057 -0.033112712969343004 0 0.00011741034649779865 -0.033433568293651302 0 0.00061071685657925075 -0.033258844756825529 0 0.00030471703741266057 -0.033112712969343004 0 -0.00038351685695463934 -0.03348201036532792 0 -7.6746896829230047e-05 -0.033178649126221128 0 -0.00036929240883810184 -0.033040491778726498 0 0.00011741034649779865 -0.033433568293651302 0 0.00030471703741266057 -0.033112712969343004 0 -7.6746896829230047e-05 -0.033178649126221128 0 0.00030471703741266057 -0.033112712969343004 0 -7.6746896829230047e-05 -0.033178649126221128 0 0.00016541936628826297 -0.03280865594141498 0 -7.6746896829230047e-05 -0.033178649126221128 0 0.00016541936628826297 -0.03280865594141498 0 -0.00036929240883810184 -0.033040491778726498 0 -0.00022640461008511167 -0.032682396037663382 0 0.00021929881376134608 -0.032527269762427667 0 -8.4220846209286999e-05 -0.032245818063144575 0 -0.00022640461008511167 -0.032682396037663382 0 0.00016541936628826297 -0.03280865594141498 0 -0.00036929240883810184 -0.033040491778726498 0 -0.00022640461008511167 -0.032682396037663382 0 0.00016541936628826297 -0.03280865594141498 0 0.00021929881376134608 -0.032527269762427667 0 0.0006909731071308386 -0.032886122753205321 0 0.00016541936628826297 -0.03280865594141498 0 0.00052431143964490128 -0.032621847973069835 0 0.00016541936628826297 -0.03280865594141498 0 0.00021929881376134608 -0.032527269762427667 0 0.00052431143964490128 -0.032621847973069835 0 0.00021929881376134608 -0.032527269762427667 0 0.00052431143964490128 -0.032621847973069835 0 0.00065750176038742957 -0.032308422230622323 0 0.0006909731071308386 -0.032886122753205321 0 0.00052431143964490128 -0.032621847973069835 0 0.00086497015305893267 -0.032671400731378863 0 0.00052431143964490128 -0.032621847973069835 0 0.00065750176038742957 -0.032308422230622323 0 0.00086497015305893267 -0.032671400731378863 0 0.0042742836501094353 -0.047261466228884455 0 0.0041612189447339382 -0.047185430810648993 0 0.0043745293421320617 -0.047167146021832883 0 0.0024101399501029416 -0.042455164072172369 0 0.0015300961382641372 -0.043726724382642433 0 0.0024101399501029416 -0.042455164072172369 0 0.0030187543806617584 -0.047391472907156666 0 0.0023741911412640264 -0.044045460861949506 0 0.0022378798145428545 -0.043987253089647134 0 0.0021424885035054562 -0.044058970211981539 0 0.00021929881376134608 -0.032527269762427667 0 0.00065750176038742957 -0.032308422230622323 0 -8.4220846209286999e-05 -0.032245818063144575 0 0.0030187543806617584 -0.047391472907156666 0 0.0015300961382641372 -0.043726724382642433 0 0.0026032999486973623 -0.04897958437800274 0 0.0022433489163070836 -0.049262908748662557 0 0.0020353801380508531 -0.048700579533995036 0 0.0012914691418315877 -0.032805097250125786 0 0.0012485966880653578 -0.032681005098285761 0 0.0013630677505689173 -0.032837022720888988 0 0.0047745870894366077 -0.047400217717128254 0 0.0049032760660313989 -0.047249029957716793 0 0.0050194124110979387 -0.047325450347263716 0 0.0010904611035441156 -0.032841414698136895 0 0.0012914691418315877 -0.032805097250125786 0 0.0012485966880653578 -0.032681005098285761 0 0.0010904611035441156 -0.032841414698136895 0 0.0012485966880653578 -0.032681005098285761 0 0.00086497015305893267 -0.032671400731378863 0 0.0024101399501029416 -0.042455164072172369 0 0.0030590601116184 -0.040097121864217829 0 0.00065750176038742957 -0.032308422230622323 0 0.0012485966880653578 -0.032681005098285761 0 0.00086497015305893267 -0.032671400731378863 0 0.0010904611035441156 -0.032841414698136895 0 0.0006909731071308386 -0.032886122753205321 0 0.00086497015305893267 -0.032671400731378863 0 0.0043745293421320617 -0.047167146021832883 0 0.0046252472587698049 -0.047236218244949606 0 0.0048405052980412923 -0.047030602142184651 0 0.0042472424231703252 -0.04719919888560821 0 0.0047745870894366077 -0.047400217717128254 0 0.0046252472587698049 -0.047236218244949606 0 0.0042742836501094353 -0.047261466228884455 0 0.0043745293421320617 -0.047167146021832883 0 0.0046252472587698049 -0.047236218244949606 0 0.0024101399501029416 -0.042455164072172369 0 0.005233663216863439 -0.047468205724497933 0 0.0046252472587698049 -0.047236218244949606 0 0.0049032760660313989 -0.047249029957716793 0 0.0048405052980412923 -0.047030602142184651 0 0.0047745870894366077 -0.047400217717128254 0 0.0046252472587698049 -0.047236218244949606 0 0.0049032760660313989 -0.047249029957716793 0 0.0049032760660313989 -0.047249029957716793 0 0.0052492924270055516 -0.047220419192708654 0 0.0048405052980412923 -0.047030602142184651 0 0.0049032760660313989 -0.047249029957716793 0 0.0052492924270055516 -0.047220419192708654 0 0.0050194124110979387 -0.047325450347263716 0 0.0055617207063993453 -0.042798657642724489 0 0.0030287279960377585 -0.037012905589008889 0 0.0052492924270055516 -0.047220419192708654 0 0.0050194124110979387 -0.047325450347263716 0 0.0051210359233444603 -0.047405182661609639 0 0.0047745870894366077 -0.047400217717128254 0 0.0050194124110979387 -0.047325450347263716 0 0.0051210359233444603 -0.047405182661609639 0 0.0030590601116184 -0.040097121864217829 0 0.0030287279960377585 -0.037012905589008889 0 0.0053833775006669141 -0.036821329678776611 0 0.0034777040645417542 -0.034782647173512281 0 0.0048035896662209903 -0.033596977353700604 0 0.0053833775006669141 -0.036821329678776611 0 0.0034777040645417542 -0.034782647173512281 0 0.0026804080644828973 -0.036820085488461003 0 0.0053833775006669141 -0.036821329678776611 0 0.0026804080644828973 -0.036820085488461003 0 0.0036592153951807479 -0.039018115196933115 0 0.0026804080644828973 -0.036820085488461003 0 0.0010799653905618494 -0.036283392715315076 0 0.0018197792740435941 -0.038821122945723895 0 -0.00018555436302299 -0.033747688747065373 0 0.0010799653905618494 -0.036283392715315076 0 0.0023089402921125722 -0.033806844723041657 0 0.0026804080644828973 -0.036820085488461003 0 0.0010799653905618494 -0.036283392715315076 0 0.0023089402921125722 -0.033806844723041657 0 0.0034777040645417542 -0.034782647173512281 0 0.0026804080644828973 -0.036820085488461003 0 0.0020829527246293876 -0.03393505346198978 0 0.0026072487496896376 -0.036592516662560623 0 0.0013919719440141248 -0.033668634031289571 0 0.0026804080644828973 -0.036820085488461003 0 0.0020829527246293876 -0.03393505346198978 0 0.00044021410089418187 -0.033536749329139429 0 0.0020829527246293876 -0.03393505346198978 0 0.00044021410089418187 -0.033536749329139429 0 0.0013152076302047971 -0.032329181603757494 0 0.0020829527246293876 -0.03393505346198978 0 0.0013152076302047971 -0.032329181603757494 0 0.0026173508543570097 -0.03276300927917615 0 0.00057836764034532905 -0.030845341730391228 0 0.0013919719440141248 -0.033668634031289571 0 -0.00040413740428759656 -0.031298404610119811 0 0.0012997755910957951 -0.031250668088770785 0 0.0013152076302047971 -0.032329181603757494 0 -0.00040413740428759656 -0.031298404610119811 0 0.00044021410089418187 -0.033536749329139429 0 0.0013152076302047971 -0.032329181603757494 0 0.0012997755910957951 -0.031250668088770785 0 0.0013152076302047971 -0.032329181603757494 0 0.0019768045394766994 -0.032036010115918605 0 0.0015708645112082573 -0.031952775805686846 0 0.0019768045394766994 -0.032036010115918605 0 0.002377126225762157 -0.032303770446358224 0 0.0013152076302047971 -0.032329181603757494 0 0.0019768045394766994 -0.032036010115918605 0 0.0026173508543570097 -0.03276300927917615 0 0.0019768045394766994 -0.032036010115918605 0 0.002377126225762157 -0.032303770446358224 0 0.0026173508543570097 -0.03276300927917615 0 0.0015708645112082573 -0.031952775805686846 0 0.0013879504978419877 -0.032701330473912327 0 0.0012788293007844186 -0.032689154286579668 0 0.0016714200070364171 -0.032350175946326026 0 0.0017942428545541051 -0.031796884517617002 0 0.0013879504978419877 -0.032701330473912327 0 0.0012788293007844186 -0.032689154286579668 0 0.0013429830590465067 -0.032800743650279303 0 0.0012914691418315877 -0.032805097250125786 0 0.0013429830590465067 -0.032800743650279303 0 0.0013630677505689173 -0.032837022720888988 0 0.0012788293007844186 -0.032689154286579668 0 0.0013429830590465067 -0.032800743650279303 0 0.0013630677505689173 -0.032837022720888988 0 0.0017942428545541051 -0.031796884517617002 0 0.0030287279960377585 -0.037012905589008889 0 0.0034777040645417542 -0.034782647173512281 0 0.0048035896662209903 -0.033596977353700604 0 0.0026173508543570097 -0.03276300927917615 0 0.0030287279960377585 -0.037012905589008889 0 0.00229899012477229 -0.033208140998624035 0 0.0034777040645417542 -0.034782647173512281 0 0.0020829527246293876 -0.03393505346198978 0 0.0026173508543570097 -0.03276300927917615 0 0.002377126225762157 -0.032303770446358224 0 0.0026240499877726959 -0.032731366951519493 0 0.0026173508543570097 -0.03276300927917615 0 7.9496393353038753e-05 -0.049629194058427466 0 -0.00010968415728118325 -0.049822348643948695 0 -2.540713346726913e-07 -0.05000089111486495 0 1.3826844687892214e-06 -0.049995031882540085 0 7.9496393353038753e-05 -0.049629194058427466 0 -2.540713346726913e-07 -0.05000089111486495 0 -2.1258518826560113e-06 -0.046974044172761319 0 7.9496393353038753e-05 -0.049629194058427466 0 -0.00065159048154762921 -0.047671503347125464 0 1.3826844687892214e-06 -0.049995031882540085 0 -2.1258518826560113e-06 -0.046974044172761319 0 7.9496393353038753e-05 -0.049629194058427466 0 3.3959420844780328e-05 -0.046631379623379939 0 -5.5022714480911971e-05 -0.048858359984015526 0 3.3959420844780328e-05 -0.046631379623379939 0 -0.00032067885312876113 -0.044398495686135638 0 7.9496393353038753e-05 -0.049629194058427466 0 -0.00065159048154762921 -0.047671503347125464 0 -0.00041427155240227704 -0.049609260061342988 0 0.00036534172691445158 -0.046988317127956411 0 -0.00027819212841719894 -0.047639344189567508 0 0.00034273733082586916 -0.047886610298419827 0 -3.348017355294872e-06 -0.046329477440916138 0 -0.00036608120717516508 -0.045140634689888923 0 5.5612172762346336e-07 -0.043754504163956154 0 1.9491972105579809e-08 -0.046333500471105175 0 3.3959420844780328e-05 -0.046631379623379939 0 3.3102075933007365e-09 -0.046963839262142669 0 -2.5113130610677285e-09 -0.046335648178748447 0 3.7398754954413881e-07 -0.046322517829730028 0 -1.9422339938105675e-07 -0.046965603459314227 0 3.3959420844780328e-05 -0.046631379623379939 0 -0.00036608120717516508 -0.045140634689888923 0 5.5612172762346336e-07 -0.043754504163956154 0 -0.00069125973909620205 -0.04151360354749456 0 -0.00027819212841719894 -0.047639344189567508 0 -0.00018254819262895637 -0.04826708344553382 0 -0.00086562207698568879 -0.04826022292121989 0 -0.00027819212841719894 -0.047639344189567508 0 -0.00018254819262895637 -0.04826708344553382 0 0.00034273733082586916 -0.047886610298419827 0 -0.00018254819262895637 -0.04826708344553382 0 0.00034273733082586916 -0.047886610298419827 0 0.00027704887641590091 -0.048779320997545741 0 7.9496393353038753e-05 -0.049629194058427466 0 -0.00041427155240227704 -0.049609260061342988 0 -0.00010968415728118325 -0.049822348643948695 0 -5.5022714480911971e-05 -0.048858359984015526 0 6.758813111344198e-05 -0.049254862917109579 0 -0.00018254819262895637 -0.04826708344553382 0 0.00027704887641590091 -0.048779320997545741 0 -0.00039841057366248267 -0.048731603830331545 0 -0.00018254819262895637 -0.04826708344553382 0 -0.00039841057366248267 -0.048731603830331545 0 -0.00086562207698568879 -0.04826022292121989 0 0.00027704887641590091 -0.048779320997545741 0 -0.00039841057366248267 -0.048731603830331545 0 -0.00022344519325720813 -0.049283343522965324 0 -0.00078461264069358821 -0.048817475617611072 0 -0.0010379038289255527 -0.048799461816634304 0 -0.00086562207698568879 -0.04826022292121989 0 -0.00039841057366248267 -0.048731603830331545 0 -0.00078461264069358821 -0.048817475617611072 0 -0.00086562207698568879 -0.04826022292121989 0 -0.00039841057366248267 -0.048731603830331545 0 -0.00078461264069358821 -0.048817475617611072 0 -0.00052481475440493909 -0.049109800836127662 0 -0.0014275639222042385 -0.042066309339386522 0 -0.0004195812692436355 -0.043954076135789534 0 -0.0010379038289255527 -0.048799461816634304 0 -0.0014525913910472044 -0.048817692767178997 0 -0.00086562207698568879 -0.04826022292121989 0 0.00020849962511250837 -0.038386449555034299 0 -0.00014038226826345118 -0.039138391079544491 0 0.00026375844994178018 -0.038667217956368655 0 -0.00014038226826345118 -0.039138391079544491 0 0.00027049001059567632 -0.039426362169904854 0 0.00026375844994178018 -0.038667217956368655 0 -0.00032067885312876113 -0.044398495686135638 0 -0.0004195812692436355 -0.043954076135789534 0 -0.00069125973909620205 -0.04151360354749456 0 -0.00014038226826345118 -0.039138391079544491 0 2.2653706283922658e-05 -0.041035081004411916 0 5.5612172762346336e-07 -0.043754504163956154 0 -0.00069125973909620205 -0.04151360354749456 0 2.2653706283922658e-05 -0.041035081004411916 0 5.5612172762346336e-07 -0.043754504163956154 0 2.2653706283922658e-05 -0.041035081004411916 0 3.2329432024303496e-07 -0.041175199845325867 0 2.2653706283922658e-05 -0.041035081004411916 0 3.2329432024303496e-07 -0.041175199845325867 0 0.00027049001059567632 -0.039426362169904854 0 -0.00014038226826345118 -0.039138391079544491 0 2.2653706283922658e-05 -0.041035081004411916 0 0.00027049001059567632 -0.039426362169904854 0 0.00027049001059567632 -0.039426362169904854 0 0.00015722449703338179 -0.039305503154132816 0 0.0002089591031155143 -0.038162953026492877 0 0.00027049001059567632 -0.039426362169904854 0 0.0002089591031155143 -0.038162953026492877 0 0.00030715253502644837 -0.038258435937610163 0 0.00015722449703338179 -0.039305503154132816 0 3.9846905653932108e-07 -0.038597242562085979 0 0.0002089591031155143 -0.038162953026492877 0 3.2329432024303496e-07 -0.041175199845325867 0 0.00027049001059567632 -0.039426362169904854 0 0.00015722449703338179 -0.039305503154132816 0 3.2329432024303496e-07 -0.041175199845325867 0 0.00015722449703338179 -0.039305503154132816 0 3.9846905653932108e-07 -0.038597242562085979 0 0.00013328904578435513 -0.036893550722519902 0 3.9846905653932108e-07 -0.038597242562085979 0 0.0002089591031155143 -0.038162953026492877 0 0.00013328904578435513 -0.036893550722519902 0 0.0002089591031155143 -0.038162953026492877 0 0.00015057130540222909 -0.037386120083818024 0 0.00017191597751438215 -0.036473329168589474 0 -0.00082868772450461672 -0.035790733065132231 0 -2.4495542283037633e-05 -0.036088803014050597 0 -0.00061935098399741465 -0.03469101887281293 0 -0.0014561130602008608 -0.034795567091102687 0 -2.4495542283037633e-05 -0.036088803014050597 0 0.00015057130540222909 -0.037386120083818024 0 0.00028083957337219414 -0.03821994168198567 0 0.00015057130540222909 -0.037386120083818024 0 0.00030715253502644837 -0.038258435937610163 0 0.00028083957337219414 -0.03821994168198567 0 0.0002089591031155143 -0.038162953026492877 0 0.00015057130540222909 -0.037386120083818024 0 0.00030715253502644837 -0.038258435937610163 0 0.00026375844994178018 -0.038667217956368655 0 0.00030715253502644837 -0.038258435937610163 0 0.00028083957337219414 -0.03821994168198567 0 0.00027049001059567632 -0.039426362169904854 0 0.00026375844994178018 -0.038667217956368655 0 0.00030715253502644837 -0.038258435937610163 0 -0.0014275639222042385 -0.042066309339386522 0 -0.00082868772450461672 -0.035790733065132231 0 0.00020849962511250837 -0.038386449555034299 0 0.00026375844994178018 -0.038667217956368655 0 0.00028083957337219414 -0.03821994168198567 0 -0.0027021396527331797 -0.034120472991516326 0 -0.0014561130602008608 -0.034795567091102687 0 -0.0022151824805159651 -0.033605916575093271 0 -0.00017794375883085006 -0.033979708415402834 0 -0.00061935098399741465 -0.03469101887281293 0 -0.0007220067610319192 -0.03381159451461075 0 -0.00061935098399741465 -0.03469101887281293 0 -0.0014561130602008608 -0.034795567091102687 0 -0.0022151824805159651 -0.033605916575093271 0 -0.00098507284389069433 -0.033182160307531135 0 -0.0018227637251916212 -0.037999325396563005 0 -0.0007220067610319192 -0.03381159451461075 0 -0.0014111814868511634 -0.033725803924157888 0 -0.00089899205361108621 -0.033312221500170928 0 -0.00061935098399741465 -0.03469101887281293 0 -0.0007220067610319192 -0.03381159451461075 0 -0.0014111814868511634 -0.033725803924157888 0 -0.00038351685695463934 -0.03348201036532792 0 -0.0007220067610319192 -0.03381159451461075 0 -0.00089899205361108621 -0.033312221500170928 0 -0.00038351685695463934 -0.03348201036532792 0 -0.00017794375883085006 -0.033979708415402834 0 -0.0007220067610319192 -0.03381159451461075 0 -0.0014275639222042385 -0.042066309339386522 0 -0.0018227637251916212 -0.037999325396563005 0 -0.0016090981970179642 -0.048041998628121314 0 -0.0021180719549290816 -0.048523168905665034 0 -0.0014466581433010628 -0.048710315825817925 0 -0.0018227637251916212 -0.037999325396563005 0 -0.00046761293530463269 -0.044082756407056084 0 -0.0013843609892558687 -0.034376716107779842 0 -0.0013400955279358267 -0.033667115369929897 0 -0.00083068981706007911 -0.033725507502748844 0 -0.0018227637251916212 -0.037999325396563005 0 -0.00045935895359683717 -0.033281345843172126 0 -0.0013400955279358267 -0.033667115369929897 0 -0.00083068981706007911 -0.033725507502748844 0 -0.00099584864934869604 -0.032815317841154462 0 0.00084322073983307013 -0.049362674724889852 0 0.00056927715372938846 -0.049429083526729388 0 0.00046764450149372873 -0.049629950063600235 0 -0.0013400955279358267 -0.033667115369929897 0 -0.00099584864934869604 -0.032815317841154462 0 -0.0021605173219001925 -0.033773759560940565 0 -7.348036220061593e-05 -0.040284345140901005 0 -0.00046761293530463269 -0.044082756407056084 0 -0.0013843609892558687 -0.034376716107779842 0 -0.0013400955279358267 -0.033667115369929897 0 -0.0021605173219001925 -0.033773759560940565 0 -0.00083068981706007911 -0.033725507502748844 0 -0.00036929240883810184 -0.033040491778726498 0 -0.00099584864934869604 -0.032815317841154462 0 -0.00038351685695463934 -0.03348201036532792 0 -0.00089899205361108621 -0.033312221500170928 0 -0.00036929240883810184 -0.033040491778726498 0 -0.00045935895359683717 -0.033281345843172126 0 -0.00055273945963772958 -0.033231717998617231 0 0.0015300961382641372 -0.043726724382642433 0 -7.348036220061593e-05 -0.040284345140901005 0 -0.00022640461008511167 -0.032682396037663382 0 -0.00036929240883810184 -0.033040491778726498 0 -0.00099584864934869604 -0.032815317841154462 0 -0.00022640461008511167 -0.032682396037663382 0 -8.4220846209286999e-05 -0.032245818063144575 0 -0.00099584864934869604 -0.032815317841154462 0 0.0022433489163070836 -0.049262908748662557 0 0.0020353801380508531 -0.048700579533995036 0 0.0015695716376652447 -0.048874502182203419 0 0.0022433489163070836 -0.049262908748662557 0 0.0012454829414625635 -0.049291247409791572 0 0.0015695716376652447 -0.048874502182203419 0 0.0015300961382641372 -0.043726724382642433 0 0.001075013313282345 -0.049706119441496326 0 0.0012994741068310302 -0.048963543639187215 0 0.00079392090292830703 -0.049061730774188114 0 0.00084322073983307013 -0.049362674724889852 0 0.0012454829414625635 -0.049291247409791572 0 0.00040660723786607701 -0.04922972178644397 0 0.00085244442264875828 -0.048757378618064791 0 0.0012454829414625635 -0.049291247409791572 0 0.00085244442264875828 -0.048757378618064791 0 0.0015695716376652447 -0.048874502182203419 0 0.001075013313282345 -0.049706119441496326 0 0.00043843495865343709 -0.049116989209208414 0 0.00079392090292830703 -0.049061730774188114 0 0.00062429974269429575 -0.04928307253775005 0 0.00040660723786607701 -0.04922972178644397 0 0.00084322073983307013 -0.049362674724889852 0 0.00062429974269429575 -0.04928307253775005 0 0.00056927715372938846 -0.049429083526729388 0 0.00079392090292830703 -0.049061730774188114 0 0.00084322073983307013 -0.049362674724889852 0 0.00062429974269429575 -0.04928307253775005 0 0.00047724456909813709 -0.049386910146022402 0 0.00056927715372938846 -0.049429083526729388 0 0.00040602332527869443 -0.049486895337822065 0 0.00062429974269429575 -0.04928307253775005 0 0.00047724456909813709 -0.049386910146022402 0 0.00056927715372938846 -0.049429083526729388 0 0.00047724456909813709 -0.049386910146022402 0 0.00040602332527869443 -0.049486895337822065 0 0.00034035941045926601 -0.049392054616331886 0 0.00047724456909813709 -0.049386910146022402 0 0.00034035941045926601 -0.049392054616331886 0 0.00040660723786607701 -0.04922972178644397 0 0.00062429974269429575 -0.04928307253775005 0 0.00047724456909813709 -0.049386910146022402 0 0.00040660723786607701 -0.04922972178644397 0 0.00040660723786607701 -0.04922972178644397 0 6.4982884831209112e-05 -0.049180563579675658 0 0.00025723073651247991 -0.04889349510353358 0 0.00040660723786607701 -0.04922972178644397 0 6.4982884831209112e-05 -0.049180563579675658 0 0.00019223364024340816 -0.049335884773595212 0 6.4982884831209112e-05 -0.049180563579675658 0 0.00019223364024340816 -0.049335884773595212 0 -9.2330593880088748e-05 -0.049373712296922397 0 0.00019223364024340816 -0.049335884773595212 0 0.00023930115927544185 -0.049510119490608739 0 -9.2330593880088748e-05 -0.049373712296922397 0 -0.00046785276272113375 -0.049602351036008289 0 -0.00045856420905874325 -0.04956251541699145 0 -9.2330593880088748e-05 -0.049373712296922397 0 0.00034035941045926601 -0.049392054616331886 0 0.00040660723786607701 -0.04922972178644397 0 0.00019223364024340816 -0.049335884773595212 0 0.00034035941045926601 -0.049392054616331886 0 0.00019223364024340816 -0.049335884773595212 0 0.00023930115927544185 -0.049510119490608739 0 0.00040602332527869443 -0.049486895337822065 0 0.00034035941045926601 -0.049392054616331886 0 0.00023930115927544185 -0.049510119490608739 0 0.00029697780669402129 -0.050102114899125881 0 -0.00032829373083686949 -0.049216230941765735 0 -0.00045856420905874325 -0.04956251541699145 0 -0.00033392826668747158 -0.049569173959623694 0 -0.00024766339549380732 -0.04970345975987038 0 -0.00045856420905874325 -0.04956251541699145 0 -0.00044246709481504074 -0.049469511709502263 0 -0.00033392826668747158 -0.049569173959623694 0 -0.00056017060639588828 -0.049279418451757186 0 -0.00065652128796058601 -0.048823400431050608 0 -0.0003476597821704166 -0.049457913303440688 0 -0.00045856420905874325 -0.04956251541699145 0 -0.00044246709481504074 -0.049469511709502263 0 -0.00053848711613801103 -0.049461575158553768 0 -0.00044246709481504074 -0.049469511709502263 0 -0.0003476597821704166 -0.049457913303440688 0 -0.00033392826668747158 -0.049569173959623694 0 -0.00044246709481504074 -0.049469511709502263 0 -0.00056017060639588828 -0.049279418451757186 0 -0.0003476597821704166 -0.049457913303440688 0 -0.00044246709481504074 -0.049469511709502263 0 -0.00056017060639588828 -0.049279418451757186 0 -0.00053848711613801103 -0.049461575158553768 0 -0.00056017060639588828 -0.049279418451757186 0 -0.00067633249844221781 -0.0493668954849018 0 -0.00053848711613801103 -0.049461575158553768 0 -0.00073579595553098975 -0.049182062784933499 0 -0.00067633249844221781 -0.0493668954849018 0 -0.00081525641656992188 -0.049319146816856028 0 -0.00073579595553098975 -0.049182062784933499 0 -0.00056017060639588828 -0.049279418451757186 0 -0.00067633249844221781 -0.0493668954849018 0 -0.00046785276272113375 -0.049602351036008289 0 -0.00067633249844221781 -0.0493668954849018 0 -0.00053848711613801103 -0.049461575158553768 0 -0.00046785276272113375 -0.049602351036008289 0 -0.00067633249844221781 -0.0493668954849018 0 -0.00081525641656992188 -0.049319146816856028 0 -0.00046785276272113375 -0.049602351036008289 0 -0.00045856420905874325 -0.04956251541699145 0 -0.00053848711613801103 -0.049461575158553768 0 0.00029697780669402129 -0.050102114899125881 0 -0.00046761293530463269 -0.044082756407056084 0 0.00040602332527869443 -0.049486895337822065 0 0.00023930115927544185 -0.049510119490608739 0 0.00046764450149372873 -0.049629950063600235 0 -0.00046785276272113375 -0.049602351036008289 0 -0.001068417278551004 -0.04927458281372845 0 -0.00081525641656992188 -0.049319146816856028 0 0.00056927715372938846 -0.049429083526729388 0 0.00040602332527869443 -0.049486895337822065 0 0.00046764450149372873 -0.049629950063600235 0 -0.00046761293530463269 -0.044082756407056084 0 -0.0018224046217437144 -0.046417513891013715 0 -0.001068417278551004 -0.04927458281372845 0 -0.00081525641656992188 -0.049319146816856028 0 -0.00092847134195828975 -0.049118637144265551 0 -0.001205854256796255 -0.049322757237738227 0 -0.00092847134195828975 -0.049118637144265551 0 -0.0011711089922583722 -0.048986436242343057 0 -0.00073579595553098975 -0.049182062784933499 0 -0.00081525641656992188 -0.049319146816856028 0 -0.00092847134195828975 -0.049118637144265551 0 -0.00092847134195828975 -0.049118637144265551 0 -0.0011711089922583722 -0.048986436242343057 0 -0.00065652128796058601 -0.048823400431050608 0 -0.0014466581433010628 -0.048710315825817925 0 -0.0011711089922583722 -0.048986436242343057 0 -0.00065652128796058601 -0.048823400431050608 0 -0.0014275639222042385 -0.042066309339386522 0 -0.00037510200063915452 -0.049469560350351494 0 -0.00073579595553098975 -0.049182062784933499 0 -0.00092847134195828975 -0.049118637144265551 0 -0.00065652128796058601 -0.048823400431050608 0 -0.0016090981970179642 -0.048041998628121314 0 -0.0014466581433010628 -0.048710315825817925 0 -0.00065652128796058601 -0.048823400431050608 0 -0.0010379038289255527 -0.048799461816634304 0 -0.0014525913910472044 -0.048817692767178997 0 -0.00092696549449880255 -0.049189913342780001 0 -0.0021180719549290816 -0.048523168905665034 0 -0.001205854256796255 -0.049322757237738227 0 -0.0014466581433010628 -0.048710315825817925 0 -0.001205854256796255 -0.049322757237738227 0 -0.0014466581433010628 -0.048710315825817925 0 -0.0011711089922583722 -0.048986436242343057 0 -0.00037510200063915452 -0.049469560350351494 0 -0.00058528123450181802 -0.049247222881202084 0 -0.00078461264069358821 -0.048817475617611072 0 -0.0010379038289255527 -0.048799461816634304 0 -0.00092696549449880255 -0.049189913342780001 0 -0.00052481475440493909 -0.049109800836127662 0 -0.00092696549449880255 -0.049189913342780001 0 -0.0003476597821704166 -0.049457913303440688 0 -0.00078461264069358821 -0.048817475617611072 0 -0.00052481475440493909 -0.049109800836127662 0 -0.00092696549449880255 -0.049189913342780001 0 -0.00073579595553098975 -0.049182062784933499 0 -0.00056017060639588828 -0.049279418451757186 0 -0.00065652128796058601 -0.048823400431050608 0 -0.00052481475440493909 -0.049109800836127662 0 -0.00022344519325720813 -0.049283343522965324 0 -0.0003476597821704166 -0.049457913303440688 0 -0.00039841057366248267 -0.048731603830331545 0 -0.00052481475440493909 -0.049109800836127662 0 -0.00022344519325720813 -0.049283343522965324 0 0.00027704887641590091 -0.048779320997545741 0 -0.00022344519325720813 -0.049283343522965324 0 1.9109504373711388e-05 -0.049717400685535776 0 6.758813111344198e-05 -0.049254862917109579 0 3.3739497377825554e-05 -0.049689047441441446 0 1.9109504373711388e-05 -0.049717400685535776 0 -6.1914079222930994e-05 -0.049791779662258111 0 8.8974436241277601e-06 -0.04988921929723264 0 1.9109504373711388e-05 -0.049717400685535776 0 -0.00018232865652382366 -0.04964827858512072 0 -6.1914079222930994e-05 -0.049791779662258111 0 -0.00022344519325720813 -0.049283343522965324 0 1.9109504373711388e-05 -0.049717400685535776 0 -0.00018232865652382366 -0.04964827858512072 0 -0.00018232865652382366 -0.04964827858512072 0 -0.00014965923635255706 -0.049761663780904158 0 -6.1914079222930994e-05 -0.049791779662258111 0 -0.00018232865652382366 -0.04964827858512072 0 -0.00024766339549380732 -0.04970345975987038 0 -0.00014965923635255706 -0.049761663780904158 0 -0.00022344519325720813 -0.049283343522965324 0 -0.00018232865652382366 -0.04964827858512072 0 -0.0003476597821704166 -0.049457913303440688 0 -0.00018232865652382366 -0.04964827858512072 0 -0.0003476597821704166 -0.049457913303440688 0 -0.00033392826668747158 -0.049569173959623694 0 -0.00018232865652382366 -0.04964827858512072 0 -0.00033392826668747158 -0.049569173959623694 0 -0.00024766339549380732 -0.04970345975987038 0 -0.00045856420905874325 -0.04956251541699145 0 -0.00024766339549380732 -0.04970345975987038 0 -0.00010665176640413847 -0.049909160943875097 0 -0.00039507179866003165 -0.049564311697337243 0 -8.3540722555453786e-05 -0.049627650734057414 0 -0.00045856420905874325 -0.04956251541699145 0 -3.4386819837353352e-05 -0.0493217686698652 0 -9.2330593880088748e-05 -0.049373712296922397 0 -0.00024766339549380732 -0.04970345975987038 0 -0.00014965923635255706 -0.049761663780904158 0 -0.00010665176640413847 -0.049909160943875097 0 -0.00014965923635255706 -0.049761663780904158 0 -0.00010665176640413847 -0.049909160943875097 0 -6.1914079222930994e-05 -0.049791779662258111 0 6.4982884831209112e-05 -0.049180563579675658 0 -9.2330593880088748e-05 -0.049373712296922397 0 -4.8028893389951829e-05 -0.049282653569676926 0 -3.4386819837353352e-05 -0.0493217686698652 0 -9.2330593880088748e-05 -0.049373712296922397 0 -4.8028893389951829e-05 -0.049282653569676926 0 6.4982884831209112e-05 -0.049180563579675658 0 -4.8028893389951829e-05 -0.049282653569676926 0 -5.6892421260046123e-05 -0.049205599801541093 0 -3.4386819837353352e-05 -0.0493217686698652 0 -4.8028893389951829e-05 -0.049282653569676926 0 -7.198904429717852e-05 -0.04935020793832192 0 -8.3540722555453786e-05 -0.049627650734057414 0 -4.4898013015241042e-05 -0.049659103084359023 0 -0.00010665176640413847 -0.049909160943875097 0 8.8974436241277601e-06 -0.04988921929723264 0 1.6595581492628438e-05 -0.049938823272892945 0 -4.8028893389951829e-05 -0.049282653569676926 0 -7.198904429717852e-05 -0.04935020793832192 0 -5.6892421260046123e-05 -0.049205599801541093 0 -0.00010665176640413847 -0.049909160943875097 0 -6.1914079222930994e-05 -0.049791779662258111 0 8.8974436241277601e-06 -0.04988921929723264 0 8.8974436241277601e-06 -0.04988921929723264 0 1.6595581492628438e-05 -0.049938823272892945 0 -2.540713346726913e-07 -0.05000089111486495 0 1.6595581492628438e-05 -0.049938823272892945 0 -2.540713346726913e-07 -0.05000089111486495 0 2.1681955685905521e-06 -0.049939260672893483 0 1.9109504373711388e-05 -0.049717400685535776 0 8.8974436241277601e-06 -0.04988921929723264 0 -2.540713346726913e-07 -0.05000089111486495 0 -0.00010968415728118325 -0.049822348643948695 0 1.9109504373711388e-05 -0.049717400685535776 0 -2.540713346726913e-07 -0.05000089111486495 0 -2.540713346726913e-07 -0.05000089111486495 0 9.4249060950041344e-08 -0.049997976002802189 0 2.1681955685905521e-06 -0.049939260672893483 0 -3.0291715974071932e-06 -0.049622842815873862 0 9.4249060950041344e-08 -0.049997976002802189 0 1.0163388176735754e-05 -0.049861885387383197 0 -3.0291715974071932e-06 -0.049622842815873862 0 2.9210196737517038e-05 -0.049288384921337705 0 -2.0189945171165657e-06 -0.049529095363690892 0 -3.0291715974071932e-06 -0.049622842815873862 0 -2.2009258890209894e-05 -0.049618125180016598 0 -4.4819104940047387e-06 -0.049214554048231787 0 -3.0291715974071932e-06 -0.049622842815873862 0 -2.2009258890209894e-05 -0.049618125180016598 0 9.4249060950041344e-08 -0.049997976002802189 0 -2.2009258890209894e-05 -0.049618125180016598 0 2.1681955685905521e-06 -0.049939260672893483 0 -6.9611472238349887e-05 -0.049321086369737699 0 -2.2009258890209894e-05 -0.049618125180016598 0 9.4249060950041344e-08 -0.049997976002802189 0 2.1681955685905521e-06 -0.049939260672893483 0 -7.198904429717852e-05 -0.04935020793832192 0 2.1681955685905521e-06 -0.049939260672893483 0 -6.9611472238349887e-05 -0.049321086369737699 0 -4.4898013015241042e-05 -0.049659103084359023 0 -8.7879273478289949e-07 -0.049883917580669991 0 -2.2009258890209894e-05 -0.049618125180016598 0 -6.9611472238349887e-05 -0.049321086369737699 0 -4.4819104940047387e-06 -0.049214554048231787 0 -7.198904429717852e-05 -0.04935020793832192 0 -6.9611472238349887e-05 -0.049321086369737699 0 -5.6892421260046123e-05 -0.049205599801541093 0 -6.9611472238349887e-05 -0.049321086369737699 0 -5.6892421260046123e-05 -0.049205599801541093 0 -2.4944195327066984e-05 -0.049116547209934032 0 6.4982884831209112e-05 -0.049180563579675658 0 -5.6892421260046123e-05 -0.049205599801541093 0 5.5612800395280729e-05 -0.049028489170337697 0 -5.6892421260046123e-05 -0.049205599801541093 0 -2.4944195327066984e-05 -0.049116547209934032 0 5.5612800395280729e-05 -0.049028489170337697 0 -2.4944195327066984e-05 -0.049116547209934032 0 5.5612800395280729e-05 -0.049028489170337697 0 2.4411201883441351e-05 -0.04890739996665712 0 -6.9611472238349887e-05 -0.049321086369737699 0 2.4411201883441351e-05 -0.04890739996665712 0 1.3656481022928066e-05 -0.048841059496403064 0 -6.9611472238349887e-05 -0.049321086369737699 0 -2.4944195327066984e-05 -0.049116547209934032 0 2.4411201883441351e-05 -0.04890739996665712 0 2.4411201883441351e-05 -0.04890739996665712 0 1.3656481022928066e-05 -0.048841059496403064 0 0.00015442749907839019 -0.048424757100777364 0 1.3656481022928066e-05 -0.048841059496403064 0 -4.4819104940047387e-06 -0.049214554048231787 0 5.3472507615784963e-05 -0.048887659424726997 0 -6.9611472238349887e-05 -0.049321086369737699 0 1.3656481022928066e-05 -0.048841059496403064 0 -4.4819104940047387e-06 -0.049214554048231787 0 -3.0291715974071932e-06 -0.049622842815873862 0 -4.4819104940047387e-06 -0.049214554048231787 0 2.9210196737517038e-05 -0.049288384921337705 0 -4.4819104940047387e-06 -0.049214554048231787 0 2.9210196737517038e-05 -0.049288384921337705 0 5.3472507615784963e-05 -0.048887659424726997 0 5.3472507615784963e-05 -0.048887659424726997 0 -7.646927527485111e-06 -0.048334844458670811 0 7.1890279374340466e-05 -0.048942463683006449 0 1.3656481022928066e-05 -0.048841059496403064 0 5.3472507615784963e-05 -0.048887659424726997 0 -7.646927527485111e-06 -0.048334844458670811 0 -7.646927527485111e-06 -0.048334844458670811 0 0.00039173019427272678 -0.047786065727427642 0 0.00015442749907839019 -0.048424757100777364 0 -7.646927527485111e-06 -0.048334844458670811 0 0.00039173019427272678 -0.047786065727427642 0 0.00045915217435099734 -0.046722503896917615 0 0.00039173019427272678 -0.047786065727427642 0 0.00059307032541456651 -0.048008508432922349 0 0.00015442749907839019 -0.048424757100777364 0 0.00039173019427272678 -0.047786065727427642 0 0.00059307032541456651 -0.048008508432922349 0 0.0010540632807680586 -0.047543511110348435 0 1.3656481022928066e-05 -0.048841059496403064 0 -7.646927527485111e-06 -0.048334844458670811 0 0.00015442749907839019 -0.048424757100777364 0 2.4411201883441351e-05 -0.04890739996665712 0 0.00015442749907839019 -0.048424757100777364 0 0.0001961408097072853 -0.048674117295154667 0 0.00015442749907839019 -0.048424757100777364 0 0.0001961408097072853 -0.048674117295154667 0 0.00050959040466353302 -0.048409794535319045 0 0.0001961408097072853 -0.048674117295154667 0 0.00025723073651247991 -0.04889349510353358 0 0.00050959040466353302 -0.048409794535319045 0 5.5612800395280729e-05 -0.049028489170337697 0 2.4411201883441351e-05 -0.04890739996665712 0 0.0001961408097072853 -0.048674117295154667 0 5.5612800395280729e-05 -0.049028489170337697 0 0.0001961408097072853 -0.048674117295154667 0 0.00025723073651247991 -0.04889349510353358 0 6.4982884831209112e-05 -0.049180563579675658 0 5.5612800395280729e-05 -0.049028489170337697 0 0.00025723073651247991 -0.04889349510353358 0 0.00040660723786607701 -0.04922972178644397 0 0.00025723073651247991 -0.04889349510353358 0 0.00085244442264875828 -0.048757378618064791 0 0.00025723073651247991 -0.04889349510353358 0 0.00050959040466353302 -0.048409794535319045 0 0.00085244442264875828 -0.048757378618064791 0 0.00059307032541456651 -0.048008508432922349 0 0.00015442749907839019 -0.048424757100777364 0 0.00050959040466353302 -0.048409794535319045 0 0.00059307032541456651 -0.048008508432922349 0 0.00050959040466353302 -0.048409794535319045 0 0.0010147151563205123 -0.048089091440257671 0 0.00050959040466353302 -0.048409794535319045 0 0.0010147151563205123 -0.048089091440257671 0 0.00085244442264875828 -0.048757378618064791 0 0.0010147151563205123 -0.048089091440257671 0 0.0014811048672926255 -0.048381662955733686 0 0.0018416618753321636 -0.047460240619062226 0 0.0010147151563205123 -0.048089091440257671 0 0.0018416618753321636 -0.047460240619062226 0 0.0010540632807680586 -0.047543511110348435 0 0.0010147151563205123 -0.048089091440257671 0 0.00085244442264875828 -0.048757378618064791 0 0.0014811048672926255 -0.048381662955733686 0 0.00085244442264875828 -0.048757378618064791 0 0.0015695716376652447 -0.048874502182203419 0 0.0014811048672926255 -0.048381662955733686 0 0.0020353801380508531 -0.048700579533995036 0 0.0015695716376652447 -0.048874502182203419 0 0.0014811048672926255 -0.048381662955733686 0 0.0022321366408266487 -0.048412251634711363 0 0.0014811048672926255 -0.048381662955733686 0 0.0022947612054983611 -0.04783431685865526 0 0.0021946639473380668 -0.04856685829862837 0 0.0015333180609167795 -0.048346877061945542 0 0.0014811048672926255 -0.048381662955733686 0 0.0018416618753321636 -0.047460240619062226 0 0.0022947612054983611 -0.04783431685865526 0 0.0018416618753321636 -0.047460240619062226 0 0.0016745312693474828 -0.046312284198765589 0 0.0025405103901195185 -0.046460699482327693 0 0.0018416618753321636 -0.047460240619062226 0 0.0010540632807680586 -0.047543511110348435 0 0.0016745312693474828 -0.046312284198765589 0 0.00059307032541456651 -0.048008508432922349 0 0.0010147151563205123 -0.048089091440257671 0 0.0010540632807680586 -0.047543511110348435 0 0.00039173019427272678 -0.047786065727427642 0 0.00069048893980998825 -0.047109953965961841 0 0.001098777170924994 -0.047177636508821591 0 0.00039173019427272678 -0.047786065727427642 0 0.0010540632807680586 -0.047543511110348435 0 0.0016745312693474828 -0.046312284198765589 0 0.00045713216243442671 -0.047625126802189527 0 0.0014121209037464666 -0.046791518073620024 0 0.001098777170924994 -0.047177636508821591 0 0.0013768784230501615 -0.04630400397829993 0 0.00081350901544209695 -0.046528668943206467 0 0.00069048893980998825 -0.047109953965961841 0 0.001098777170924994 -0.047177636508821591 0 0.00081350901544209695 -0.046528668943206467 0 0.00069048893980998825 -0.047109953965961841 0 0.00081350901544209695 -0.046528668943206467 0 0.00045915217435099734 -0.046722503896917615 0 0.00051456918654877565 -0.047648122946224725 0 0.00016659963288227585 -0.04788665193953294 0 -0.00011670211309780042 -0.049108205230473552 0 -9.841815822280724e-06 -0.04916710680358468 0 -6.8240846706108815e-05 -0.049131266518790753 0 -0.00011670211309780042 -0.049108205230473552 0 -9.841815822280724e-06 -0.04916710680358468 0 -0.00020253758297472546 -0.049044864804684528 0 0.00081350901544209695 -0.046528668943206467 0 0.00095750511916887506 -0.04613479090470142 0 0.00045915217435099734 -0.046722503896917615 0 0.0013768784230501615 -0.04630400397829993 0 0.0013525836803736314 -0.045580640282686768 0 0.0016394066720602522 -0.045655883471793071 0 0.00081350901544209695 -0.046528668943206467 0 0.0010945123621608048 -0.046198887652130032 0 0.00095750511916887506 -0.04613479090470142 0 0.0013768784230501615 -0.04630400397829993 0 0.00081350901544209695 -0.046528668943206467 0 0.0013525836803736314 -0.045580640282686768 0 0.00084840972169223663 -0.04642081017995002 0 0.0012337356639830353 -0.045974067721924486 0 -7.4851134142089108e-06 -0.049124124253959643 0 3.7592131131766065e-05 -0.049110365527713896 0 0.00013927894783567535 -0.048974308837647529 0 -9.841815822280724e-06 -0.04916710680358468 0 3.7592131131766065e-05 -0.049110365527713896 0 0.00020217323432237901 -0.049024957282241301 0 0.0010945123621608048 -0.046198887652130032 0 0.00095750511916887506 -0.04613479090470142 0 0.0013198903577075394 -0.045990586667848249 0 0.00051456918654877565 -0.047648122946224725 0 0.00051768434321813666 -0.047385350974685735 0 -9.841815822280724e-06 -0.04916710680358468 0 -7.4851134142089108e-06 -0.049124124253959643 0 -3.4227232841346399e-05 -0.049134625677183193 0 -9.841815822280724e-06 -0.04916710680358468 0 -7.4851134142089108e-06 -0.049124124253959643 0 3.7592131131766065e-05 -0.049110365527713896 0 -7.4851134142089108e-06 -0.049124124253959643 0 2.377466079179026e-05 -0.049139492275640725 0 7.6336682821835975e-05 -0.049158053252278393 0 3.87551617568922e-05 -0.049144197579184118 0 2.377466079179026e-05 -0.049139492275640725 0 7.6336682821835975e-05 -0.049158053252278393 0 -1.4190852202934282e-05 -0.049241666857291838 0 6.759060076464255e-05 -0.048626892156703884 0 3.87551617568922e-05 -0.049144197579184118 0 2.377466079179026e-05 -0.049139492275640725 0 5.2746950311116948e-06 -0.049141603448958751 0 -7.4851134142089108e-06 -0.049124124253959643 0 2.377466079179026e-05 -0.049139492275640725 0 5.2746950311116948e-06 -0.049141603448958751 0 3.87551617568922e-05 -0.049144197579184118 0 5.2746950311116948e-06 -0.049141603448958751 0 4.0640241878015417e-05 -0.04914196739855127 0 3.87551617568922e-05 -0.049144197579184118 0 6.6674409790220711e-05 -0.049151349666753941 0 7.0787029591622106e-05 -0.049144656039711167 0 3.87551617568922e-05 -0.049144197579184118 0 7.0787029591622106e-05 -0.049144656039711167 0 4.0640241878015417e-05 -0.04914196739855127 0 -3.9471898629289816e-06 -0.049150072101221645 0 5.2746950311116948e-06 -0.049141603448958751 0 4.0640241878015417e-05 -0.04914196739855127 0 -3.9471898629289816e-06 -0.049150072101221645 0 5.2746950311116948e-06 -0.049141603448958751 0 -3.1912652988764293e-05 -0.049139165990433442 0 -7.4851134142089108e-06 -0.049124124253959643 0 -3.1912652988764293e-05 -0.049139165990433442 0 -3.4227232841346399e-05 -0.049134625677183193 0 -7.4851134142089108e-06 -0.049124124253959643 0 5.2746950311116948e-06 -0.049141603448958751 0 -3.1912652988764293e-05 -0.049139165990433442 0 -9.841815822280724e-06 -0.04916710680358468 0 -3.4227232841346399e-05 -0.049134625677183193 0 -6.8240846706108815e-05 -0.049131266518790753 0 -3.1912652988764293e-05 -0.049139165990433442 0 -3.4227232841346399e-05 -0.049134625677183193 0 -6.8240846706108815e-05 -0.049131266518790753 0 -0.00011670211309780042 -0.049108205230473552 0 -6.8240846706108815e-05 -0.049131266518790753 0 -6.8347520840883783e-05 -0.049140052124536156 0 -3.1912652988764293e-05 -0.049139165990433442 0 -6.8240846706108815e-05 -0.049131266518790753 0 -6.8347520840883783e-05 -0.049140052124536156 0 -3.1912652988764293e-05 -0.049139165990433442 0 -6.8347520840883783e-05 -0.049140052124536156 0 -2.34113769670078e-05 -0.049160466016810518 0 -6.8347520840883783e-05 -0.049140052124536156 0 -2.2823375316632473e-05 -0.049162777773490061 0 -9.0433487632295294e-05 -0.049101245604316668 0 -6.8347520840883783e-05 -0.049140052124536156 0 -2.34113769670078e-05 -0.049160466016810518 0 -2.2823375316632473e-05 -0.049162777773490061 0 -3.9471898629289816e-06 -0.049150072101221645 0 -3.1912652988764293e-05 -0.049139165990433442 0 -2.34113769670078e-05 -0.049160466016810518 0 -3.9471898629289816e-06 -0.049150072101221645 0 -2.34113769670078e-05 -0.049160466016810518 0 -4.107383202551253e-06 -0.049155102060441269 0 -2.34113769670078e-05 -0.049160466016810518 0 7.1940592795343453e-06 -0.049176185742784422 0 -4.107383202551253e-06 -0.049155102060441269 0 7.1940592795343453e-06 -0.049176185742784422 0 -2.2823375316632473e-05 -0.049162777773490061 0 3.1584861077467353e-05 -0.049195006151825878 0 -2.34113769670078e-05 -0.049160466016810518 0 7.1940592795343453e-06 -0.049176185742784422 0 -2.2823375316632473e-05 -0.049162777773490061 0 -2.2823375316632473e-05 -0.049162777773490061 0 2.0008697071251475e-06 -0.049112424257782068 0 3.1584861077467353e-05 -0.049195006151825878 0 2.0008697071251475e-06 -0.049112424257782068 0 -9.0433487632295294e-05 -0.049101245604316668 0 -4.7489232577969171e-05 -0.048962237552639579 0 -2.2823375316632473e-05 -0.049162777773490061 0 2.0008697071251475e-06 -0.049112424257782068 0 -9.0433487632295294e-05 -0.049101245604316668 0 -9.0433487632295294e-05 -0.049101245604316668 0 -0.00020253758297472546 -0.049044864804684528 0 -4.7489232577969171e-05 -0.048962237552639579 0 -0.00011670211309780042 -0.049108205230473552 0 -6.8347520840883783e-05 -0.049140052124536156 0 -9.0433487632295294e-05 -0.049101245604316668 0 -0.00011670211309780042 -0.049108205230473552 0 -9.0433487632295294e-05 -0.049101245604316668 0 -0.00020253758297472546 -0.049044864804684528 0 3.3282984328299578e-05 -0.048240320224633669 0 0.00016659963288227585 -0.04788665193953294 0 0.00039173019427272678 -0.047786065727427642 0 0.00069048893980998825 -0.047109953965961841 0 0.00045915217435099734 -0.046722503896917615 0 -7.646927527485111e-06 -0.048334844458670811 0 -4.7489232577969171e-05 -0.048962237552639579 0 7.1890279374340466e-05 -0.048942463683006449 0 -7.646927527485111e-06 -0.048334844458670811 0 -0.00020253758297472546 -0.049044864804684528 0 -4.7489232577969171e-05 -0.048962237552639579 0 2.0008697071251475e-06 -0.049112424257782068 0 -4.7489232577969171e-05 -0.048962237552639579 0 7.1890279374340466e-05 -0.048942463683006449 0 9.4249060950041344e-08 -0.049997976002802189 0 -1.2380235712263419e-08 -0.050000092086897853 0 1.0163388176735754e-05 -0.049861885387383197 0 7.1890279374340466e-05 -0.048942463683006449 0 7.1797948377480135e-05 -0.049207941346515766 0 6.9580413104972628e-05 -0.04918201053458119 0 5.3472507615784963e-05 -0.048887659424726997 0 7.1890279374340466e-05 -0.048942463683006449 0 7.1797948377480135e-05 -0.049207941346515766 0 2.9210196737517038e-05 -0.049288384921337705 0 5.3472507615784963e-05 -0.048887659424726997 0 7.1797948377480135e-05 -0.049207941346515766 0 2.9210196737517038e-05 -0.049288384921337705 0 7.1797948377480135e-05 -0.049207941346515766 0 -2.0189945171165657e-06 -0.049529095363690892 0 7.1797948377480135e-05 -0.049207941346515766 0 4.8901442776832639e-05 -0.049315035757253316 0 -2.0189945171165657e-06 -0.049529095363690892 0 7.1797948377480135e-05 -0.049207941346515766 0 4.8901442776832639e-05 -0.049315035757253316 0 6.9580413104972628e-05 -0.04918201053458119 0 4.8901442776832639e-05 -0.049315035757253316 0 6.9580413104972628e-05 -0.04918201053458119 0 4.8590434164168749e-05 -0.049238327357011252 0 2.0008697071251475e-06 -0.049112424257782068 0 7.1890279374340466e-05 -0.048942463683006449 0 6.9580413104972628e-05 -0.04918201053458119 0 2.0008697071251475e-06 -0.049112424257782068 0 6.9580413104972628e-05 -0.04918201053458119 0 3.1584861077467353e-05 -0.049195006151825878 0 3.1584861077467353e-05 -0.049195006151825878 0 2.3233172066802991e-05 -0.049187946438818672 0 4.8590434164168749e-05 -0.049238327357011252 0 6.9580413104972628e-05 -0.04918201053458119 0 3.1584861077467353e-05 -0.049195006151825878 0 4.8590434164168749e-05 -0.049238327357011252 0 7.1940592795343453e-06 -0.049176185742784422 0 3.1584861077467353e-05 -0.049195006151825878 0 2.3233172066802991e-05 -0.049187946438818672 0 7.1940592795343453e-06 -0.049176185742784422 0 2.3233172066802991e-05 -0.049187946438818672 0 6.9411371032671982e-06 -0.049155295965742148 0 2.3233172066802991e-05 -0.049187946438818672 0 4.2545309813100015e-06 -0.049266028688935516 0 -3.0369593141709671e-05 -0.0491791178324806 0 2.3233172066802991e-05 -0.049187946438818672 0 4.2545309813100015e-06 -0.049266028688935516 0 4.8590434164168749e-05 -0.049238327357011252 0 4.8901442776832639e-05 -0.049315035757253316 0 4.2545309813100015e-06 -0.049266028688935516 0 4.8590434164168749e-05 -0.049238327357011252 0 -0.00011440075997629788 -0.049401323105466043 0 -0.00022588910778843367 -0.049907181385111674 0 -9.4964476001686439e-05 -0.049405717772934038 0 4.2545309813100015e-06 -0.049266028688935516 0 -0.00011440075997629788 -0.049401323105466043 0 -3.0369593141709671e-05 -0.0491791178324806 0 -0.0001105096864348763 -0.049410315679375191 0 -0.00012060775956561608 -0.04953215843093086 0 4.8901442776832639e-05 -0.049315035757253316 0 4.2545309813100015e-06 -0.049266028688935516 0 -0.00011440075997629788 -0.049401323105466043 0 -0.00022588910778843367 -0.049907181385111674 0 4.7054625462181891e-07 -0.049999345666395419 0 -0.00010551148238021284 -0.049969514443086623 0 -0.00022588910778843367 -0.049907181385111674 0 4.7054625462181891e-07 -0.049999345666395419 0 -9.4964476001686439e-05 -0.049405717772934038 0 -4.1413105249839415e-07 -0.050000308820317613 0 4.7054625462181891e-07 -0.049999345666395419 0 -0.00010551148238021284 -0.049969514443086623 0 -4.1917696435459843e-09 -0.049999872051782863 0 -4.3887213024306821e-05 -0.049640138179125964 0 -3.0291715974071932e-06 -0.049622842815873862 0 1.0163388176735754e-05 -0.049861885387383197 0 -2.0189945171165657e-06 -0.049529095363690892 0 -0.00011440075997629788 -0.049401323105466043 0 -9.4964476001686439e-05 -0.049405717772934038 0 -2.0189945171165657e-06 -0.049529095363690892 0 4.8901442776832639e-05 -0.049315035757253316 0 -0.00011440075997629788 -0.049401323105466043 0 -2.0189945171165657e-06 -0.049529095363690892 0 -4.3887213024306821e-05 -0.049640138179125964 0 -8.6524629957179412e-06 -0.04954789721027128 0 0.0040347590636651796 -0.044135855347882148 0 0.0057173720901390872 -0.044542963747169019 0 0.0030557411635192414 -0.041829436447996506 0 0.0057173720901390872 -0.044542963747169019 0 0.0054422232679327241 -0.045037173436833555 0 0.0051359000700599488 -0.045271306647213967 0 0.0057173720901390872 -0.044542963747169019 0 0.0054422232679327241 -0.045037173436833555 0 0.0050108112284633277 -0.045123886016489312 0 0.0054422232679327241 -0.045037173436833555 0 0.0051359000700599488 -0.045271306647213967 0 0.0055019530576867334 -0.045281794406953305 0 0.0054422232679327241 -0.045037173436833555 0 0.0050108112284633277 -0.045123886016489312 0 0.0055019530576867334 -0.045281794406953305 0 0.0018652970491482665 -0.043047699714728278 0 0.0049413286332641885 -0.044848764566701331 0 0.0050108112284633277 -0.045123886016489312 0 0.0027183157205221127 -0.044864743949656782 0 0.004428533475328459 -0.046086744155871086 0 0.0040347590636651796 -0.044135855347882148 0 0.0050108112284633277 -0.045123886016489312 0 0.0027183157205221127 -0.044864743949656782 0 0.0040347590636651796 -0.044135855347882148 0 0.0057173720901390872 -0.044542963747169019 0 0.0050108112284633277 -0.045123886016489312 0 -6.1617929844478233e-05 -0.041862286360760337 0 0.0014722067129250879 -0.041615799124626325 0 0.00094440080992386373 -0.043039398321896356 0 -6.1617929844478233e-05 -0.041862286360760337 0 0.0014722067129250879 -0.041615799124626325 0 0.00037247482943303151 -0.04065322530985311 0 0.0018652970491482665 -0.043047699714728278 0 0.00065432783908191529 -0.041588545500617913 0 0.0040347590636651796 -0.044135855347882148 0 0.0027183157205221127 -0.044864743949656782 0 0.0030557411635192414 -0.041829436447996506 0 0.0027183157205221127 -0.044864743949656782 0 0.00075577236665047966 -0.042460858877620362 0 0.0030557411635192414 -0.041829436447996506 0 0.0030557411635192414 -0.041829436447996506 0 0.00080029921612313434 -0.040332357433740432 0 0.0018197792740435941 -0.038821122945723895 0 -0.00062266462867598799 -0.039831191838139199 0 0.00075577236665047966 -0.042460858877620362 0 0.00080029921612313434 -0.040332357433740432 0 0.00075577236665047966 -0.042460858877620362 0 0.0030557411635192414 -0.041829436447996506 0 0.00080029921612313434 -0.040332357433740432 0 0.00012262684006230984 -0.038333694776252286 0 0.00080029921612313434 -0.040332357433740432 0 0.0018197792740435941 -0.038821122945723895 0 0.00012262684006230984 -0.038333694776252286 0 0.0010799653905618494 -0.036283392715315076 0 0.0018197792740435941 -0.038821122945723895 0 0.0026804080644828973 -0.036820085488461003 0 0.0018197792740435941 -0.038821122945723895 0 0.0036592153951807479 -0.039018115196933115 0 0.0030557411635192414 -0.041829436447996506 0 0.0018197792740435941 -0.038821122945723895 0 0.0036592153951807479 -0.039018115196933115 0 0.0053833775006669141 -0.036821329678776611 0 0.0036592153951807479 -0.039018115196933115 0 0.0059030059820319534 -0.040136927866705252 0 0.0057173720901390872 -0.044542963747169019 0 0.0030557411635192414 -0.041829436447996506 0 0.0059030059820319534 -0.040136927866705252 0 0.0030557411635192414 -0.041829436447996506 0 0.0036592153951807479 -0.039018115196933115 0 0.0059030059820319534 -0.040136927866705252 0 0.0057507683411572542 -0.044512583654189898 0 0.0056819601859166681 -0.043176902309295412 0 0.0057173720901390872 -0.044542963747169019 0 0.0056224623695192147 -0.046580329007566534 0 0.0049352105998480104 -0.046069789264781155 0 0.0055617207063993453 -0.042798657642724489 0 0.0056819601859166681 -0.043176902309295412 0 0.0052492924270055516 -0.047220419192708654 0 0.0056224623695192147 -0.046580329007566534 0 0.0048405052980412923 -0.047030602142184651 0 0.0048405052980412923 -0.047030602142184651 0 0.0042932305765980552 -0.04708307281982025 0 0.0049352105998480104 -0.046069789264781155 0 0.0043745293421320617 -0.047167146021832883 0 0.0048405052980412923 -0.047030602142184651 0 0.0042932305765980552 -0.04708307281982025 0 0.0042932305765980552 -0.04708307281982025 0 0.003553888054673513 -0.04679848307619288 0 0.0042490679737501574 -0.046000849218850101 0 0.0042932305765980552 -0.04708307281982025 0 0.0049352105998480104 -0.046069789264781155 0 0.0042490679737501574 -0.046000849218850101 0 0.0056224623695192147 -0.046580329007566534 0 0.0048405052980412923 -0.047030602142184651 0 0.0049352105998480104 -0.046069789264781155 0 0.0030400781238705946 -0.048748923970490639 0 0.0026498803487554662 -0.04811909983777736 0 0.0031140148232683303 -0.047563931346080272 0 0.0022321366408266487 -0.048412251634711363 0 0.0026498803487554662 -0.04811909983777736 0 0.0022947612054983611 -0.04783431685865526 0 0.0030187543806617584 -0.047391472907156666 0 0.0021946639473380668 -0.04856685829862837 0 0.0030400781238705946 -0.048748923970490639 0 0.0022321366408266487 -0.048412251634711363 0 0.0026498803487554662 -0.04811909983777736 0 0.0026498803487554662 -0.04811909983777736 0 0.0031140148232683303 -0.047563931346080272 0 0.0022947612054983611 -0.04783431685865526 0 0.0030187543806617584 -0.047391472907156666 0 0.0044180848333894053 -0.047307456942328553 0 0.0041612189447339382 -0.047185430810648993 0 0.0043745293421320617 -0.047167146021832883 0 0.0042932305765980552 -0.04708307281982025 0 0.0030400781238705946 -0.048748923970490639 0 0.0042932305765980552 -0.04708307281982025 0 0.0031140148232683303 -0.047563931346080272 0 0.0042932305765980552 -0.04708307281982025 0 0.003553888054673513 -0.04679848307619288 0 0.0031140148232683303 -0.047563931346080272 0 0.0018416618753321636 -0.047460240619062226 0 0.0027518305201733955 -0.047041485277161448 0 0.0022947612054983611 -0.04783431685865526 0 0.0031140148232683303 -0.047563931346080272 0 0.0027518305201733955 -0.047041485277161448 0 0.0022947612054983611 -0.04783431685865526 0 0.003553888054673513 -0.04679848307619288 0 0.0031140148232683303 -0.047563931346080272 0 0.0027518305201733955 -0.047041485277161448 0 0.0018416618753321636 -0.047460240619062226 0 0.0027518305201733955 -0.047041485277161448 0 0.0025405103901195185 -0.046460699482327693 0 0.0027518305201733955 -0.047041485277161448 0 0.0025405103901195185 -0.046460699482327693 0 0.0032938896348154311 -0.046317740842457739 0 0.003553888054673513 -0.04679848307619288 0 0.0032938896348154311 -0.046317740842457739 0 0.0042490679737501574 -0.046000849218850101 0 0.003553888054673513 -0.04679848307619288 0 0.0027518305201733955 -0.047041485277161448 0 0.0032938896348154311 -0.046317740842457739 0 0.0032938896348154311 -0.046317740842457739 0 0.0032842590430889516 -0.045387289781016776 0 0.0042490679737501574 -0.046000849218850101 0 0.0025405103901195185 -0.046460699482327693 0 0.0032938896348154311 -0.046317740842457739 0 0.0032842590430889516 -0.045387289781016776 0 0.0014121209037464666 -0.046791518073620024 0 0.0027227487354486895 -0.046070648053133829 0 0.001098777170924994 -0.047177636508821591 0 0.0013768784230501615 -0.04630400397829993 0 0.0021179100931360997 -0.046740434138582532 0 0.0016745312693474828 -0.046312284198765589 0 0.0025405103901195185 -0.046460699482327693 0 0.0032842590430889516 -0.045387289781016776 0 0.0057173720901390872 -0.044542963747169019 0 0.0049352105998480104 -0.046069789264781155 0 0.0051359000700599488 -0.045271306647213967 0 0.0049352105998480104 -0.046069789264781155 0 0.0042490679737501574 -0.046000849218850101 0 0.0051359000700599488 -0.045271306647213967 0 0.0032842590430889516 -0.045387289781016776 0 0.0042490679737501574 -0.046000849218850101 0 0.0047890173067533836 -0.044927649844835792 0 0.0027227487354486895 -0.046070648053133829 0 0.0043886551517590775 -0.045582480079806385 0 0.0042490679737501574 -0.046000849218850101 0 0.0051359000700599488 -0.045271306647213967 0 0.0047890173067533836 -0.044927649844835792 0 0.0051359000700599488 -0.045271306647213967 0 0.0047890173067533836 -0.044927649844835792 0 0.0055019530576867334 -0.045281794406953305 0 0.0043886551517590775 -0.045582480079806385 0 0.0056853838327773206 -0.045343163282734987 0 0.0040241962603616331 -0.04620001472491253 0 0.0058091442392349483 -0.045326207573682574 0 0.0051730953768078262 -0.045056913863314244 0 0.0047890173067533836 -0.044927649844835792 0 0.0058091442392349483 -0.045326207573682574 0 0.0055019530576867334 -0.045281794406953305 0 0.0040241962603616331 -0.04620001472491253 0 0.0045629287259924033 -0.044871973095818481 0 0.0051730953768078262 -0.045056913863314244 0 0.0040241962603616331 -0.04620001472491253 0 0.0036808396916502067 -0.045088836065484597 0 0.0028852936273313029 -0.045750692920647415 0 0.0040241962603616331 -0.04620001472491253 0 0.0036808396916502067 -0.045088836065484597 0 0.0045629287259924033 -0.044871973095818481 0 0.0036808396916502067 -0.045088836065484597 0 0.0028499159582853432 -0.044263912488175669 0 0.0041972720864548903 -0.0440191962490507 0 0.0036808396916502067 -0.045088836065484597 0 0.0028852936273313029 -0.045750692920647415 0 0.0028499159582853432 -0.044263912488175669 0 0.0045629287259924033 -0.044871973095818481 0 0.0041972720864548903 -0.0440191962490507 0 0.0053801864307447328 -0.044060316806153188 0 0.0045629287259924033 -0.044871973095818481 0 0.0053801864307447328 -0.044060316806153188 0 0.0051730953768078262 -0.045056913863314244 0 0.0036808396916502067 -0.045088836065484597 0 0.0045629287259924033 -0.044871973095818481 0 0.0041972720864548903 -0.0440191962490507 0 0.0013768784230501615 -0.04630400397829993 0 0.0021179100931360997 -0.046740434138582532 0 0.0019182839052814154 -0.04575552679748645 0 0.0021179100931360997 -0.046740434138582532 0 0.0040241962603616331 -0.04620001472491253 0 0.0028852936273313029 -0.045750692920647415 0 0.0021179100931360997 -0.046740434138582532 0 0.0019182839052814154 -0.04575552679748645 0 0.0028852936273313029 -0.045750692920647415 0 0.0019182839052814154 -0.04575552679748645 0 0.0028499159582853432 -0.044263912488175669 0 0.0014324833302143132 -0.043296787231979147 0 0.0019182839052814154 -0.04575552679748645 0 0.0028852936273313029 -0.045750692920647415 0 0.0028499159582853432 -0.044263912488175669 0 0.0019182839052814154 -0.04575552679748645 0 0.0016394066720602522 -0.045655883471793071 0 0.0017702078076058537 -0.045243562232387978 0 0.0013768784230501615 -0.04630400397829993 0 0.0019182839052814154 -0.04575552679748645 0 0.0016394066720602522 -0.045655883471793071 0 0.0019698035247356473 -0.045360436614656406 0 0.0012035857218459555 -0.045038117690591906 0 0.00095750511916887506 -0.04613479090470142 0 0.0013198903577075394 -0.045990586667848249 0 0.0013070187548709156 -0.045890633584428631 0 0.0013525836803736314 -0.045580640282686768 0 0.0016394066720602522 -0.045655883471793071 0 0.0017702078076058537 -0.045243562232387978 0 0.0012337356639830353 -0.045974067721924486 0 0.0012035857218459555 -0.045038117690591906 0 0.0012035857218459555 -0.045038117690591906 0 0.00051768434321813666 -0.047385350974685735 0 0.0028499159582853432 -0.044263912488175669 0 0.0014324833302143132 -0.043296787231979147 0 0.0026831686075899403 -0.043100893332653288 0 0.0028499159582853432 -0.044263912488175669 0 0.0026831686075899403 -0.043100893332653288 0 0.003491141452001678 -0.043018990908671381 0 6.759060076464255e-05 -0.048626892156703884 0 0.0013323977653031201 -0.045089443103349038 0 0.0014324833302143132 -0.043296787231979147 0 0.0026831686075899403 -0.043100893332653288 0 0.0029349485841943189 -0.041854208362586152 0 0.0020815701237738822 -0.044827739246544866 0 0.00034251604533560919 -0.045788008914936999 0 0.00019274128458656117 -0.045360808068183593 0 0.0004170771957427572 -0.046414368983506253 0 0.0020815701237738822 -0.044827739246544866 0 0.00034251604533560919 -0.045788008914936999 0 0.0020815701237738822 -0.044827739246544866 0 0.00019274128458656117 -0.045360808068183593 0 0.0020145932028923998 -0.044265690225060689 0 0.0012035857218459555 -0.045038117690591906 0 0.0026065725389127236 -0.043236962781268935 0 3.7592131131766065e-05 -0.049110365527713896 0 0.00020217323432237901 -0.049024957282241301 0 0.00018676047565949514 -0.048978915190526696 0 2.5530244634721969e-05 -0.049176708349079362 0 6.759060076464255e-05 -0.048626892156703884 0 0.00051768434321813666 -0.047385350974685735 0 6.759060076464255e-05 -0.048626892156703884 0 3.87551617568922e-05 -0.049144197579184118 0 7.6336682821835975e-05 -0.049158053252278393 0 6.6674409790220711e-05 -0.049151349666753941 0 7.6336682821835975e-05 -0.049158053252278393 0 6.6674409790220711e-05 -0.049151349666753941 0 7.0787029591622106e-05 -0.049144656039711167 0 0.0041972720864548903 -0.0440191962490507 0 0.003491141452001678 -0.043018990908671381 0 0.0047531842366749415 -0.042751601624331899 0 0.0041972720864548903 -0.0440191962490507 0 0.0047531842366749415 -0.042751601624331899 0 0.0053801864307447328 -0.044060316806153188 0 0.0028499159582853432 -0.044263912488175669 0 0.0041972720864548903 -0.0440191962490507 0 0.003491141452001678 -0.043018990908671381 0 0.0029349485841943189 -0.041854208362586152 0 0.003491141452001678 -0.043018990908671381 0 0.0041504303746771748 -0.041771697489594403 0 0.0026831686075899403 -0.043100893332653288 0 0.0029349485841943189 -0.041854208362586152 0 0.003491141452001678 -0.043018990908671381 0 0.003491141452001678 -0.043018990908671381 0 0.0041504303746771748 -0.041771697489594403 0 0.0047531842366749415 -0.042751601624331899 0 0.0041504303746771748 -0.041771697489594403 0 0.0047531842366749415 -0.042751601624331899 0 0.0050680132745766961 -0.04094106260835767 0 0.0054060932205959719 -0.041084067307172074 0 0.0051402696427956945 -0.04096000654335006 0 0.0047531842366749415 -0.042751601624331899 0 0.0062489191505501335 -0.042595601493096616 0 0.0050680132745766961 -0.04094106260835767 0 0.0048548605653773915 -0.039840003623586903 0 0.0038131238216861747 -0.039957563223356488 0 0.0043920481185055153 -0.04078950649826283 0 0.0054060932205959719 -0.041084067307172074 0 0.0060458024630229328 -0.041677256271432095 0 0.0048548605653773915 -0.039840003623586903 0 0.0041525562679670365 -0.038575530573184746 0 0.0038131238216861747 -0.039957563223356488 0 0.0062489191505501335 -0.042595601493096616 0 0.0062468594440768556 -0.044077475247050156 0 0.0070669694928363292 -0.043901855793686738 0 0.0047531842366749415 -0.042751601624331899 0 0.0062489191505501335 -0.042595601493096616 0 0.0053801864307447328 -0.044060316806153188 0 0.0062489191505501335 -0.042595601493096616 0 0.0053801864307447328 -0.044060316806153188 0 0.0062468594440768556 -0.044077475247050156 0 0.0053801864307447328 -0.044060316806153188 0 0.0059492148220724695 -0.044897366023785974 0 0.0051730953768078262 -0.045056913863314244 0 0.0053801864307447328 -0.044060316806153188 0 0.0059492148220724695 -0.044897366023785974 0 0.0062468594440768556 -0.044077475247050156 0 0.0062468594440768556 -0.044077475247050156 0 0.0065864179434122136 -0.044597222857260019 0 0.0070669694928363292 -0.043901855793686738 0 0.0065864179434122136 -0.044597222857260019 0 0.0071021264340976982 -0.044733678722057642 0 0.0070669694928363292 -0.043901855793686738 0 0.0059492148220724695 -0.044897366023785974 0 0.0062468594440768556 -0.044077475247050156 0 0.0065864179434122136 -0.044597222857260019 0 0.0061570916064025896 -0.045287498124175797 0 0.0049413286332641885 -0.044848764566701331 0 0.0059492148220724695 -0.044897366023785974 0 0.0062414365771370538 -0.045413542213688179 0 0.0058091442392349483 -0.045326207573682574 0 0.0059492148220724695 -0.044897366023785974 0 0.0065864179434122136 -0.044597222857260019 0 0.0065269019039104334 -0.04534739500438166 0 0.0065864179434122136 -0.044597222857260019 0 0.0065269019039104334 -0.04534739500438166 0 0.0071021264340976982 -0.044733678722057642 0 0.0062414365771370538 -0.045413542213688179 0 0.0058091442392349483 -0.045326207573682574 0 0.0055019530576867334 -0.045281794406953305 0 0.0050108112284633277 -0.045123886016489312 0 0.004428533475328459 -0.046086744155871086 0 0.0055019530576867334 -0.045281794406953305 0 0.0049413286332641885 -0.044848764566701331 0 0.0055772003728301262 -0.045488695153691305 0 0.0059492148220724695 -0.044897366023785974 0 0.0058091442392349483 -0.045326207573682574 0 0.0051730953768078262 -0.045056913863314244 0 0.0017673753163598991 -0.031992383184107423 0 0.0027780222809571675 -0.033182656304715431 0 0.0020684866055876447 -0.033336514104227243 0 0.000728525383163773 -0.037203846628904337 0 0.003248416206115884 -0.039128514789440037 0 0.003248416206115884 -0.039128514789440037 0 0.0034469161479494847 -0.027766784156052153 0 0.0014722067129250879 -0.041615799124626325 0 0.0025838755085228569 -0.042656916322512235 0 0.00094440080992386373 -0.043039398321896356 0 0.0049413286332641885 -0.044848764566701331 0 0.003248416206115884 -0.039128514789440037 0 0.0065269019039104334 -0.04534739500438166 0 0.0078417790787328953 -0.044924236719398311 0 0.0071021264340976982 -0.044733678722057642 0 0.003248416206115884 -0.039128514789440037 0 0.0060458024630229328 -0.041677256271432095 0 0.0078417790787328953 -0.044924236719398311 0 0.0071021264340976982 -0.044733678722057642 0 0.0070669694928363292 -0.043901855793686738 0 0.0031703450906243077 -0.037212098681988576 0 0.0031270943890002382 -0.038748249548312831 0 0.0041525562679670365 -0.038575530573184746 0 0.0039223254379326311 -0.02074227371778083 0 0.0045501212348182706 -0.019548144057012322 0 0.0052103804359376251 -0.02056971293386152 0 0.0031703450906243077 -0.037212098681988576 0 0.002441410194183541 -0.037355844018481486 0 0.0031270943890002382 -0.038748249548312831 0 0.0034469161479494847 -0.027766784156052153 0 0.0042290308795509624 -0.029790532705064762 0 0.0039223254379326311 -0.02074227371778083 0 0.0052103804359376251 -0.02056971293386152 0 0.00465903330250213 -0.021659976909163211 0 0.0042290308795509624 -0.029790532705064762 0 0.0050238108787173637 -0.030897794280230591 0 0.0031270943890002382 -0.038748249548312831 0 0.0041525562679670365 -0.038575530573184746 0 0.0038131238216861747 -0.039957563223356488 0 0.0062235302368284801 -0.021831588110376599 0 0.00465903330250213 -0.021659976909163211 0 0.0056702537885745139 -0.023154946214841658 0 0.0052103804359376251 -0.02056971293386152 0 0.0062235302368284801 -0.021831588110376599 0 0.00465903330250213 -0.021659976909163211 0 0.0041484248982039482 -0.022912696560324963 0 0.0056702537885745139 -0.023154946214841658 0 0.0048636731143108774 -0.024789847132268623 0 0.00465903330250213 -0.021659976909163211 0 0.0041484248982039482 -0.022912696560324963 0 0.0056702537885745139 -0.023154946214841658 0 0.0062235302368284801 -0.021831588110376599 0 0.0056702537885745139 -0.023154946214841658 0 0.0075312705759502481 -0.023706331509107031 0 0.0050238108787173637 -0.030897794280230591 0 0.0059407038452413659 -0.032193342872217243 0 0.0056702537885745139 -0.023154946214841658 0 0.0062356047119087607 -0.024851209679797093 0 0.0075312705759502481 -0.023706331509107031 0 0.0062356047119087607 -0.024851209679797093 0 0.0074522809713293827 -0.02544132747615185 0 0.0075312705759502481 -0.023706331509107031 0 0.0056702537885745139 -0.023154946214841658 0 0.0062356047119087607 -0.024851209679797093 0 0.0048636731143108774 -0.024789847132268623 0 0.0062356047119087607 -0.024851209679797093 0 0.0055375376886724493 -0.025924677007561778 0 0.0063924652244705116 -0.025813995706567849 0 0.0062356047119087607 -0.024851209679797093 0 0.0063924652244705116 -0.025813995706567849 0 0.0074522809713293827 -0.02544132747615185 0 0.0041484248982039482 -0.022912696560324963 0 0.0048636731143108774 -0.024789847132268623 0 0.0031335103169464621 -0.024962408903403031 0 0.0062356047119087607 -0.024851209679797093 0 0.0048636731143108774 -0.024789847132268623 0 0.0055375376886724493 -0.025924677007561778 0 0.0048636731143108774 -0.024789847132268623 0 0.004246960780395285 -0.026548361744804506 0 0.0031335103169464621 -0.024962408903403031 0 0.004246960780395285 -0.026548361744804506 0 0.0054221711416776877 -0.026850988515791596 0 0.0051291728150523602 -0.027530249491948006 0 0.004246960780395285 -0.026548361744804506 0 0.0048895662550779142 -0.027714921036147609 0 0.0051291728150523602 -0.027530249491948006 0 0.0054221711416776877 -0.026850988515791596 0 0.0056836932131667257 -0.027505387250646197 0 0.0051291728150523602 -0.027530249491948006 0 0.0048636731143108774 -0.024789847132268623 0 0.004246960780395285 -0.026548361744804506 0 0.0055375376886724493 -0.025924677007561778 0 0.004246960780395285 -0.026548361744804506 0 0.0054221711416776877 -0.026850988515791596 0 0.0055375376886724493 -0.025924677007561778 0 0.0055375376886724493 -0.025924677007561778 0 0.0063924652244705116 -0.025813995706567849 0 0.006080514819907748 -0.026506010019947783 0 0.0054221711416776877 -0.026850988515791596 0 0.0055375376886724493 -0.025924677007561778 0 0.006080514819907748 -0.026506010019947783 0 0.0063924652244705116 -0.025813995706567849 0 0.006080514819907748 -0.026506010019947783 0 0.0066747096275710065 -0.026477950209514507 0 0.0063924652244705116 -0.025813995706567849 0 0.0071084815460310327 -0.026146548385973651 0 0.0074522809713293827 -0.02544132747615185 0 0.0063924652244705116 -0.025813995706567849 0 0.0066747096275710065 -0.026477950209514507 0 0.0071084815460310327 -0.026146548385973651 0 0.0066747096275710065 -0.026477950209514507 0 0.0071084815460310327 -0.026146548385973651 0 0.0073165555816031144 -0.02695987373120081 0 0.0066747096275710065 -0.026477950209514507 0 0.0065589145016144339 -0.027100470648468988 0 0.0073165555816031144 -0.02695987373120081 0 0.006080514819907748 -0.026506010019947783 0 0.0066747096275710065 -0.026477950209514507 0 0.0065589145016144339 -0.027100470648468988 0 0.0065589145016144339 -0.027100470648468988 0 0.0061858579235152169 -0.027626010417062297 0 0.006903169263811927 -0.027663016086866561 0 0.0065589145016144339 -0.027100470648468988 0 0.006903169263811927 -0.027663016086866561 0 0.0073165555816031144 -0.02695987373120081 0 0.0054221711416776877 -0.026850988515791596 0 0.006080514819907748 -0.026506010019947783 0 0.0059509838250008601 -0.027160572617766721 0 0.006080514819907748 -0.026506010019947783 0 0.0065589145016144339 -0.027100470648468988 0 0.0059509838250008601 -0.027160572617766721 0 0.0065589145016144339 -0.027100470648468988 0 0.0059509838250008601 -0.027160572617766721 0 0.0061858579235152169 -0.027626010417062297 0 0.0054221711416776877 -0.026850988515791596 0 0.0059509838250008601 -0.027160572617766721 0 0.0056836932131667257 -0.027505387250646197 0 0.0059509838250008601 -0.027160572617766721 0 0.0056836932131667257 -0.027505387250646197 0 0.0061858579235152169 -0.027626010417062297 0 0.0056836932131667257 -0.027505387250646197 0 0.0060245447827204915 -0.028375439645365055 0 0.0051291728150523602 -0.027530249491948006 0 0.0060245447827204915 -0.028375439645365055 0 0.0080357992678802195 -0.028174106918632643 0 0.00727259015018299 -0.030190156662916634 0 0.0060245447827204915 -0.028375439645365055 0 0.006903169263811927 -0.027663016086866561 0 0.0080357992678802195 -0.028174106918632643 0 0.0056836932131667257 -0.027505387250646197 0 0.0061858579235152169 -0.027626010417062297 0 0.0060245447827204915 -0.028375439645365055 0 0.0061858579235152169 -0.027626010417062297 0 0.0060245447827204915 -0.028375439645365055 0 0.006903169263811927 -0.027663016086866561 0 0.0060245447827204915 -0.028375439645365055 0 0.0056008455558309708 -0.029346199119382702 0 0.00727259015018299 -0.030190156662916634 0 0.0049421945114442607 -0.030323190142008734 0 0.0027504627578346318 -0.027577881993363064 0 0.0060245447827204915 -0.028375439645365055 0 0.0056008455558309708 -0.029346199119382702 0 0.0047451715179983294 -0.027796917276494394 0 0.0056008455558309708 -0.029346199119382702 0 0.0038549376905522093 -0.028485033714431639 0 0.0047451715179983294 -0.027796917276494394 0 0.0028457508829326842 -0.02673343402452753 0 0.0036381059183918725 -0.026120694200616534 0 0.0014185552363001463 -0.026023943687984503 0 0.0049575570895652654 -0.031303447852324966 0 0.0019993466937308405 -0.02979689496363001 0 0.0024267963340103304 -0.0315953265195646 0 0.0019993466937308405 -0.02979689496363001 0 0.0024267963340103304 -0.0315953265195646 0 0.00069164173984851774 -0.030809609495943812 0 0.0027504627578346318 -0.027577881993363064 0 0.0044530388204508022 -0.027130824069160123 0 0.005920563511980538 -0.028155785443575439 0 0.0044530388204508022 -0.027130824069160123 0 0.0060245447827204915 -0.028375439645365055 0 0.0048624684469441527 -0.027734764252006293 0 0.0051291728150523602 -0.027530249491948006 0 0.0044530388204508022 -0.027130824069160123 0 0.0045302224496352513 -0.027146775434105874 0 0.0039396634920078498 -0.04834404327794501 0 0.0040517490248054939 -0.048620540847916373 0 0.0024199523568458072 -0.048524306355720581 0 0.0068897992473635856 -0.043487003497284384 0 0.0063041285920631407 -0.040066168402294496 0 0.0039396634920078498 -0.04834404327794501 0 0.0039853276010669136 -0.047622698946386849 0 0.0030936369026627261 -0.047835046662722806 0 0.0039396634920078498 -0.04834404327794501 0 0.0041629815010991748 -0.048741349103639496 0 0.0047998307690187841 -0.047436788911443976 0 0.0039396634920078498 -0.04834404327794501 0 0.0039853276010669136 -0.047622698946386849 0 0.0047998307690187841 -0.047436788911443976 0 0.0063041285920631407 -0.040066168402294496 0 0.0069118921199599094 -0.03910170466959631 0 0.0095712571996827579 -0.028066567211487262 0 0.0080357992678802195 -0.028174106918632643 0 0.00727259015018299 -0.030190156662916634 0 0.0041629815010991748 -0.048741349103639496 0 0.0064389799868201673 -0.046824722209777687 0 0.0047998307690187841 -0.047436788911443976 0 0.006903169263811927 -0.027663016086866561 0 0.0080357992678802195 -0.028174106918632643 0 0.0073165555816031144 -0.02695987373120081 0 0.0095712571996827579 -0.028066567211487262 0 0.0080357992678802195 -0.028174106918632643 0 0.0091290612569936667 -0.02723498007984201 0 0.0081750304728479845 -0.026928966482639333 0 0.0086180504046241453 -0.026184000188161256 0 0.0093057120479397414 -0.026979615747360068 0 0.0096896693161182892 -0.027230594319866835 0 0.0072023461280213558 -0.03365644250841205 0 0.0080357992678802195 -0.028174106918632643 0 0.0081750304728479845 -0.026928966482639333 0 0.0093057120479397414 -0.026979615747360068 0 0.0080357992678802195 -0.028174106918632643 0 0.0081750304728479845 -0.026928966482639333 0 0.0073165555816031144 -0.02695987373120081 0 0.0081750304728479845 -0.026928966482639333 0 0.0073165555816031144 -0.02695987373120081 0 0.0077238891962466043 -0.026364584280253858 0 0.0077238891962466043 -0.026364584280253858 0 0.0086180504046241453 -0.026184000188161256 0 0.0074522809713293827 -0.02544132747615185 0 0.0071084815460310327 -0.026146548385973651 0 0.0073165555816031144 -0.02695987373120081 0 0.0077238891962466043 -0.026364584280253858 0 0.0081750304728479845 -0.026928966482639333 0 0.0077238891962466043 -0.026364584280253858 0 0.0086180504046241453 -0.026184000188161256 0 0.0071084815460310327 -0.026146548385973651 0 0.0077238891962466043 -0.026364584280253858 0 0.0074522809713293827 -0.02544132747615185 0 0.0086180504046241453 -0.026184000188161256 0 0.0088305625196760471 -0.026059615894331572 0 0.0074522809713293827 -0.02544132747615185 0 0.0067808443488517681 -0.033843307658826399 0 0.0072023461280213558 -0.03365644250841205 0 0.0086180504046241453 -0.026184000188161256 0 0.0088362032050219273 -0.026062019508140171 0 0.0093057120479397414 -0.026979615747360068 0 0.0074199160276338123 -0.033181428505725002 0 0.0067808443488517681 -0.033843307658826399 0 0.0081078389623848914 -0.037388588968851902 0 0.0072880698070689077 -0.03574653607888275 0 0.0043343340237409576 -0.03859684178068868 0 0.0064878864757604363 -0.039823245761098185 0 0.0070702537901649078 -0.040967485856404112 0 0.0051542076889929114 -0.042823731048331204 0 0.0063041285920631407 -0.040066168402294496 0 0.0072023461280213558 -0.03365644250841205 0 0.0072023461280213558 -0.03365644250841205 0 0.004241659478613412 -0.041311041010775242 0 0.0081078389623848914 -0.037388588968851902 0 0.0043343340237409576 -0.03859684178068868 0 0.004742218372117535 -0.039409821002917976 0 0.0067808443488517681 -0.033843307658826399 0 0.0044153263501289343 -0.040383809726942707 0 0.004768327712604074 -0.040990094455843215 0 0.0049401724806124947 -0.04078893156967435 0 0.0048503550608851587 -0.040826226367465399 0 0.0067808443488517681 -0.033843307658826399 0 0.0059407038452413659 -0.032193342872217243 0 0.004768327712604074 -0.040990094455843215 0 0.0043920481185055153 -0.04078950649826283 0 0.0048503550608851587 -0.040826226367465399 0 0.0088305625196760471 -0.026059615894331572 0 0.0074522809713293827 -0.02544132747615185 0 0.0075312705759502481 -0.023706331509107031 0 0.0048548605653773915 -0.039840003623586903 0 0.0043920481185055153 -0.04078950649826283 0 0.0048503550608851587 -0.040826226367465399 0 0.0049401724806124947 -0.04078893156967435 0 0.0048503550608851587 -0.040826226367465399 0 0.0050680132745766961 -0.04094106260835767 0 0.0048548605653773915 -0.039840003623586903 0 0.0048503550608851587 -0.040826226367465399 0 0.0050680132745766961 -0.04094106260835767 0 0.0041504303746771748 -0.041771697489594403 0 0.0050680132745766961 -0.04094106260835767 0 0.0044097009208582056 -0.04068637307848439 0 0.0033094961667660466 -0.044555404238510829 0 0.00096632774538851036 -0.045077561131565476 0 0.0008255855551577931 -0.046049396732359631 0 0.0033756881202177224 -0.042361356714147841 0 0.0013323977653031201 -0.045089443103349038 0 0.0020815701237738822 -0.044827739246544866 0 0.0037554848837614853 -0.043216319101454043 0 0.0020145932028923998 -0.044265690225060689 0 0.0029349485841943189 -0.041854208362586152 0 0.0041504303746771748 -0.041771697489594403 0 0.0044097009208582056 -0.04068637307848439 0 0.0026065725389127236 -0.043236962781268935 0 0.0033756881202177224 -0.042361356714147841 0 0.0026690206592044803 -0.046837787928711544 0 0.001071336777632142 -0.047739718168530114 0 0.0023641837127161536 -0.049673979559267757 0 0.0012869106705455525 -0.05037394428005447 0 0.0011207518798274474 -0.049101870787527604 0 0.0033094961667660466 -0.044555404238510829 0 0.0036129198330895162 -0.042546280886416363 0 0.00096632774538851036 -0.045077561131565476 0 0.0043343340237409576 -0.03859684178068868 0 0.004742218372117535 -0.039409821002917976 0 0.0014599120560308862 -0.041405477095996131 0 0.0051542076889929114 -0.042823731048331204 0 0.0033094961667660466 -0.044555404238510829 0 0.0036129198330895162 -0.042546280886416363 0 0.0049401724806124947 -0.04078893156967435 0 0.0050680132745766961 -0.04094106260835767 0 0.0044097009208582056 -0.04068637307848439 0 0.0044153263501289343 -0.040383809726942707 0 0.0033756881202177224 -0.042361356714147841 0 0.004241659478613412 -0.041311041010775242 0 0.0033756881202177224 -0.042361356714147841 0 7.6336682821835975e-05 -0.049158053252278393 0 0.00013757389654503905 -0.049120687589076312 0 7.0787029591622106e-05 -0.049144656039711167 0 0.00041063705156303015 -0.051085868144337479 0 0.0012869106705455525 -0.05037394428005447 0 0.00032109183900725432 -0.05004170110049657 0 6.759060076464255e-05 -0.048626892156703884 0 0.00026521606418960624 -0.049920937925368239 0 6.759060076464255e-05 -0.048626892156703884 0 0.001071336777632142 -0.047739718168530114 0 -0.0016576267213422834 -0.047598197010552373 0 0.00096632774538851036 -0.045077561131565476 0 0.0008255855551577931 -0.046049396732359631 0 0.0012869106705455525 -0.05037394428005447 0 0.00032109183900725432 -0.05004170110049657 0 0.0011207518798274474 -0.049101870787527604 0 0.00032109183900725432 -0.05004170110049657 0 0.00024414585445570343 -0.048991926046847004 0 0.0011207518798274474 -0.049101870787527604 0 0.00026521606418960624 -0.049920937925368239 0 0.00021652625883129421 -0.048874683352632689 0 0.0011207518798274474 -0.049101870787527604 0 0.00051086191970263223 -0.048471106268853772 0 0.001228135780768469 -0.047888056835514135 0 0.00024414585445570343 -0.048991926046847004 0 0.00051086191970263223 -0.048471106268853772 0 0.00017357403142936564 -0.048772058151030084 0 0.00024414585445570343 -0.048991926046847004 0 0.0011207518798274474 -0.049101870787527604 0 0.00051086191970263223 -0.048471106268853772 0 0.0063041285920631407 -0.040066168402294496 0 0.0026690206592044803 -0.046837787928711544 0 0.0064878864757604363 -0.039823245761098185 0 0.0051542076889929114 -0.042823731048331204 0 0.0036129198330895162 -0.042546280886416363 0 0.0040517490248054939 -0.048620540847916373 0 0.0023641837127161536 -0.049673979559267757 0 0.0024199523568458072 -0.048524306355720581 0 0.0023641837127161536 -0.049673979559267757 0 0.0011207518798274474 -0.049101870787527604 0 0.0024199523568458072 -0.048524306355720581 0 0.0024199523568458072 -0.048524306355720581 0 0.0023454498056478257 -0.047217125190210457 0 0.001228135780768469 -0.047888056835514135 0 0.0011207518798274474 -0.049101870787527604 0 0.0024199523568458072 -0.048524306355720581 0 0.001228135780768469 -0.047888056835514135 0 0.0039396634920078498 -0.04834404327794501 0 0.0024199523568458072 -0.048524306355720581 0 0.0030936369026627261 -0.047835046662722806 0 0.0024199523568458072 -0.048524306355720581 0 0.0030936369026627261 -0.047835046662722806 0 0.0023454498056478257 -0.047217125190210457 0 0.0030936369026627261 -0.047835046662722806 0 0.0023454498056478257 -0.047217125190210457 0 0.0037850571874821519 -0.04692665222297044 0 0.0023454498056478257 -0.047217125190210457 0 0.0037850571874821519 -0.04692665222297044 0 0.0034490335007803176 -0.046118652875563437 0 0.0023454498056478257 -0.047217125190210457 0 0.001228135780768469 -0.047888056835514135 0 0.001808561005476367 -0.046641631872317534 0 0.001228135780768469 -0.047888056835514135 0 0.001808561005476367 -0.046641631872317534 0 0.0010750860946147727 -0.04632906466650006 0 0.001808561005476367 -0.046641631872317534 0 0.0016586708752383791 -0.046004861859977271 0 0.0022900843023551439 -0.045456982213204378 0 0.001808561005476367 -0.046641631872317534 0 0.0010750860946147727 -0.04632906466650006 0 0.0016586708752383791 -0.046004861859977271 0 0.0010750860946147727 -0.04632906466650006 0 0.00045493593252910922 -0.045665073025786852 0 0.0013700098359528195 -0.045485066200190293 0 0.0010750860946147727 -0.04632906466650006 0 0.0016586708752383791 -0.046004861859977271 0 0.0013700098359528195 -0.045485066200190293 0 0.0016586708752383791 -0.046004861859977271 0 0.0022900843023551439 -0.045456982213204378 0 0.0013700098359528195 -0.045485066200190293 0 0.0023454498056478257 -0.047217125190210457 0 0.0028505595250043489 -0.045248337922994611 0 0.0034490335007803176 -0.046118652875563437 0 0.0023454498056478257 -0.047217125190210457 0 0.001808561005476367 -0.046641631872317534 0 0.0022900843023551439 -0.045456982213204378 0 0.0023454498056478257 -0.047217125190210457 0 0.0028505595250043489 -0.045248337922994611 0 0.0017190267016508065 -0.044182124628716561 0 0.0022729910732745186 -0.046875729496295204 0 0.0021413557910624883 -0.045259684558824259 0 0.0028505595250043489 -0.045248337922994611 0 0.0032644689068128453 -0.044069775399568259 0 0.0017190267016508065 -0.044182124628716561 0 0.00051086191970263223 -0.048471106268853772 0 0.00047151989451979282 -0.048322334328131641 0 0.00023319985691146227 -0.048577697708776256 0 0.0011412597768596015 -0.047908719149008565 0 8.2297904324155167e-05 -0.047481878722356652 0 0.00051086191970263223 -0.048471106268853772 0 0.001228135780768469 -0.047888056835514135 0 0.00047151989451979282 -0.048322334328131641 0 0.001228135780768469 -0.047888056835514135 0 0.0010750860946147727 -0.04632906466650006 0 -0.0005337234038294555 -0.046534528663360414 0 0.0010750860946147727 -0.04632906466650006 0 0.00045493593252910922 -0.045665073025786852 0 -0.0005337234038294555 -0.046534528663360414 0 0.00045493593252910922 -0.045665073025786852 0 -0.0005337234038294555 -0.046534528663360414 0 -0.00046639913354060196 -0.045079338973646757 0 -0.0005337234038294555 -0.046534528663360414 0 -0.00046639913354060196 -0.045079338973646757 0 -0.0021338219979032788 -0.045303913113332601 0 8.2297904324155167e-05 -0.047481878722356652 0 -0.0011655592103772001 -0.0466481614043079 0 -0.0013780353707975208 -0.044463706484674209 0 -0.00046639913354060196 -0.045079338973646757 0 -0.0021338219979032788 -0.045303913113332601 0 -0.00046639913354060196 -0.045079338973646757 0 0.00018598733039223875 -0.044425771368004068 0 -0.00052175848573579196 -0.044094019732787697 0 -0.0013780353707975208 -0.044463706484674209 0 -0.00046639913354060196 -0.045079338973646757 0 -0.00052175848573579196 -0.044094019732787697 0 -0.00046639913354060196 -0.045079338973646757 0 0.00018598733039223875 -0.044425771368004068 0 0.00081476289302895039 -0.044914608440837625 0 0.00045493593252910922 -0.045665073025786852 0 -0.00046639913354060196 -0.045079338973646757 0 0.00081476289302895039 -0.044914608440837625 0 0.00045493593252910922 -0.045665073025786852 0 0.00081476289302895039 -0.044914608440837625 0 0.0013700098359528195 -0.045485066200190293 0 0.00018598733039223875 -0.044425771368004068 0 0.00081476289302895039 -0.044914608440837625 0 0.0010664253530707794 -0.044154403276092685 0 0.00018598733039223875 -0.044425771368004068 0 0.00030049476399520792 -0.043672202305279788 0 0.0010664253530707794 -0.044154403276092685 0 0.00089369587913964326 -0.04342301694838107 0 0.00030049476399520792 -0.043672202305279788 0 0.0010664253530707794 -0.044154403276092685 0 0.00089369587913964326 -0.04342301694838107 0 0.00030049476399520792 -0.043672202305279788 0 0.00048529976035859582 -0.042883295446236806 0 0.00030049476399520792 -0.043672202305279788 0 -0.00040001334854975498 -0.043086733562148254 0 0.00048529976035859582 -0.042883295446236806 0 0.00030049476399520792 -0.043672202305279788 0 -0.00052175848573579196 -0.044094019732787697 0 -0.00040001334854975498 -0.043086733562148254 0 0.00018598733039223875 -0.044425771368004068 0 0.00030049476399520792 -0.043672202305279788 0 -0.00052175848573579196 -0.044094019732787697 0 -0.00052175848573579196 -0.044094019732787697 0 -0.0011310370823384892 -0.043625134179657153 0 -0.00040001334854975498 -0.043086733562148254 0 -0.0013780353707975208 -0.044463706484674209 0 -0.00052175848573579196 -0.044094019732787697 0 -0.0011310370823384892 -0.043625134179657153 0 0.001922131228709176 -0.043055141136187525 0 0.0017190267016508065 -0.044182124628716561 0 0.0014008636726569547 -0.041178011299623944 0 0.0021413557910624883 -0.045259684558824259 0 0.00090215464471828457 -0.040449627986087019 0 0.001922131228709176 -0.043055141136187525 0 0.0032644689068128453 -0.044069775399568259 0 0.0017190267016508065 -0.044182124628716561 0 0.0022900843023551439 -0.045456982213204378 0 0.0017801221695997024 -0.04450231029371074 0 0.002118897453624671 -0.043352953016242111 0 0.0022900843023551439 -0.045456982213204378 0 0.0013700098359528195 -0.045485066200190293 0 0.0017801221695997024 -0.04450231029371074 0 0.00081476289302895039 -0.044914608440837625 0 0.0017801221695997024 -0.04450231029371074 0 0.0010664253530707794 -0.044154403276092685 0 0.00081476289302895039 -0.044914608440837625 0 0.0013700098359528195 -0.045485066200190293 0 0.0017801221695997024 -0.04450231029371074 0 0.0017801221695997024 -0.04450231029371074 0 0.0016134734802434557 -0.043867353455968101 0 0.002118897453624671 -0.043352953016242111 0 0.0016134734802434557 -0.043867353455968101 0 0.0010664253530707794 -0.044154403276092685 0 0.0014927940351041728 -0.043458757724504408 0 0.0017801221695997024 -0.04450231029371074 0 0.0016134734802434557 -0.043867353455968101 0 0.0010664253530707794 -0.044154403276092685 0 0.00089369587913964326 -0.04342301694838107 0 0.0010664253530707794 -0.044154403276092685 0 0.0014927940351041728 -0.043458757724504408 0 0.00089369587913964326 -0.04342301694838107 0 0.0014927940351041728 -0.043458757724504408 0 0.001134757644588311 -0.042934802034006611 0 0.0014473589067129926 -0.041759259719945062 0 0.00090215464471828457 -0.040449627986087019 0 0.0016134734802434557 -0.043867353455968101 0 0.0014927940351041728 -0.043458757724504408 0 0.002118897453624671 -0.043352953016242111 0 0.0014927940351041728 -0.043458757724504408 0 0.0021802327466473315 -0.043365726822208545 0 0.0017247676019118139 -0.042620420511965393 0 0.00090215464471828457 -0.040449627986087019 0 0.0032681558966842945 -0.037428684811523789 0 0.0014008636726569547 -0.041178011299623944 0 0.0031892442664868017 -0.041040603641343279 0 0.0036554550235304716 -0.04079174853554475 0 0.0014008636726569547 -0.041178011299623944 0 0.0023929977668031314 -0.041888840715098859 0 0.0031892442664868017 -0.041040603641343279 0 0.001922131228709176 -0.043055141136187525 0 0.0014008636726569547 -0.041178011299623944 0 0.0023929977668031314 -0.041888840715098859 0 0.001922131228709176 -0.043055141136187525 0 0.0023929977668031314 -0.041888840715098859 0 0.003394670569034604 -0.041953721880218092 0 0.0023929977668031314 -0.041888840715098859 0 0.0031892442664868017 -0.041040603641343279 0 0.003394670569034604 -0.041953721880218092 0 0.0033638051899649384 -0.041025838002850604 0 0.0048767083321512418 -0.041005154556848507 0 0.0036554550235304716 -0.04079174853554475 0 0.0046887551629715132 -0.041025284068041686 0 0.0056925330961704497 -0.040366908780281104 0 0.0031892442664868017 -0.041040603641343279 0 0.0036554550235304716 -0.04079174853554475 0 0.0046887551629715132 -0.041025284068041686 0 0.0031892442664868017 -0.041040603641343279 0 0.0048681183723901338 -0.041193617936886646 0 0.003394670569034604 -0.041953721880218092 0 0.0048681183723901338 -0.041193617936886646 0 0.003394670569034604 -0.041953721880218092 0 0.004562372177842969 -0.042645633114529569 0 0.001922131228709176 -0.043055141136187525 0 0.003394670569034604 -0.041953721880218092 0 0.004562372177842969 -0.042645633114529569 0 0.001922131228709176 -0.043055141136187525 0 0.0032644689068128453 -0.044069775399568259 0 0.0045727064825401903 -0.042934160871239704 0 0.002048035738491888 -0.042998369062021764 0 0.004600697776562912 -0.043005617049928994 0 0.0032644689068128453 -0.044069775399568259 0 0.0045727064825401903 -0.042934160871239704 0 0.0046967390116930277 -0.044187399500560096 0 0.0045727064825401903 -0.042934160871239704 0 0.0056374325848146441 -0.043509016410934909 0 0.0069703100481580457 -0.042701980462032212 0 0.004600697776562912 -0.043005617049928994 0 0.0065474314044554364 -0.040403380609857119 0 0.0064006074196764039 -0.043765617104632115 0 0.0058675328117919479 -0.044371616018941538 0 0.0056374325848146441 -0.043509016410934909 0 0.0064006074196764039 -0.043765617104632115 0 0.0058675328117919479 -0.044371616018941538 0 0.0070013766363172126 -0.044397851500936523 0 0.0046967390116930277 -0.044187399500560096 0 0.0058675328117919479 -0.044371616018941538 0 0.0056374325848146441 -0.043509016410934909 0 0.0045727064825401903 -0.042934160871239704 0 0.0046967390116930277 -0.044187399500560096 0 0.0056374325848146441 -0.043509016410934909 0 0.0064006074196764039 -0.043765617104632115 0 0.0056374325848146441 -0.043509016410934909 0 0.0069703100481580457 -0.042701980462032212 0 0.0048681183723901338 -0.041193617936886646 0 0.004562372177842969 -0.042645633114529569 0 0.0064685628981921723 -0.041299580408181394 0 0.004562372177842969 -0.042645633114529569 0 0.0064685628981921723 -0.041299580408181394 0 0.0070953649704863977 -0.042342977468152826 0 0.0048767083321512418 -0.041005154556848507 0 0.0056057339843806992 -0.038297292077773326 0 0.0046887551629715132 -0.041025284068041686 0 0.0061083605023303997 -0.041060056489606915 0 0.0056925330961704497 -0.040366908780281104 0 0.0056057339843806992 -0.038297292077773326 0 0.0037656703242638459 -0.033880660874322802 0 0.0045486322502505498 -0.035248228374635981 0 0.0048411920332025018 -0.035272786094176452 0 0.0043592218449400814 -0.034919350009766911 0 0.0037920380533675658 -0.034385686274341666 0 0.0037656703242638459 -0.033880660874322802 0 0.0056057339843806992 -0.038297292077773326 0 0.0037920380533675658 -0.034385686274341666 0 0.0065474314044554364 -0.040403380609857119 0 0.0044983304610305315 -0.035228767739927655 0 0.0037920380533675658 -0.034385686274341666 0 0.0044983304610305315 -0.035228767739927655 0 0.0051801424821324585 -0.03725366260478203 0 0.0052199918984483767 -0.03690535131026472 0 0.0047032021624872754 -0.036944868490246863 0 0.0056057339843806992 -0.038297292077773326 0 0.0065474314044554364 -0.040403380609857119 0 0.0054437485110806092 -0.037276272449801209 0 0.0051801424821324585 -0.03725366260478203 0 0.0052199918984483767 -0.03690535131026472 0 0.0042583834205547379 -0.033199825494314925 0 0.0036178452185869486 -0.033126012177686369 0 0.0039020894699155822 -0.032957248062985403 0 0.0022660483105059292 -0.030920777666728998 0 0.0025001517139662988 -0.030961135681335163 0 0.0023800263106869661 -0.030856240353848548 0 0.0036178452185869486 -0.033126012177686369 0 0.0039020894699155822 -0.032957248062985403 0 0.003267588015336624 -0.032989384060029409 0 0.0044983304610305315 -0.035228767739927655 0 0.0031405687223546325 -0.032647608380133211 0 0.0037920380533675658 -0.034385686274341666 0 0.0030569130561413061 -0.032038247655186411 0 0.0044983304610305315 -0.035228767739927655 0 0.0034052521804936553 -0.032689532139235165 0 0.0049356377947932031 -0.037259969199813156 0 0.0049135446205108855 -0.035553462425364453 0 0.0038172724469866114 -0.036525224530660705 0 0.0051325074688165998 -0.03707045680179618 0 0.0034052521804936553 -0.032689532139235165 0 0.0032503309557105767 -0.028867369068871277 0 0.0025361248539796017 -0.029148295189916035 0 0.0024587556177806014 -0.029523184920136721 0 0.0064006074196764039 -0.043765617104632115 0 0.0069703100481580457 -0.042701980462032212 0 0.0070013766363172126 -0.044397851500936523 0 0.0069703100481580457 -0.042701980462032212 0 0.0070013766363172126 -0.044397851500936523 0 0.0083541339355781615 -0.044983404126674745 0 0.0058896149649209258 -0.037183028524243079 0 0.0049356377947932031 -0.037259969199813156 0 0.0049135446205108855 -0.035553462425364453 0 0.0065474314044554364 -0.040403380609857119 0 0.0051325074688165998 -0.03707045680179618 0 0.0070013766363172126 -0.044397851500936523 0 0.0083541339355781615 -0.044983404126674745 0 0.0063896653750150564 -0.045402899879438192 0 0.0051325074688165998 -0.03707045680179618 0 0.0069118921199599094 -0.03910170466959631 0 0.0083541339355781615 -0.044983404126674745 0 0.0064688899615693704 -0.046781412653712731 0 0.0063896653750150564 -0.045402899879438192 0 0.0032503309557105767 -0.028867369068871277 0 0.002725696000469235 -0.028725447334389191 0 0.0025361248539796017 -0.029148295189916035 0 0.0032503309557105767 -0.028867369068871277 0 0.002725696000469235 -0.028725447334389191 0 0.0028481647097529112 -0.028169829263885032 0 0.0051325074688165998 -0.03707045680179618 0 0.0024350343826061833 -0.030581204545955424 0 0.0049575570895652654 -0.031303447852324966 0 0.0039999180519438128 -0.036345898204571424 0 0.0023472437168242273 -0.03358346384314443 0 0.0049575570895652654 -0.031303447852324966 0 0.0023472437168242273 -0.03358346384314443 0 0.0024267963340103304 -0.0315953265195646 0 0.0023472437168242273 -0.03358346384314443 0 0.0024267963340103304 -0.0315953265195646 0 0.00069164173984851774 -0.030809609495943812 0 0.0049575570895652654 -0.031303447852324966 0 0.0039999180519438128 -0.036345898204571424 0 0.0079065757351636668 -0.032801978302452461 0 0.0049421945114442607 -0.030323190142008734 0 0.0069118921199599094 -0.03910170466959631 0 0.0064389799868201673 -0.046824722209777687 0 0.0053450661039295966 -0.046305035178966066 0 0.0047998307690187841 -0.047436788911443976 0 0.0064688899615693704 -0.046781412653712731 0 0.0053450661039295966 -0.046305035178966066 0 0.0063896653750150564 -0.045402899879438192 0 0.0069118921199599094 -0.03910170466959631 0 0.0069013093934338059 -0.045038657782372718 0 0.0053450661039295966 -0.046305035178966066 0 0.0047998307690187841 -0.047436788911443976 0 0.0044053047980472009 -0.046073361150763235 0 0.0039853276010669136 -0.047622698946386849 0 0.0047998307690187841 -0.047436788911443976 0 0.0037850571874821519 -0.04692665222297044 0 0.0039853276010669136 -0.047622698946386849 0 0.0030936369026627261 -0.047835046662722806 0 0.0037850571874821519 -0.04692665222297044 0 0.0037850571874821519 -0.04692665222297044 0 0.0044053047980472009 -0.046073361150763235 0 0.0034490335007803176 -0.046118652875563437 0 0.0047998307690187841 -0.047436788911443976 0 0.0037850571874821519 -0.04692665222297044 0 0.0044053047980472009 -0.046073361150763235 0 0.0044053047980472009 -0.046073361150763235 0 0.0038745300916159251 -0.045072926670897823 0 0.0050689589593053506 -0.045228244129256259 0 0.0028505595250043489 -0.045248337922994611 0 0.0034490335007803176 -0.046118652875563437 0 0.0038745300916159251 -0.045072926670897823 0 0.0044053047980472009 -0.046073361150763235 0 0.0034490335007803176 -0.046118652875563437 0 0.0038745300916159251 -0.045072926670897823 0 0.0028505595250043489 -0.045248337922994611 0 0.0032644689068128453 -0.044069775399568259 0 0.0038745300916159251 -0.045072926670897823 0 0.0032644689068128453 -0.044069775399568259 0 0.0046967390116930277 -0.044187399500560096 0 0.0038745300916159251 -0.045072926670897823 0 0.0046967390116930277 -0.044187399500560096 0 0.0038745300916159251 -0.045072926670897823 0 0.0050689589593053506 -0.045228244129256259 0 0.0046967390116930277 -0.044187399500560096 0 0.0058675328117919479 -0.044371616018941538 0 0.0050689589593053506 -0.045228244129256259 0 0.0058675328117919479 -0.044371616018941538 0 0.0070013766363172126 -0.044397851500936523 0 0.0063896653750150564 -0.045402899879438192 0 0.0058675328117919479 -0.044371616018941538 0 0.0063896653750150564 -0.045402899879438192 0 0.0050689589593053506 -0.045228244129256259 0 0.0053450661039295966 -0.046305035178966066 0 0.0063896653750150564 -0.045402899879438192 0 0.0050689589593053506 -0.045228244129256259 0 0.0053450661039295966 -0.046305035178966066 0 0.0044053047980472009 -0.046073361150763235 0 0.0050689589593053506 -0.045228244129256259 0 -3.8925406123810137e-05 -0.049899892337800192 0 -8.3839331661276901e-05 -0.049735627570811659 0 -3.3999258392552736e-08 -0.049999673648100533 0 -3.8925406123810137e-05 -0.049899892337800192 0 -7.3213697941817703e-08 -0.049999885399284946 0 -3.3999258392552736e-08 -0.049999673648100533 0 -3.8925406123810137e-05 -0.049899892337800192 0 -8.3839331661276901e-05 -0.049735627570811659 0 2.7952268175447147e-06 -0.04999207038256611 0 -8.1985289928434459e-05 -0.049762220949753522 0 -8.7904889501296991e-05 -0.049882116185164652 0 -8.3839331661276901e-05 -0.049735627570811659 0 -0.00011784113590887579 -0.049717134895283968 0 -0.00017032837975042777 -0.049770227475050263 0 -8.3839331661276901e-05 -0.049735627570811659 0 -0.00011784113590887579 -0.049717134895283968 0 -0.00010322778035483902 -0.049588702394934625 0 -0.00011784113590887579 -0.049717134895283968 0 -0.00017032837975042777 -0.049770227475050263 0 -0.00012704375036943431 -0.049848610795585509 0 2.7952268175447147e-06 -0.04999207038256611 0 -7.3213697941817703e-08 -0.049999885399284946 0 2.0582721014468729e-08 -0.050000029264454078 0 -3.8925406123810137e-05 -0.049899892337800192 0 2.7952268175447147e-06 -0.04999207038256611 0 -7.3213697941817703e-08 -0.049999885399284946 0 -8.7904889501296991e-05 -0.049882116185164652 0 -7.404158365121547e-05 -0.049958617191515918 0 2.7952268175447147e-06 -0.04999207038256611 0 2.0582721014468729e-08 -0.050000029264454078 0 9.7232040764124461e-07 -0.050000090076997537 0 -4.1413105249839415e-07 -0.050000308820317613 0 -0.00016915223355859789 -0.04993427817395564 0 -0.00010551148238021284 -0.049969514443086623 0 -2.8617627767248382e-08 -0.049999958819251629 0 -7.404158365121547e-05 -0.049958617191515918 0 -1.0188078752966851e-08 -0.04999998598915411 0 2.0582721014468729e-08 -0.050000029264454078 0 9.7232040764124461e-07 -0.050000090076997537 0 -0.00016915223355859789 -0.04993427817395564 0 -0.00010551148238021284 -0.049969514443086623 0 -0.00014474507233721925 -0.049944276068856722 0 -0.00022588910778843367 -0.049907181385111674 0 -0.00010551148238021284 -0.049969514443086623 0 -0.00014474507233721925 -0.049944276068856722 0 -0.00022588910778843367 -0.049907181385111674 0 -0.00014474507233721925 -0.049944276068856722 0 -9.0420199492877138e-05 -0.049915765303403116 0 -0.00014474507233721925 -0.049944276068856722 0 -0.00012704375036943431 -0.049848610795585509 0 -9.0420199492877138e-05 -0.049915765303403116 0 -0.00017032837975042777 -0.049770227475050263 0 -0.00016915223355859789 -0.04993427817395564 0 -0.00012704375036943431 -0.049848610795585509 0 -0.00016915223355859789 -0.04993427817395564 0 -0.00014474507233721925 -0.049944276068856722 0 -0.00012704375036943431 -0.049848610795585509 0 -0.00012704375036943431 -0.049848610795585509 0 -9.0420199492877138e-05 -0.049915765303403116 0 -2.1086427194716895e-05 -0.049760987611287485 0 2.211818496467507e-06 -0.049143426942201238 0 3.8854533740733251e-06 -0.049137086179578446 0 3.69337655988053e-05 -0.049154736734743666 0 -4.7417093024679929e-05 -0.049525861968203549 0 -1.0491653764119271e-07 -0.049459152088602687 0 2.3233172066802991e-05 -0.049187946438818672 0 -3.0369593141709671e-05 -0.0491791178324806 0 2.211818496467507e-06 -0.049143426942201238 0 -0.00012060775956561608 -0.04953215843093086 0 -4.7417093024679929e-05 -0.049525861968203549 0 2.3233172066802991e-05 -0.049187946438818672 0 2.211818496467507e-06 -0.049143426942201238 0 6.9411371032671982e-06 -0.049155295965742148 0 2.211818496467507e-06 -0.049143426942201238 0 6.9411371032671982e-06 -0.049155295965742148 0 3.8854533740733251e-06 -0.049137086179578446 0 3.8854533740733251e-06 -0.049137086179578446 0 3.69337655988053e-05 -0.049154736734743666 0 -3.0742429410544704e-05 -0.049140238845214484 0 -0.00011784113590887579 -0.049717134895283968 0 -0.00012704375036943431 -0.049848610795585509 0 -2.1086427194716895e-05 -0.049760987611287485 0 -2.1086427194716895e-05 -0.049760987611287485 0 -0.00010322778035483902 -0.049588702394934625 0 -5.5136284148832129e-07 -0.049357317458587409 0 -0.00011784113590887579 -0.049717134895283968 0 -2.1086427194716895e-05 -0.049760987611287485 0 -0.00010322778035483902 -0.049588702394934625 0 -1.0491653764119271e-07 -0.049459152088602687 0 3.1973583504875776e-06 -0.049375195718431832 0 3.69337655988053e-05 -0.049154736734743666 0 -3.0742429410544704e-05 -0.049140238845214484 0 -5.5136284148832129e-07 -0.049357317458587409 0 -3.0742429410544704e-05 -0.049140238845214484 0 -1.0451648255482394e-05 -0.049159801413896496 0 -5.5136284148832129e-07 -0.049357317458587409 0 -6.4357324826533757e-06 -0.049046289952780875 0 -3.0742429410544704e-05 -0.049140238845214484 0 -1.0451648255482394e-05 -0.049159801413896496 0 -6.4357324826533757e-06 -0.049046289952780875 0 8.5533453338683021e-07 -0.049093102214452206 0 5.3563235750013134e-05 -0.048994292849280828 0 -6.4357324826533757e-06 -0.049046289952780875 0 8.5533453338683021e-07 -0.049093102214452206 0 -3.0742429410544704e-05 -0.049140238845214484 0 3.8854533740733251e-06 -0.049137086179578446 0 -3.0742429410544704e-05 -0.049140238845214484 0 -9.1853122801742123e-06 -0.049131761353223356 0 8.5533453338683021e-07 -0.049093102214452206 0 -3.0742429410544704e-05 -0.049140238845214484 0 -9.1853122801742123e-06 -0.049131761353223356 0 6.9411371032671982e-06 -0.049155295965742148 0 3.8854533740733251e-06 -0.049137086179578446 0 -9.1853122801742123e-06 -0.049131761353223356 0 7.1940592795343453e-06 -0.049176185742784422 0 6.9411371032671982e-06 -0.049155295965742148 0 -4.107383202551253e-06 -0.049155102060441269 0 6.9411371032671982e-06 -0.049155295965742148 0 -9.1853122801742123e-06 -0.049131761353223356 0 -4.107383202551253e-06 -0.049155102060441269 0 -3.9471898629289816e-06 -0.049150072101221645 0 -4.107383202551253e-06 -0.049155102060441269 0 1.3266914803169199e-05 -0.0491343645354579 0 -9.1853122801742123e-06 -0.049131761353223356 0 -4.107383202551253e-06 -0.049155102060441269 0 1.3266914803169199e-05 -0.0491343645354579 0 8.5533453338683021e-07 -0.049093102214452206 0 -9.1853122801742123e-06 -0.049131761353223356 0 1.3266914803169199e-05 -0.0491343645354579 0 1.3266914803169199e-05 -0.0491343645354579 0 4.0640241878015417e-05 -0.04914196739855127 0 7.2253791336596837e-05 -0.049098751385487034 0 8.5533453338683021e-07 -0.049093102214452206 0 1.3266914803169199e-05 -0.0491343645354579 0 7.2253791336596837e-05 -0.049098751385487034 0 -3.9471898629289816e-06 -0.049150072101221645 0 1.3266914803169199e-05 -0.0491343645354579 0 4.0640241878015417e-05 -0.04914196739855127 0 0.00013757389654503905 -0.049120687589076312 0 7.0787029591622106e-05 -0.049144656039711167 0 4.0640241878015417e-05 -0.04914196739855127 0 0.00013757389654503905 -0.049120687589076312 0 0.00024414585445570343 -0.048991926046847004 0 7.2253791336596837e-05 -0.049098751385487034 0 0.00013757389654503905 -0.049120687589076312 0 4.0640241878015417e-05 -0.04914196739855127 0 7.2253791336596837e-05 -0.049098751385487034 0 0.00024414585445570343 -0.048991926046847004 0 7.2253791336596837e-05 -0.049098751385487034 0 5.3563235750013134e-05 -0.048994292849280828 0 8.5533453338683021e-07 -0.049093102214452206 0 7.2253791336596837e-05 -0.049098751385487034 0 5.3563235750013134e-05 -0.048994292849280828 0 -6.4357324826533757e-06 -0.049046289952780875 0 5.3563235750013134e-05 -0.048994292849280828 0 4.8651529310096044e-05 -0.048859360968427495 0 5.3563235750013134e-05 -0.048994292849280828 0 0.00017357403142936564 -0.048772058151030084 0 4.8651529310096044e-05 -0.048859360968427495 0 0.00024414585445570343 -0.048991926046847004 0 5.3563235750013134e-05 -0.048994292849280828 0 0.00017357403142936564 -0.048772058151030084 0 0.00017357403142936564 -0.048772058151030084 0 4.8651529310096044e-05 -0.048859360968427495 0 0.00023319985691146227 -0.048577697708776256 0 0.00051086191970263223 -0.048471106268853772 0 0.00017357403142936564 -0.048772058151030084 0 0.00023319985691146227 -0.048577697708776256 0 4.8651529310096044e-05 -0.048859360968427495 0 3.6836472813555165e-05 -0.04875065437452579 0 1.892525821164108e-05 -0.049001566970453062 0 4.8651529310096044e-05 -0.048859360968427495 0 3.6836472813555165e-05 -0.04875065437452579 0 0.00023319985691146227 -0.048577697708776256 0 0.00047151989451979282 -0.048322334328131641 0 0.00023319985691146227 -0.048577697708776256 0 0.00021805482709120726 -0.048463856641236848 0 3.6836472813555165e-05 -0.04875065437452579 0 0.00023319985691146227 -0.048577697708776256 0 0.00021805482709120726 -0.048463856641236848 0 -0.0013780353707975208 -0.044463706484674209 0 -0.0021338219979032788 -0.045303913113332601 0 -0.0020467734604549784 -0.043718430447037285 0 -0.0013780353707975208 -0.044463706484674209 0 -0.0011310370823384892 -0.043625134179657153 0 -0.0020467734604549784 -0.043718430447037285 0 -0.0011310370823384892 -0.043625134179657153 0 -0.0020467734604549784 -0.043718430447037285 0 -0.0012880216445506419 -0.042764722270857349 0 -0.0030008137521807489 -0.043401697089942362 0 -0.0036708305350541914 -0.044155763698018963 0 -0.0036010554679374814 -0.042687015961845889 0 -0.0020467734604549784 -0.043718430447037285 0 -0.0030008137521807489 -0.043401697089942362 0 -0.0036708305350541914 -0.044155763698018963 0 -0.0020467734604549784 -0.043718430447037285 0 -0.0030008137521807489 -0.043401697089942362 0 -0.0028620588642993771 -0.042678919455530137 0 0.00039024058527209612 -0.049292381063822631 0 -0.0011459084782481875 -0.047370656047180638 0 3.6836472813555165e-05 -0.04875065437452579 0 0.00021805482709120726 -0.048463856641236848 0 -0.000212014023502415 -0.048145522011988275 0 -0.0021338219979032788 -0.045303913113332601 0 -0.0020467734604549784 -0.043718430447037285 0 -0.0036708305350541914 -0.044155763698018963 0 -0.0011655592103772001 -0.0466481614043079 0 -0.0011459084782481875 -0.047370656047180638 0 3.6836472813555165e-05 -0.04875065437452579 0 4.5533509001163889e-05 -0.048940042235003117 0 3.4928230127552229e-05 -0.048954436566277786 0 4.5533509001163889e-05 -0.048940042235003117 0 3.4928230127552229e-05 -0.048954436566277786 0 2.9707636706095716e-05 -0.048963523739788448 0 4.742120925542367e-05 -0.048904670420303893 0 2.5737334773895536e-05 -0.048892272426372299 0 3.5561162785458928e-05 -0.048812050477841123 0 -0.0011459084782481875 -0.047370656047180638 0 0.00050631806458339306 -0.049201033695884952 0 3.4928230127552229e-05 -0.048954436566277786 0 2.5737334773895536e-05 -0.048892272426372299 0 2.9707636706095716e-05 -0.048963523739788448 0 2.5737334773895536e-05 -0.048892272426372299 0 -1.596903965760141e-05 -0.048890892135678418 0 2.9707636706095716e-05 -0.048963523739788448 0 -1.596903965760141e-05 -0.048890892135678418 0 2.9707636706095716e-05 -0.048963523739788448 0 -3.8945351814183133e-05 -0.048967241182217243 0 1.5122740745050719e-05 -0.049068661280784243 0 2.9707636706095716e-05 -0.048963523739788448 0 -3.8945351814183133e-05 -0.048967241182217243 0 4.5533509001163889e-05 -0.048940042235003117 0 1.5122740745050719e-05 -0.049068661280784243 0 2.9707636706095716e-05 -0.048963523739788448 0 1.5122740745050719e-05 -0.049068661280784243 0 1.892525821164108e-05 -0.049001566970453062 0 2.263223732094256e-07 -0.0491734593440879 0 4.5533509001163889e-05 -0.048940042235003117 0 1.5122740745050719e-05 -0.049068661280784243 0 1.892525821164108e-05 -0.049001566970453062 0 3.6836472813555165e-05 -0.04875065437452579 0 4.5533509001163889e-05 -0.048940042235003117 0 1.892525821164108e-05 -0.049001566970453062 0 -6.4357324826533757e-06 -0.049046289952780875 0 1.892525821164108e-05 -0.049001566970453062 0 -1.0451648255482394e-05 -0.049159801413896496 0 -6.4357324826533757e-06 -0.049046289952780875 0 4.8651529310096044e-05 -0.048859360968427495 0 1.892525821164108e-05 -0.049001566970453062 0 2.263223732094256e-07 -0.0491734593440879 0 -1.0451648255482394e-05 -0.049159801413896496 0 -5.5136284148832129e-07 -0.049357317458587409 0 1.892525821164108e-05 -0.049001566970453062 0 2.263223732094256e-07 -0.0491734593440879 0 -1.0451648255482394e-05 -0.049159801413896496 0 2.263223732094256e-07 -0.0491734593440879 0 -5.5136284148832129e-07 -0.049357317458587409 0 -4.9335827051948521e-05 -0.049248290945553962 0 -0.00010322778035483902 -0.049588702394934625 0 -5.5136284148832129e-07 -0.049357317458587409 0 -0.00016905229297508177 -0.049567754046052431 0 -8.3839331661276901e-05 -0.049735627570811659 0 -0.00010322778035483902 -0.049588702394934625 0 -0.00016905229297508177 -0.049567754046052431 0 -5.5136284148832129e-07 -0.049357317458587409 0 -0.00016905229297508177 -0.049567754046052431 0 -4.9335827051948521e-05 -0.049248290945553962 0 -0.00016905229297508177 -0.049567754046052431 0 -0.00025351021923439987 -0.049972634612525629 0 -9.9883759798379546e-05 -0.049849732961030381 0 -0.00016905229297508177 -0.049567754046052431 0 -4.9335827051948521e-05 -0.049248290945553962 0 -0.0002127584768474469 -0.049063620639718301 0 -0.00018297396508897113 -0.049539744330724902 0 -0.00022094695484708586 -0.049556580871033866 0 1.5122740745050719e-05 -0.049068661280784243 0 2.263223732094256e-07 -0.0491734593440879 0 -4.9335827051948521e-05 -0.049248290945553962 0 1.5122740745050719e-05 -0.049068661280784243 0 -4.9335827051948521e-05 -0.049248290945553962 0 -6.7273024963202639e-05 -0.049067497305518876 0 1.5122740745050719e-05 -0.049068661280784243 0 -6.7273024963202639e-05 -0.049067497305518876 0 -3.8945351814183133e-05 -0.048967241182217243 0 -4.9335827051948521e-05 -0.049248290945553962 0 -6.7273024963202639e-05 -0.049067497305518876 0 -0.0002127584768474469 -0.049063620639718301 0 -6.7273024963202639e-05 -0.049067497305518876 0 -3.8945351814183133e-05 -0.048967241182217243 0 -0.00010982187659759299 -0.048968266687156495 0 -3.8945351814183133e-05 -0.048967241182217243 0 -0.00010982187659759299 -0.048968266687156495 0 -7.1250913714598419e-05 -0.048899829835603412 0 -0.00010982187659759299 -0.048968266687156495 0 -7.1250913714598419e-05 -0.048899829835603412 0 -0.00016225027512389498 -0.048872106292656606 0 -1.596903965760141e-05 -0.048890892135678418 0 -3.8945351814183133e-05 -0.048967241182217243 0 -7.1250913714598419e-05 -0.048899829835603412 0 -0.00010982187659759299 -0.048968266687156495 0 -0.0002127584768474469 -0.049063620639718301 0 -0.00016225027512389498 -0.048872106292656606 0 -0.0002290594936660651 -0.050160381571684676 0 -0.00025351021923439987 -0.049972634612525629 0 -0.00028579743437881771 -0.05019014446844474 0 -0.00022094695484708586 -0.049556580871033866 0 -0.00028299497618593375 -0.049357110965420489 0 -0.00023019456591739113 -0.049813620631492306 0 -8.4045059296866597e-05 -0.049876451569796865 0 -0.00023019456591739113 -0.049813620631492306 0 -0.00028299497618593375 -0.049357110965420489 0 -6.7273024963202639e-05 -0.049067497305518876 0 -0.00010982187659759299 -0.048968266687156495 0 -0.0002127584768474469 -0.049063620639718301 0 -0.00025351021923439987 -0.049972634612525629 0 -1.9438420719308759e-05 -0.049982467504457118 0 -9.9883759798379546e-05 -0.049849732961030381 0 -1.9438420719308759e-05 -0.049982467504457118 0 -3.6045214338188289e-05 -0.049850447784331557 0 -9.9883759798379546e-05 -0.049849732961030381 0 -1.9438420719308759e-05 -0.049982467504457118 0 -1.3368848979452442e-05 -0.049992652744248037 0 -2.0677559540739191e-05 -0.049987806793684343 0 -0.00023019456591739113 -0.049813620631492306 0 -1.1713945363644818e-05 -0.050062205915233027 0 -0.0002290594936660651 -0.050160381571684676 0 -0.00025351021923439987 -0.049972634612525629 0 -1.9438420719308759e-05 -0.049982467504457118 0 -2.2099127222531775e-05 -0.049989405368770147 0 -1.9438420719308759e-05 -0.049982467504457118 0 -2.0677559540739191e-05 -0.049987806793684343 0 -2.2375512342550629e-05 -0.049986416978299447 0 -2.0677559540739191e-05 -0.049987806793684343 0 -1.8601577893273792e-05 -0.049990007812873154 0 -1.3368848979452442e-05 -0.049992652744248037 0 -2.0677559540739191e-05 -0.049987806793684343 0 -1.8601577893273792e-05 -0.049990007812873154 0 -1.9438420719308759e-05 -0.049982467504457118 0 -1.3368848979452442e-05 -0.049992652744248037 0 -1.9030708864463654e-08 -0.050000006373496123 0 -1.9438420719308759e-05 -0.049982467504457118 0 3.0359712284847144e-08 -0.049999906409439521 0 -3.6045214338188289e-05 -0.049850447784331557 0 -1.9438420719308759e-05 -0.049982467504457118 0 -1.9030708864463654e-08 -0.050000006373496123 0 3.0359712284847144e-08 -0.049999906409439521 0 3.0359712284847144e-08 -0.049999906409439521 0 -3.6045214338188289e-05 -0.049850447784331557 0 -3.3999258392552736e-08 -0.049999673648100533 0 -0.00016905229297508177 -0.049567754046052431 0 -3.6045214338188289e-05 -0.049850447784331557 0 -9.9883759798379546e-05 -0.049849732961030381 0 -8.3839331661276901e-05 -0.049735627570811659 0 -0.00016905229297508177 -0.049567754046052431 0 -3.6045214338188289e-05 -0.049850447784331557 0 -8.3839331661276901e-05 -0.049735627570811659 0 -3.6045214338188289e-05 -0.049850447784331557 0 -3.3999258392552736e-08 -0.049999673648100533 0 -7.9997886519102407e-06 -0.049978825787493318 0 -9.5037601040939434e-09 -0.049999973662377482 0 -4.1436019540828041e-09 -0.049999965119621792 0 -7.9997886519102407e-06 -0.049978825787493318 0 -1.0435109951883575e-05 -0.049972579856857796 0 -1.8489240426944116e-05 -0.049946775862338949 0 -1.0435109951883575e-05 -0.049972579856857796 0 -6.4262871137564554e-06 -0.049987126464924404 0 -9.036768347810797e-06 -0.049981503333767004 0 -7.9997886519102407e-06 -0.049978825787493318 0 -1.0435109951883575e-05 -0.049972579856857796 0 -6.4262871137564554e-06 -0.049987126464924404 0 -7.9997886519102407e-06 -0.049978825787493318 0 -9.5037601040939434e-09 -0.049999973662377482 0 -6.4262871137564554e-06 -0.049987126464924404 0 -9.5037601040939434e-09 -0.049999973662377482 0 -6.4262871137564554e-06 -0.049987126464924404 0 -4.1855017975639327e-09 -0.049999975694711485 0 -6.4262871137564554e-06 -0.049987126464924404 0 -4.1855017975639327e-09 -0.049999975694711485 0 -9.036768347810797e-06 -0.049981503333767004 0 -5.0736228025587659e-08 -0.049999971235276379 0 2.1203175670573523e-05 -0.050063161733459073 0 -1.0547758232873276e-09 -0.049999999966774962 0 -1.0332093055130633e-05 -0.049995671518053626 0 -1.4812769358607709e-05 -0.049998210201742811 0 -1.9030708864463654e-08 -0.050000006373496123 0 -1.0547758232873276e-09 -0.049999999966774962 0 -1.0332093055130633e-05 -0.049995671518053626 0 -1.3368848979452442e-05 -0.049992652744248037 0 -1.9030708864463654e-08 -0.050000006373496123 0 -1.0332093055130633e-05 -0.049995671518053626 0 -1.3368848979452442e-05 -0.049992652744248037 0 -1.0332093055130633e-05 -0.049995671518053626 0 -1.8601577893273792e-05 -0.049990007812873154 0 -1.8601577893273792e-05 -0.049990007812873154 0 -1.8170044715835656e-05 -0.049992327627118284 0 -2.2845922357019774e-05 -0.049987327750413126 0 -1.0332093055130633e-05 -0.049995671518053626 0 -1.8601577893273792e-05 -0.049990007812873154 0 -1.8170044715835656e-05 -0.049992327627118284 0 -1.0332093055130633e-05 -0.049995671518053626 0 -1.8170044715835656e-05 -0.049992327627118284 0 -1.4812769358607709e-05 -0.049998210201742811 0 -1.8170044715835656e-05 -0.049992327627118284 0 -2.8524830207865555e-05 -0.049987673523450224 0 -2.2845922357019774e-05 -0.049987327750413126 0 2.1203175670573523e-05 -0.050063161733459073 0 -0.00017748036152105947 -0.049105038999371978 0 -1.0435109951883575e-05 -0.049972579856857796 0 -9.036768347810797e-06 -0.049981503333767004 0 -2.7160109813708215e-06 -0.0499732363120294 0 -1.8170044715835656e-05 -0.049992327627118284 0 -1.4812769358607709e-05 -0.049998210201742811 0 -2.8524830207865555e-05 -0.049987673523450224 0 -2.8524830207865555e-05 -0.049987673523450224 0 -2.2845922357019774e-05 -0.049987327750413126 0 -2.7429411302891849e-05 -0.049983808495793869 0 -0.00017748036152105947 -0.049105038999371978 0 -0.00028277419884025466 -0.049154285960434432 0 -2.2845922357019774e-05 -0.049987327750413126 0 -2.4208944290144653e-05 -0.049984281908718266 0 -2.3732785540815609e-05 -0.049984927766544993 0 -5.7852965542516011e-05 -0.049496973204015554 0 -0.00028277419884025466 -0.049154285960434432 0 -0.00049363237152339238 -0.048737247950902986 0 -0.000532877373432659 -0.048971013533579383 0 -0.00027080537672743277 -0.048729839536602607 0 -0.00028277419884025466 -0.049154285960434432 0 -0.00032098252834089061 -0.049292374064088484 0 -0.00067244286236047143 -0.048597119698831355 0 -0.00068397998702533888 -0.048668776202799149 0 -0.00041031237807748362 -0.048350800790255104 0 -0.00023019456591739113 -0.049813620631492306 0 -0.00032098252834089061 -0.049292374064088484 0 -0.00035160777023281198 -0.049601387051347291 0 -0.00018988508666049992 -0.049452704180912126 0 -0.00020035757490409072 -0.049515521775602894 0 -0.00032098252834089061 -0.049292374064088484 0 -0.00028299497618593375 -0.049357110965420489 0 -2.2375512342550629e-05 -0.049986416978299447 0 -2.3732785540815609e-05 -0.049984927766544993 0 -2.2086892022861804e-05 -0.049987201911129327 0 -2.2845922357019774e-05 -0.049987327750413126 0 -2.3732785540815609e-05 -0.049984927766544993 0 -2.2086892022861804e-05 -0.049987201911129327 0 -1.8601577893273792e-05 -0.049990007812873154 0 -2.2845922357019774e-05 -0.049987327750413126 0 -2.2086892022861804e-05 -0.049987201911129327 0 -2.2375512342550629e-05 -0.049986416978299447 0 -1.8601577893273792e-05 -0.049990007812873154 0 -2.2086892022861804e-05 -0.049987201911129327 0 -7.1250913714598419e-05 -0.048899829835603412 0 -0.00016225027512389498 -0.048872106292656606 0 -4.2319817153381777e-05 -0.048814947526829001 0 -0.00028299497618593375 -0.049357110965420489 0 -0.00042666034775465443 -0.047553670302502481 0 -0.00068397998702533888 -0.048668776202799149 0 -0.00041031237807748362 -0.048350800790255104 0 -0.00011898269509581734 -0.048338362227124371 0 -1.596903965760141e-05 -0.048890892135678418 0 -7.1250913714598419e-05 -0.048899829835603412 0 -4.2319817153381777e-05 -0.048814947526829001 0 -0.00028277419884025466 -0.049154285960434432 0 -0.00052504366532620016 -0.048166476767121096 0 -0.00032098252834089061 -0.049292374064088484 0 -0.00052504366532620016 -0.048166476767121096 0 -0.00052504366532620016 -0.048166476767121096 0 -0.00042666034775465443 -0.047553670302502481 0 -0.00015044870287634333 -0.047840715391063965 0 -0.00027570433668846898 -0.048583255558758358 0 -0.00072988601631471261 -0.047826142974271291 0 -0.00052504366532620016 -0.048166476767121096 0 -0.00080449277117754247 -0.047285119110184036 0 -0.00017748036152105947 -0.049105038999371978 0 -0.00080449277117754247 -0.047285119110184036 0 -0.0004693516649251339 -0.048348542294055163 0 -0.000462107358911582 -0.048359114445106925 0 -0.00045011385762152553 -0.048340692256207476 0 -0.00085464327354595269 -0.046968590926336096 0 -0.00090485364848328525 -0.047002299581846381 0 -0.00090106310611800914 -0.046963310215007506 0 -0.0004693516649251339 -0.048348542294055163 0 -0.0004714051070312756 -0.048362345535814068 0 -0.000462107358911582 -0.048359114445106925 0 0.00035199206941262807 -0.047409427459919232 0 -0.00067483009362222994 -0.04744209535172083 0 -0.0010428436731013929 -0.046237984737297441 0 -0.00027570433668846898 -0.048583255558758358 0 -0.00094717299659901613 -0.048018748402470855 0 -0.00072988601631471261 -0.047826142974271291 0 -5.0171865213789392e-05 -0.048960327598792402 0 -0.0011743112841366109 -0.046424300981860019 0 -0.00017748036152105947 -0.049105038999371978 0 -5.0171865213789392e-05 -0.048960327598792402 0 -1.0435109951883575e-05 -0.049972579856857796 0 -2.7160109813708215e-06 -0.0499732363120294 0 2.8440883852739094e-06 -0.049961090999736592 0 -7.8349456936016549e-05 -0.049862428003654834 0 -1.8489240426944116e-05 -0.049946775862338949 0 -8.8151477458323343e-05 -0.04992195122242081 0 -1.0435109951883575e-05 -0.049972579856857796 0 2.8440883852739094e-06 -0.049961090999736592 0 -1.8489240426944116e-05 -0.049946775862338949 0 -5.0171865213789392e-05 -0.048960327598792402 0 8.9611821124988513e-05 -0.050200612051979732 0 -5.0171865213789392e-05 -0.048960327598792402 0 2.330059445894681e-05 -0.049256116297531079 0 0.00035199206941262807 -0.047409427459919232 0 -0.00067483009362222994 -0.04744209535172083 0 0.00012767713595416289 -0.048709798231886904 0 -0.0011915716515566027 -0.048093333982332447 0 -0.00067483009362222994 -0.04744209535172083 0 0.00012767713595416289 -0.048709798231886904 0 -0.0012281451570820856 -0.044802368614612162 0 -0.0018263977862457742 -0.044582319928515433 0 -0.0015918846265394852 -0.043694667016263955 0 -0.0018395371365102892 -0.04233558018774923 0 -0.0017664716323800051 -0.042937401689543735 0 -0.0013831810100894864 -0.042678009868128142 0 -0.0012281451570820856 -0.044802368614612162 0 -0.0018263977862457742 -0.044582319928515433 0 -0.0017457958512615344 -0.045265369019613526 0 -0.002580827064260033 -0.041760433634269747 0 -0.0015481172729336226 -0.043964206882991227 0 -0.0018263977862457742 -0.044582319928515433 0 -0.0026130240439873726 -0.044599033414491174 0 -0.0017457958512615344 -0.045265369019613526 0 -0.0019606736107103144 -0.044691103894450065 0 -0.002580827064260033 -0.041760433634269747 0 -0.0031164195406950855 -0.042383078148405522 0 -0.002753239456870343 -0.042451479373724468 0 -0.00277457705048882 -0.042058496095391668 0 -0.0018263977862457742 -0.044582319928515433 0 -0.0015918846265394852 -0.043694667016263955 0 -0.0026130240439873726 -0.044599033414491174 0 -0.00067483009362222994 -0.04744209535172083 0 -0.0016241399810242268 -0.046758576853131707 0 -0.0010428436731013929 -0.046237984737297441 0 -0.0011915716515566027 -0.048093333982332447 0 -0.00067483009362222994 -0.04744209535172083 0 -0.0016241399810242268 -0.046758576853131707 0 -0.0011190817112779724 -0.046727501700404239 0 -0.0019606736107103144 -0.044691103894450065 0 -0.0019606736107103144 -0.044691103894450065 0 -0.0011743112841366109 -0.046424300981860019 0 -0.0016420128388058403 -0.046144217717529655 0 -0.00087815089452278317 -0.045648352670225274 0 -0.0020896771517570243 -0.045657589958416449 0 -0.0012226381552989289 -0.046546943337833151 0 -0.0015214726158343458 -0.046296593839596972 0 -0.00095532686307702895 -0.046309182937477447 0 -0.0011743112841366109 -0.046424300981860019 0 -0.00080449277117754247 -0.047285119110184036 0 -0.001933433019077863 -0.045270574848960028 0 -0.0015260841412103659 -0.044907726860471342 0 -0.0018878058621953203 -0.044850398350037311 0 -0.0011743112841366109 -0.046424300981860019 0 -0.0017067216818890819 -0.045394453679853619 0 -0.0015260841412103659 -0.044907726860471342 0 -0.0018878058621953203 -0.044850398350037311 0 -0.0018809995842057206 -0.044610972888469137 0 -0.0018878058621953203 -0.044850398350037311 0 -0.0018809995842057206 -0.044610972888469137 0 -0.0020253417251225362 -0.044607944312028566 0 -0.0017067216818890819 -0.045394453679853619 0 -0.00042666034775465443 -0.047553670302502481 0 -0.00096968174246187173 -0.046991464052737249 0 -0.00090485364848328525 -0.047002299581846381 0 -0.00090106310611800914 -0.046963310215007506 0 -0.0017067216818890819 -0.045394453679853619 0 -0.00080449277117754247 -0.047285119110184036 0 -0.00042666034775465443 -0.047553670302502481 0 -0.001983856143654168 -0.044874054168830259 0 2.5737334773895536e-05 -0.048892272426372299 0 -1.596903965760141e-05 -0.048890892135678418 0 3.5561162785458928e-05 -0.048812050477841123 0 -1.596903965760141e-05 -0.048890892135678418 0 -4.2319817153381777e-05 -0.048814947526829001 0 3.5561162785458928e-05 -0.048812050477841123 0 -0.0036708305350541914 -0.044155763698018963 0 -0.0042364728428349249 -0.042305017143611331 0 -0.0036010554679374814 -0.042687015961845889 0 -0.0011459084782481875 -0.047370656047180638 0 -0.001983856143654168 -0.044874054168830259 0 -0.001983856143654168 -0.044874054168830259 0 -0.0027388915738897697 -0.043975352149107257 0 -0.0023675198880426986 -0.044214304845221958 0 -0.0022980208874937495 -0.044212843515315875 0 -0.0023929486142303673 -0.044129854594668845 0 -0.0042364728428349249 -0.042305017143611331 0 -0.0040663708992508393 -0.042300972244792012 0 -0.0036010554679374814 -0.042687015961845889 0 -0.0035019043866999946 -0.043587799005052968 0 -0.0027388915738897697 -0.043975352149107257 0 -0.001983856143654168 -0.044874054168830259 0 -0.0035019043866999946 -0.043587799005052968 0 -0.0035019043866999946 -0.043587799005052968 0 -0.0039624563053036023 -0.042789377501004477 0 -0.0045230888398935156 -0.041479827972176218 0 -0.0046469777147597358 -0.041082402859790472 0 -0.0038817432255283768 -0.04106705887143082 0 -0.0043056280365067253 -0.041662944845731902 0 -0.0045230888398935156 -0.041479827972176218 0 -0.0038817432255283768 -0.04106705887143082 0 -0.0031164195406950855 -0.042383078148405522 0 -0.0030334631679938611 -0.042647664203041599 0 -0.002753239456870343 -0.042451479373724468 0 -0.0031807950618269144 -0.043015818244582123 0 -0.0043234961954512589 -0.041606872030554562 0 -0.0016420128388058403 -0.046144217717529655 0 -0.0020896771517570243 -0.045657589958416449 0 -0.0020406255355321819 -0.045811088305084152 0 -0.0017067216818890819 -0.045394453679853619 0 -0.0027388915738897697 -0.043975352149107257 0 -0.0027388915738897697 -0.043975352149107257 0 -0.0031807950618269144 -0.043015818244582123 0 -0.0030305941851345034 -0.043912524512876798 0 -0.0028555443313166159 -0.044451584204785448 0 -0.0026301567849356723 -0.044454541919120953 0 -0.0023692495162280008 -0.044457879349960615 0 -0.0030305941851345034 -0.043912524512876798 0 -0.0026301567849356723 -0.044454541919120953 0 -0.0031807950618269144 -0.043015818244582123 0 -0.0024613498766795608 -0.044143915709925666 0 -0.0017067216818890819 -0.045394453679853619 0 -0.0024613498766795608 -0.044143915709925666 0 -0.001933433019077863 -0.045270574848960028 0 -0.0018878058621953203 -0.044850398350037311 0 -0.002149736874355873 -0.04460530965052812 0 -0.0019606736107103144 -0.044691103894450065 0 -0.0031807950618269144 -0.043015818244582123 0 -0.0018878058621953203 -0.044850398350037311 0 -0.002149736874355873 -0.04460530965052812 0 -0.0020253417251225362 -0.044607944312028566 0 -0.0031807950618269144 -0.043015818244582123 0 -0.0032250513759162405 -0.041451640832601611 0 -0.0046712534770162817 -0.041075426636734601 0 -0.0038817432255283768 -0.04106705887143082 0 -0.0037106590180812221 -0.040404648281003021 0 -0.0029866063174553942 -0.040735104967143575 0 -0.0038817432255283768 -0.04106705887143082 0 -0.0037106590180812221 -0.040404648281003021 0 -0.0029866063174553942 -0.040735104967143575 0 -0.0038817432255283768 -0.04106705887143082 0 -0.0025931659238217636 -0.041629103717788475 0 -0.0043056280365067253 -0.041662944845731902 0 -0.0038817432255283768 -0.04106705887143082 0 -0.0025931659238217636 -0.041629103717788475 0 -0.0040779275560668083 -0.042306264376210385 0 -0.0028620588642993771 -0.042678919455530137 0 -0.0022758446712196666 -0.042188012600291286 0 -0.0040779275560668083 -0.042306264376210385 0 -0.0028620588642993771 -0.042678919455530137 0 -0.0036010554679374814 -0.042687015961845889 0 -0.0035019043866999946 -0.043587799005052968 0 -0.0025795944346662077 -0.041731588284314461 0 -0.0030008137521807489 -0.043401697089942362 0 -0.0028620588642993771 -0.042678919455530137 0 -0.0036010554679374814 -0.042687015961845889 0 -0.0020467734604549784 -0.043718430447037285 0 -0.0028620588642993771 -0.042678919455530137 0 -0.0022758446712196666 -0.042188012600291286 0 -0.0020467734604549784 -0.043718430447037285 0 -0.0022758446712196666 -0.042188012600291286 0 -0.0012880216445506419 -0.042764722270857349 0 -0.0029866063174553942 -0.040735104967143575 0 -0.0025931659238217636 -0.041629103717788475 0 -0.00184940483456152 -0.040389641485581863 0 -0.0025931659238217636 -0.041629103717788475 0 -0.00184940483456152 -0.040389641485581863 0 -0.001115295654642863 -0.040871931832983308 0 -0.00184940483456152 -0.040389641485581863 0 -0.0028987527215328965 -0.039616325038575526 0 -0.0018306646854761781 -0.039013205167449924 0 -0.0029866063174553942 -0.040735104967143575 0 -0.00184940483456152 -0.040389641485581863 0 -0.0027012339860345656 -0.039806566496744786 0 -0.0021041928412985043 -0.04026992539859333 0 -0.0027933285621377655 -0.040375746000881618 0 -0.0027933285621377655 -0.040375746000881618 0 -0.0018511492641929443 -0.03912998230782639 0 -0.0027595640172762711 -0.039524137336962833 0 -0.0018306646854761781 -0.039013205167449924 0 -0.002586476348809963 -0.038561097057280287 0 -0.0027933285621377655 -0.040375746000881618 0 -0.0032250513759162405 -0.041451640832601611 0 -0.0027933285621377655 -0.040375746000881618 0 -0.002580827064260033 -0.041760433634269747 0 -0.0029866063174553942 -0.040735104967143575 0 -0.0027012339860345656 -0.039806566496744786 0 -0.0037106590180812221 -0.040404648281003021 0 -0.0024681886636172012 -0.042279118981038262 0 -0.002753239456870343 -0.042451479373724468 0 -0.00277457705048882 -0.042058496095391668 0 -0.0027595640172762711 -0.039524137336962833 0 -0.0039219530209494494 -0.038660966199835736 0 -0.002586476348809963 -0.038561097057280287 0 -0.0039219530209494494 -0.038660966199835736 0 -0.002586476348809963 -0.038561097057280287 0 -0.0026908654865016638 -0.037534676494728199 0 -0.002580827064260033 -0.041760433634269747 0 -0.0025931799556005741 -0.040320058884443608 0 -0.002586476348809963 -0.038561097057280287 0 -0.0026908654865016638 -0.037534676494728199 0 -0.0017017061944877147 -0.038078385323623259 0 -0.0018306646854761781 -0.039013205167449924 0 -0.002586476348809963 -0.038561097057280287 0 -0.0017017061944877147 -0.038078385323623259 0 -0.0026908654865016638 -0.037534676494728199 0 -0.0017497880158238513 -0.03714747144936368 0 -0.0015207814045530049 -0.036502171012558746 0 -0.0025931799556005741 -0.040320058884443608 0 -0.0023455381630283307 -0.037359630062701661 0 -0.0023206356589735412 -0.042770960989094074 0 -0.0027169038070898265 -0.043226825426302379 0 -0.0027714770808380911 -0.043151936267917135 0 -0.0026908654865016638 -0.037534676494728199 0 -0.0017017061944877147 -0.038078385323623259 0 -0.0017497880158238513 -0.03714747144936368 0 -0.0023206356589735412 -0.042770960989094074 0 -0.0021502657732172135 -0.043323944870091675 0 -0.0017664716323800051 -0.042937401689543735 0 -0.0018395371365102892 -0.04233558018774923 0 -0.0023206356589735412 -0.042770960989094074 0 -0.0017664716323800051 -0.042937401689543735 0 -0.0021502657732172135 -0.043323944870091675 0 -0.0015367038872470696 -0.043430243127750338 0 -0.0017664716323800051 -0.042937401689543735 0 -0.0024153068895010434 -0.044510366515824858 0 -0.0021775964940626696 -0.044153762413403359 0 -0.0026534690245567337 -0.045036804285552248 0 -0.0026055763783459558 -0.045025472956352522 0 -0.002676966182415968 -0.044956182379632094 0 -0.0023206356589735412 -0.042770960989094074 0 -0.0021502657732172135 -0.043323944870091675 0 -0.0027169038070898265 -0.043226825426302379 0 -0.0024153068895010434 -0.044510366515824858 0 -0.0023510889914433292 -0.038294692088841113 0 -0.0023395078273066991 -0.037328409642973175 0 -0.0023510889914433292 -0.038294692088841113 0 -0.0020644773998152069 -0.029928856960323713 0 -0.0015116411816894827 -0.029934351061328485 0 -0.0015064623944356698 -0.030301936491154677 0 -0.0020644773998152069 -0.029928856960323713 0 -0.0015880833787020173 -0.030658947005766466 0 -0.0015064623944356698 -0.030301936491154677 0 -0.0017734415941234251 -0.029461641221006182 0 -0.0020644773998152069 -0.029928856960323713 0 -0.0015116411816894827 -0.029934351061328485 0 -0.0023966545835984844 -0.029267992214938029 0 -0.0017734415941234251 -0.029461641221006182 0 -0.0020644773998152069 -0.029928856960323713 0 -0.0023615463669456327 -0.037241119058585063 0 -0.0023395078273066991 -0.037328409642973175 0 -0.0025627104040418722 -0.044675519098266468 0 -0.0026055763783459558 -0.045025472956352522 0 -0.0027033119540698643 -0.045113126462168841 0 -0.0026534690245567337 -0.045036804285552248 0 -0.0026055763783459558 -0.045025472956352522 0 -0.0027033119540698643 -0.045113126462168841 0 -0.0027033119540698643 -0.045113126462168841 0 -0.0028040399299411908 -0.045401444624512115 0 -0.0027723919025239665 -0.045092108546836235 0 -0.0027033119540698643 -0.045113126462168841 0 -0.0028037301460330671 -0.044988206431534637 0 -0.0028040399299411908 -0.045401444624512115 0 -0.0025627104040418722 -0.044675519098266468 0 -0.0027033119540698643 -0.045113126462168841 0 -0.0028037301460330671 -0.044988206431534637 0 -0.0027206800681232107 -0.04617792855840424 0 -0.0028059957882271137 -0.045571047718594083 0 -0.002206224969576614 -0.048218702489648442 0 -0.0028040399299411908 -0.045401444624512115 0 -0.0018879079434855756 -0.046916767077051072 0 -0.0032137660109343167 -0.044723591725881709 0 -0.0028037301460330671 -0.044988206431534637 0 -0.0028040399299411908 -0.045401444624512115 0 -0.0028040399299411908 -0.045401444624512115 0 -0.0024888893764114708 -0.044919771678049655 0 -0.0021671656262486996 -0.04500584064316078 0 -0.0010011300268935848 -0.043394801000471585 0 -0.0015367038872470696 -0.043430243127750338 0 -0.0013201832616143942 -0.043091696377104312 0 -0.0028040399299411908 -0.045401444624512115 0 -0.0024888893764114708 -0.044919771678049655 0 -0.0027723919025239665 -0.045092108546836235 0 -0.00086485446098383712 -0.043540872494960546 0 -0.0010011300268935848 -0.043394801000471585 0 -0.00073083960706005256 -0.043552964909089956 0 -0.00087568007060282783 -0.043532225183913524 0 -0.0010011300268935848 -0.043394801000471585 0 -0.0015367038872470696 -0.043430243127750338 0 -0.0015115955096724242 -0.045498294415903695 0 -0.0021775964940626696 -0.044153762413403359 0 -0.0015115955096724242 -0.045498294415903695 0 -0.0016851803688462837 -0.044655111395932999 0 -0.0015115955096724242 -0.045498294415903695 0 -0.00044005326070345127 -0.04715078854585502 0 -0.00094271642045588172 -0.046701450537840694 0 -0.00044005326070345127 -0.04715078854585502 0 -0.0010011300268935848 -0.043394801000471585 0 -0.00089663004312899076 -0.043047643538871652 0 -0.00073083960706005256 -0.043552964909089956 0 -0.0010011300268935848 -0.043394801000471585 0 -0.0013201832616143942 -0.043091696377104312 0 -0.00089663004312899076 -0.043047643538871652 0 -0.0026534690245567337 -0.045036804285552248 0 -0.0027033119540698643 -0.045113126462168841 0 -0.0027723919025239665 -0.045092108546836235 0 -0.0015367038872470696 -0.043430243127750338 0 -0.0013201832616143942 -0.043091696377104312 0 -0.0017664716323800051 -0.042937401689543735 0 -0.0013201832616143942 -0.043091696377104312 0 -0.0017664716323800051 -0.042937401689543735 0 -0.0013831810100894864 -0.042678009868128142 0 -0.0015481172729336226 -0.043964206882991227 0 -0.00094271642045588172 -0.046701450537840694 0 -0.0011190817112779724 -0.046727501700404239 0 -0.00094271642045588172 -0.046701450537840694 0 -0.0012281451570820856 -0.044802368614612162 0 -0.0017457958512615344 -0.045265369019613526 0 -0.00085934051278081466 -0.04593719730788464 0 -0.0011915716515566027 -0.048093333982332447 0 -0.00075360604870865699 -0.049402822929939583 0 0.00012767713595416289 -0.048709798231886904 0 -0.00094271642045588172 -0.046701450537840694 0 0.0001184611918883605 -0.048560517162089076 0 -0.0013201832616143942 -0.043091696377104312 0 -0.0013831810100894864 -0.042678009868128142 0 -0.00089663004312899076 -0.043047643538871652 0 -8.8151477458323343e-05 -0.04992195122242081 0 -6.0617778583474398e-05 -0.049943182639764751 0 -0.00015124541416979871 -0.049921363913979437 0 0.00012767713595416289 -0.048709798231886904 0 -0.00015124541416979871 -0.049921363913979437 0 -0.00033100414018688253 -0.049711974812525858 0 2.330059445894681e-05 -0.049256116297531079 0 -0.00012488757150645293 -0.049886485345593416 0 -0.00075360604870865699 -0.049402822929939583 0 0.00012767713595416289 -0.048709798231886904 0 -0.00033100414018688253 -0.049711974812525858 0 -1.8489240426944116e-05 -0.049946775862338949 0 -6.0617778583474398e-05 -0.049943182639764751 0 -1.8729633739268457e-05 -0.049977911041085066 0 -1.8489240426944116e-05 -0.049946775862338949 0 -8.8151477458323343e-05 -0.04992195122242081 0 -6.0617778583474398e-05 -0.049943182639764751 0 -6.0617778583474398e-05 -0.049943182639764751 0 -3.0973909992208611e-05 -0.049999215896441032 0 -0.00015124541416979871 -0.049921363913979437 0 -6.0617778583474398e-05 -0.049943182639764751 0 -3.0973909992208611e-05 -0.049999215896441032 0 -1.8729633739268457e-05 -0.049977911041085066 0 -9.3002190555537768e-05 -0.049885907870577867 0 -0.00020750954708489543 -0.04984361053815084 0 -0.00019689837108243627 -0.04987899403301771 0 -8.8257050002317681e-06 -0.050093645209670835 0 -0.00044005326070345127 -0.04715078854585502 0 -3.0973909992208611e-05 -0.049999215896441032 0 -0.00015124541416979871 -0.049921363913979437 0 -0.00026709814145406885 -0.050045346476618013 0 -0.00015124541416979871 -0.049921363913979437 0 -0.00033100414018688253 -0.049711974812525858 0 -0.00026709814145406885 -0.050045346476618013 0 -0.00057082277686594149 -0.049549896572826817 0 -0.00033100414018688253 -0.049711974812525858 0 -0.00026709814145406885 -0.050045346476618013 0 -0.00099656793299920119 -0.046403208108835622 0 -0.00070210118126370013 -0.046422945810516009 0 -0.00057289696559079529 -0.046821832408760006 0 -0.00044005326070345127 -0.04715078854585502 0 -0.00084991756020651329 -0.047138262917566509 0 -0.0015115955096724242 -0.045498294415903695 0 -0.00084991756020651329 -0.047138262917566509 0 -0.00084991756020651329 -0.047138262917566509 0 -0.00032927527487217815 -0.049034819422503803 0 -0.0013567879262974022 -0.046983074864047965 0 -0.0011975782216254796 -0.0474772665442613 0 -0.0007150102863121299 -0.04761245229082204 0 -0.00084991756020651329 -0.047138262917566509 0 -0.0014144686319548976 -0.046637638508463787 0 -0.0028040399299411908 -0.045401444624512115 0 -0.0021671656262486996 -0.04500584064316078 0 -0.0014641856141683076 -0.046083076391477629 0 -0.0028040399299411908 -0.045401444624512115 0 -0.0014641856141683076 -0.046083076391477629 0 -0.0018879079434855756 -0.046916767077051072 0 -0.0014144686319548976 -0.046637638508463787 0 -0.0010680072482917812 -0.047831263216337135 0 -0.0014641856141683076 -0.046083076391477629 0 -0.0018879079434855756 -0.046916767077051072 0 -0.0010671977290962061 -0.04796081798883705 0 -0.0011975782216254796 -0.0474772665442613 0 -0.0010671977290962061 -0.04796081798883705 0 -0.0007150102863121299 -0.04761245229082204 0 -0.002206224969576614 -0.048218702489648442 0 -0.0018879079434855756 -0.046916767077051072 0 -0.0010671977290962061 -0.04796081798883705 0 -1.936318345469836e-05 -0.048748863199780917 0 -0.0010671977290962061 -0.04796081798883705 0 -0.0007150102863121299 -0.04761245229082204 0 -9.3002190555537768e-05 -0.049885907870577867 0 -8.4090235939946294e-05 -0.04998547699311047 0 -5.0684658132151964e-05 -0.049951088055378068 0 -9.3002190555537768e-05 -0.049885907870577867 0 -0.00019689837108243627 -0.04987899403301771 0 -8.4090235939946294e-05 -0.04998547699311047 0 -9.3002190555537768e-05 -0.049885907870577867 0 -5.0684658132151964e-05 -0.049951088055378068 0 -2.4584979128060508e-05 -0.049946726543525832 0 -8.4090235939946294e-05 -0.04998547699311047 0 -5.0684658132151964e-05 -0.049951088055378068 0 -1.9752633085518498e-05 -0.04998389254623696 0 -5.0684658132151964e-05 -0.049951088055378068 0 -1.9752633085518498e-05 -0.04998389254623696 0 -2.4584979128060508e-05 -0.049946726543525832 0 -8.6958708015462166e-05 -0.049332157176079444 0 -0.00032927527487217815 -0.049034819422503803 0 -1.4414492248379441e-05 -0.05001029057894333 0 -8.4090235939946294e-05 -0.04998547699311047 0 -1.9752633085518498e-05 -0.04998389254623696 0 -1.4414492248379441e-05 -0.05001029057894333 0 -1.9752633085518498e-05 -0.04998389254623696 0 -7.4890859126054646e-08 -0.050000186733808349 0 -1.9752633085518498e-05 -0.04998389254623696 0 3.8212145107215222e-08 -0.049999803649158361 0 -2.4584979128060508e-05 -0.049946726543525832 0 -1.9752633085518498e-05 -0.04998389254623696 0 -7.4890859126054646e-08 -0.050000186733808349 0 3.8212145107215222e-08 -0.049999803649158361 0 4.6840436634776109e-09 -0.049999987130911132 0 -3.3576882278815448e-05 -0.049961654829494405 0 4.6974366060593288e-09 -0.050000007568829163 0 -6.6769722217861496e-06 -0.049980849521411401 0 -4.1436019540828041e-09 -0.049999965119621792 0 4.6974366060593288e-09 -0.050000007568829163 0 -8.4031493135040072e-06 -0.049992563004169585 0 -6.6769722217861496e-06 -0.049980849521411401 0 -8.8257050002317681e-06 -0.050093645209670835 0 -3.3576882278815448e-05 -0.049961654829494405 0 -8.4031493135040072e-06 -0.049992563004169585 0 -1.8729633739268457e-05 -0.049977911041085066 0 -6.6769722217861496e-06 -0.049980849521411401 0 -3.0973909992208611e-05 -0.049999215896441032 0 -8.4031493135040072e-06 -0.049992563004169585 0 -1.8729633739268457e-05 -0.049977911041085066 0 -7.9997886519102407e-06 -0.049978825787493318 0 -1.8489240426944116e-05 -0.049946775862338949 0 -6.6769722217861496e-06 -0.049980849521411401 0 -1.8489240426944116e-05 -0.049946775862338949 0 -1.8729633739268457e-05 -0.049977911041085066 0 -6.6769722217861496e-06 -0.049980849521411401 0 -7.9997886519102407e-06 -0.049978825787493318 0 -6.6769722217861496e-06 -0.049980849521411401 0 -4.1436019540828041e-09 -0.049999965119621792 0 0.0013973005492263334 -0.0298628922009899 0 0.001127994704799459 -0.029805508423039567 0 0.0014201322870212708 -0.029564516963343859 0 0.0013973005492263334 -0.0298628922009899 0 0.0014201322870212708 -0.029564516963343859 0 0.0016915265941920984 -0.029679367473921341 0 0.0013973005492263334 -0.0298628922009899 0 0.0015954691637668659 -0.030038317324850603 0 0.0016915265941920984 -0.029679367473921341 0 0.0013973005492263334 -0.0298628922009899 0 0.0015954691637668659 -0.030038317324850603 0 0.0013508099098743171 -0.030157268533067126 0 0.0013973005492263334 -0.0298628922009899 0 0.0011871152211976289 -0.030029320496543863 0 0.0013508099098743171 -0.030157268533067126 0 0.0011871152211976289 -0.030029320496543863 0 0.00097200259072144943 -0.030071519184248652 0 0.001127994704799459 -0.029805508423039567 0 0.0011871152211976289 -0.030029320496543863 0 0.0013508099098743171 -0.030157268533067126 0 0.0011315392616698184 -0.030253269073906221 0 0.0011871152211976289 -0.030029320496543863 0 0.00097200259072144943 -0.030071519184248652 0 0.0011315392616698184 -0.030253269073906221 0 0.00081663689799469209 -0.030165734068368626 0 0.00097200259072144943 -0.030071519184248652 0 0.00074208838644883974 -0.030043369549295075 0 0.00097200259072144943 -0.030071519184248652 0 0.00089922250553865529 -0.029855793359645503 0 0.00074208838644883974 -0.030043369549295075 0 0.00081663689799469209 -0.030165734068368626 0 0.00097200259072144943 -0.030071519184248652 0 0.00092982498815046032 -0.030297567667059887 0 0.00097200259072144943 -0.030071519184248652 0 0.00089922250553865529 -0.029855793359645503 0 0.001127994704799459 -0.029805508423039567 0 0.00089922250553865529 -0.029855793359645503 0 0.001127994704799459 -0.029805508423039567 0 0.00098856319108956976 -0.02956865827400532 0 0.0013973005492263334 -0.0298628922009899 0 0.0011871152211976289 -0.030029320496543863 0 0.001127994704799459 -0.029805508423039567 0 0.001127994704799459 -0.029805508423039567 0 0.00098856319108956976 -0.02956865827400532 0 0.0014201322870212708 -0.029564516963343859 0 0.00098856319108956976 -0.02956865827400532 0 0.0014829245084573557 -0.029214864366103113 0 0.0008299879442691477 -0.029221659472103079 0 0.00089922250553865529 -0.029855793359645503 0 0.00098856319108956976 -0.02956865827400532 0 0.00066885613459268455 -0.02979573366720864 0 0.00098856319108956976 -0.02956865827400532 0 0.0014201322870212708 -0.029564516963343859 0 0.0014829245084573557 -0.029214864366103113 0 0.0014201322870212708 -0.029564516963343859 0 0.0017722739377248348 -0.029264653153443232 0 0.0016915265941920984 -0.029679367473921341 0 0.0014201322870212708 -0.029564516963343859 0 0.0017722739377248348 -0.029264653153443232 0 0.0014829245084573557 -0.029214864366103113 0 0.0017722739377248348 -0.029264653153443232 0 0.0019547827075020478 -0.029542273866095804 0 0.0021881975232754132 -0.02907336408595005 0 0.0017722739377248348 -0.029264653153443232 0 0.0019547827075020478 -0.029542273866095804 0 0.0016915265941920984 -0.029679367473921341 0 0.002231921276947873 -0.029055873312353566 0 0.0024621116511364363 -0.029114061085266752 0 0.0021881975232754132 -0.02907336408595005 0 0.0022120944454741419 -0.029765940143757341 0 0.0027366857260809154 -0.029772452555775545 0 0.0019547827075020478 -0.029542273866095804 0 0.0021881975232754132 -0.02907336408595005 0 0.0022120944454741419 -0.029765940143757341 0 0.0022120944454741419 -0.029765940143757341 0 0.0023019497539336696 -0.030118527171353153 0 0.0027366857260809154 -0.029772452555775545 0 0.0022120944454741419 -0.029765940143757341 0 0.0019099193601403673 -0.030032074842896203 0 0.0023019497539336696 -0.030118527171353153 0 0.0019547827075020478 -0.029542273866095804 0 0.0022120944454741419 -0.029765940143757341 0 0.0019099193601403673 -0.030032074842896203 0 0.0019547827075020478 -0.029542273866095804 0 0.0016915265941920984 -0.029679367473921341 0 0.0019099193601403673 -0.030032074842896203 0 0.0015954691637668659 -0.030038317324850603 0 0.0016915265941920984 -0.029679367473921341 0 0.0019099193601403673 -0.030032074842896203 0 0.0019099193601403673 -0.030032074842896203 0 0.0018125077050182097 -0.030427896321510196 0 0.0016551398734448244 -0.030279501859316871 0 0.0015954691637668659 -0.030038317324850603 0 0.0019099193601403673 -0.030032074842896203 0 0.0016551398734448244 -0.030279501859316871 0 0.0019099193601403673 -0.030032074842896203 0 0.0020410696503880849 -0.03041280349430036 0 0.0018125077050182097 -0.030427896321510196 0 0.0020410696503880849 -0.03041280349430036 0 0.0018125077050182097 -0.030427896321510196 0 0.0018416833898689928 -0.030612780471426161 0 0.0018125077050182097 -0.030427896321510196 0 0.0016827781024078938 -0.030630618062160147 0 0.0015577313067182727 -0.03054301213806004 0 0.0018125077050182097 -0.030427896321510196 0 0.0015577313067182727 -0.03054301213806004 0 0.0016551398734448244 -0.030279501859316871 0 0.0023019497539336696 -0.030118527171353153 0 0.0023541066356970392 -0.030427097835026264 0 0.0025956540638259061 -0.03026298907478726 0 0.0019099193601403673 -0.030032074842896203 0 0.0020410696503880849 -0.03041280349430036 0 0.0023019497539336696 -0.030118527171353153 0 0.0020410696503880849 -0.03041280349430036 0 0.0023019497539336696 -0.030118527171353153 0 0.0023541066356970392 -0.030427097835026264 0 0.0023541066356970392 -0.030427097835026264 0 0.0024768959983219336 -0.030700215096442815 0 0.0019813122678700827 -0.030819833158676129 0 0.0025225252025632685 -0.030717685212019268 0 0.0019136467649985536 -0.030864080581084787 0 0.0024768959983219336 -0.030700215096442815 0 0.0023800263106869661 -0.030856240353848548 0 0.0023063063539030572 -0.030822444202850963 0 0.0023541066356970392 -0.030427097835026264 0 0.0024768959983219336 -0.030700215096442815 0 0.0027253569971358929 -0.030577527202037869 0 0.0020410696503880849 -0.03041280349430036 0 0.0023541066356970392 -0.030427097835026264 0 0.0019813122678700827 -0.030819833158676129 0 0.0025001517139662988 -0.030961135681335163 0 0.0024768959983219336 -0.030700215096442815 0 0.0026435599307060649 -0.030779797695017735 0 0.0025001517139662988 -0.030961135681335163 0 0.0024768959983219336 -0.030700215096442815 0 0.0023800263106869661 -0.030856240353848548 0 0.0022660483105059292 -0.030920777666728998 0 0.0023063063539030572 -0.030822444202850963 0 0.0022058455698921917 -0.030882695175081094 0 0.0016973120374996369 -0.030768162514919171 0 0.0019813122678700827 -0.030819833158676129 0 0.0015293781436654533 -0.030909049482224511 0 0.0019136467649985536 -0.030864080581084787 0 0.0037656703242638459 -0.033880660874322802 0 0.0016973120374996369 -0.030768162514919171 0 0.0018416833898689928 -0.030612780471426161 0 0.0019813122678700827 -0.030819833158676129 0 0.0016973120374996369 -0.030768162514919171 0 0.0016827781024078938 -0.030630618062160147 0 0.0018416833898689928 -0.030612780471426161 0 0.0018125077050182097 -0.030427896321510196 0 0.0016827781024078938 -0.030630618062160147 0 0.0018416833898689928 -0.030612780471426161 0 0.0020410696503880849 -0.03041280349430036 0 0.0018416833898689928 -0.030612780471426161 0 0.0019813122678700827 -0.030819833158676129 0 0.0022660483105059292 -0.030920777666728998 0 0.0023800263106869661 -0.030856240353848548 0 0.0023063063539030572 -0.030822444202850963 0 0.0037656703242638459 -0.033880660874322802 0 0.0016196639783776735 -0.031206239686339534 0 0.0015293781436654533 -0.030909049482224511 0 0.0010449883918350594 -0.030661055824012327 0 0.0012527636530543142 -0.030624928399716332 0 0.0015293781436654533 -0.030909049482224511 0 0.001559860638421893 -0.03081052356587272 0 0.0015162423451711851 -0.030722909600635558 0 0.0016973120374996369 -0.030768162514919171 0 0.0015293781436654533 -0.030909049482224511 0 0.001559860638421893 -0.03081052356587272 0 0.0015293781436654533 -0.030909049482224511 0 0.0013886338031054266 -0.030611015519314531 0 0.0012527636530543142 -0.030624928399716332 0 0.0015293781436654533 -0.030909049482224511 0 0.0013886338031054266 -0.030611015519314531 0 0.0015162423451711851 -0.030722909600635558 0 0.0016973120374996369 -0.030768162514919171 0 0.001559860638421893 -0.03081052356587272 0 0.001602439511132131 -0.030695591771850429 0 0.0016973120374996369 -0.030768162514919171 0 0.0016827781024078938 -0.030630618062160147 0 0.001602439511132131 -0.030695591771850429 0 0.001559860638421893 -0.03081052356587272 0 0.001602439511132131 -0.030695591771850429 0 0.0015162423451711851 -0.030722909600635558 0 0.0013886338031054266 -0.030611015519314531 0 0.0015162423451711851 -0.030722909600635558 0 0.0015577313067182727 -0.03054301213806004 0 0.001602439511132131 -0.030695591771850429 0 0.0015162423451711851 -0.030722909600635558 0 0.0015577313067182727 -0.03054301213806004 0 0.0016827781024078938 -0.030630618062160147 0 0.001602439511132131 -0.030695591771850429 0 0.0015577313067182727 -0.03054301213806004 0 0.0015577313067182727 -0.03054301213806004 0 0.0014635832901728849 -0.030353761567683064 0 0.0016551398734448244 -0.030279501859316871 0 0.0013886338031054266 -0.030611015519314531 0 0.0015577313067182727 -0.03054301213806004 0 0.0014635832901728849 -0.030353761567683064 0 0.0013886338031054266 -0.030611015519314531 0 0.0012665273314071772 -0.030425473406012562 0 0.0014635832901728849 -0.030353761567683064 0 0.0013886338031054266 -0.030611015519314531 0 0.0012665273314071772 -0.030425473406012562 0 0.0012527636530543142 -0.030624928399716332 0 0.0012665273314071772 -0.030425473406012562 0 0.0013508099098743171 -0.030157268533067126 0 0.0014635832901728849 -0.030353761567683064 0 0.0012665273314071772 -0.030425473406012562 0 0.0013508099098743171 -0.030157268533067126 0 0.0011315392616698184 -0.030253269073906221 0 0.0015954691637668659 -0.030038317324850603 0 0.0014635832901728849 -0.030353761567683064 0 0.0016551398734448244 -0.030279501859316871 0 0.0015954691637668659 -0.030038317324850603 0 0.0013508099098743171 -0.030157268533067126 0 0.0014635832901728849 -0.030353761567683064 0 0.0011326677112285868 -0.030607621043801561 0 0.00033130569915514762 -0.030251385209211567 0 0.00092982498815046032 -0.030297567667059887 0 0.0010594624052455153 -0.030527084939523316 0 0.0006277234941676435 -0.030252141809535147 0 0.00097200259072144943 -0.030071519184248652 0 0.00092982498815046032 -0.030297567667059887 0 0.0011315392616698184 -0.030253269073906221 0 0.0012665273314071772 -0.030425473406012562 0 0.0011315392616698184 -0.030253269073906221 0 0.0010594624052455153 -0.030527084939523316 0 0.00092982498815046032 -0.030297567667059887 0 0.0011315392616698184 -0.030253269073906221 0 0.0010594624052455153 -0.030527084939523316 0 0.0010594624052455153 -0.030527084939523316 0 0.0010449883918350594 -0.030661055824012327 0 0.0012527636530543142 -0.030624928399716332 0 0.0012665273314071772 -0.030425473406012562 0 0.0010594624052455153 -0.030527084939523316 0 0.0012527636530543142 -0.030624928399716332 0 0.0010594624052455153 -0.030527084939523316 0 0.0010449883918350594 -0.030661055824012327 0 0.00070082694005159515 -0.030611683655554233 0 0.0032681558966842945 -0.037428684811523789 0 0.0037656703242638459 -0.033880660874322802 0 0.0049593348683100776 -0.033603465027690516 0 0.0026800263977463028 -0.032189607699933676 0 0.0029564314098159926 -0.033189618614989806 0 0.0023824948957447047 -0.033981188474593901 0 0.0049593348683100776 -0.033603465027690516 0 0.0029564314098159926 -0.033189618614989806 0 0.0026800263977463028 -0.032189607699933676 0 0.0019052059417416869 -0.032976351735065162 0 0.0029564314098159926 -0.033189618614989806 0 0.0026800263977463028 -0.032189607699933676 0 0.0019052059417416869 -0.032976351735065162 0 0.0010674158690856278 -0.032237621637890887 0 0.0023824948957447047 -0.033981188474593901 0 0.0019052059417416869 -0.032976351735065162 0 0.0029564314098159926 -0.033189618614989806 0 -0.0001407933756363745 -0.03440455858768833 0 0.0023824948957447047 -0.033981188474593901 0 0.00083543918465403902 -0.033235993693832101 0 0.0023824948957447047 -0.033981188474593901 0 0.0019052059417416869 -0.032976351735065162 0 0.00083543918465403902 -0.033235993693832101 0 -0.0001407933756363745 -0.03440455858768833 0 0.00083543918465403902 -0.033235993693832101 0 -0.00035883588339080902 -0.031880236536799569 0 0.0019052059417416869 -0.032976351735065162 0 0.0010674158690856278 -0.032237621637890887 0 0.00083543918465403902 -0.033235993693832101 0 0.0010674158690856278 -0.032237621637890887 0 0.00083543918465403902 -0.033235993693832101 0 -0.00035883588339080902 -0.031880236536799569 0 0.00090215464471828457 -0.040449627986087019 0 0.00086166806640387383 -0.036751754805721043 0 0.0021802327466473315 -0.043365726822208545 0 0.0017247676019118139 -0.042620420511965393 0 0.0020362921913107206 -0.041569343054008924 0 0.0017247676019118139 -0.042620420511965393 0 0.001134757644588311 -0.042934802034006611 0 0.0010167854110913492 -0.042385138669350349 0 0.0014927940351041728 -0.043458757724504408 0 0.0017247676019118139 -0.042620420511965393 0 0.001134757644588311 -0.042934802034006611 0 0.0017247676019118139 -0.042620420511965393 0 0.0010167854110913492 -0.042385138669350349 0 0.0015976879864748187 -0.042132032496805555 0 0.0010167854110913492 -0.042385138669350349 0 0.0015976879864748187 -0.042132032496805555 0 0.0016270499216755009 -0.041725013082390926 0 0.0017247676019118139 -0.042620420511965393 0 0.0015976879864748187 -0.042132032496805555 0 0.0020362921913107206 -0.041569343054008924 0 0.0015976879864748187 -0.042132032496805555 0 0.0016270499216755009 -0.041725013082390926 0 0.0020362921913107206 -0.041569343054008924 0 0.00086166806640387383 -0.036751754805721043 0 0.00072906820932045879 -0.033004265796616868 0 0.0020362921913107206 -0.041569343054008924 0 0.0014804125076957146 -0.040602969518442091 0 0.001875548489095658 -0.039455761511934043 0 -0.00035883588339080902 -0.031880236536799569 0 0.00044759638112014274 -0.03077942397282114 0 -0.0003467598688270533 -0.029844045808892546 0 0.0016270499216755009 -0.041725013082390926 0 0.0020362921913107206 -0.041569343054008924 0 0.0014804125076957146 -0.040602969518442091 0 0.0014804125076957146 -0.040602969518442091 0 0.0005443312838994775 -0.04113129346468599 0 0.00095620793906285736 -0.038973398848488217 0 0.0016270499216755009 -0.041725013082390926 0 0.0014804125076957146 -0.040602969518442091 0 0.0005443312838994775 -0.04113129346468599 0 0.0016196639783776735 -0.031206239686339534 0 0.00064610412550013469 -0.030852592677751388 0 0.0010449883918350594 -0.030661055824012327 0 0.00044759638112014274 -0.03077942397282114 0 0.00070082694005159515 -0.030611683655554233 0 0.00044759638112014274 -0.03077942397282114 0 0.00070082694005159515 -0.030611683655554233 0 -0.0003467598688270533 -0.029844045808892546 0 0.0026800263977463028 -0.032189607699933676 0 0.0010674158690856278 -0.032237621637890887 0 0.00044759638112014274 -0.03077942397282114 0 0.00081663689799469209 -0.030165734068368626 0 0.00092982498815046032 -0.030297567667059887 0 0.0006277234941676435 -0.030252141809535147 0 0.0010674158690856278 -0.032237621637890887 0 -0.00035883588339080902 -0.031880236536799569 0 0.00044759638112014274 -0.03077942397282114 0 -0.0025795944346662077 -0.041731588284314461 0 -0.00046344747163168192 -0.041848187251028415 0 -0.0022758446712196666 -0.042188012600291286 0 -0.0012880216445506419 -0.042764722270857349 0 -0.00040674794613611585 -0.042016637342849328 0 -0.0011310370823384892 -0.043625134179657153 0 -0.0012880216445506419 -0.042764722270857349 0 -0.00040001334854975498 -0.043086733562148254 0 -0.0012880216445506419 -0.042764722270857349 0 -0.00040001334854975498 -0.043086733562148254 0 -0.00040674794613611585 -0.042016637342849328 0 0.0010167854110913492 -0.042385138669350349 0 0.0016270499216755009 -0.041725013082390926 0 -0.00040674794613611585 -0.042016637342849328 0 0.0015005337430570608 -0.041734755880244993 0 -0.00046344747163168192 -0.041848187251028415 0 0.0010167854110913492 -0.042385138669350349 0 -0.00040674794613611585 -0.042016637342849328 0 0.00048529976035859582 -0.042883295446236806 0 -0.00040001334854975498 -0.043086733562148254 0 -0.00040674794613611585 -0.042016637342849328 0 0.00048529976035859582 -0.042883295446236806 0 0.00089369587913964326 -0.04342301694838107 0 0.001134757644588311 -0.042934802034006611 0 0.00048529976035859582 -0.042883295446236806 0 0.001134757644588311 -0.042934802034006611 0 0.0010167854110913492 -0.042385138669350349 0 0.00048529976035859582 -0.042883295446236806 0 0.0016270499216755009 -0.041725013082390926 0 -0.00068772687514650241 -0.041650292589504485 0 0.0005443312838994775 -0.04113129346468599 0 0.0005443312838994775 -0.04113129346468599 0 -0.00044390378296581349 -0.04095447859269271 0 -0.00049207850021152212 -0.040162158395769795 0 -0.00068772687514650241 -0.041650292589504485 0 0.0005443312838994775 -0.04113129346468599 0 -0.00044390378296581349 -0.04095447859269271 0 -0.0025931659238217636 -0.041629103717788475 0 -0.00068772687514650241 -0.041650292589504485 0 -0.001115295654642863 -0.040871931832983308 0 -0.00184940483456152 -0.040389641485581863 0 -0.001115295654642863 -0.040871931832983308 0 -0.00049207850021152212 -0.040162158395769795 0 -0.00068772687514650241 -0.041650292589504485 0 -0.00044390378296581349 -0.04095447859269271 0 -0.001115295654642863 -0.040871931832983308 0 -0.00044390378296581349 -0.04095447859269271 0 -0.001115295654642863 -0.040871931832983308 0 -0.00049207850021152212 -0.040162158395769795 0 -0.0018306646854761781 -0.039013205167449924 0 -0.00098507561039594123 -0.039465636017405617 0 -0.00039368057984359668 -0.03876684095503613 0 -0.00184940483456152 -0.040389641485581863 0 -0.00098507561039594123 -0.039465636017405617 0 -0.00049207850021152212 -0.040162158395769795 0 -0.00184940483456152 -0.040389641485581863 0 -0.0018306646854761781 -0.039013205167449924 0 -0.00098507561039594123 -0.039465636017405617 0 4.9156968289630336e-05 -0.039487354212711864 0 -0.00039368057984359668 -0.03876684095503613 0 0.00090127786429448594 -0.039446552125278964 0 -0.00035365003203800111 -0.038786574832314735 0 0.00032377745074040483 -0.036460625819121746 0 0.0005443312838994775 -0.04113129346468599 0 4.9156968289630336e-05 -0.039487354212711864 0 -0.00049207850021152212 -0.040162158395769795 0 0.0005443312838994775 -0.04113129346468599 0 4.9156968289630336e-05 -0.039487354212711864 0 0.00090127786429448594 -0.039446552125278964 0 0.00048856349997710292 -0.04195675165505372 0 0.00032377745074040483 -0.036460625819121746 0 -0.00098507561039594123 -0.039465636017405617 0 4.9156968289630336e-05 -0.039487354212711864 0 -0.00039368057984359668 -0.03876684095503613 0 -0.00098507561039594123 -0.039465636017405617 0 4.9156968289630336e-05 -0.039487354212711864 0 -0.00049207850021152212 -0.040162158395769795 0 -0.00025783450454654774 -0.038078215108539107 0 -0.00074521626369251806 -0.038480263037854692 0 0.00030312615087269148 -0.039064959481196634 0 -0.00025783450454654774 -0.038078215108539107 0 -0.00074521626369251806 -0.038480263037854692 0 -0.0010210158810647128 -0.037894323367296708 0 -0.00035365003203800111 -0.038786574832314735 0 -0.0016671561282300075 -0.03807567724180299 0 -0.00074521626369251806 -0.038480263037854692 0 -0.0010210158810647128 -0.037894323367296708 0 -0.0017017061944877147 -0.038078385323623259 0 -0.0018306646854761781 -0.039013205167449924 0 -0.00039368057984359668 -0.03876684095503613 0 -0.0017017061944877147 -0.038078385323623259 0 -0.0010210158810647128 -0.037894323367296708 0 -0.0017017061944877147 -0.038078385323623259 0 -0.0013614369513975223 -0.037591947404270888 0 0.00043215486940277435 -0.029837992888555334 0 0.00066885613459268455 -0.02979573366720864 0 0.0005433796306412858 -0.029999074438699327 0 0.00043215486940277435 -0.029837992888555334 0 0.0005433796306412858 -0.029999074438699327 0 0.00027005436780259913 -0.030062994603715615 0 0.00066885613459268455 -0.02979573366720864 0 0.00074208838644883974 -0.030043369549295075 0 0.0005433796306412858 -0.029999074438699327 0 0.00089922250553865529 -0.029855793359645503 0 0.00066885613459268455 -0.02979573366720864 0 0.00074208838644883974 -0.030043369549295075 0 0.0006277234941676435 -0.030252141809535147 0 0.00074208838644883974 -0.030043369549295075 0 0.0005433796306412858 -0.029999074438699327 0 0.00081663689799469209 -0.030165734068368626 0 0.0006277234941676435 -0.030252141809535147 0 0.00074208838644883974 -0.030043369549295075 0 0.00033130569915514762 -0.030251385209211567 0 0.00072906820932045879 -0.033004265796616868 0 0.0006277234941676435 -0.030252141809535147 0 0.0005433796306412858 -0.029999074438699327 0 0.00027005436780259913 -0.030062994603715615 0 0.0014804125076957146 -0.040602969518442091 0 0.001875548489095658 -0.039455761511934043 0 0.00095620793906285736 -0.038973398848488217 0 0.00028338130443896756 -0.030232219470166185 0 -1.4811098972543768e-05 -0.030052525708537489 0 0.00021786191374078789 -0.029768681840965375 0 0.00072906820932045879 -0.033004265796616868 0 0.00032377745074040483 -0.036460625819121746 0 0.00072906820932045879 -0.033004265796616868 0 0.00019443671856092805 -0.029177316532270493 0 0.00043215486940277435 -0.029837992888555334 0 0.00027005436780259913 -0.030062994603715615 0 0.00021786191374078789 -0.029768681840965375 0 0.00032377745074040483 -0.036460625819121746 0 0.00059423979378910735 -0.032328492521637185 0 -0.00025783450454654774 -0.038078215108539107 0 0.00030312615087269148 -0.039064959481196634 0 0.00078653130864378114 -0.037124158201079414 0 0.00021786191374078789 -0.029768681840965375 0 0.00054654774485406383 -0.029562917686789314 0 0.00018510481553201836 -0.029194344640459047 0 -1.4811098972543768e-05 -0.030052525708537489 0 0.00021786191374078789 -0.029768681840965375 0 0.00018510481553201836 -0.029194344640459047 0 0.00098856319108956976 -0.02956865827400532 0 0.00066885613459268455 -0.02979573366720864 0 0.00054654774485406383 -0.029562917686789314 0 0.00098856319108956976 -0.02956865827400532 0 0.00054654774485406383 -0.029562917686789314 0 0.0008299879442691477 -0.029221659472103079 0 0.00043215486940277435 -0.029837992888555334 0 0.00021786191374078789 -0.029768681840965375 0 0.00054654774485406383 -0.029562917686789314 0 0.00043215486940277435 -0.029837992888555334 0 0.00066885613459268455 -0.02979573366720864 0 0.00054654774485406383 -0.029562917686789314 0 0.00050248922671000424 -0.029188560557190556 0 0.00056395908340139056 -0.028914732362465004 0 0.00098344475492679272 -0.029198790539821912 0 0.00054654774485406383 -0.029562917686789314 0 0.00018510481553201836 -0.029194344640459047 0 0.0008299879442691477 -0.029221659472103079 0 0.00059423979378910735 -0.032328492521637185 0 0.00082358415679279113 -0.028914007355676945 0 0.00056395908340139056 -0.028914732362465004 0 0.0011047028923065218 -0.028906547328326426 0 0.00098344475492679272 -0.029198790539821912 0 0.00029596139754134307 -0.033958079144925477 0 0.00041785085204370679 -0.033426445918382515 0 -0.00029991427596838777 -0.033406892452633265 0 0.00059423979378910735 -0.032328492521637185 0 0.00060587525413328383 -0.030528303686138802 0 0.00060587525413328383 -0.030528303686138802 0 0.00049740880385389758 -0.029354807767098316 0 0.00060587525413328383 -0.030528303686138802 0 -0.00052560596669616567 -0.03199513587970141 0 0.00029702759922791382 -0.030640670469672445 0 -0.0006053629276325989 -0.030607731125742086 0 -4.2351909527086094e-05 -0.030040220146583741 0 0.00029702759922791382 -0.030640670469672445 0 0.00047249990343549338 -0.029765522225909034 0 -4.2351909527086094e-05 -0.030040220146583741 0 0.00060587525413328383 -0.030528303686138802 0 0.00094743703624652626 -0.028980247004463104 0 0.00043586628741803098 -0.029364788312039744 0 0.00065279186825223324 -0.029203184812953028 0 0.00050612110163968918 -0.029108298657644662 0 0.00043586628741803098 -0.029364788312039744 0 0.00065279186825223324 -0.029203184812953028 0 0.00084589487517287897 -0.029388170861848095 0 -0.001530438371101138 -0.037001450742076301 0 -0.0011603423126581129 -0.036598138993652593 0 -0.0017497880158238513 -0.03714747144936368 0 -0.00095240803218687477 -0.037219243996316452 0 -0.0015207814045530049 -0.036502171012558746 0 -0.0017497880158238513 -0.03714747144936368 0 -0.0013614369513975223 -0.037591947404270888 0 -0.0010064179450029128 -0.037242623803991647 0 -0.0017017061944877147 -0.038078385323623259 0 -0.0017497880158238513 -0.03714747144936368 0 -0.0013614369513975223 -0.037591947404270888 0 -0.0010210158810647128 -0.037894323367296708 0 -0.0013614369513975223 -0.037591947404270888 0 -0.0010064179450029128 -0.037242623803991647 0 -0.0011603423126581129 -0.036598138993652593 0 -0.0023455381630283307 -0.037359630062701661 0 0.00059423979378910735 -0.032328492521637185 0 -0.0011603423126581129 -0.036598138993652593 0 -0.00025783450454654774 -0.038078215108539107 0 0.00078653130864378114 -0.037124158201079414 0 -0.0011603430642973579 -0.036937849904853326 0 0.00029596139754134307 -0.033958079144925477 0 -0.00077746620601640618 -0.033893395044678212 0 -0.00029991427596838777 -0.033406892452633265 0 -0.0002478812893907834 -0.038135445630381237 0 -0.0011603423126581129 -0.036598138993652593 0 -0.00025783450454654774 -0.038078215108539107 0 -0.0010210158810647128 -0.037894323367296708 0 -0.0010064179450029128 -0.037242623803991647 0 -0.0011453188152415969 -0.034351517340919131 0 -0.00058051689629292291 -0.02930778006418415 0 -0.0006053629276325989 -0.030607731125742086 0 -0.001533063023856338 -0.030578058920825189 0 -0.00053331293177495763 -0.02964640667797569 0 -0.0006053629276325989 -0.030607731125742086 0 -0.00053331293177495763 -0.02964640667797569 0 -4.2351909527086094e-05 -0.030040220146583741 0 -0.00077746620601640618 -0.033893395044678212 0 -0.00029991427596838777 -0.033406892452633265 0 -0.0010101733834103318 -0.03339324778896386 0 -0.00052560596669616567 -0.03199513587970141 0 -0.0011453188152415969 -0.034351517340919131 0 -0.0015880833787020173 -0.030658947005766466 0 -0.0014478534329752113 -0.030661892022735789 0 -0.0015064623944356698 -0.030301936491154677 0 -0.00077746620601640618 -0.033893395044678212 0 -0.0010101733834103318 -0.03339324778896386 0 -0.0011103306259919389 -0.033487937707280493 0 -0.0023510889914433292 -0.038294692088841113 0 -0.0023455381630283307 -0.037359630062701661 0 -0.0023510889914433292 -0.038294692088841113 0 -0.0011453188152415969 -0.034351517340919131 0 -0.0021448549483301005 -0.03648261161617887 0 -0.0026625760313946745 -0.036443233187863404 0 -0.0023779510521314408 -0.03618792175521339 0 -0.0011453188152415969 -0.034351517340919131 0 -0.0023455381630283307 -0.037359630062701661 0 -0.0014478534329752113 -0.030661892022735789 0 -0.0015064623944356698 -0.030301936491154677 0 -0.00091655895545099701 -0.030117888548874462 0 -0.0015116411816894827 -0.029934351061328485 0 -0.0015064623944356698 -0.030301936491154677 0 -0.00091655895545099701 -0.030117888548874462 0 -0.0015116411816894827 -0.029934351061328485 0 -0.00091655895545099701 -0.030117888548874462 0 -0.0012905274325534703 -0.029621045102396687 0 -0.00091655895545099701 -0.030117888548874462 0 -0.00084956538506605374 -0.029686966206746507 0 -0.0012905274325534703 -0.029621045102396687 0 -0.00084956538506605374 -0.029686966206746507 0 -0.0010012223968270573 -0.029433722179473543 0 -0.00062490502433469196 -0.029448331079247936 0 -0.00084956538506605374 -0.029686966206746507 0 -0.0010012223968270573 -0.029433722179473543 0 -0.0012905274325534703 -0.029621045102396687 0 -0.0017734415941234251 -0.029461641221006182 0 -0.0015116411816894827 -0.029934351061328485 0 -0.0012905274325534703 -0.029621045102396687 0 0.00061112367254708832 -0.029025261192112201 0 0.00050612110163968918 -0.029108298657644662 0 0.00054223836102882653 -0.028929437011497673 0 0.00049740880385389758 -0.029354807767098316 0 0.00054126466407388503 -0.029025225789994745 0 0.00061112367254708832 -0.029025261192112201 0 0.00073563748807258227 -0.028900716147782612 0 0.0007497931411682905 -0.02904913080590061 0 0.00065279186825223324 -0.029203184812953028 0 0.00061112367254708832 -0.029025261192112201 0 0.0007497931411682905 -0.02904913080590061 0 0.00065279186825223324 -0.029203184812953028 0 0.00061112367254708832 -0.029025261192112201 0 0.00050612110163968918 -0.029108298657644662 0 -0.00053331293177495763 -0.02964640667797569 0 0.00018825584897372158 -0.029450198572734076 0 0.00042763599588352505 -0.028873930609937048 0 0.00047249990343549338 -0.029765522225909034 0 -4.2351909527086094e-05 -0.030040220146583741 0 0.00018825584897372158 -0.029450198572734076 0 0.00047249990343549338 -0.029765522225909034 0 0.00018825584897372158 -0.029450198572734076 0 0.00054223836102882653 -0.028929437011497673 0 -0.00053331293177495763 -0.02964640667797569 0 -4.2351909527086094e-05 -0.030040220146583741 0 0.00018825584897372158 -0.029450198572734076 0 0.00018825584897372158 -0.029450198572734076 0 0.00042763599588352505 -0.028873930609937048 0 0.00054223836102882653 -0.028929437011497673 0 -0.00058051689629292291 -0.02930778006418415 0 -7.9025383771097779e-06 -0.029342821184264942 0 -0.00091655895545099701 -0.030117888548874462 0 -0.00084956538506605374 -0.029686966206746507 0 -0.00030622893059143488 -0.029614470683726728 0 -0.00084956538506605374 -0.029686966206746507 0 -0.00062490502433469196 -0.029448331079247936 0 -0.00030622893059143488 -0.029614470683726728 0 -0.00024349577986105376 -0.029143190681077052 0 -0.00062490502433469196 -0.029448331079247936 0 -0.00030622893059143488 -0.029614470683726728 0 0.00053664686725367469 -0.028751122588238927 0 0.00054223836102882653 -0.028929437011497673 0 0.00073563748807258227 -0.028900716147782612 0 0.00061112367254708832 -0.029025261192112201 0 0.00054223836102882653 -0.028929437011497673 0 0.00073563748807258227 -0.028900716147782612 0 0.00053664686725367469 -0.028751122588238927 0 0.00042763599588352505 -0.028873930609937048 0 0.00054223836102882653 -0.028929437011497673 0 0.00053664686725367469 -0.028751122588238927 0 0.00073563748807258227 -0.028900716147782612 0 0.0011418896529442192 -0.028763519399489793 0 0.0011418896529442192 -0.028763519399489793 0 0.0010735466670455372 -0.029000971699517531 0 0.001593989894154653 -0.028900322204381566 0 0.00073563748807258227 -0.028900716147782612 0 0.0011418896529442192 -0.028763519399489793 0 0.0010735466670455372 -0.029000971699517531 0 0.0010735466670455372 -0.029000971699517531 0 0.00088156571825203224 -0.029156510298760565 0 0.001116190735666486 -0.029161987484258155 0 0.0010735466670455372 -0.029000971699517531 0 0.001116190735666486 -0.029161987484258155 0 0.0014080478565611505 -0.029092067982201542 0 0.00073563748807258227 -0.028900716147782612 0 0.0010735466670455372 -0.029000971699517531 0 0.0007497931411682905 -0.02904913080590061 0 0.0010735466670455372 -0.029000971699517531 0 0.0007497931411682905 -0.02904913080590061 0 0.00088156571825203224 -0.029156510298760565 0 0.00065279186825223324 -0.029203184812953028 0 0.0007497931411682905 -0.02904913080590061 0 0.00088156571825203224 -0.029156510298760565 0 0.00065279186825223324 -0.029203184812953028 0 0.00088156571825203224 -0.029156510298760565 0 0.00084589487517287897 -0.029388170861848095 0 0.00088156571825203224 -0.029156510298760565 0 0.00084589487517287897 -0.029388170861848095 0 0.001116190735666486 -0.029161987484258155 0 0.00084589487517287897 -0.029388170861848095 0 0.001116190735666486 -0.029161987484258155 0 0.0013893111701312943 -0.02934557797707622 0 0.00094743703624652626 -0.028980247004463104 0 0.0015500609233222546 -0.02913437719934437 0 0.001116190735666486 -0.029161987484258155 0 0.0013893111701312943 -0.02934557797707622 0 0.0014080478565611505 -0.029092067982201542 0 0.0017722739377248348 -0.029264653153443232 0 0.0014829245084573557 -0.029214864366103113 0 0.0017114483816459689 -0.028903301740463069 0 0.0011047028923065218 -0.028906547328326426 0 0.0014829245084573557 -0.029214864366103113 0 0.0017114483816459689 -0.028903301740463069 0 0.0011047028923065218 -0.028906547328326426 0 0.0014829245084573557 -0.029214864366103113 0 0.00098344475492679272 -0.029198790539821912 0 0.0014881807081902824 -0.029277983027470936 0 0.00082358415679279113 -0.028914007355676945 0 0.0021881975232754132 -0.02907336408595005 0 0.00202488295540599 -0.029019235977543023 0 0.001943775723962165 -0.029050748950334975 0 0.0021881975232754132 -0.02907336408595005 0 0.00202488295540599 -0.029019235977543023 0 0.0021374092433824117 -0.028880499398490994 0 0.0019682712782599977 -0.029037427206053221 0 0.0015500609233222546 -0.02913437719934437 0 0.0017722739377248348 -0.029264653153443232 0 0.0021881975232754132 -0.02907336408595005 0 0.001943775723962165 -0.029050748950334975 0 0.0017722739377248348 -0.029264653153443232 0 0.001943775723962165 -0.029050748950334975 0 0.0017114483816459689 -0.028903301740463069 0 0.00202488295540599 -0.029019235977543023 0 0.001943775723962165 -0.029050748950334975 0 0.0017114483816459689 -0.028903301740463069 0 0.00202488295540599 -0.029019235977543023 0 0.0013893111701312943 -0.02934557797707622 0 0.0016856141931513389 -0.029048520468317535 0 0.0013893111701312943 -0.02934557797707622 0 0.0014080478565611505 -0.029092067982201542 0 0.0016856141931513389 -0.029048520468317535 0 0.00202488295540599 -0.029019235977543023 0 0.0016856141931513389 -0.029048520468317535 0 0.0018904736064289519 -0.028951441811020447 0 0.0018904736064289519 -0.028951441811020447 0 0.001593989894154653 -0.028900322204381566 0 0.0019561370712998971 -0.028824195235822803 0 0.0016856141931513389 -0.029048520468317535 0 0.0018904736064289519 -0.028951441811020447 0 0.001593989894154653 -0.028900322204381566 0 0.0016046396594903488 -0.028638945434514399 0 0.0019114800503843366 -0.028429993829573189 0 0.0019561370712998971 -0.028824195235822803 0 0.0010735466670455372 -0.029000971699517531 0 0.0014080478565611505 -0.029092067982201542 0 0.001593989894154653 -0.028900322204381566 0 0.0014080478565611505 -0.029092067982201542 0 0.0016856141931513389 -0.029048520468317535 0 0.001593989894154653 -0.028900322204381566 0 0.0016046396594903488 -0.028638945434514399 0 0.0011418896529442192 -0.028763519399489793 0 0.001593989894154653 -0.028900322204381566 0 0.0016046396594903488 -0.028638945434514399 0 0.001593989894154653 -0.028900322204381566 0 0.0019561370712998971 -0.028824195235822803 0 0.0019114800503843366 -0.028429993829573189 0 0.002252973437194365 -0.028522389822147162 0 0.0019561370712998971 -0.028824195235822803 0 0.0019967870244563682 -0.028346417034038226 0 0.0019527876800932492 -0.028776382774781693 0 0.0017128271779508937 -0.028217970205472814 0 0.0020855199273871238 -0.028630813620845935 0 0.0019561370712998971 -0.028824195235822803 0 0.0017128271779508937 -0.028217970205472814 0 0.0022197744226260508 -0.028292593639817669 0 0.0020855199273871238 -0.028630813620845935 0 0.0020855199273871238 -0.028630813620845935 0 0.0019561370712998971 -0.028824195235822803 0 0.0020904066658010831 -0.02879581048492115 0 0.0027505515105585004 -0.027274883699578655 0 0.0020708445101922457 -0.029015623236435261 0 0.0044252349226525309 -0.018507118668514285 0 0.0045814142796688582 -0.017062429296124029 0 0.0041509927372029307 -0.018016862846994334 0 0.0020800061267938646 -0.02788728355174102 0 0.0020751870854819636 -0.027989515103870214 0 0.00223989068865901 -0.028588726496500554 0 0.0050968646866488684 -0.019121703530294239 0 0.0044252349226525309 -0.018507118668514285 0 0.0045814142796688582 -0.017062429296124029 0 0.0031471543104599126 -0.024308673374538063 0 0.0034383398405281027 -0.022653152165714126 0 0.0020751870854819636 -0.027989515103870214 0 0.0021437772524755178 -0.028698718710468939 0 0.00223989068865901 -0.028588726496500554 0 0.0025681623385847372 -0.028324023564291236 0 0.0022616627023109488 -0.028574708240176629 0 0.0021437772524755178 -0.028698718710468939 0 0.0025681623385847372 -0.028324023564291236 0 0.002238080397558176 -0.028539404277512344 0 0.0022616627023109488 -0.028574708240176629 0 0.002238080397558176 -0.028539404277512344 0 0.0022616627023109488 -0.028574708240176629 0 0.0021494874994138083 -0.02869525317665125 0 0.0022197744226260508 -0.028292593639817669 0 0.0025681623385847372 -0.028324023564291236 0 0.002238080397558176 -0.028539404277512344 0 0.0022197744226260508 -0.028292593639817669 0 0.0020855199273871238 -0.028630813620845935 0 0.002238080397558176 -0.028539404277512344 0 0.0020855199273871238 -0.028630813620845935 0 0.002238080397558176 -0.028539404277512344 0 0.0021494874994138083 -0.02869525317665125 0 0.0020855199273871238 -0.028630813620845935 0 0.0021494874994138083 -0.02869525317665125 0 0.0020904066658010831 -0.02879581048492115 0 0.0021082256852250547 -0.028739077050275629 0 0.0021494874994138083 -0.02869525317665125 0 0.0020904066658010831 -0.02879581048492115 0 0.0021082256852250547 -0.028739077050275629 0 0.0021494874994138083 -0.02869525317665125 0 0.0021437772524755178 -0.028698718710468939 0 0.0022616627023109488 -0.028574708240176629 0 0.0021494874994138083 -0.02869525317665125 0 0.0021437772524755178 -0.028698718710468939 0 0.0021437772524755178 -0.028698718710468939 0 0.00223989068865901 -0.028588726496500554 0 0.0019087031159811386 -0.02871847218842152 0 0.0021437772524755178 -0.028698718710468939 0 0.0020361646058627576 -0.028746933359179948 0 0.0019087031159811386 -0.02871847218842152 0 0.0034383398405281027 -0.022653152165714126 0 0.0030021470205756047 -0.021846504707711475 0 0.0021082256852250547 -0.028739077050275629 0 0.0021437772524755178 -0.028698718710468939 0 0.0020361646058627576 -0.028746933359179948 0 0.0020361646058627576 -0.028746933359179948 0 0.0020904066658010831 -0.02879581048492115 0 0.002069661282289581 -0.028765619631885835 0 0.0021082256852250547 -0.028739077050275629 0 0.0020361646058627576 -0.028746933359179948 0 0.0020904066658010831 -0.02879581048492115 0 0.0020361646058627576 -0.028746933359179948 0 0.002069661282289581 -0.028765619631885835 0 0.0019014201688817454 -0.02860448574008297 0 0.0020361646058627576 -0.028746933359179948 0 0.0019014201688817454 -0.02860448574008297 0 0.0019087031159811386 -0.02871847218842152 0 0.0018904736064289519 -0.028951441811020447 0 0.0019561370712998971 -0.028824195235822803 0 0.0020512425140771827 -0.028896950501826085 0 0.00202488295540599 -0.029019235977543023 0 0.0018904736064289519 -0.028951441811020447 0 0.0020512425140771827 -0.028896950501826085 0 0.0020904066658010831 -0.02879581048492115 0 0.0020512425140771827 -0.028896950501826085 0 0.002069661282289581 -0.028765619631885835 0 0.0019561370712998971 -0.028824195235822803 0 0.0020904066658010831 -0.02879581048492115 0 0.0020512425140771827 -0.028896950501826085 0 0.0020512425140771827 -0.028896950501826085 0 0.002069661282289581 -0.028765619631885835 0 0.0021374092433824117 -0.028880499398490994 0 0.00202488295540599 -0.029019235977543023 0 0.0020512425140771827 -0.028896950501826085 0 0.0021374092433824117 -0.028880499398490994 0 0.0021881975232754132 -0.02907336408595005 0 0.0021374092433824117 -0.028880499398490994 0 0.0022849945559790114 -0.0285488785009935 0 0.0021374092433824117 -0.028880499398490994 0 0.0022849945559790114 -0.0285488785009935 0 0.0021163066757751404 -0.028606173804651212 0 0.0024621116511364363 -0.029114061085266752 0 0.0026396384693932718 -0.029371759518330553 0 0.0023019497539336696 -0.030118527171353153 0 0.0027366857260809154 -0.029772452555775545 0 0.0025956540638259061 -0.03026298907478726 0 0.0022849945559790114 -0.0285488785009935 0 0.002113662427083514 -0.028298449827278273 0 0.0022321588977606494 -0.028084893301735872 0 0.0022849945559790114 -0.0285488785009935 0 0.002113662427083514 -0.028298449827278273 0 0.0021163066757751404 -0.028606173804651212 0 0.002113662427083514 -0.028298449827278273 0 0.0021163066757751404 -0.028606173804651212 0 0.0019970578067018594 -0.028438631823345106 0 0.002069661282289581 -0.028765619631885835 0 0.0021374092433824117 -0.028880499398490994 0 0.0021163066757751404 -0.028606173804651212 0 0.002069661282289581 -0.028765619631885835 0 0.0021163066757751404 -0.028606173804651212 0 0.0019970578067018594 -0.028438631823345106 0 0.002069661282289581 -0.028765619631885835 0 0.0019014201688817454 -0.02860448574008297 0 0.0019970578067018594 -0.028438631823345106 0 0.0019014201688817454 -0.02860448574008297 0 0.0017293963538401237 -0.028237829735802293 0 0.0015616201579261382 -0.028457834597609432 0 0.0019014201688817454 -0.02860448574008297 0 0.0017293963538401237 -0.028237829735802293 0 0.0019970578067018594 -0.028438631823345106 0 0.0017293963538401237 -0.028237829735802293 0 0.0019970578067018594 -0.028438631823345106 0 0.0019268431392829113 -0.02811842744529696 0 0.0017293963538401237 -0.028237829735802293 0 0.0019268431392829113 -0.02811842744529696 0 0.0015877242888263988 -0.027879502775418768 0 0.002113662427083514 -0.028298449827278273 0 0.0019970578067018594 -0.028438631823345106 0 0.0019268431392829113 -0.02811842744529696 0 0.002113662427083514 -0.028298449827278273 0 0.0019268431392829113 -0.02811842744529696 0 0.0020477358916076212 -0.027993877439828223 0 0.0020477358916076212 -0.027993877439828223 0 0.0020666354370351011 -0.027764532281280969 0 0.0022321588977606494 -0.028084893301735872 0 0.0020477358916076212 -0.027993877439828223 0 0.0018909267624074647 -0.027812281416966848 0 0.0020666354370351011 -0.027764532281280969 0 0.0019268431392829113 -0.02811842744529696 0 0.0020477358916076212 -0.027993877439828223 0 0.0018909267624074647 -0.027812281416966848 0 0.0019268431392829113 -0.02811842744529696 0 0.0018909267624074647 -0.027812281416966848 0 0.0015877242888263988 -0.027879502775418768 0 0.0018909267624074647 -0.027812281416966848 0 0.0022912980329850125 -0.027144642090974426 0 0.0015730081535185367 -0.027198931949165728 0 0.0018909267624074647 -0.027812281416966848 0 0.0015730081535185367 -0.027198931949165728 0 0.0015877242888263988 -0.027879502775418768 0 0.0017449862138737599 -0.018665308461711574 0 0.0018718457470283023 -0.018277003687734113 0 0.0018909267624074647 -0.027812281416966848 0 0.0022912980329850125 -0.027144642090974426 0 0.0024480197491406896 -0.027293754681047035 0 0.0017855501993217563 -0.02783219385627583 0 0.0029469044096483428 -0.027802043567067513 0 0.0017449862138737599 -0.018665308461711574 0 0.0024614193863174419 -0.022655980345222471 0 0.0028618930783753846 -0.03036607926586565 0 0.0029145824924851605 -0.030323496266363527 0 0.0029467040453705412 -0.030365317613850314 0 0.0022912980329850125 -0.027144642090974426 0 0.0023596559613400527 -0.027182369050146201 0 0.0024480197491406896 -0.027293754681047035 0 0.0024614193863174419 -0.022655980345222471 0 0.0029469044096483428 -0.027802043567067513 0 0.0024614193863174419 -0.022655980345222471 0 0.0025541820451722434 -0.027264167438153714 0 0.0029469044096483428 -0.027802043567067513 0 0.0025541820451722434 -0.027264167438153714 0 0.0039073223580603595 -0.025373816728471665 0 0.0032781126814445016 -0.024586284083791994 0 0.0019447023312762399 -0.025804743067364532 0 0.0029916557680579651 -0.030328881430308523 0 0.0029467040453705412 -0.030365317613850314 0 0.0029903639853469362 -0.030435006471831873 0 0.0030694337938628729 -0.030467908172121524 0 0.0029903639853469362 -0.030435006471831873 0 0.0030229325460426736 -0.03030109498849131 0 0.0031420161465574186 -0.031114676620123363 0 0.0027182156092748757 -0.028849666726007958 0 0.0029469044096483428 -0.027802043567067513 0 0.0026396384693932718 -0.029371759518330553 0 0.0029916557680579651 -0.030328881430308523 0 0.0029781982856521136 -0.030461542679448426 0 0.0030100164953475008 -0.030264797877940248 0 0.0029781982856521136 -0.030461542679448426 0 0.0028455415572935291 -0.030795092608613503 0 0.0030859307490651322 -0.030964262087863254 0 0.0028618930783753846 -0.03036607926586565 0 0.0029467040453705412 -0.030365317613850314 0 0.0029903639853469362 -0.030435006471831873 0 0.0029145824924851605 -0.030323496266363527 0 0.0029916557680579651 -0.030328881430308523 0 0.0029467040453705412 -0.030365317613850314 0 0.0025541820451722434 -0.027264167438153714 0 0.0028254410808101656 -0.02848352520771024 0 0.0029469044096483428 -0.027802043567067513 0 0.0033781967745607788 -0.030061863219707788 0 0.0029916557680579651 -0.030328881430308523 0 0.0029903639853469362 -0.030435006471831873 0 0.0029781982856521136 -0.030461542679448426 0 0.0028455415572935291 -0.030795092608613503 0 0.0027952114445324444 -0.030656080613189234 0 0.0026435599307060649 -0.030779797695017735 0 0.0027952114445324444 -0.030656080613189234 0 0.0026435599307060649 -0.030779797695017735 0 0.0027253569971358929 -0.030577527202037869 0 0.0029781982856521136 -0.030461542679448426 0 0.0028455415572935291 -0.030795092608613503 0 0.0027952114445324444 -0.030656080613189234 0 0.0024768959983219336 -0.030700215096442815 0 0.0026435599307060649 -0.030779797695017735 0 0.0027253569971358929 -0.030577527202037869 0 0.0029781982856521136 -0.030461542679448426 0 0.0027952114445324444 -0.030656080613189234 0 0.0027253569971358929 -0.030577527202037869 0 0.0027366857260809154 -0.029772452555775545 0 0.0028158952336681067 -0.030295657207955753 0 0.0025956540638259061 -0.03026298907478726 0 0.0029781982856521136 -0.030461542679448426 0 0.0027253569971358929 -0.030577527202037869 0 0.0028158952336681067 -0.030295657207955753 0 0.0027366857260809154 -0.029772452555775545 0 0.0028158952336681067 -0.030295657207955753 0 0.0030229325460426736 -0.03030109498849131 0 0.0027253569971358929 -0.030577527202037869 0 0.0028158952336681067 -0.030295657207955753 0 0.0025956540638259061 -0.03026298907478726 0 0.0023541066356970392 -0.030427097835026264 0 0.0027253569971358929 -0.030577527202037869 0 0.0025956540638259061 -0.03026298907478726 0 0.002113662427083514 -0.028298449827278273 0 0.0020477358916076212 -0.027993877439828223 0 0.0022321588977606494 -0.028084893301735872 0 0.0029903639853469362 -0.030435006471831873 0 0.0029781982856521136 -0.030461542679448426 0 0.0030229325460426736 -0.03030109498849131 0 0.0029781982856521136 -0.030461542679448426 0 0.0028158952336681067 -0.030295657207955753 0 0.0030229325460426736 -0.03030109498849131 0 0.0014361235485982548 -0.00912665745789688 0 0.00063575232791516546 -0.0096287304519400169 0 0.0015365792139634398 -0.0091080008745782013 0 2.903811946662436e-05 -0.010468627037322549 0 0.0015495413380003104 -0.010486760418702858 0 0.0015365792139634398 -0.0091080008745782013 0 0.0010306934312563352 -0.0089198618662169639 0 0.00096328689175445711 -0.0087456818085029277 0 0.0010306934312563352 -0.0089198618662169639 0 0.00096328689175445711 -0.0087456818085029277 0 0.00081298086944499987 -0.0086173123540105694 0 0.00096328689175445711 -0.0087456818085029277 0 0.00085785207578150703 -0.0084755384515820559 0 0.0010339135877018492 -0.0086006977583350328 0 0.00096328689175445711 -0.0087456818085029277 0 0.00085785207578150703 -0.0084755384515820559 0 0.00081298086944499987 -0.0086173123540105694 0 0.0017319369116450367 -0.0072346709242146695 0 0.00051978800539856861 -0.015906826360624182 0 0.0015365792139634398 -0.0091080008745782013 0 0.00096328689175445711 -0.0087456818085029277 0 0.0010339135877018492 -0.0086006977583350328 0 0.0015365792139634398 -0.0091080008745782013 0 0.0010339135877018492 -0.0086006977583350328 0 0.0021754566789992215 -0.0083382763780027735 0 0.0010339135877018492 -0.0086006977583350328 0 0.0013862279204677995 -0.0088910624255667831 0 0.0011828793218409883 -0.0086553060500005868 0 0.0013244490072140875 -0.0087800108070062791 0 0.0013862279204677995 -0.0088910624255667831 0 0.0011828793218409883 -0.0086553060500005868 0 0.0013862279204677995 -0.0088910624255667831 0 0.0014041964122867769 -0.0087965571810299705 0 0.0013575912185185698 -0.0087900523717485517 0 0.0013244490072140875 -0.0087800108070062791 0 0.0013862279204677995 -0.0088910624255667831 0 0.0013575912185185698 -0.0087900523717485517 0 0.0013862279204677995 -0.0088910624255667831 0 0.0015306226274518417 -0.0088978012907421633 0 0.0014041964122867769 -0.0087965571810299705 0 0.00093985548329609712 -0.02714858046235407 0 0.0015730081535185367 -0.027198931949165728 0 0.0013059216351749001 -0.02752129149458472 0 0.0015730081535185367 -0.027198931949165728 0 0.0013059216351749001 -0.02752129149458472 0 0.0015877242888263988 -0.027879502775418768 0 0.00051978800539856861 -0.015906826360624182 0 0.0018718457470283023 -0.018277003687734113 0 0.0013862279204677995 -0.0088910624255667831 0 0.0017242084192303905 -0.0091243554575428792 0 0.0015306226274518417 -0.0088978012907421633 0 0.0013059216351749001 -0.02752129149458472 0 0.0015877242888263988 -0.027879502775418768 0 0.0012206201324509165 -0.027943841711495304 0 0.0015365792139634398 -0.0091080008745782013 0 0.0029647020490021271 -0.010330933462391471 0 0.0015495413380003104 -0.010486760418702858 0 0.00093985548329609712 -0.02714858046235407 0 0.0013059216351749001 -0.02752129149458472 0 0.0012206201324509165 -0.027943841711495304 0 0.00051978800539856861 -0.015906826360624182 0 0.0022634707422227074 -0.019564719485644658 0 0.0015365792139634398 -0.0091080008745782013 0 0.0021754566789992215 -0.0083382763780027735 0 0.0029647020490021271 -0.010330933462391471 0 0.0029647020490021271 -0.010330933462391471 0 0.0016474326838473068 -0.012017513601951956 0 0.0015495413380003104 -0.010486760418702858 0 0.0029647020490021271 -0.010330933462391471 0 0.0035678538732610687 -0.01268785102953556 0 0.0016474326838473068 -0.012017513601951956 0 0.0022634707422227074 -0.019564719485644658 0 0.0025276294064045845 -0.0204519758494459 0 0.0017293963538401237 -0.028237829735802293 0 0.0015877242888263988 -0.027879502775418768 0 0.0012206201324509165 -0.027943841711495304 0 0.0017293963538401237 -0.028237829735802293 0 0.0012206201324509165 -0.027943841711495304 0 0.0015616201579261382 -0.028457834597609432 0 0.0035678538732610687 -0.01268785102953556 0 0.0016474326838473068 -0.012017513601951956 0 0.0025245564756339331 -0.013898129949230557 0 0.0016474326838473068 -0.012017513601951956 0 0.00084503370435257911 -0.013822071512855928 0 0.0025245564756339331 -0.013898129949230557 0 0.0016474326838473068 -0.012017513601951956 0 7.6580574795398102e-05 -0.012338859499686669 0 0.00084503370435257911 -0.013822071512855928 0 2.903811946662436e-05 -0.010468627037322549 0 0.0016474326838473068 -0.012017513601951956 0 7.6580574795398102e-05 -0.012338859499686669 0 2.903811946662436e-05 -0.010468627037322549 0 0.0016474326838473068 -0.012017513601951956 0 0.0015495413380003104 -0.010486760418702858 0 2.903811946662436e-05 -0.010468627037322549 0 7.6580574795398102e-05 -0.012338859499686669 0 -0.0013773315049885697 -0.011721424080636426 0 0.00063575232791516546 -0.0096287304519400169 0 -0.00050427141000621023 -0.010628742776879661 0 7.6580574795398102e-05 -0.012338859499686669 0 -0.0010243123723486524 -0.01324547057528971 0 -0.0013773315049885697 -0.011721424080636426 0 7.6580574795398102e-05 -0.012338859499686669 0 -0.0010243123723486524 -0.01324547057528971 0 0.00084503370435257911 -0.013822071512855928 0 -0.0010243123723486524 -0.01324547057528971 0 -0.00045708572839616595 -0.014523879111590109 0 0.00084503370435257911 -0.013822071512855928 0 -0.00045708572839616595 -0.014523879111590109 0 0.00084503370435257911 -0.013822071512855928 0 0.00067721926873999289 -0.015039404261701287 0 0.00067721926873999289 -0.015039404261701287 0 0.0024928912482435252 -0.015538341872401643 0 0.0008515004571488994 -0.016007006489874985 0 0.00084503370435257911 -0.013822071512855928 0 0.00067721926873999289 -0.015039404261701287 0 0.0024928912482435252 -0.015538341872401643 0 0.00067721926873999289 -0.015039404261701287 0 -0.00018476567818014741 -0.015517165503808892 0 0.0008515004571488994 -0.016007006489874985 0 -0.00018476567818014741 -0.015517165503808892 0 -0.0009008846122981368 -0.015118245040995392 0 -0.0010377589578026781 -0.015984017151576709 0 -0.00045708572839616595 -0.014523879111590109 0 -0.00018476567818014741 -0.015517165503808892 0 -0.0009008846122981368 -0.015118245040995392 0 -0.00045708572839616595 -0.014523879111590109 0 0.00067721926873999289 -0.015039404261701287 0 -0.00018476567818014741 -0.015517165503808892 0 0.0035678538732610687 -0.01268785102953556 0 0.0025245564756339331 -0.013898129949230557 0 0.0040889783239616267 -0.014918035409088521 0 0.0025276294064045845 -0.0204519758494459 0 0.0030021470205756047 -0.021846504707711475 0 0.0019014201688817454 -0.02860448574008297 0 0.0015616201579261382 -0.028457834597609432 0 0.0019087031159811386 -0.02871847218842152 0 0.00084503370435257911 -0.013822071512855928 0 0.0025245564756339331 -0.013898129949230557 0 0.0024928912482435252 -0.015538341872401643 0 0.0024928912482435252 -0.015538341872401643 0 0.0040889783239616267 -0.014918035409088521 0 0.0036313345676778032 -0.016422103115190954 0 0.0025245564756339331 -0.013898129949230557 0 0.0024928912482435252 -0.015538341872401643 0 0.0040889783239616267 -0.014918035409088521 0 0.0024928912482435252 -0.015538341872401643 0 0.0036313345676778032 -0.016422103115190954 0 0.0031377423706766723 -0.017114550543037198 0 0.0045814142796688582 -0.017062429296124029 0 0.0040889783239616267 -0.014918035409088521 0 0.0036313345676778032 -0.016422103115190954 0 0.0045814142796688582 -0.017062429296124029 0 0.0036313345676778032 -0.016422103115190954 0 0.0038421281980967077 -0.017451047817065392 0 0.0036313345676778032 -0.016422103115190954 0 0.0031377423706766723 -0.017114550543037198 0 0.0038421281980967077 -0.017451047817065392 0 0.0024928912482435252 -0.015538341872401643 0 0.0031377423706766723 -0.017114550543037198 0 0.0019154150288807426 -0.017471590364958083 0 0.0024928912482435252 -0.015538341872401643 0 0.0019154150288807426 -0.017471590364958083 0 0.0008515004571488994 -0.016007006489874985 0 0.0023741959968061974 -0.018683904402509853 0 0.0019154150288807426 -0.017471590364958083 0 0.0034487476267830047 -0.018348634680185723 0 0.0031377423706766723 -0.017114550543037198 0 0.0019154150288807426 -0.017471590364958083 0 0.0034487476267830047 -0.018348634680185723 0 0.0023741959968061974 -0.018683904402509853 0 0.0019154150288807426 -0.017471590364958083 0 0.0016920099288662406 -0.018468317858329086 0 0.0031377423706766723 -0.017114550543037198 0 0.0034487476267830047 -0.018348634680185723 0 0.0038421281980967077 -0.017451047817065392 0 0.0034487476267830047 -0.018348634680185723 0 0.0040227375782368414 -0.01849601805302048 0 0.0041509927372029307 -0.018016862846994334 0 0.0044252349226525309 -0.018507118668514285 0 0.0040227375782368414 -0.01849601805302048 0 0.0041509927372029307 -0.018016862846994334 0 0.0045814142796688582 -0.017062429296124029 0 0.0041509927372029307 -0.018016862846994334 0 0.0038421281980967077 -0.017451047817065392 0 0.0034487476267830047 -0.018348634680185723 0 0.0041509927372029307 -0.018016862846994334 0 0.0038421281980967077 -0.017451047817065392 0 0.0013588706568047428 -0.011294452974947503 0 0.00073060723378261445 -0.012614145061271396 0 1.6312210559224132e-05 -0.016418546462046157 0 -0.00015382610956926677 -0.017482403556055796 0 -0.0010377589578026781 -0.015984017151576709 0 1.6312210559224132e-05 -0.016418546462046157 0 0.00065362868756828894 -0.017074846027561135 0 -0.00015382610956926677 -0.017482403556055796 0 -0.00018476567818014741 -0.015517165503808892 0 1.6312210559224132e-05 -0.016418546462046157 0 -0.0010377589578026781 -0.015984017151576709 0 -0.00018476567818014741 -0.015517165503808892 0 1.6312210559224132e-05 -0.016418546462046157 0 0.0008515004571488994 -0.016007006489874985 0 1.6312210559224132e-05 -0.016418546462046157 0 0.0008515004571488994 -0.016007006489874985 0 0.00065362868756828894 -0.017074846027561135 0 0.0019154150288807426 -0.017471590364958083 0 0.0008515004571488994 -0.016007006489874985 0 0.00065362868756828894 -0.017074846027561135 0 0.00099241593190113999 -0.018121595397084668 0 0.001512283661058034 -0.013560194664413973 0 0.0019154150288807426 -0.017471590364958083 0 0.00065362868756828894 -0.017074846027561135 0 0.0003392185869518276 -0.018004095104798019 0 0.0019154150288807426 -0.017471590364958083 0 0.0016920099288662406 -0.018468317858329086 0 0.00044598351118747977 -0.017991381774156358 0 0.00097341652128239827 -0.0072022026543622653 0 0.00072647669572804894 -0.0072787775237094536 0 0.00053062821873098266 -0.007074501998643009 0 0.001512283661058034 -0.013560194664413973 0 0.001006563261840062 -0.0095929727845837486 0 0.0011234437583280438 -0.0073826445272415758 0 0.00072647669572804894 -0.0072787775237094536 0 0.00067170056275224846 -0.0074987515309497127 0 0.0011234437583280438 -0.0073826445272415758 0 0.00097341652128239827 -0.0072022026543622653 0 0.00072647669572804894 -0.0072787775237094536 0 0.001512283661058034 -0.013560194664413973 0 0.0013588706568047428 -0.011294452974947503 0 0.00065362868756828894 -0.017074846027561135 0 0.0003392185869518276 -0.018004095104798019 0 -0.00015382610956926677 -0.017482403556055796 0 0.00072647669572804894 -0.0072787775237094536 0 0.00067170056275224846 -0.0074987515309497127 0 0.00037792053476875441 -0.0073410480117190226 0 0.00023896860780475332 -0.0076257288695809888 0 0.00067170056275224846 -0.0074987515309497127 0 0.00037792053476875441 -0.0073410480117190226 0 0.00037792053476875441 -0.0073410480117190226 0 0.00053062821873098266 -0.007074501998643009 0 0.00027750897515333654 -0.0070807015413429748 0 0.00072647669572804894 -0.0072787775237094536 0 0.00037792053476875441 -0.0073410480117190226 0 0.00053062821873098266 -0.007074501998643009 0 0.00053062821873098266 -0.007074501998643009 0 0.00019319562517802397 -0.0068242931824404138 0 0.00044252419525760167 -0.0066470433625822837 0 0.0029736858001725873 -0.0099778091861470967 0 0.002186906501853051 -0.0084736686133843886 0 0.0014283153871951055 -0.008144850351199568 0 0.00097341652128239827 -0.0072022026543622653 0 0.00053062821873098266 -0.007074501998643009 0 0.00044252419525760167 -0.0066470433625822837 0 0.0013588706568047428 -0.011294452974947503 0 0.00091522195500693228 -0.0069002768431837705 0 0.00053062821873098266 -0.007074501998643009 0 0.00019319562517802397 -0.0068242931824404138 0 0.00027750897515333654 -0.0070807015413429748 0 0.00019319562517802397 -0.0068242931824404138 0 1.0516808545318211e-05 -0.0070865250101294274 0 -0.00012047116451071776 -0.0065908236235582909 0 0.00019319562517802397 -0.0068242931824404138 0 0.00027750897515333654 -0.0070807015413429748 0 1.0516808545318211e-05 -0.0070865250101294274 0 -0.00029336135352975409 -0.0066945532937224229 0 -0.00068614550502106466 -0.0043031406167718623 0 -0.0015159084466753524 -0.0014189125665244591 0 -0.0011021211497971779 -0.0023402977155446529 0 -0.00074546086374026712 -0.0018861804103414549 0 0.00023896860780475332 -0.0076257288695809888 0 0.00037792053476875441 -0.0073410480117190226 0 1.0516808545318211e-05 -0.0070865250101294274 0 0.00037792053476875441 -0.0073410480117190226 0 0.00027750897515333654 -0.0070807015413429748 0 1.0516808545318211e-05 -0.0070865250101294274 0 -0.0011021211497971779 -0.0023402977155446529 0 -0.00074546086374026712 -0.0018861804103414549 0 -0.00023037692286815309 -0.0022867730948633201 0 -0.00038379986220152555 -0.0014884773939813714 0 -0.00074546086374026712 -0.0018861804103414549 0 -0.00023037692286815309 -0.0022867730948633201 0 -0.00038379986220152555 -0.0014884773939813714 0 -0.00023037692286815309 -0.0022867730948633201 0 0.00046615060238812384 -0.0017635509481571713 0 -0.00035970848822317758 -0.001648068643873768 0 0.00032351295607653606 -0.0020615974192476432 0 -0.00023037692286815309 -0.0022867730948633201 0 0.00046615060238812384 -0.0017635509481571713 0 0.00076287532972930743 -0.002367000245686853 0 -0.00023037692286815309 -0.0022867730948633201 0 0.00030569439029005057 -0.0029370166138961381 0 0.00076287532972930743 -0.002367000245686853 0 -0.00023037692286815309 -0.0022867730948633201 0 0.00030569439029005057 -0.0029370166138961381 0 -0.00068062313820500147 -0.0034211319040902363 0 -0.0011021211497971779 -0.0023402977155446529 0 -0.00023037692286815309 -0.0022867730948633201 0 -0.00068062313820500147 -0.0034211319040902363 0 -0.00068614550502106466 -0.0043031406167718623 0 -0.00035170146510538454 -0.0051065860659974547 0 -0.00012047116451071776 -0.0065908236235582909 0 -3.176332537619694e-05 -0.0063849008146660436 0 3.6085915835907374e-06 -0.0064512479745814895 0 -0.00035170146510538454 -0.0051065860659974547 0 -6.6731958383949873e-05 -0.005547195871225429 0 -0.00012047116451071776 -0.0065908236235582909 0 3.6085915835907374e-06 -0.0064512479745814895 0 0.00010302940256222727 -0.0065994090299123257 0 0.00030569439029005057 -0.0029370166138961381 0 -0.00068062313820500147 -0.0034211319040902363 0 0.00037947155283704002 -0.0037110187385733591 0 -0.00068062313820500147 -0.0034211319040902363 0 0.00037947155283704002 -0.0037110187385733591 0 -0.00022846959946506255 -0.0047196644832089357 0 0.00037947155283704002 -0.0037110187385733591 0 -0.00022846959946506255 -0.0047196644832089357 0 0.00067047612683425884 -0.004401573066725839 0 -0.00022846959946506255 -0.0047196644832089357 0 0.00067047612683425884 -0.004401573066725839 0 0.00077003290007725104 -0.0051835930328187341 0 -0.00012047116451071776 -0.0065908236235582909 0 3.8331553331363621e-05 -0.0063179816864574008 0 -3.176332537619694e-05 -0.0063849008146660436 0 -3.176332537619694e-05 -0.0063849008146660436 0 3.6085915835907374e-06 -0.0064512479745814895 0 -8.8873879727052762e-05 -0.0063471780027461438 0 3.8331553331363621e-05 -0.0063179816864574008 0 -3.176332537619694e-05 -0.0063849008146660436 0 -2.3992793407497589e-05 -0.0063836448634753528 0 -3.176332537619694e-05 -0.0063849008146660436 0 -2.3992793407497589e-05 -0.0063836448634753528 0 -8.8873879727052762e-05 -0.0063471780027461438 0 -2.3992793407497589e-05 -0.0063836448634753528 0 -8.8873879727052762e-05 -0.0063471780027461438 0 -0.00012564625960311687 -0.0064815628424630236 0 0.00056392039203358147 -0.0060642043374640022 0 -0.0004101265700223232 -0.0090106519738713114 0 -8.8873879727052762e-05 -0.0063471780027461438 0 1.7921016216015567e-05 -0.006380095768162267 0 0.00063663978356734365 -0.0056946472546320921 0 1.7921016216015567e-05 -0.006380095768162267 0 0.0014036683166585625 -0.0070185070595779738 0 0.00063663978356734365 -0.0056946472546320921 0 3.6085915835907374e-06 -0.0064512479745814895 0 1.7921016216015567e-05 -0.006380095768162267 0 0.00013796376022692081 -0.0065195235736631423 0 3.6085915835907374e-06 -0.0064512479745814895 0 -8.8873879727052762e-05 -0.0063471780027461438 0 1.7921016216015567e-05 -0.006380095768162267 0 -0.0010243123723486524 -0.01324547057528971 0 -0.00045708572839616595 -0.014523879111590109 0 -0.0019251227287222581 -0.01444762903737829 0 -0.00033630425657173104 -0.010672675339902921 0 -0.0004101265700223232 -0.0090106519738713114 0 -0.0010243123723486524 -0.01324547057528971 0 -0.0019251227287222581 -0.01444762903737829 0 -0.0027876615880270289 -0.012914158429219835 0 0.002186906501853051 -0.0084736686133843886 0 0.0014036683166585625 -0.0070185070595779738 0 0.0014283153871951055 -0.008144850351199568 0 -0.00045708572839616595 -0.014523879111590109 0 -0.0009008846122981368 -0.015118245040995392 0 -0.0019251227287222581 -0.01444762903737829 0 0.00073060723378261445 -0.012614145061271396 0 -0.00033630425657173104 -0.010672675339902921 0 -0.0009008846122981368 -0.015118245040995392 0 -0.0010377589578026781 -0.015984017151576709 0 -0.0019251227287222581 -0.01444762903737829 0 0.00019319562517802397 -0.0068242931824404138 0 0.00044252419525760167 -0.0066470433625822837 0 0.00010302940256222727 -0.0065994090299123257 0 1.7921016216015567e-05 -0.006380095768162267 0 0.00044252419525760167 -0.0066470433625822837 0 0.00013796376022692081 -0.0065195235736631423 0 1.7921016216015567e-05 -0.006380095768162267 0 0.0014036683166585625 -0.0070185070595779738 0 0.0014283153871951055 -0.008144850351199568 0 0.00044252419525760167 -0.0066470433625822837 0 0.00010302940256222727 -0.0065994090299123257 0 0.00013796376022692081 -0.0065195235736631423 0 0.00011569787120627139 -0.0066184693399039332 0 0.00091522195500693228 -0.0069002768431837705 0 0.00019319562517802397 -0.0068242931824404138 0 -0.00012047116451071776 -0.0065908236235582909 0 0.00010302940256222727 -0.0065994090299123257 0 3.6085915835907374e-06 -0.0064512479745814895 0 0.00010302940256222727 -0.0065994090299123257 0 0.00013796376022692081 -0.0065195235736631423 0 0.0032894979481066515 -0.0024460584418291792 0 0.0033840095310957398 -0.0025687681644319532 0 0.003165559876521807 -0.0020818642198378681 0 0.003211705912301637 -0.002552982570649542 0 0.0032894979481066515 -0.0024460584418291792 0 0.003165559876521807 -0.0020818642198378681 0 0.0033840095310957398 -0.0025687681644319532 0 0.0033833579827318304 -0.0026421530169990922 0 0.003165559876521807 -0.0020818642198378681 0 0.0033840095310957398 -0.0025687681644319532 0 0.0032905625668770075 -0.002470950155772954 0 0.0031727566683609843 -0.0024523875088507353 0 0.0032894979481066515 -0.0024460584418291792 0 0.0033840095310957398 -0.0025687681644319532 0 0.0032905625668770075 -0.002470950155772954 0 0.0032894979481066515 -0.0024460584418291792 0 0.0032905625668770075 -0.002470950155772954 0 0.00323018886580343 -0.0024102996955214003 0 0.0032905625668770075 -0.002470950155772954 0 0.00323018886580343 -0.0024102996955214003 0 0.0031727566683609843 -0.0024523875088507353 0 0.003211705912301637 -0.002552982570649542 0 0.0032894979481066515 -0.0024460584418291792 0 0.00323018886580343 -0.0024102996955214003 0 0.0011174147565300582 -0.00027654848301462634 0 0.0010347845700176422 0.00022388520910822355 0 -0.00091969930881851563 0.0023796704876974826 0 -0.0010194916593013485 0.0020329439598304028 0 -0.00094828268644157421 0.0023906758415944574 0 -0.00091969930881851563 0.0023796704876974826 0 -0.00083005916103543289 0.0023556169866326584 0 -0.0010194916593013485 0.0020329439598304028 0 0.003211705912301637 -0.002552982570649542 0 0.00323018886580343 -0.0024102996955214003 0 0.0031451907795526507 -0.0020696990283328408 0 0.0030417905400218406 -0.0023683683360146632 0 0.002710110902674498 -0.0021372414614447394 0 0.0026504057714011398 -0.0015781110460360512 0 0.00323018886580343 -0.0024102996955214003 0 0.0031451907795526507 -0.0020696990283328408 0 0.0030417905400218406 -0.0023683683360146632 0 0.0029523924044466241 -0.0022152464629356652 0 0.0028548005719876116 -0.0020329017470506047 0 0.0031451907795526507 -0.0020696990283328408 0 0.0030417905400218406 -0.0023683683360146632 0 0.0027640530945779009 -0.002001353348726666 0 0.0030417905400218406 -0.0023683683360146632 0 0.0027453531325993042 -0.0025301634112304475 0 0.002710110902674498 -0.0021372414614447394 0 0.0032787735387973639 -0.002595639643719754 0 0.0026459380934404095 -0.0024372788741640898 0 0.0030417905400218406 -0.0023683683360146632 0 0.0031727566683609843 -0.0024523875088507353 0 0.0027453531325993042 -0.0025301634112304475 0 0.0033840095310957398 -0.0025687681644319532 0 0.0027996085616169087 -0.0026970818417643015 0 0.0024583772212723063 -0.0023834275588791708 0 0.0033840095310957398 -0.0025687681644319532 0 0.0031727566683609843 -0.0024523875088507353 0 0.0027453531325993042 -0.0025301634112304475 0 0.00323018886580343 -0.0024102996955214003 0 0.0030417905400218406 -0.0023683683360146632 0 0.0031727566683609843 -0.0024523875088507353 0 0.0033840095310957398 -0.0025687681644319532 0 0.003056314977045383 -0.0027797592613200582 0 0.0027996085616169087 -0.0026970818417643015 0 0.0033840095310957398 -0.0025687681644319532 0 0.0033833579827318304 -0.0026421530169990922 0 0.003056314977045383 -0.0027797592613200582 0 0.0027996085616169087 -0.0026970818417643015 0 0.0023153698844021304 -0.0028281923761840117 0 0.0027306935107526812 -0.0030371054945174296 0 0.0027996085616169087 -0.0026970818417643015 0 0.0023153698844021304 -0.0028281923761840117 0 0.0024583772212723063 -0.0023834275588791708 0 0.003056314977045383 -0.0027797592613200582 0 0.0027996085616169087 -0.0026970818417643015 0 0.0027306935107526812 -0.0030371054945174296 0 0.0016935081430665649 -0.0025929148085446995 0 0.0024583772212723063 -0.0023834275588791708 0 0.0013886856517784018 -0.0019421413548178653 0 0.0026459380934404095 -0.0024372788741640898 0 0.0013130165392998799 -0.0022709568946586295 0 0.0023153698844021304 -0.0028281923761840117 0 0.0016497729122231237 -0.0030499971380644865 0 0.0020545066564472765 -0.0032468615649086214 0 0.0023153698844021304 -0.0028281923761840117 0 0.0016497729122231237 -0.0030499971380644865 0 0.0016935081430665649 -0.0025929148085446995 0 0.0015591891721121879 -0.002467513215675031 0 0.0013130165392998799 -0.0022709568946586295 0 0.0023153698844021304 -0.0028281923761840117 0 0.0016935081430665649 -0.0025929148085446995 0 0.0024583772212723063 -0.0023834275588791708 0 0.0027453531325993042 -0.0025301634112304475 0 0.0024085174343236337 -0.0020456994211355568 0 0.002710110902674498 -0.0021372414614447394 0 0.0027453531325993042 -0.0025301634112304475 0 0.0024085174343236337 -0.0020456994211355568 0 0.001833166849907332 -0.0021808103961881709 0 0.0020234903941881498 -0.001496631761027982 0 0.0024085174343236337 -0.0020456994211355568 0 0.0026504057714011398 -0.0015781110460360512 0 0.0024085174343236337 -0.0020456994211355568 0 0.002710110902674498 -0.0021372414614447394 0 0.0026504057714011398 -0.0015781110460360512 0 0.0020234903941881498 -0.001496631761027982 0 0.0024085174343236337 -0.0020456994211355568 0 0.001833166849907332 -0.0021808103961881709 0 0.00032351295607653606 -0.0020615974192476432 0 0.0013130165392998799 -0.0022709568946586295 0 0.00043102745634943503 -0.0021108661634970851 0 0.00020364985444564111 -0.0023632229593261661 0 0.00064863359103186095 -0.0025618848636104587 0 0.00046615060238812384 -0.0017635509481571713 0 0.0013790207322792549 -0.0020802540332771277 0 0.00076287532972930743 -0.002367000245686853 0 0.00092770347464106537 -0.0017063100698731523 0 0.0013130165392998799 -0.0022709568946586295 0 0.0020234903941881498 -0.001496631761027982 0 0.0014083031396395565 -0.0013201424194620298 0 0.001833166849907332 -0.0021808103961881709 0 0.0016935081430665649 -0.0025929148085446995 0 0.0013790207322792549 -0.0020802540332771277 0 0.00076287532972930743 -0.002367000245686853 0 0.0016935081430665649 -0.0025929148085446995 0 0.00076287532972930743 -0.002367000245686853 0 0.0011171476578381906 -0.0030392594738359474 0 0.0016497729122231237 -0.0030499971380644865 0 0.0016935081430665649 -0.0025929148085446995 0 0.0011171476578381906 -0.0030392594738359474 0 0.00030569439029005057 -0.0029370166138961381 0 0.00076287532972930743 -0.002367000245686853 0 0.0011171476578381906 -0.0030392594738359474 0 0.00030569439029005057 -0.0029370166138961381 0 0.00037947155283704002 -0.0037110187385733591 0 0.0011171476578381906 -0.0030392594738359474 0 0.00037947155283704002 -0.0037110187385733591 0 0.0011171476578381906 -0.0030392594738359474 0 0.0011172619360480128 -0.0038718995042070679 0 0.0016497729122231237 -0.0030499971380644865 0 0.0011171476578381906 -0.0030392594738359474 0 0.0016106764681140461 -0.0035093528822466077 0 0.0011171476578381906 -0.0030392594738359474 0 0.0011172619360480128 -0.0038718995042070679 0 0.0016106764681140461 -0.0035093528822466077 0 0.0011172619360480128 -0.0038718995042070679 0 0.0017041680632056797 -0.0040848274770722897 0 0.0016106764681140461 -0.0035093528822466077 0 0.00037947155283704002 -0.0037110187385733591 0 0.0011172619360480128 -0.0038718995042070679 0 0.00067047612683425884 -0.004401573066725839 0 0.0011172619360480128 -0.0038718995042070679 0 0.00067047612683425884 -0.004401573066725839 0 0.0012171466327454865 -0.0045568682357887665 0 0.00067047612683425884 -0.004401573066725839 0 0.00077003290007725104 -0.0051835930328187341 0 0.0012171466327454865 -0.0045568682357887665 0 0.00077003290007725104 -0.0051835930328187341 0 0.0013635909771586581 -0.0051122685022438599 0 0.0012171466327454865 -0.0045568682357887665 0 0.0013635909771586581 -0.0051122685022438599 0 0.0012171466327454865 -0.0045568682357887665 0 0.0018028027154855443 -0.004693703188720557 0 0.0011172619360480128 -0.0038718995042070679 0 0.0012171466327454865 -0.0045568682357887665 0 0.0017041680632056797 -0.0040848274770722897 0 0.0012171466327454865 -0.0045568682357887665 0 0.0017041680632056797 -0.0040848274770722897 0 0.0018028027154855443 -0.004693703188720557 0 0.0017041680632056797 -0.0040848274770722897 0 0.0018028027154855443 -0.004693703188720557 0 0.0022670394478876026 -0.0041999935191098558 0 0.0018028027154855443 -0.004693703188720557 0 0.0023690092124021953 -0.0049483055000621636 0 0.001886014244899909 -0.0052868031205373211 0 0.0013635909771586581 -0.0051122685022438599 0 0.0018028027154855443 -0.004693703188720557 0 0.001886014244899909 -0.0052868031205373211 0 0.0018028027154855443 -0.004693703188720557 0 0.0023690092124021953 -0.0049483055000621636 0 0.0022670394478876026 -0.0041999935191098558 0 0.0023690092124021953 -0.0049483055000621636 0 0.0022670394478876026 -0.0041999935191098558 0 0.0027237305739084361 -0.0045057030705065466 0 0.0022670394478876026 -0.0041999935191098558 0 0.0020933903930235305 -0.0036926629466418493 0 0.0024679288785344963 -0.0037305723478197111 0 0.0017041680632056797 -0.0040848274770722897 0 0.0022670394478876026 -0.0041999935191098558 0 0.0020933903930235305 -0.0036926629466418493 0 0.0020933903930235305 -0.0036926629466418493 0 0.0024256253668876715 -0.0033090499676614949 0 0.0024679288785344963 -0.0037305723478197111 0 0.0017041680632056797 -0.0040848274770722897 0 0.0020933903930235305 -0.0036926629466418493 0 0.0016106764681140461 -0.0035093528822466077 0 0.0020933903930235305 -0.0036926629466418493 0 0.0016106764681140461 -0.0035093528822466077 0 0.0020545066564472765 -0.0032468615649086214 0 0.0016497729122231237 -0.0030499971380644865 0 0.0016106764681140461 -0.0035093528822466077 0 0.0020545066564472765 -0.0032468615649086214 0 0.0023153698844021304 -0.0028281923761840117 0 0.0020545066564472765 -0.0032468615649086214 0 0.0024256253668876715 -0.0033090499676614949 0 0.0020933903930235305 -0.0036926629466418493 0 0.0020545066564472765 -0.0032468615649086214 0 0.0024256253668876715 -0.0033090499676614949 0 0.0023153698844021304 -0.0028281923761840117 0 0.0024256253668876715 -0.0033090499676614949 0 0.0027306935107526812 -0.0030371054945174296 0 0.0027306935107526812 -0.0030371054945174296 0 0.0030762577935826781 -0.0031431787198810306 0 0.0027472274145298316 -0.0034900894706975066 0 0.0024256253668876715 -0.0033090499676614949 0 0.0027306935107526812 -0.0030371054945174296 0 0.0027472274145298316 -0.0034900894706975066 0 0.0030762577935826781 -0.0031431787198810306 0 0.0033219730097051757 -0.0036967161352519052 0 0.0027472274145298316 -0.0034900894706975066 0 0.0033833579827318304 -0.0026421530169990922 0 0.0030762577935826781 -0.0031431787198810306 0 0.0033219730097051757 -0.0036967161352519052 0 0.003056314977045383 -0.0027797592613200582 0 0.0027306935107526812 -0.0030371054945174296 0 0.0030762577935826781 -0.0031431787198810306 0 0.0033833579827318304 -0.0026421530169990922 0 0.003056314977045383 -0.0027797592613200582 0 0.0030762577935826781 -0.0031431787198810306 0 0.0033219730097051757 -0.0036967161352519052 0 0.0028140265180502818 -0.0040063596190542073 0 0.0027472274145298316 -0.0034900894706975066 0 0.0022670394478876026 -0.0041999935191098558 0 0.0028140265180502818 -0.0040063596190542073 0 0.0024679288785344963 -0.0037305723478197111 0 0.0024256253668876715 -0.0033090499676614949 0 0.0027472274145298316 -0.0034900894706975066 0 0.0024679288785344963 -0.0037305723478197111 0 0.0028140265180502818 -0.0040063596190542073 0 0.0027472274145298316 -0.0034900894706975066 0 0.0024679288785344963 -0.0037305723478197111 0 0.0022670394478876026 -0.0041999935191098558 0 0.0028140265180502818 -0.0040063596190542073 0 0.0027237305739084361 -0.0045057030705065466 0 0.0023690092124021953 -0.0049483055000621636 0 0.0027237305739084361 -0.0045057030705065466 0 0.0029322510234682454 -0.0049747596838191268 0 0.0027237305739084361 -0.0045057030705065466 0 0.0029322510234682454 -0.0049747596838191268 0 0.0033313877690788751 -0.0044318217168234477 0 0.0033219730097051757 -0.0036967161352519052 0 0.0028140265180502818 -0.0040063596190542073 0 0.0033313877690788751 -0.0044318217168234477 0 0.0028140265180502818 -0.0040063596190542073 0 0.0027237305739084361 -0.0045057030705065466 0 0.0033313877690788751 -0.0044318217168234477 0 0.0033219730097051757 -0.0036967161352519052 0 0.0033313877690788751 -0.0044318217168234477 0 0.0042405713243644835 -0.004129373447170852 0 0.0033313877690788751 -0.0044318217168234477 0 0.0042405713243644835 -0.004129373447170852 0 0.0038897817791186421 -0.0051659088679549573 0 0.0029322510234682454 -0.0049747596838191268 0 0.0033313877690788751 -0.0044318217168234477 0 0.0038897817791186421 -0.0051659088679549573 0 0.0033833579827318304 -0.0026421530169990922 0 0.0032528797539030079 -0.0012857582517810191 0 0.003165559876521807 -0.0020818642198378681 0 0.0033833579827318304 -0.0026421530169990922 0 0.0033219730097051757 -0.0036967161352519052 0 0.0042405713243644835 -0.004129373447170852 0 0.0034005530571567535 -0.0025775770546837668 0 0.0036821439216292145 -0.0026799838877619017 0 0.0039260128839630447 -0.0060265254779703114 0 0.0038897817791186421 -0.0051659088679549573 0 0.0026106245930014953 -0.0058811282999452668 0 0.0029322510234682454 -0.0049747596838191268 0 0.0038897817791186421 -0.0051659088679549573 0 0.0026106245930014953 -0.0058811282999452668 0 0.0023690092124021953 -0.0049483055000621636 0 0.0029322510234682454 -0.0049747596838191268 0 0.0026106245930014953 -0.0058811282999452668 0 0.0033280237218501663 -0.0063980475051688065 0 0.0023886611259093075 -0.0062227279628479107 0 0.0022210199523772711 -0.0065587265902124891 0 0.0020066676185552467 -0.0072019957775059157 0 0.0024646718462418252 -0.0072189581236713615 0 0.0029497861560018198 -0.0069346251658731987 0 0.0022210199523772711 -0.0065587265902124891 0 0.0024646718462418252 -0.0072189581236713615 0 0.0022210199523772711 -0.0065587265902124891 0 0.0015508728201365728 -0.0068643903768526946 0 0.0010910043759812457 -0.0059039757711773222 0 0.0022210199523772711 -0.0065587265902124891 0 0.0015508728201365728 -0.0068643903768526946 0 0.0020066676185552467 -0.0072019957775059157 0 0.0015508728201365728 -0.0068643903768526946 0 0.0014350048019114137 -0.0071238429162366352 0 0.0016708632575040876 -0.0072682720675926018 0 0.0015508728201365728 -0.0068643903768526946 0 0.0016708632575040876 -0.0072682720675926018 0 0.0020066676185552467 -0.0072019957775059157 0 0.0023886611259093075 -0.0062227279628479107 0 0.001123076375312201 -0.0058967780066118015 0 0.0023690092124021953 -0.0049483055000621636 0 0.0026106245930014953 -0.0058811282999452668 0 0.001886014244899909 -0.0052868031205373211 0 0.0026106245930014953 -0.0058811282999452668 0 0.001886014244899909 -0.0052868031205373211 0 0.0010910043759812457 -0.0059039757711773222 0 0.0013635909771586581 -0.0051122685022438599 0 0.001886014244899909 -0.0052868031205373211 0 0.0010910043759812457 -0.0059039757711773222 0 0.00077003290007725104 -0.0051835930328187341 0 0.0010910043759812457 -0.0059039757711773222 0 0.00050891125303585314 -0.0064288131096522719 0 0.00077003290007725104 -0.0051835930328187341 0 0.0013635909771586581 -0.0051122685022438599 0 0.0010910043759812457 -0.0059039757711773222 0 0.0010910043759812457 -0.0059039757711773222 0 0.0010127751972227295 -0.0067783815217496209 0 0.00050891125303585314 -0.0064288131096522719 0 0.0010127751972227295 -0.0067783815217496209 0 0.00050891125303585314 -0.0064288131096522719 0 0.00061880442022306048 -0.0068210152840888329 0 0.0015508728201365728 -0.0068643903768526946 0 0.0010910043759812457 -0.0059039757711773222 0 0.0010127751972227295 -0.0067783815217496209 0 0.0015508728201365728 -0.0068643903768526946 0 0.0010127751972227295 -0.0067783815217496209 0 0.001262547085365809 -0.0069881023777689354 0 0.001262547085365809 -0.0069881023777689354 0 0.0014350048019114137 -0.0071238429162366352 0 0.0010476410332702698 -0.0071752863843998638 0 0.0015508728201365728 -0.0068643903768526946 0 0.001262547085365809 -0.0069881023777689354 0 0.0014350048019114137 -0.0071238429162366352 0 0.0010127751972227295 -0.0067783815217496209 0 0.00061880442022306048 -0.0068210152840888329 0 0.00069690586022103855 -0.0072087161270851848 0 0.0010127751972227295 -0.0067783815217496209 0 0.0010476410332702698 -0.0071752863843998638 0 0.00069690586022103855 -0.0072087161270851848 0 0.0010127751972227295 -0.0067783815217496209 0 0.001262547085365809 -0.0069881023777689354 0 0.0010476410332702698 -0.0071752863843998638 0 0.0010699429725462711 -0.0077104069503441761 0 0.0014771003582257035 -0.0077754516042883642 0 0.00067932378094199923 -0.0079232425513156932 0 0.0010476410332702698 -0.0071752863843998638 0 0.00089216583746487977 -0.007400974063463326 0 0.00069690586022103855 -0.0072087161270851848 0 0.0010476410332702698 -0.0071752863843998638 0 0.001073135752826189 -0.0075226535629170791 0 0.00089216583746487977 -0.007400974063463326 0 0.001073135752826189 -0.0075226535629170791 0 0.00089216583746487977 -0.007400974063463326 0 0.00087306106305796321 -0.0076269129143599337 0 0.00089216583746487977 -0.007400974063463326 0 0.00087306106305796321 -0.0076269129143599337 0 0.00066619609051911638 -0.0075966260290471488 0 0.0010476410332702698 -0.0071752863843998638 0 0.001073135752826189 -0.0075226535629170791 0 0.001364471203863018 -0.0073976745133383266 0 0.0014350048019114137 -0.0071238429162366352 0 0.0010476410332702698 -0.0071752863843998638 0 0.001364471203863018 -0.0073976745133383266 0 0.001073135752826189 -0.0075226535629170791 0 0.001364471203863018 -0.0073976745133383266 0 0.0012976923176182928 -0.0076126855210631181 0 0.0012976923176182928 -0.0076126855210631181 0 0.0010699429725462711 -0.0077104069503441761 0 0.0014771003582257035 -0.0077754516042883642 0 0.001073135752826189 -0.0075226535629170791 0 0.0012976923176182928 -0.0076126855210631181 0 0.0010699429725462711 -0.0077104069503441761 0 0.0012976923176182928 -0.0076126855210631181 0 0.0014771003582257035 -0.0077754516042883642 0 0.0015743758863502827 -0.0075600175606220649 0 0.001364471203863018 -0.0073976745133383266 0 0.0012976923176182928 -0.0076126855210631181 0 0.0015743758863502827 -0.0075600175606220649 0 0.0010699429725462711 -0.0077104069503441761 0 0.00087306106305796321 -0.0076269129143599337 0 0.00067932378094199923 -0.0079232425513156932 0 0.001073135752826189 -0.0075226535629170791 0 0.0010699429725462711 -0.0077104069503441761 0 0.00087306106305796321 -0.0076269129143599337 0 0.0007080948477715919 -0.0079284840763604817 0 0.00090325229939598435 -0.0076332869159857191 0 0.00067932378094199923 -0.0079232425513156932 0 0.0014016609574786965 -0.0076572603817981651 0 0.00074048940223370478 -0.0078999744990423983 0 0.0019789955242452786 -0.0078076967614889511 0 0.0014771003582257035 -0.0077754516042883642 0 0.00067932378094199923 -0.0079232425513156932 0 0.0007080948477715919 -0.0079284840763604817 0 0.00062607272623268226 -0.0080322772891559188 0 0.00057810492590248236 -0.0080398634871598779 0 0.0007080948477715919 -0.0079284840763604817 0 0.00062607272623268226 -0.0080322772891559188 0 0.00059266981291780597 -0.0080108100196821658 0 0.00068616990551244555 -0.0077408912001959628 0 0.00053513132443035335 -0.0084568487725744882 0 0.00059266981291780597 -0.0080108100196821658 0 0.00041120989959275196 -0.0081095994563056637 0 0.00052403687175525075 -0.0080143832434533043 0 0.0007080948477715919 -0.0079284840763604817 0 0.00087763300058511025 -0.007678296446399501 0 0.00089953993082717888 -0.0076107753663146246 0 0.0007080948477715919 -0.0079284840763604817 0 0.00059266981291780597 -0.0080108100196821658 0 0.00041120989959275196 -0.0081095994563056637 0 0.0007080948477715919 -0.0079284840763604817 0 0.00087763300058511025 -0.007678296446399501 0 0.00090325229939598435 -0.0076332869159857191 0 0.00087763300058511025 -0.007678296446399501 0 0.00090325229939598435 -0.0076332869159857191 0 0.0013376730684808717 -0.0078400765537168637 0 0.0019789955242452786 -0.0078076967614889511 0 0.0020441413301277829 -0.0075858179372138724 0 0.0022586248558512895 -0.0075422949797220697 0 0.0020441413301277829 -0.0075858179372138724 0 0.0019412879608313501 -0.0074855049637900422 0 0.0021347759408096652 -0.0074079599727099304 0 0.0020441413301277829 -0.0075858179372138724 0 0.0019412879608313501 -0.0074855049637900422 0 0.0018895753281802095 -0.0076341822999350956 0 0.0019412879608313501 -0.0074855049637900422 0 0.0018895753281802095 -0.0076341822999350956 0 0.0017508686663341355 -0.0075822122069461179 0 0.0019412879608313501 -0.0074855049637900422 0 0.0017508686663341355 -0.0075822122069461179 0 0.00178401422268277 -0.0074125955861651781 0 0.0019789955242452786 -0.0078076967614889511 0 0.0018895753281802095 -0.0076341822999350956 0 0.0017378851598088812 -0.0077077360867311619 0 0.0019789955242452786 -0.0078076967614889511 0 0.0020441413301277829 -0.0075858179372138724 0 0.0018895753281802095 -0.0076341822999350956 0 0.0019789955242452786 -0.0078076967614889511 0 0.0017378851598088812 -0.0077077360867311619 0 0.0014771003582257035 -0.0077754516042883642 0 0.0017378851598088812 -0.0077077360867311619 0 0.0016358923223195152 -0.0076557443733610278 0 0.0017508686663341355 -0.0075822122069461179 0 0.0018895753281802095 -0.0076341822999350956 0 0.0017378851598088812 -0.0077077360867311619 0 0.0017508686663341355 -0.0075822122069461179 0 0.0017378851598088812 -0.0077077360867311619 0 0.0014771003582257035 -0.0077754516042883642 0 0.0016358923223195152 -0.0076557443733610278 0 0.0014771003582257035 -0.0077754516042883642 0 0.0016358923223195152 -0.0076557443733610278 0 0.0015743758863502827 -0.0075600175606220649 0 0.0015743758863502827 -0.0075600175606220649 0 0.0017508686663341355 -0.0075822122069461179 0 0.00178401422268277 -0.0074125955861651781 0 0.0016358923223195152 -0.0076557443733610278 0 0.0015743758863502827 -0.0075600175606220649 0 0.0017508686663341355 -0.0075822122069461179 0 0.00178401422268277 -0.0074125955861651781 0 0.0016708632575040876 -0.0072682720675926018 0 0.0020066676185552467 -0.0072019957775059157 0 0.0015743758863502827 -0.0075600175606220649 0 0.00178401422268277 -0.0074125955861651781 0 0.0016708632575040876 -0.0072682720675926018 0 0.001364471203863018 -0.0073976745133383266 0 0.0015743758863502827 -0.0075600175606220649 0 0.0016708632575040876 -0.0072682720675926018 0 0.0014350048019114137 -0.0071238429162366352 0 0.001364471203863018 -0.0073976745133383266 0 0.0016708632575040876 -0.0072682720675926018 0 0.0019412879608313501 -0.0074855049637900422 0 0.0020066676185552467 -0.0072019957775059157 0 0.0021347759408096652 -0.0074079599727099304 0 0.0019412879608313501 -0.0074855049637900422 0 0.00178401422268277 -0.0074125955861651781 0 0.0020066676185552467 -0.0072019957775059157 0 0.0019789955242452786 -0.0078076967614889511 0 0.0025450883300852608 -0.0075032015128447772 0 0.0022586248558512895 -0.0075422949797220697 0 0.0020066676185552467 -0.0072019957775059157 0 0.0021347759408096652 -0.0074079599727099304 0 0.0024646718462418252 -0.0072189581236713615 0 0.0021347759408096652 -0.0074079599727099304 0 0.0024646718462418252 -0.0072189581236713615 0 0.0022586248558512895 -0.0075422949797220697 0 0.0024646718462418252 -0.0072189581236713615 0 0.0025450883300852608 -0.0075032015128447772 0 0.0022586248558512895 -0.0075422949797220697 0 0.0020441413301277829 -0.0075858179372138724 0 0.0021347759408096652 -0.0074079599727099304 0 0.0022586248558512895 -0.0075422949797220697 0 0.0014016609574786965 -0.0076572603817981651 0 0.0024315440224330258 -0.0080653825530576598 0 0.00087763300058511025 -0.007678296446399501 0 0.00089953993082717888 -0.0076107753663146246 0 0.00084968100247280877 -0.0075501595379578413 0 0.0019789955242452786 -0.0078076967614889511 0 0.0025450883300852608 -0.0075032015128447772 0 0.0028599194253122163 -0.0076047579112369446 0 0.00090325229939598435 -0.0076332869159857191 0 0.0013376730684808717 -0.0078400765537168637 0 0.0017629984914509383 -0.0074870780030334948 0 0.0012560917091022129 -0.0080971635886504627 0 0.0020533958578218461 -0.0033285016485817501 0 0.0013376730684808717 -0.0078400765537168637 0 0.0020003067920923716 -0.0076390539501222767 0 0.0017629984914509383 -0.0074870780030334948 0 0.0020533958578218461 -0.0033285016485817501 0 0.0023318224895920209 -0.0021603437848838024 0 0.0031590393812393563 -0.0072884739404365049 0 0.0029497861560018198 -0.0069346251658731987 0 0.002891262141141895 -0.0072799918545167555 0 0.0029497861560018198 -0.0069346251658731987 0 0.0024646718462418252 -0.0072189581236713615 0 0.002891262141141895 -0.0072799918545167555 0 0.0030761923973048155 -0.0074127422614782895 0 0.0028599194253122163 -0.0076047579112369446 0 0.002891262141141895 -0.0072799918545167555 0 0.0025450883300852608 -0.0075032015128447772 0 0.0028599194253122163 -0.0076047579112369446 0 0.002891262141141895 -0.0072799918545167555 0 0.0024646718462418252 -0.0072189581236713615 0 0.0025450883300852608 -0.0075032015128447772 0 0.002891262141141895 -0.0072799918545167555 0 0.00065109595595136329 -0.0088950864750804038 0 0.00073969942605354826 -0.0087374907935172767 0 0.00043017389544536028 -0.0087761981088846381 0 0.0010306934312563352 -0.0089198618662169639 0 0.00073969942605354826 -0.0087374907935172767 0 0.00083789384836019929 -0.0089320656207279095 0 0.00065109595595136329 -0.0088950864750804038 0 0.00073969942605354826 -0.0087374907935172767 0 0.00083789384836019929 -0.0089320656207279095 0 -0.00050427141000621023 -0.010628742776879661 0 -0.0004101265700223232 -0.0090106519738713114 0 0.00065109595595136329 -0.0088950864750804038 0 0.00083789384836019929 -0.0089320656207279095 0 0.00060235434214122826 -0.0091246696584933017 0 -0.0010243123723486524 -0.01324547057528971 0 -0.0013773315049885697 -0.011721424080636426 0 -0.0027876615880270289 -0.012914158429219835 0 -0.0004101265700223232 -0.0090106519738713114 0 0.00010521717031559021 -0.0076621629221571893 0 0.00065109595595136329 -0.0088950864750804038 0 0.00060235434214122826 -0.0091246696584933017 0 0.00043017389544536028 -0.0087761981088846381 0 -0.00035566889985065375 -0.0064482009346262161 0 -0.00012564625960311687 -0.0064815628424630236 0 -0.0002819911677996985 -0.00692957090048905 0 -8.8873879727052762e-05 -0.0063471780027461438 0 -0.00035566889985065375 -0.0064482009346262161 0 -0.00012564625960311687 -0.0064815628424630236 0 -0.00012564625960311687 -0.0064815628424630236 0 7.8076336066681024e-05 -0.0064972557591675036 0 -0.0002819911677996985 -0.00692957090048905 0 3.8331553331363621e-05 -0.0063179816864574008 0 -2.3992793407497589e-05 -0.0063836448634753528 0 7.8076336066681024e-05 -0.0064972557591675036 0 -2.3992793407497589e-05 -0.0063836448634753528 0 -0.00012564625960311687 -0.0064815628424630236 0 7.8076336066681024e-05 -0.0064972557591675036 0 -0.00022846959946506255 -0.0047196644832089357 0 0.00077003290007725104 -0.0051835930328187341 0 0.00050891125303585314 -0.0064288131096522719 0 -6.6731958383949873e-05 -0.005547195871225429 0 0.00045779306092547155 -0.0063978542216272189 0 7.8076336066681024e-05 -0.0064972557591675036 0 0.00050891125303585314 -0.0064288131096522719 0 0.00032517912237794137 -0.0068635317497640416 0 3.8331553331363621e-05 -0.0063179816864574008 0 7.8076336066681024e-05 -0.0064972557591675036 0 0.00050891125303585314 -0.0064288131096522719 0 0.00050891125303585314 -0.0064288131096522719 0 0.00061880442022306048 -0.0068210152840888329 0 0.00032517912237794137 -0.0068635317497640416 0 0.00032517912237794137 -0.0068635317497640416 0 0.00069690586022103855 -0.0072087161270851848 0 0.00037830076444876826 -0.0074269136981632627 0 0.00061880442022306048 -0.0068210152840888329 0 0.00032517912237794137 -0.0068635317497640416 0 0.00069690586022103855 -0.0072087161270851848 0 0.00032517912237794137 -0.0068635317497640416 0 -0.0002819911677996985 -0.00692957090048905 0 0.00037830076444876826 -0.0074269136981632627 0 7.8076336066681024e-05 -0.0064972557591675036 0 0.00032517912237794137 -0.0068635317497640416 0 -0.0002819911677996985 -0.00692957090048905 0 -0.0002819911677996985 -0.00692957090048905 0 0.00028092749663863575 -0.0080787589311920645 0 0.00037830076444876826 -0.0074269136981632627 0 0.00043017389544536028 -0.0087761981088846381 0 0.00028092749663863575 -0.0080787589311920645 0 0.00058642867272863046 -0.0084164941566452576 0 0.00010521717031559021 -0.0076621629221571893 0 0.00028133465789863444 -0.0081541144521276327 0 0.00069690586022103855 -0.0072087161270851848 0 0.00066619609051911638 -0.0075966260290471488 0 0.00037830076444876826 -0.0074269136981632627 0 0.00066619609051911638 -0.0075966260290471488 0 0.00037830076444876826 -0.0074269136981632627 0 0.00051254576031931737 -0.0078188781616159147 0 0.00089216583746487977 -0.007400974063463326 0 0.00069690586022103855 -0.0072087161270851848 0 0.00066619609051911638 -0.0075966260290471488 0 0.00028092749663863575 -0.0080787589311920645 0 0.00037830076444876826 -0.0074269136981632627 0 0.00051254576031931737 -0.0078188781616159147 0 0.00028092749663863575 -0.0080787589311920645 0 0.00051254576031931737 -0.0078188781616159147 0 0.00050555954981105241 -0.0080242474397804429 0 0.00051254576031931737 -0.0078188781616159147 0 0.00067932378094199923 -0.0079232425513156932 0 0.00050555954981105241 -0.0080242474397804429 0 0.00066619609051911638 -0.0075966260290471488 0 0.00051254576031931737 -0.0078188781616159147 0 0.00067932378094199923 -0.0079232425513156932 0 0.00087306106305796321 -0.0076269129143599337 0 0.00066619609051911638 -0.0075966260290471488 0 0.00067932378094199923 -0.0079232425513156932 0 0.00028092749663863575 -0.0080787589311920645 0 0.00050555954981105241 -0.0080242474397804429 0 0.00053360295952638141 -0.0080965503782831297 0 0.00067932378094199923 -0.0079232425513156932 0 0.00050555954981105241 -0.0080242474397804429 0 0.00057810492590248236 -0.0080398634871598779 0 0.0007080948477715919 -0.0079284840763604817 0 0.00067932378094199923 -0.0079232425513156932 0 0.00057810492590248236 -0.0080398634871598779 0 0.00050555954981105241 -0.0080242474397804429 0 0.00057810492590248236 -0.0080398634871598779 0 0.00053360295952638141 -0.0080965503782831297 0 0.00062607272623268226 -0.0080322772891559188 0 0.00057810492590248236 -0.0080398634871598779 0 0.00053360295952638141 -0.0080965503782831297 0 0.00028092749663863575 -0.0080787589311920645 0 0.00046452831501649208 -0.0081897275899489915 0 0.00058642867272863046 -0.0084164941566452576 0 0.00046452831501649208 -0.0081897275899489915 0 0.00054271524422151891 -0.0081596271494739202 0 0.00053360295952638141 -0.0080965503782831297 0 0.00028092749663863575 -0.0080787589311920645 0 0.00046452831501649208 -0.0081897275899489915 0 0.00053360295952638141 -0.0080965503782831297 0 0.00046452831501649208 -0.0081897275899489915 0 0.00059102613772383237 -0.0082639322639521482 0 0.00054271524422151891 -0.0081596271494739202 0 0.00059102613772383237 -0.0082639322639521482 0 0.00058642867272863046 -0.0084164941566452576 0 0.00071720644365324247 -0.0084127136463797089 0 0.00046452831501649208 -0.0081897275899489915 0 0.00059102613772383237 -0.0082639322639521482 0 0.00058642867272863046 -0.0084164941566452576 0 0.00073969942605354826 -0.0087374907935172767 0 0.00043017389544536028 -0.0087761981088846381 0 0.00058642867272863046 -0.0084164941566452576 0 0.00073969942605354826 -0.0087374907935172767 0 0.00058642867272863046 -0.0084164941566452576 0 0.00081298086944499987 -0.0086173123540105694 0 0.0010306934312563352 -0.0089198618662169639 0 0.00073969942605354826 -0.0087374907935172767 0 0.00081298086944499987 -0.0086173123540105694 0 0.00058642867272863046 -0.0084164941566452576 0 0.00081298086944499987 -0.0086173123540105694 0 0.00071720644365324247 -0.0084127136463797089 0 0.00085785207578150703 -0.0084755384515820559 0 0.00081298086944499987 -0.0086173123540105694 0 0.00071720644365324247 -0.0084127136463797089 0 0.00085785207578150703 -0.0084755384515820559 0 0.00071720644365324247 -0.0084127136463797089 0 0.00070206607774705684 -0.0082898869431635349 0 0.00085785207578150703 -0.0084755384515820559 0 0.00070206607774705684 -0.0082898869431635349 0 0.00083698692137548325 -0.0083252029847641663 0 0.00070206607774705684 -0.0082898869431635349 0 0.00072288229599207514 -0.008213715176398453 0 0.00083698692137548325 -0.0083252029847641663 0 0.00072288229599207514 -0.008213715176398453 0 0.00082052593063236025 -0.008243302676610836 0 0.00083698692137548325 -0.0083252029847641663 0 0.00070206607774705684 -0.0082898869431635349 0 0.00072288229599207514 -0.008213715176398453 0 0.00065518702982694625 -0.0082081023978161274 0 0.00072288229599207514 -0.008213715176398453 0 0.00066539852178194717 -0.0081751469867928517 0 0.00076267005831806133 -0.0081893815626404628 0 0.002057864440152653 -0.0088386663392077906 0 0.0013098703334111699 -0.013399940696575094 0 0.00072288229599207514 -0.008213715176398453 0 0.00082052593063236025 -0.008243302676610836 0 0.00081077055964135912 -0.0081562335784727841 0 0.00066539852178194717 -0.0081751469867928517 0 0.00060025333782222313 -0.0081586324011430796 0 0.00064179033933996514 -0.008138247689673141 0 0.00072288229599207514 -0.008213715176398453 0 0.00066539852178194717 -0.0081751469867928517 0 0.00065518702982694625 -0.0082081023978161274 0 0.00066539852178194717 -0.0081751469867928517 0 0.00065518702982694625 -0.0082081023978161274 0 0.00060025333782222313 -0.0081586324011430796 0 0.00065518702982694625 -0.0082081023978161274 0 0.00060025333782222313 -0.0081586324011430796 0 0.0006137849699997534 -0.0082192145308573814 0 0.00059102613772383237 -0.0082639322639521482 0 0.00071720644365324247 -0.0084127136463797089 0 0.00070206607774705684 -0.0082898869431635349 0 0.00060025333782222313 -0.0081586324011430796 0 0.0006137849699997534 -0.0082192145308573814 0 0.00054271524422151891 -0.0081596271494739202 0 0.00070206607774705684 -0.0082898869431635349 0 0.00065518702982694625 -0.0082081023978161274 0 0.0006137849699997534 -0.0082192145308573814 0 0.00059102613772383237 -0.0082639322639521482 0 0.00070206607774705684 -0.0082898869431635349 0 0.0006137849699997534 -0.0082192145308573814 0 0.00059102613772383237 -0.0082639322639521482 0 0.0006137849699997534 -0.0082192145308573814 0 0.00054271524422151891 -0.0081596271494739202 0 0.00060025333782222313 -0.0081586324011430796 0 0.00054271524422151891 -0.0081596271494739202 0 0.00058604421376945448 -0.0080732485224234585 0 0.00054271524422151891 -0.0081596271494739202 0 0.00053360295952638141 -0.0080965503782831297 0 0.00058604421376945448 -0.0080732485224234585 0 0.00062607272623268226 -0.0080322772891559188 0 0.00053360295952638141 -0.0080965503782831297 0 0.00062401741375265143 -0.0080272059943553992 0 0.00053360295952638141 -0.0080965503782831297 0 0.00058604421376945448 -0.0080732485224234585 0 0.00062401741375265143 -0.0080272059943553992 0 0.0010312527758792305 -0.0074199476223231588 0 0.00060959683738905839 -0.0080292909987278623 0 0.00058604421376945448 -0.0080732485224234585 0 0.00062401741375265143 -0.0080272059943553992 0 0.00068833765233957984 -0.0078914467601407055 0 0.00058604421376945448 -0.0080732485224234585 0 0.000587123929737394 -0.0081121229215846986 0 0.00068833765233957984 -0.0078914467601407055 0 0.00060025333782222313 -0.0081586324011430796 0 0.00058604421376945448 -0.0080732485224234585 0 0.000587123929737394 -0.0081121229215846986 0 0.00060025333782222313 -0.0081586324011430796 0 0.000587123929737394 -0.0081121229215846986 0 0.00064179033933996514 -0.008138247689673141 0 0.001203985491722711 -0.0077513252733750933 0 0.0011719302803189404 -0.0074607486153840698 0 0.0016164352396233475 -0.0076814021930391198 0 0.0010312527758792305 -0.0074199476223231588 0 0.0013083471100894728 -0.01259043110092011 0 0.0011579242271529712 -0.014150959774275537 0 0.0013083471100894728 -0.01259043110092011 0 0.001203985491722711 -0.0077513252733750933 0 0.0009106518459143639 -0.0075793623070029657 0 0.00068833765233957984 -0.0078914467601407055 0 0.001203985491722711 -0.0077513252733750933 0 0.0009106518459143639 -0.0075793623070029657 0 0.0011719302803189404 -0.0074607486153840698 0 0.0009106518459143639 -0.0075793623070029657 0 0.0011719302803189404 -0.0074607486153840698 0 0.00071414253079013523 -0.0073432089508155256 0 0.0010223194763194483 -0.020003046545759948 0 0.0010767937065606192 -0.020106746743184065 0 0.00093017339615767097 -0.019972083134902889 0 0.0011579242271529712 -0.014150959774275537 0 0.0012659365204607342 -0.011773778101278876 0 0.0010767937065606192 -0.020106746743184065 0 0.0012480529760141778 -0.020149744236548348 0 0.0011288684309586007 -0.020050851782854984 0 0.0010223194763194483 -0.020003046545759948 0 0.0010767937065606192 -0.020106746743184065 0 0.0011288684309586007 -0.020050851782854984 0 0.0012480529760141778 -0.020149744236548348 0 0.0013671873975405484 -0.020223511581119083 0 0.0012454639336806296 -0.020210265870117858 0 0.0010767937065606192 -0.020106746743184065 0 0.0012480529760141778 -0.020149744236548348 0 0.0012454639336806296 -0.020210265870117858 0 0.0012480529760141778 -0.020149744236548348 0 0.0013671873975405484 -0.020223511581119083 0 0.0014097152027471597 -0.020258311464750003 0 0.0010814340841406485 -0.016165651924869646 0 0.0010432517597030089 -0.015340479967213274 0 0.0022585531352984347 -0.015726007770470469 0 0.0013098703334111699 -0.013399940696575094 0 0.0013083471100894728 -0.01259043110092011 0 0.0010039023301791103 -0.018488064912426383 0 0.0013083471100894728 -0.01259043110092011 0 0.00066539852178194717 -0.0081751469867928517 0 0.00076267005831806133 -0.0081893815626404628 0 0.00064179033933996514 -0.008138247689673141 0 -0.00033076391945721499 -0.0074816291865501469 0 -4.7645942555008546e-05 -0.0075928200212634937 0 -0.00014140565132333442 -0.0079465276735460957 0 -4.7645942555008546e-05 -0.0075928200212634937 0 -0.00014140565132333442 -0.0079465276735460957 0 0.00020770688466340736 -0.0077572373381403058 0 0.0020533958578218461 -0.0033285016485817501 0 0.001365087422349358 -0.0033864717319170004 0 0.0033782369648297965 0.0030972220437880198 0 0.0025868590411251822 0.0030417885647521406 0 0.0027457871887701687 0.0035619473318618949 0 0.00089953993082717888 -0.0076107753663146246 0 0.00084968100247280877 -0.0075501595379578413 0 0.00076389587004700135 -0.0073341301324487407 0 0.00053513132443035335 -0.0084568487725744882 0 0.001365087422349358 -0.0033864717319170004 0 0.00041120989959275196 -0.0081095994563056637 0 -0.00014140565132333442 -0.0079465276735460957 0 0.00024678867032329775 -0.0079274752605017918 0 -0.00014140565132333442 -0.0079465276735460957 0 0.00024678867032329775 -0.0079274752605017918 0 0.00020770688466340736 -0.0077572373381403058 0 0.00024678867032329775 -0.0079274752605017918 0 0.00020770688466340736 -0.0077572373381403058 0 0.00046755417144658264 -0.007910964789701316 0 0.00020770688466340736 -0.0077572373381403058 0 0.00043713921969851396 -0.007604118095859971 0 0.00015354860487840018 -0.0074762083689958224 0 -4.7645942555008546e-05 -0.0075928200212634937 0 0.00020770688466340736 -0.0077572373381403058 0 0.00015354860487840018 -0.0074762083689958224 0 0.00046755417144658264 -0.007910964789701316 0 0.00068833765233957984 -0.0078914467601407055 0 0.00043713921969851396 -0.007604118095859971 0 0.00020770688466340736 -0.0077572373381403058 0 0.00046755417144658264 -0.007910964789701316 0 0.00043713921969851396 -0.007604118095859971 0 0.00041120989959275196 -0.0081095994563056637 0 0.00024678867032329775 -0.0079274752605017918 0 0.00046755417144658264 -0.007910964789701316 0 0.00041120989959275196 -0.0081095994563056637 0 0.00046755417144658264 -0.007910964789701316 0 0.00052403687175525075 -0.0080143832434533043 0 0.00059266981291780597 -0.0080108100196821658 0 0.00052403687175525075 -0.0080143832434533043 0 0.00059462084895999445 -0.0080033287386886264 0 0.00046755417144658264 -0.007910964789701316 0 0.00052403687175525075 -0.0080143832434533043 0 0.00059462084895999445 -0.0080033287386886264 0 0.00062401741375265143 -0.0080272059943553992 0 0.00059462084895999445 -0.0080033287386886264 0 0.00068833765233957984 -0.0078914467601407055 0 0.00046755417144658264 -0.007910964789701316 0 0.00059462084895999445 -0.0080033287386886264 0 0.00068833765233957984 -0.0078914467601407055 0 0.00062607272623268226 -0.0080322772891559188 0 0.00059266981291780597 -0.0080108100196821658 0 0.00059462084895999445 -0.0080033287386886264 0 0.00062607272623268226 -0.0080322772891559188 0 0.00062401741375265143 -0.0080272059943553992 0 0.00059462084895999445 -0.0080033287386886264 0 0.00068833765233957984 -0.0078914467601407055 0 0.00062082889476382924 -0.007561278580318789 0 0.00043713921969851396 -0.007604118095859971 0 0.0009106518459143639 -0.0075793623070029657 0 0.00068833765233957984 -0.0078914467601407055 0 0.00075153261742333995 -0.007534195168834374 0 0.00068833765233957984 -0.0078914467601407055 0 0.00062082889476382924 -0.007561278580318789 0 0.00075153261742333995 -0.007534195168834374 0 0.00062082889476382924 -0.007561278580318789 0 0.00071414253079013523 -0.0073432089508155256 0 0.00050775237261650177 -0.0073161472552795842 0 0.00062082889476382924 -0.007561278580318789 0 0.00075153261742333995 -0.007534195168834374 0 0.00071414253079013523 -0.0073432089508155256 0 0.0009106518459143639 -0.0075793623070029657 0 0.00075153261742333995 -0.007534195168834374 0 0.00071414253079013523 -0.0073432089508155256 0 0.0011719302803189404 -0.0074607486153840698 0 0.00072477623071973759 -0.0072462259603876065 0 0.00071414253079013523 -0.0073432089508155256 0 0.0010223194763194483 -0.020003046545759948 0 0.00093017339615767097 -0.019972083134902889 0 0.00093784715029500551 -0.019923604666553886 0 0.0012659365204607342 -0.011773778101278876 0 0.00017511123659261902 -0.012356204973674765 0 0.00060322749431023566 -0.0078512526358309864 0 0.00017511123659261902 -0.012356204973674765 0 0.00058744396228180122 -0.010374362092475598 0 0.00081178911486136634 -0.010435511853855864 0 0.00057180001398274326 -0.010544600116231474 0 0.0012659365204607342 -0.011773778101278876 0 0.00060322749431023566 -0.0078512526358309864 0 0.00073774111096884683 -0.0072105741203899116 0 0.00059911394244732121 -0.0072305038451749119 0 0.00051153243427968858 -0.0070736749273352184 0 0.00071414253079013523 -0.0073432089508155256 0 0.00050775237261650177 -0.0073161472552795842 0 0.00059911394244732121 -0.0072305038451749119 0 0.0012659365204607342 -0.011773778101278876 0 0.0012592850861256645 -0.0084268563218967592 0 0.00073774111096884683 -0.0072105741203899116 0 0.00071414253079013523 -0.0073432089508155256 0 0.00059911394244732121 -0.0072305038451749119 0 0.00058093253416693393 -0.0070007162122829323 0 0.00038246501417528895 -0.0070619535493285784 0 0.00014154838214206592 -0.0067401299255738156 0 0.00050775237261650177 -0.0073161472552795842 0 0.00059911394244732121 -0.0072305038451749119 0 0.00051153243427968858 -0.0070736749273352184 0 0.00060322749431023566 -0.0078512526358309864 0 0.00056834966015795803 -0.0073925399833303521 0 0.00050775237261650177 -0.0073161472552795842 0 0.00051153243427968858 -0.0070736749273352184 0 0.00038246501417528895 -0.0070619535493285784 0 0.00050775237261650177 -0.0073161472552795842 0 0.00038246501417528895 -0.0070619535493285784 0 0.00030811680772403923 -0.0072861247201252326 0 0.00050775237261650177 -0.0073161472552795842 0 0.00043713921969851396 -0.007604118095859971 0 0.00030811680772403923 -0.0072861247201252326 0 0.00062082889476382924 -0.007561278580318789 0 0.00050775237261650177 -0.0073161472552795842 0 0.00043713921969851396 -0.007604118095859971 0 0.00043713921969851396 -0.007604118095859971 0 0.00015354860487840018 -0.0074762083689958224 0 0.00030811680772403923 -0.0072861247201252326 0 0.00015354860487840018 -0.0074762083689958224 0 9.266724181500274e-05 -0.0072060991592998412 0 0.00030811680772403923 -0.0072861247201252326 0 0.00038246501417528895 -0.0070619535493285784 0 0.00030811680772403923 -0.0072861247201252326 0 0.00017116615379970699 -0.0070386230060609052 0 0.00038246501417528895 -0.0070619535493285784 0 0.00017116615379970699 -0.0070386230060609052 0 0.00014154838214206592 -0.0067401299255738156 0 0.00017116615379970699 -0.0070386230060609052 0 -7.9223611232699014e-05 -0.0069544647186663422 0 0.00014154838214206592 -0.0067401299255738156 0 9.266724181500274e-05 -0.0072060991592998412 0 0.00030811680772403923 -0.0072861247201252326 0 0.00017116615379970699 -0.0070386230060609052 0 9.266724181500274e-05 -0.0072060991592998412 0 0.00017116615379970699 -0.0070386230060609052 0 -7.9223611232699014e-05 -0.0069544647186663422 0 -7.9223611232699014e-05 -0.0069544647186663422 0 -0.0002498125299370307 -0.0067710999792673591 0 0.00014154838214206592 -0.0067401299255738156 0 9.266724181500274e-05 -0.0072060991592998412 0 -7.9223611232699014e-05 -0.0069544647186663422 0 -0.00014736406153327398 -0.0072608351125328444 0 -0.0004032186880921861 -0.0068578302175854606 0 -7.9223611232699014e-05 -0.0069544647186663422 0 -0.0002498125299370307 -0.0067710999792673591 0 -0.0004032186880921861 -0.0068578302175854606 0 -7.9223611232699014e-05 -0.0069544647186663422 0 -0.00014736406153327398 -0.0072608351125328444 0 0.00015354860487840018 -0.0074762083689958224 0 9.266724181500274e-05 -0.0072060991592998412 0 -0.00014736406153327398 -0.0072608351125328444 0 -4.7645942555008546e-05 -0.0075928200212634937 0 0.00015354860487840018 -0.0074762083689958224 0 -0.00014736406153327398 -0.0072608351125328444 0 -0.00033076391945721499 -0.0074816291865501469 0 -4.7645942555008546e-05 -0.0075928200212634937 0 -0.00014736406153327398 -0.0072608351125328444 0 -0.0013318581502771137 -0.004043225961360127 0 -0.00037189927979513321 -0.0052131602967357554 0 -0.00083759538174503945 -0.002369075660919462 0 -0.00037189927979513321 -0.0052131602967357554 0 -0.00083759538174503945 -0.002369075660919462 0 -0.00066579660962998556 -0.0014845963278363981 0 -0.00034119733509619483 -0.0050811588591065833 0 -0.00051735086164161274 -0.0031322004742184661 0 -0.00037189927979513321 -0.0052131602967357554 0 -0.00017320699258659006 -0.004969523575516924 0 -0.00030703754557270075 -0.0047392197407672924 0 -0.0023185291880394479 -0.0032434596846017444 0 -0.0013318581502771137 -0.004043225961360127 0 -0.00083759538174503945 -0.002369075660919462 0 -0.0013990110173904013 0.0016966224599579164 0 -0.0021407251511716989 -0.0019944795579131319 0 -0.0023185291880394479 -0.0032434596846017444 0 -0.0013318581502771137 -0.004043225961360127 0 -0.0018061995879674441 -0.0052137351630787577 0 -0.0002498125299370307 -0.0067710999792673591 0 -0.00027042612266157452 -0.0065513362913448767 0 0.00014154838214206592 -0.0067401299255738156 0 -0.0013318581502771137 -0.004043225961360127 0 -0.0018061995879674441 -0.0052137351630787577 0 -0.00037189927979513321 -0.0052131602967357554 0 -0.00029168711161493035 -0.0048248234919797076 0 -9.7748679751973757e-05 -0.0061460986795359301 0 -0.0018061995879674441 -0.0052137351630787577 0 -0.00037189927979513321 -0.0052131602967357554 0 8.4331715970064827e-05 -0.005707547876827734 0 -0.00028154543023964422 -0.0064643499403976151 0 -0.00027042612266157452 -0.0065513362913448767 0 0.00014154838214206592 -0.0067401299255738156 0 -0.00029168711161493035 -0.0048248234919797076 0 -0.00021980270779269859 -0.0054837833332733732 0 -0.00011099547748371567 -0.0052257921656975051 0 8.4331715970064827e-05 -0.005707547876827734 0 0.00011444793799000694 -0.0052541522964307833 0 0.00060322749431023566 -0.0078512526358309864 0 -9.7748679751973757e-05 -0.0061460986795359301 0 -0.00037189927979513321 -0.0052131602967357554 0 -0.00011099547748371567 -0.0052257921656975051 0 8.4331715970064827e-05 -0.005707547876827734 0 8.4331715970064827e-05 -0.005707547876827734 0 0.00011444793799000694 -0.0052541522964307833 0 0.00035988171240814457 -0.0055609528174964803 0 -0.00017320699258659006 -0.004969523575516924 0 0.0002794112732724443 -0.0050084309571188593 0 1.4639365518778461e-05 -0.0047770923520954849 0 0.00011444793799000694 -0.0052541522964307833 0 -0.00017320699258659006 -0.004969523575516924 0 0.0002794112732724443 -0.0050084309571188593 0 -0.00037189927979513321 -0.0052131602967357554 0 -0.00011099547748371567 -0.0052257921656975051 0 -0.00017320699258659006 -0.004969523575516924 0 -0.00011099547748371567 -0.0052257921656975051 0 0.00011444793799000694 -0.0052541522964307833 0 -0.00017320699258659006 -0.004969523575516924 0 0.00011444793799000694 -0.0052541522964307833 0 0.0002794112732724443 -0.0050084309571188593 0 0.00050627506763074686 -0.0053719704490623387 0 0.0002794112732724443 -0.0050084309571188593 0 0.00050627506763074686 -0.0053719704490623387 0 0.00083999418026904204 -0.0050793223816769104 0 0.00047959946926310731 -0.0057899618125608482 0 8.4331715970064827e-05 -0.005707547876827734 0 0.00035988171240814457 -0.0055609528174964803 0 0.00011444793799000694 -0.0052541522964307833 0 0.00035988171240814457 -0.0055609528174964803 0 0.00050627506763074686 -0.0053719704490623387 0 0.00047959946926310731 -0.0057899618125608482 0 0.00035988171240814457 -0.0055609528174964803 0 0.00053328777485466537 -0.0056084947944033021 0 0.00047959946926310731 -0.0057899618125608482 0 0.00053328777485466537 -0.0056084947944033021 0 0.00080432659649981033 -0.0057030263502033003 0 0.00035988171240814457 -0.0055609528174964803 0 0.00053328777485466537 -0.0056084947944033021 0 0.00050627506763074686 -0.0053719704490623387 0 0.00017511123659261902 -0.012356204973674765 0 -0.00014335077118916853 -0.0093964951765171043 0 -0.0010645528276683716 -0.01457177325528557 0 -0.0010981746207016716 -0.014664576273340028 0 -0.0011466146036643707 -0.014640253392878954 0 0.00050627506763074686 -0.0053719704490623387 0 0.00080432659649981033 -0.0057030263502033003 0 0.00083999418026904204 -0.0050793223816769104 0 0.00053328777485466537 -0.0056084947944033021 0 0.00050627506763074686 -0.0053719704490623387 0 0.00080432659649981033 -0.0057030263502033003 0 0.00083999418026904204 -0.0050793223816769104 0 0.00087145669171180085 -0.0044888725533298581 0 0.00037425270850544051 -0.0046306072453482817 0 -0.00014335077118916853 -0.0093964951765171043 0 -0.00016143446416904967 -0.0097007986772199278 0 -0.0010981746207016716 -0.014664576273340028 0 -0.001184680815878578 -0.014735516557231482 0 -0.0011558896271362748 -0.014721930919098822 0 0.000446542862387078 -0.0041361466100560858 0 0.00037425270850544051 -0.0046306072453482817 0 9.7331777180592811e-05 -0.0043524201465627455 0 0.000446542862387078 -0.0041361466100560858 0 0.00087145669171180085 -0.0044888725533298581 0 0.00037425270850544051 -0.0046306072453482817 0 0.0002794112732724443 -0.0050084309571188593 0 0.00083999418026904204 -0.0050793223816769104 0 0.00037425270850544051 -0.0046306072453482817 0 0.0002794112732724443 -0.0050084309571188593 0 0.00037425270850544051 -0.0046306072453482817 0 1.4639365518778461e-05 -0.0047770923520954849 0 -0.00017320699258659006 -0.004969523575516924 0 1.4639365518778461e-05 -0.0047770923520954849 0 -0.00015353584335196465 -0.0047912002304971715 0 1.4639365518778461e-05 -0.0047770923520954849 0 -0.00015353584335196465 -0.0047912002304971715 0 -0.00013342731513182746 -0.0046738176495078948 0 1.4639365518778461e-05 -0.0047770923520954849 0 -0.00013342731513182746 -0.0046738176495078948 0 2.0008247121798142e-05 -0.0045587023692823438 0 -0.00013342731513182746 -0.0046738176495078948 0 2.0008247121798142e-05 -0.0045587023692823438 0 -0.00017793263734941996 -0.004466235210239841 0 0.00037425270850544051 -0.0046306072453482817 0 1.4639365518778461e-05 -0.0047770923520954849 0 2.0008247121798142e-05 -0.0045587023692823438 0 0.00037425270850544051 -0.0046306072453482817 0 2.0008247121798142e-05 -0.0045587023692823438 0 9.7331777180592811e-05 -0.0043524201465627455 0 9.391892262115419e-05 -0.0040449812022179277 0 9.7331777180592811e-05 -0.0043524201465627455 0 -0.00012703045352945475 -0.0041668644812393315 0 9.7331777180592811e-05 -0.0043524201465627455 0 -0.00012703045352945475 -0.0041668644812393315 0 -0.00017793263734941996 -0.004466235210239841 0 2.0008247121798142e-05 -0.0045587023692823438 0 9.7331777180592811e-05 -0.0043524201465627455 0 -0.00017793263734941996 -0.004466235210239841 0 -0.0027494283969583602 0.00025985118293827641 0 -0.001395926071840679 0.0021638660852040656 0 -0.00066579660962998556 -0.0014845963278363981 0 -0.00094335347496138746 -0.00097978369014065786 0 -0.00051735086164161274 -0.0031322004742184661 0 -0.00048577007430122588 -0.0041056086227120774 0 -0.00017793263734941996 -0.004466235210239841 0 -0.00030703754557270075 -0.0047392197407672924 0 -0.00048577007430122588 -0.0041056086227120774 0 -0.00012703045352945475 -0.0041668644812393315 0 -0.00017793263734941996 -0.004466235210239841 0 -0.0027494283969583602 0.00025985118293827641 0 -0.0023050786474557009 -0.0031592163467189386 0 -0.00066579660962998556 -0.0014845963278363981 0 -0.00013342731513182746 -0.0046738176495078948 0 -0.00017793263734941996 -0.004466235210239841 0 -0.00030703754557270075 -0.0047392197407672924 0 -0.00015353584335196465 -0.0047912002304971715 0 -0.00013342731513182746 -0.0046738176495078948 0 -0.00030703754557270075 -0.0047392197407672924 0 -0.00017320699258659006 -0.004969523575516924 0 -0.00015353584335196465 -0.0047912002304971715 0 -0.00030703754557270075 -0.0047392197407672924 0 -0.0023050786474557009 -0.0031592163467189386 0 -0.00083759538174503945 -0.002369075660919462 0 -0.00066579660962998556 -0.0014845963278363981 0 0.0012444918955801967 -0.019899349152287516 0 0.001266757429569564 -0.020066956751409432 0 0.0012105109311721415 -0.020001476748164805 0 0.0012444918955801967 -0.019899349152287516 0 0.0011515962762380252 -0.019963569195165048 0 0.0012105109311721415 -0.020001476748164805 0 0.00099298293832750044 -0.019603634270070735 0 0.0008080438049300428 -0.018175026198325912 0 0.0012444918955801967 -0.019899349152287516 0 0.0010773530123563276 -0.020097911536383059 0 0.0011686977476993157 -0.019859155969202125 0 0.0008080438049300428 -0.018175026198325912 0 0.0010923457302196016 -0.019129267087721336 0 0.0010773530123563276 -0.020097911536383059 0 0.0011686977476993157 -0.019859155969202125 0 0.0010771810390358409 -0.019771995080552347 0 0.0012444918955801967 -0.019899349152287516 0 0.0011686977476993157 -0.019859155969202125 0 0.0012746415161310795 -0.01967811782904497 0 0.0012444918955801967 -0.019899349152287516 0 0.0013486128137783293 -0.019729585195799471 0 0.001266757429569564 -0.020066956751409432 0 0.0013354404843840184 -0.02028079737589656 0 0.0014060084789011087 -0.02026770989147849 0 0.0012444918955801967 -0.019899349152287516 0 0.0013486128137783293 -0.019729585195799471 0 0.0012746415161310795 -0.01967811782904497 0 0.0013486128137783293 -0.019729585195799471 0 0.0014097152027471597 -0.020258311464750003 0 0.001266757429569564 -0.020066956751409432 0 0.0012480529760141778 -0.020149744236548348 0 0.0014097152027471597 -0.020258311464750003 0 0.001266757429569564 -0.020066956751409432 0 0.0012480529760141778 -0.020149744236548348 0 0.001266757429569564 -0.020066956751409432 0 0.0012144338829757244 -0.020068144225111901 0 0.001266757429569564 -0.020066956751409432 0 0.0012105109311721415 -0.020001476748164805 0 0.0012144338829757244 -0.020068144225111901 0 0.0012105109311721415 -0.020001476748164805 0 0.0011744458355241166 -0.019995535523283762 0 0.0012144338829757244 -0.020068144225111901 0 0.0011515962762380252 -0.019963569195165048 0 0.0012105109311721415 -0.020001476748164805 0 0.0011744458355241166 -0.019995535523283762 0 0.0011744458355241166 -0.019995535523283762 0 0.0012144338829757244 -0.020068144225111901 0 0.0011288684309586007 -0.020050851782854984 0 0.0012480529760141778 -0.020149744236548348 0 0.0012144338829757244 -0.020068144225111901 0 0.0011288684309586007 -0.020050851782854984 0 0.0011646593873890999 -0.019965846865164776 0 0.0011744458355241166 -0.019995535523283762 0 0.0010509108133810515 -0.019958355654889914 0 0.0008080438049300428 -0.018175026198325912 0 -0.00041018277938028485 -0.01767481272678352 0 0.0011744458355241166 -0.019995535523283762 0 0.0011288684309586007 -0.020050851782854984 0 0.0010509108133810515 -0.019958355654889914 0 0.00017511123659261902 -0.012356204973674765 0 -0.00041018277938028485 -0.01767481272678352 0 0.0010223194763194483 -0.020003046545759948 0 0.00093784715029500551 -0.019923604666553886 0 0.0010509108133810515 -0.019958355654889914 0 0.0010223194763194483 -0.020003046545759948 0 0.0011288684309586007 -0.020050851782854984 0 0.0010509108133810515 -0.019958355654889914 0 -0.0010981746207016716 -0.014664576273340028 0 -0.0011466146036643707 -0.014640253392878954 0 -0.0011580150328660264 -0.014694855744078979 0 -0.0010981746207016716 -0.014664576273340028 0 -0.0011580150328660264 -0.014694855744078979 0 -0.0011558896271362748 -0.014721930919098822 0 0.0010773530123563276 -0.020097911536383059 0 0.00055023005045692094 -0.019562368618901191 0 0.0010771810390358409 -0.019771995080552347 0 -0.0011826247309542298 -0.014699823881444671 0 -0.0011580150328660264 -0.014694855744078979 0 -0.0011739752299442345 -0.014737112572924248 0 0.0008080438049300428 -0.018175026198325912 0 -0.00044687683708057719 -0.016920649217664046 0 -0.0011826247309542298 -0.014699823881444671 0 -0.0011466146036643707 -0.014640253392878954 0 -0.0011580150328660264 -0.014694855744078979 0 0.00055023005045692094 -0.019562368618901191 0 0.00073624389032574567 -0.018238104335733193 0 0.0013475636514505192 -0.019464141607041976 0 -0.0011580150328660264 -0.014694855744078979 0 -0.0011739752299442345 -0.014737112572924248 0 -0.0011558896271362748 -0.014721930919098822 0 -0.001153745090461905 -0.014776558228208499 0 -0.001184680815878578 -0.014735516557231482 0 -0.0011558896271362748 -0.014721930919098822 0 -0.00077453331666571762 -0.015974530023961712 0 -0.00044687683708057719 -0.016920649217664046 0 -0.00049730135409747651 -0.017159192255444381 0 0.00055023005045692094 -0.019562368618901191 0 0.00073624389032574567 -0.018238104335733193 0 -0.001153745090461905 -0.014776558228208499 0 -0.0011739752299442345 -0.014737112572924248 0 -0.0011558896271362748 -0.014721930919098822 0 0.0019429313764999516 -0.016721976849847681 0 -0.00049730135409747651 -0.017159192255444381 0 0.00073624389032574567 -0.018238104335733193 0 0.0014268394425731978 -0.020050113142397324 0 0.0013475636514505192 -0.019464141607041976 0 0.0012225507732819053 -0.019707072250644487 0 0.0017356880184671401 -0.01837577529460277 0 0.0013925388273123627 -0.019393806894268457 0 0.0019429313764999516 -0.016721976849847681 0 0.00073624389032574567 -0.018238104335733193 0 0.0013475636514505192 -0.019464141607041976 0 0.0013475636514505192 -0.019464141607041976 0 0.0012746415161310795 -0.01967811782904497 0 0.0012225507732819053 -0.019707072250644487 0 0.0011686977476993157 -0.019859155969202125 0 0.0012746415161310795 -0.01967811782904497 0 0.0010771810390358409 -0.019771995080552347 0 0.0013475636514505192 -0.019464141607041976 0 0.0012746415161310795 -0.01967811782904497 0 0.0010771810390358409 -0.019771995080552347 0 0.00055023005045692094 -0.019562368618901191 0 0.0013475636514505192 -0.019464141607041976 0 0.0010771810390358409 -0.019771995080552347 0 0.0013486128137783293 -0.019729585195799471 0 0.0012746415161310795 -0.01967811782904497 0 0.0012234491526301415 -0.019720565769657628 0 0.0013486128137783293 -0.019729585195799471 0 0.0012234491526301415 -0.019720565769657628 0 0.00096338086212193765 -0.019835933268166205 0 0.0012746415161310795 -0.01967811782904497 0 0.0012234491526301415 -0.019720565769657628 0 0.0012225507732819053 -0.019707072250644487 0 0.0012234491526301415 -0.019720565769657628 0 0.0012225507732819053 -0.019707072250644487 0 0.00096338086212193765 -0.019835933268166205 0 0.0012225507732819053 -0.019707072250644487 0 0.0011051782041217781 -0.019949315421759602 0 0.00096338086212193765 -0.019835933268166205 0 0.0014268394425731978 -0.020050113142397324 0 0.0012225507732819053 -0.019707072250644487 0 0.0011051782041217781 -0.019949315421759602 0 0.0010968938530101177 -0.020909140443376779 0 0.0011884342659925359 -0.020898933775749987 0 0.0012334130337067304 -0.020884153197333041 0 0.0011114471661662919 -0.020714393571861583 0 0.0010968938530101177 -0.020909140443376779 0 0.0011884342659925359 -0.020898933775749987 0 0.0012249307580881113 -0.020776259600099451 0 0.0011884342659925359 -0.020898933775749987 0 0.0013191853942605717 -0.020950838291495161 0 0.0011884342659925359 -0.020898933775749987 0 0.0012471537375243729 -0.020943236716886051 0 0.0013191853942605717 -0.020950838291495161 0 0.0011884342659925359 -0.020898933775749987 0 0.0012471537375243729 -0.020943236716886051 0 0.0012334130337067304 -0.020884153197333041 0 0.0012471537375243729 -0.020943236716886051 0 0.0012286540351766735 -0.020877806896742693 0 0.0012334130337067304 -0.020884153197333041 0 0.0012471537375243729 -0.020943236716886051 0 0.0012286540351766735 -0.020877806896742693 0 0.0012477550779594823 -0.020920047794448313 0 0.0013758483133708003 -0.020813051837017336 0 0.0010968938530101177 -0.020909140443376779 0 0.0012334130337067304 -0.020884153197333041 0 0.0013354404843840184 -0.02028079737589656 0 0.0010457869372497651 -0.020366346260846768 0 0.0013758483133708003 -0.020813051837017336 0 0.0014097152027471597 -0.020258311464750003 0 0.0012499687012778402 -0.020702068184259598 0 0.0013758483133708003 -0.020813051837017336 0 0.0012334130337067304 -0.020884153197333041 0 0.0012499687012778402 -0.020702068184259598 0 0.0012286540351766735 -0.020877806896742693 0 0.0012334130337067304 -0.020884153197333041 0 0.0012499687012778402 -0.020702068184259598 0 0.0012286540351766735 -0.020877806896742693 0 0.0012499687012778402 -0.020702068184259598 0 0.0012109696754328604 -0.020810650002939614 0 0.0012286540351766735 -0.020877806896742693 0 0.0012109696754328604 -0.020810650002939614 0 0.0012477550779594823 -0.020920047794448313 0 0.0012109696754328604 -0.020810650002939614 0 0.0012074896260481742 -0.020661848951912302 0 0.0011580838774813381 -0.020765390382493833 0 0.0012499687012778402 -0.020702068184259598 0 0.0012109696754328604 -0.020810650002939614 0 0.0012074896260481742 -0.020661848951912302 0 0.0012499687012778402 -0.020702068184259598 0 0.0012074896260481742 -0.020661848951912302 0 0.0012639759600059858 -0.020464237776286396 0 0.0012074896260481742 -0.020661848951912302 0 0.0011582203777556128 -0.020530990149366032 0 0.0011580838774813381 -0.020765390382493833 0 0.0012074896260481742 -0.020661848951912302 0 0.0011582203777556128 -0.020530990149366032 0 0.0012639759600059858 -0.020464237776286396 0 0.0014097152027471597 -0.020258311464750003 0 0.0012499687012778402 -0.020702068184259598 0 0.0012639759600059858 -0.020464237776286396 0 0.00059951561716711245 -0.020947806849381433 0 0.00035788295348050181 -0.021496202387372598 0 0.00014452650816552135 -0.020870486215285141 0 0.00059951561716711245 -0.020947806849381433 0 0.0008787012174471901 -0.02053299308762363 0 0.00098679229589272114 -0.021257601397531033 0 0.00059951561716711245 -0.020947806849381433 0 0.00014452650816552135 -0.020870486215285141 0 0.00035043715754556605 -0.020455056240783483 0 0.00059951561716711245 -0.020947806849381433 0 0.0008787012174471901 -0.02053299308762363 0 0.00035043715754556605 -0.020455056240783483 0 0.0015150834169769041 -0.020688885196913236 0 0.0008787012174471901 -0.02053299308762363 0 0.00098679229589272114 -0.021257601397531033 0 0.0015150834169769041 -0.020688885196913236 0 0.0008787012174471901 -0.02053299308762363 0 0.00145473731627041 -0.020341583535541295 0 0.0011582203777556128 -0.020530990149366032 0 0.0010899187431181576 -0.02084255048364397 0 0.0011580838774813381 -0.020765390382493833 0 0.0013314392318250579 -0.020663765625061649 0 0.0012073951385690956 -0.02118230326070444 0 0.0012073951385690956 -0.02118230326070444 0 0.0012417882897591298 -0.020979751965851372 0 0.0012190781137922223 -0.020874798668149928 0 0.0011580838774813381 -0.020765390382493833 0 0.0012140599482981847 -0.020865161380285026 0 0.0012109696754328604 -0.020810650002939614 0 0.0011580838774813381 -0.020765390382493833 0 0.0012140599482981847 -0.020865161380285026 0 0.0012140599482981847 -0.020865161380285026 0 0.0012728664450895784 -0.020937199495247513 0 0.0012477550779594823 -0.020920047794448313 0 0.0012109696754328604 -0.020810650002939614 0 0.0012140599482981847 -0.020865161380285026 0 0.0012477550779594823 -0.020920047794448313 0 0.0012190781137922223 -0.020874798668149928 0 0.0012140599482981847 -0.020865161380285026 0 0.0012728664450895784 -0.020937199495247513 0 0.00059951561716711245 -0.020947806849381433 0 0.00098679229589272114 -0.021257601397531033 0 0.00035788295348050181 -0.021496202387372598 0 0.0012073951385690956 -0.02118230326070444 0 0.0012813824866615929 -0.021506636138212274 0 0.0012190781137922223 -0.020874798668149928 0 0.0012728664450895784 -0.020937199495247513 0 0.0013532968676366038 -0.02100596095372546 0 0.0012073951385690956 -0.02118230326070444 0 0.00072261576649838898 -0.021680162364261277 0 0.0015249876789928986 -0.021681003524353211 0 0.0011928247406297289 -0.022040723851506419 0 0.0010591783283161334 -0.021884758197978232 0 0.0013532968676366038 -0.02100596095372546 0 0.0013435992575909297 -0.021023575553712176 0 0.0014830099381079585 -0.021180313958658187 0 0.0011928247406297289 -0.022040723851506419 0 0.0010591783283161334 -0.021884758197978232 0 0.00089068877241349714 -0.022228747219604741 0 0.0013532968676366038 -0.02100596095372546 0 0.0014830099381079585 -0.021180313958658187 0 0.0013828361788788318 -0.021144401130083618 0 0.0012813824866615929 -0.021506636138212274 0 0.0013281898118216679 -0.021944629506386329 0 0.0012728664450895784 -0.020937199495247513 0 0.0013532968676366038 -0.02100596095372546 0 0.0013435992575909297 -0.021023575553712176 0 0.0012471537375243729 -0.020943236716886051 0 0.0012477550779594823 -0.020920047794448313 0 0.0013435992575909297 -0.021023575553712176 0 0.0012728664450895784 -0.020937199495247513 0 0.0012477550779594823 -0.020920047794448313 0 0.0013435992575909297 -0.021023575553712176 0 0.0012471537375243729 -0.020943236716886051 0 0.0013435992575909297 -0.021023575553712176 0 0.0013191853942605717 -0.020950838291495161 0 0.0013435992575909297 -0.021023575553712176 0 0.0013191853942605717 -0.020950838291495161 0 0.0014267014191964372 -0.021061761269066483 0 0.0014721192000761124 -0.020929447601189685 0 0.0013191853942605717 -0.020950838291495161 0 0.0014267014191964372 -0.021061761269066483 0 0.0014830099381079585 -0.021180313958658187 0 0.0014267014191964372 -0.021061761269066483 0 0.0015612222319471437 -0.02112335297391741 0 0.0014830099381079585 -0.021180313958658187 0 0.0015612222319471437 -0.02112335297391741 0 0.0017940130100375935 -0.0212813333823198 0 0.0013435992575909297 -0.021023575553712176 0 0.0014830099381079585 -0.021180313958658187 0 0.0014267014191964372 -0.021061761269066483 0 0.0014721192000761124 -0.020929447601189685 0 0.0014267014191964372 -0.021061761269066483 0 0.0015612222319471437 -0.02112335297391741 0 0.0021431907630661677 -0.021586266466491449 0 0.0013281898118216679 -0.021944629506386329 0 0.0017940130100375935 -0.0212813333823198 0 0.0021888851908093872 -0.02157935267422521 0 0.0016686272751648933 -0.021337865008538234 0 0.0014830099381079585 -0.021180313958658187 0 0.0017940130100375935 -0.0212813333823198 0 0.0016686272751648933 -0.021337865008538234 0 0.0021888851908093872 -0.02157935267422521 0 0.0025153574557623742 -0.022498520026460321 0 0.0030047609937685965 -0.022148741465210099 0 0.0021888851908093872 -0.02157935267422521 0 0.0025153574557623742 -0.022498520026460321 0 0.0010637450113726318 -0.022784786685848386 0 0.0025153574557623742 -0.022498520026460321 0 0.0020975744597930691 -0.023227214744694254 0 0.003216201743040911 -0.022781378846333404 0 0.0025153574557623742 -0.022498520026460321 0 0.0020975744597930691 -0.023227214744694254 0 0.0010637450113726318 -0.022784786685848386 0 0.00059433195544933393 -0.023414244660171373 0 0.00033767698904117873 -0.02248446903024913 0 0.0004083629147701167 -0.022190914474965857 0 0.00061404049531561908 -0.022101218257105679 0 0.00086289304161914768 -0.022388464513383541 0 0.0010591783283161334 -0.021884758197978232 0 0.00059193314889479189 -0.02208356855368613 0 0.00089068877241349714 -0.022228747219604741 0 0.00059433195544933393 -0.023414244660171373 0 0.0013281898118216679 -0.021944629506386329 0 0.00033767698904117873 -0.02248446903024913 0 0.00076837411622807171 -0.022335898094380188 0 0.00061404049531561908 -0.022101218257105679 0 0.00089068877241349714 -0.022228747219604741 0 0.00086289304161914768 -0.022388464513383541 0 0.0011928247406297289 -0.022040723851506419 0 0.00089068877241349714 -0.022228747219604741 0 0.00086289304161914768 -0.022388464513383541 0 0.0013604671298151324 -0.021510857715000688 0 0.0013281898118216679 -0.021944629506386329 0 0.0034026063194454318 -0.021630670793150265 0 0.0041484248982039482 -0.022912696560324963 0 0.0030047609937685965 -0.022148741465210099 0 0.0040382685071552659 -0.022884767719812606 0 0.0024069111001105651 -0.023472334806797671 0 0.0041484248982039482 -0.022912696560324963 0 0.0030047609937685965 -0.022148741465210099 0 0.003216201743040911 -0.022781378846333404 0 0.0034026063194454318 -0.021630670793150265 0 0.0021888851908093872 -0.02157935267422521 0 0.0030047609937685965 -0.022148741465210099 0 0.0025153574557623742 -0.022498520026460321 0 0.0030047609937685965 -0.022148741465210099 0 0.003216201743040911 -0.022781378846333404 0 -0.00069242698361852029 -0.024952625066844716 0 0.0008544011791653043 -0.024516801187599666 0 0.0015187021066786779 -0.024010803355080528 0 -0.00069242698361852029 -0.024952625066844716 0 0.0008544011791653043 -0.024516801187599666 0 0.0017695404181420835 -0.026028579485479743 0 0.00059433195544933393 -0.023414244660171373 0 0.0024069111001105651 -0.023472334806797671 0 0.0011540013101664821 -0.025032858763038304 0 0.0011149672843072571 -0.025209540783387201 0 0.0008544011791653043 -0.024516801187599666 0 0.0019354937685583534 -0.025046901149469447 0 0.0018345461651038052 -0.0262410931412193 0 0.0008544011791653043 -0.024516801187599666 0 0.0019354937685583534 -0.025046901149469447 0 0.0015187021066786779 -0.024010803355080528 0 0.0041484248982039482 -0.022912696560324963 0 0.0015187021066786779 -0.024010803355080528 0 0.0031335103169464621 -0.024962408903403031 0 0.0019354937685583534 -0.025046901149469447 0 0.0015187021066786779 -0.024010803355080528 0 0.0031335103169464621 -0.024962408903403031 0 0.0019354937685583534 -0.025046901149469447 0 0.0031335103169464621 -0.024962408903403031 0 0.0018345461651038052 -0.0262410931412193 0 0.0036381059183918725 -0.026120694200616534 0 0.00067854510645921364 -0.02479494607913733 0 0.0014185552363001463 -0.026023943687984503 0 0.0044530388204508022 -0.027130824069160123 0 0.0011149672843072571 -0.025209540783387201 0 0.004246960780395285 -0.026548361744804506 0 0.0031335103169464621 -0.024962408903403031 0 0.0018345461651038052 -0.0262410931412193 0 0.004246960780395285 -0.026548361744804506 0 0.0048895662550779142 -0.027714921036147609 0 0.0018345461651038052 -0.0262410931412193 0 0.0011149672843072571 -0.025209540783387201 0 0.00026660996099330268 -0.023739538929574353 0 -0.00026517531380966389 -0.022260060855455444 0 0.00026660996099330268 -0.023739538929574353 0 0.00059433195544933393 -0.023414244660171373 0 0.0011149672843072571 -0.025209540783387201 0 0.00043250853965616937 -0.023488169999506075 0 0.0006009458678056074 -0.023464594804087295 0 0.00069469510436171778 -0.023622934205514631 0 0.00027709684605038161 -0.023310522668976555 0 0.00043250853965616937 -0.023488169999506075 0 0.0006009458678056074 -0.023464594804087295 0 -0.0006435119761357106 -0.021309187297978448 0 -0.00063731439807328261 -0.021102415689780083 0 -0.00073307579479713145 -0.021192555448794077 0 -0.00063731439807328261 -0.021102415689780083 0 -0.00069772635195186606 -0.021117422277811625 0 -0.00066452626070153146 -0.021046254684620895 0 -0.00063731439807328261 -0.021102415689780083 0 -0.00073307579479713145 -0.021192555448794077 0 -0.00069772635195186606 -0.021117422277811625 0 -0.00073307579479713145 -0.021192555448794077 0 -0.00069772635195186606 -0.021117422277811625 0 -0.00075389691325970483 -0.021129557813973559 0 0.0025425025491973151 -0.026014589627831815 0 0.00035947530146476623 -0.024925211646529447 0 0.0014993433653096775 -0.026824256982457995 0 0.0027504627578346318 -0.027577881993363064 0 0.0015374848574703916 -0.026420984033737448 0 0.0027504627578346318 -0.027577881993363064 0 0.00026660996099330268 -0.023739538929574353 0 0.00026660996099330268 -0.023739538929574353 0 0.0015374848574703916 -0.026420984033737448 0 0.00035788295348050181 -0.021496202387372598 0 -0.00017977881258254066 -0.021644719285203975 0 -0.00013081953114997056 -0.021254864578825767 0 0.00035788295348050181 -0.021496202387372598 0 -0.00013081953114997056 -0.021254864578825767 0 0.00014452650816552135 -0.020870486215285141 0 0.00072261576649838898 -0.021680162364261277 0 0.00033767698904117873 -0.02248446903024913 0 0.00027709684605038161 -0.023310522668976555 0 0.00017151828329747441 -0.023350916122133508 0 0.00043250853965616937 -0.023488169999506075 0 -0.0006435119761357106 -0.021309187297978448 0 -0.00013081953114997056 -0.021254864578825767 0 -0.00048886427529489494 -0.021043745258765383 0 -0.00017977881258254066 -0.021644719285203975 0 -0.0006435119761357106 -0.021309187297978448 0 -0.00013081953114997056 -0.021254864578825767 0 0.00033767698904117873 -0.02248446903024913 0 -0.00026517531380966389 -0.022260060855455444 0 -0.0006435119761357106 -0.021309187297978448 0 -0.00063731439807328261 -0.021102415689780083 0 -0.00048886427529489494 -0.021043745258765383 0 -0.00049399924721291741 -0.021128466318801296 0 -0.00074216621240229849 -0.020278027607605054 0 -0.00063731439807328261 -0.021102415689780083 0 -0.00048886427529489494 -0.021043745258765383 0 -0.00056502237699386504 -0.021039678796053368 0 -0.00048886427529489494 -0.021043745258765383 0 -0.00019105152892616621 -0.020508583882299956 0 -0.00073173519660289408 -0.020369429128372314 0 -0.00013081953114997056 -0.021254864578825767 0 -0.00048886427529489494 -0.021043745258765383 0 0.00014452650816552135 -0.020870486215285141 0 -0.00048886427529489494 -0.021043745258765383 0 0.00014452650816552135 -0.020870486215285141 0 -0.00019105152892616621 -0.020508583882299956 0 0.00014452650816552135 -0.020870486215285141 0 -0.00019105152892616621 -0.020508583882299956 0 0.00035043715754556605 -0.020455056240783483 0 0.0001316574837980282 -0.020026263238630139 0 -0.00019105152892616621 -0.020508583882299956 0 0.00035043715754556605 -0.020455056240783483 0 0.0001316574837980282 -0.020026263238630139 0 -0.00019105152892616621 -0.020508583882299956 0 -0.0003849372048051917 -0.01993442008997608 0 -0.00019105152892616621 -0.020508583882299956 0 -0.00073173519660289408 -0.020369429128372314 0 -0.0003849372048051917 -0.01993442008997608 0 -0.00074216621240229849 -0.020278027607605054 0 7.2642904412072292e-05 -0.023122315421868204 0 -0.00073173519660289408 -0.020369429128372314 0 -0.0003849372048051917 -0.01993442008997608 0 -0.0009004958662865842 -0.019752606641230734 0 -0.0003849372048051917 -0.01993442008997608 0 -0.0009004958662865842 -0.019752606641230734 0 -0.00016987701517416246 -0.019137637129452573 0 7.2642904412072292e-05 -0.023122315421868204 0 0.00021883876596131351 -0.021155913662202163 0 -0.0003849372048051917 -0.01993442008997608 0 4.979906315006222e-06 -0.019667853924752215 0 -0.00016987701517416246 -0.019137637129452573 0 4.979906315006222e-06 -0.019667853924752215 0 -0.00016987701517416246 -0.019137637129452573 0 0.00044460170597079455 -0.019575727970704202 0 0.0001316574837980282 -0.020026263238630139 0 4.979906315006222e-06 -0.019667853924752215 0 0.00044460170597079455 -0.019575727970704202 0 0.0001316574837980282 -0.020026263238630139 0 -0.0003849372048051917 -0.01993442008997608 0 4.979906315006222e-06 -0.019667853924752215 0 0.0028481647097529112 -0.028169829263885032 0 0.0022922835426982579 -0.028126973037180598 0 0.0022719005221561754 -0.028709963480028182 0 0.0028481647097529112 -0.028169829263885032 0 0.0024433274191357798 -0.027488110334568584 0 0.0022922835426982579 -0.028126973037180598 0 0.0024350343826061833 -0.030581204545955424 0 0.0015374848574703916 -0.026420984033737448 0 -0.00069772635195186606 -0.021117422277811625 0 -0.00075389691325970483 -0.021129557813973559 0 -0.00066452626070153146 -0.021046254684620895 0 0.0015374848574703916 -0.026420984033737448 0 0.00051896448211602583 -0.024544352795225353 0 0.0024433274191357798 -0.027488110334568584 0 0.0022922835426982579 -0.028126973037180598 0 0.0017504690421924678 -0.028027307900271931 0 0.0022922835426982579 -0.028126973037180598 0 0.0017504690421924678 -0.028027307900271931 0 0.0016782953935850875 -0.028586152965566949 0 -0.00056502237699386504 -0.021039678796053368 0 -0.00058556308660424156 -0.020997936280505645 0 -0.00066452626070153146 -0.021046254684620895 0 -0.00063731439807328261 -0.021102415689780083 0 -0.00056502237699386504 -0.021039678796053368 0 -0.00066452626070153146 -0.021046254684620895 0 7.2642904412072292e-05 -0.023122315421868204 0 0.00051896448211602583 -0.024544352795225353 0 7.2642904412072292e-05 -0.023122315421868204 0 0.0011240293187960465 -0.026216321472964918 0 0.0010622578209495879 -0.028543287855463451 0 0.0016782953935850875 -0.028586152965566949 0 0.0012830437266080079 -0.029378644956403476 0 0.0016782953935850875 -0.028586152965566949 0 0.0018382870044408822 -0.029135147299438197 0 0.0012830437266080079 -0.029378644956403476 0 0.0010622578209495879 -0.028543287855463451 0 0.0017504690421924678 -0.028027307900271931 0 0.0016782953935850875 -0.028586152965566949 0 0.0022922835426982579 -0.028126973037180598 0 0.0016782953935850875 -0.028586152965566949 0 0.0022719005221561754 -0.028709963480028182 0 0.0016782953935850875 -0.028586152965566949 0 0.0022719005221561754 -0.028709963480028182 0 0.0018382870044408822 -0.029135147299438197 0 0.0022719005221561754 -0.028709963480028182 0 0.0022238058966219248 -0.029093619762701285 0 0.0018382870044408822 -0.029135147299438197 0 0.002725696000469235 -0.028725447334389191 0 0.0022719005221561754 -0.028709963480028182 0 0.0025361248539796017 -0.029148295189916035 0 0.0022719005221561754 -0.028709963480028182 0 0.0022238058966219248 -0.029093619762701285 0 0.0025361248539796017 -0.029148295189916035 0 0.002725696000469235 -0.028725447334389191 0 0.0028481647097529112 -0.028169829263885032 0 0.0022719005221561754 -0.028709963480028182 0 0.0039414588594952936 -0.032955517356243379 0 0.0034516017632533424 -0.032627729866705285 0 0.003267588015336624 -0.032989384060029409 0 0.0034052521804936553 -0.032689532139235165 0 0.0025095514191493659 -0.029774710971138894 0 0.0024550399560649039 -0.029516259613228416 0 0.001872473253727434 -0.02969470733084599 0 0.0016612847374109689 -0.030193486643980187 0 0.0025361248539796017 -0.029148295189916035 0 0.0023723055969678869 -0.029462127319525307 0 0.0024587556177806014 -0.029523184920136721 0 0.0022238058966219248 -0.029093619762701285 0 0.0025361248539796017 -0.029148295189916035 0 0.0023018698509093944 -0.029263082704424251 0 0.0025361248539796017 -0.029148295189916035 0 0.0023018698509093944 -0.029263082704424251 0 0.0023723055969678869 -0.029462127319525307 0 0.0031143982882644188 -0.032393661805903251 0 0.0034052521804936553 -0.032689532139235165 0 0.0023723055969678869 -0.029462127319525307 0 0.0020773242143517032 -0.029347068303377386 0 0.001872473253727434 -0.02969470733084599 0 0.0022238058966219248 -0.029093619762701285 0 0.0020773242143517032 -0.029347068303377386 0 0.0018382870044408822 -0.029135147299438197 0 0.0020773242143517032 -0.029347068303377386 0 0.001872473253727434 -0.02969470733084599 0 0.0018382870044408822 -0.029135147299438197 0 0.0023018698509093944 -0.029263082704424251 0 0.0023723055969678869 -0.029462127319525307 0 0.0020773242143517032 -0.029347068303377386 0 0.0022238058966219248 -0.029093619762701285 0 0.0023018698509093944 -0.029263082704424251 0 0.0020773242143517032 -0.029347068303377386 0 0.0023723055969678869 -0.029462127319525307 0 0.0024550399560649039 -0.029516259613228416 0 0.001872473253727434 -0.02969470733084599 0 0.00084062029598851195 -0.022558342225487551 0 0.00086365946644654352 -0.022621911447890206 0 0.00081292839371042221 -0.022545263668259662 0 0.0011240293187960465 -0.026216321472964918 0 0.0020092684113957112 -0.027259737470044204 0 0.001872473253727434 -0.02969470733084599 0 0.0012830437266080079 -0.029378644956403476 0 0.0015015704225056427 -0.030179855578527582 0 0.001872473253727434 -0.02969470733084599 0 0.0018382870044408822 -0.029135147299438197 0 0.0012830437266080079 -0.029378644956403476 0 0.0013571399645312897 -0.025290517079394854 0 0.001718668724212671 -0.025222739936375221 0 0.0020544565786948855 -0.024761591672967424 0 0.001718668724212671 -0.025222739936375221 0 0.0020544565786948855 -0.024761591672967424 0 0.0020882383267960018 -0.024896390382700386 0 0.002915724353538005 -0.030319884393563257 0 0.0029916557680579651 -0.030328881430308523 0 0.0030100164953475008 -0.030264797877940248 0 0.0025541820451722434 -0.027264167438153714 0 0.0027182156092748757 -0.028849666726007958 0 0.0020092684113957112 -0.027259737470044204 0 0.0027182156092748757 -0.028849666726007958 0 0.0028455415572935291 -0.030795092608613503 0 0.0030859307490651322 -0.030964262087863254 0 0.0030169275323054029 -0.031020414026400964 0 0.0027182156092748757 -0.028849666726007958 0 0.0025095514191493659 -0.029774710971138894 0 0.0034269904329566991 -0.029209438035176151 0 0.0032357152016062002 -0.028459052681217508 0 0.0024869762917830809 -0.029142096681937891 0 0.001872473253727434 -0.02969470733084599 0 0.0015015704225056427 -0.030179855578527582 0 0.0016612847374109689 -0.030193486643980187 0 0.0020092684113957112 -0.027259737470044204 0 0.0025095514191493659 -0.029774710971138894 0 0.0036178452185869486 -0.033126012177686369 0 0.0029638198438561728 -0.03305062785041149 0 0.003267588015336624 -0.032989384060029409 0 0.0025001517139662988 -0.030961135681335163 0 0.0028455415572935291 -0.030795092608613503 0 0.0030169275323054029 -0.031020414026400964 0 0.0030569130561413061 -0.032038247655186411 0 0.0025095514191493659 -0.029774710971138894 0 0.0034516017632533424 -0.032627729866705285 0 0.0029638198438561728 -0.03305062785041149 0 0.003267588015336624 -0.032989384060029409 0 0.0025001517139662988 -0.030961135681335163 0 0.0028455415572935291 -0.030795092608613503 0 0.0026435599307060649 -0.030779797695017735 0 0.00079630093762726836 -0.022501966286994517 0 0.00079744512609401048 -0.022531088767435238 0 0.00084422964656094242 -0.022448212414295406 0 0.00021883876596131351 -0.021155913662202163 0 0.00026038901411357568 -0.015862921976936669 0 0.00079630093762726836 -0.022501966286994517 0 0.00081292839371042221 -0.022545263668259662 0 0.0008010962762247301 -0.022549408236877223 0 0.00079630093762726836 -0.022501966286994517 0 0.00079744512609401048 -0.022531088767435238 0 0.00081292839371042221 -0.022545263668259662 0 0.00082062963736616356 -0.022534567873477879 0 0.00084062029598851195 -0.022558342225487551 0 0.00081292839371042221 -0.022545263668259662 0 0.00082062963736616356 -0.022534567873477879 0 0.00079744512609401048 -0.022531088767435238 0 0.00081292839371042221 -0.022545263668259662 0 0.00086365946644654352 -0.022621911447890206 0 0.00081292839371042221 -0.022545263668259662 0 0.0008010962762247301 -0.022549408236877223 0 0.0013571399645312897 -0.025290517079394854 0 0.0020544565786948855 -0.024761591672967424 0 0.00084394400497355511 -0.024633200365811306 0 0.0020092684113957112 -0.027259737470044204 0 0.00068235105896635837 -0.022016418480078695 0 0.0024716736388212457 -0.019735650861605891 0 0.0026822736242799296 -0.019851241906772361 0 0.0015139519018579671 -0.018362341249110771 0 0.0024614193863174419 -0.022655980345222471 0 0.00068235105896635837 -0.022016418480078695 0 0.0024716736388212457 -0.019735650861605891 0 0.0015139519018579671 -0.018362341249110771 0 -0.00030783653699820081 -0.018197764975166401 0 0.00068235105896635837 -0.022016418480078695 0 0.00060186150839902229 -0.014970672975745988 0 0.0017449862138737599 -0.018665308461711574 0 0.00060186150839902229 -0.014970672975745988 0 0.00079630093762726836 -0.022501966286994517 0 0.0007729174609163316 -0.022466484818371931 0 0.00083176136878138746 -0.022448350266304193 0 0.00079630093762726836 -0.022501966286994517 0 0.00084422964656094242 -0.022448212414295406 0 0.00083176136878138746 -0.022448350266304193 0 0.0021315264377832345 -0.0092547376075042195 0 0.0017242084192303905 -0.0091243554575428792 0 0.0016884308068991858 -0.0088646814735598503 0 0.00087373701966900652 -0.022411920798011541 0 0.00068235105896635837 -0.022016418480078695 0 0.0017242084192303905 -0.0091243554575428792 0 0.0015306226274518417 -0.0088978012907421633 0 0.0016884308068991858 -0.0088646814735598503 0 0.0017036354012922351 -0.0087313303118452916 0 0.001748207312501999 -0.0087088951088559515 0 0.0013865480648730169 -0.0084806913511361551 0 0.0015306226274518417 -0.0088978012907421633 0 0.0015998798116438166 -0.0088441469626585525 0 0.0014041964122867769 -0.0087965571810299705 0 0.0015306226274518417 -0.0088978012907421633 0 0.0015998798116438166 -0.0088441469626585525 0 0.0016884308068991858 -0.0088646814735598503 0 0.0017255776756372877 -0.011848182922914972 0 0.00026038901411357568 -0.015862921976936669 0 0.0017255776756372877 -0.011848182922914972 0 0.00060186150839902229 -0.014970672975745988 0 0.00010087426103758847 -0.013604607844804099 0 0.00046351142892221654 -0.01332506093341909 0 0.001134979283214047 -0.013692157340617964 0 0.00026038901411357568 -0.015862921976936669 0 0.00060186150839902229 -0.014970672975745988 0 -0.00016987701517416246 -0.019137637129452573 0 0.00055742273685619392 -0.018526571140349574 0 0.00063913560780483531 -0.019115879111666779 0 0.00055742273685619392 -0.018526571140349574 0 0.00063913560780483531 -0.019115879111666779 0 0.00096215588891291324 -0.019065579805715605 0 0.00063913560780483531 -0.019115879111666779 0 0.00096215588891291324 -0.019065579805715605 0 0.00085497879437499672 -0.019360866848328547 0 0.00055742273685619392 -0.018526571140349574 0 0.0013922388205256473 -0.018949515289756403 0 0.00096215588891291324 -0.019065579805715605 0 -0.00071076928463420562 -0.017409721767491865 0 0.00074876223364110444 -0.017918448839533876 0 0.00082514485044967107 -0.018345123269732672 0 0.00026038901411357568 -0.015862921976936669 0 0.00099354330845117904 -0.012965916573890098 0 0.00026038901411357568 -0.015862921976936669 0 0.0011858759322442203 -0.018893392776821772 0 0.0013922388205256473 -0.018949515289756403 0 0.00096215588891291324 -0.019065579805715605 0 0.001267230953003447 -0.01937185434884315 0 0.0017036354012922351 -0.0087313303118452916 0 0.0013865480648730169 -0.0084806913511361551 0 0.0012269983298074251 -0.0085349627984864437 0 0.0017070313148368724 -0.0085512947553101869 0 0.0014471133244738036 -0.0085911355443937052 0 0.0011558949400551812 -0.0084465009933743698 0 0.0017255776756372877 -0.011848182922914972 0 0.0011662419689420812 -0.00809258580020966 0 0.0012876208258554933 -0.0085863223556251287 0 0.0014471133244738036 -0.0085911355443937052 0 0.0011558949400551812 -0.0084465009933743698 0 0.0012876208258554933 -0.0085863223556251287 0 0.0014471133244738036 -0.0085911355443937052 0 0.0013625734779261942 -0.0086628637978434318 0 0.0017255776756372877 -0.011848182922914972 0 0.0019192578040136104 -0.0084110540205902737 0 0.0014471133244738036 -0.0085911355443937052 0 0.0014041964122867769 -0.0087965571810299705 0 0.0013625734779261942 -0.0086628637978434318 0 0.0017070313148368724 -0.0085512947553101869 0 0.0014471133244738036 -0.0085911355443937052 0 0.0014041964122867769 -0.0087965571810299705 0 0.0012876208258554933 -0.0085863223556251287 0 0.0013133754257118983 -0.0087113012358336888 0 0.0011828793218409883 -0.0086553060500005868 0 0.0013244490072140875 -0.0087800108070062791 0 0.0013133754257118983 -0.0087113012358336888 0 0.0011828793218409883 -0.0086553060500005868 0 0.0012876208258554933 -0.0085863223556251287 0 0.0013625734779261942 -0.0086628637978434318 0 0.0013133754257118983 -0.0087113012358336888 0 0.0014041964122867769 -0.0087965571810299705 0 0.0013575912185185698 -0.0087900523717485517 0 0.0013133754257118983 -0.0087113012358336888 0 0.0014041964122867769 -0.0087965571810299705 0 0.0013625734779261942 -0.0086628637978434318 0 0.0013133754257118983 -0.0087113012358336888 0 0.0013244490072140875 -0.0087800108070062791 0 0.0013575912185185698 -0.0087900523717485517 0 0.0013133754257118983 -0.0087113012358336888 0 0.0012876208258554933 -0.0085863223556251287 0 0.0011828793218409883 -0.0086553060500005868 0 0.0011032159916525865 -0.0085340712682685001 0 0.0010339135877018492 -0.0086006977583350328 0 0.0011032159916525865 -0.0085340712682685001 0 0.00099032179324974384 -0.0084613954051557094 0 0.0010339135877018492 -0.0086006977583350328 0 0.0011828793218409883 -0.0086553060500005868 0 0.0011032159916525865 -0.0085340712682685001 0 0.0011032159916525865 -0.0085340712682685001 0 0.0011558949400551812 -0.0084465009933743698 0 0.00099032179324974384 -0.0084613954051557094 0 0.0012876208258554933 -0.0085863223556251287 0 0.0011032159916525865 -0.0085340712682685001 0 0.0011558949400551812 -0.0084465009933743698 0 0.0011558949400551812 -0.0084465009933743698 0 0.00099032179324974384 -0.0084613954051557094 0 0.00083698692137548325 -0.0083252029847641663 0 0.00085785207578150703 -0.0084755384515820559 0 0.00099032179324974384 -0.0084613954051557094 0 0.00083698692137548325 -0.0083252029847641663 0 0.0011662419689420812 -0.00809258580020966 0 0.00087530079831529318 -0.008446390620145244 0 0.00085785207578150703 -0.0084755384515820559 0 0.0010339135877018492 -0.0086006977583350328 0 0.00099032179324974384 -0.0084613954051557094 0 0.0013098703334111699 -0.013399940696575094 0 0.0017371406450922607 -0.01343567878530314 0 0.0012269983298074251 -0.0085349627984864437 0 0.00083698692137548325 -0.0083252029847641663 0 0.0010669083268528528 -0.0082852164155046079 0 0.00082052593063236025 -0.008243302676610836 0 0.00083698692137548325 -0.0083252029847641663 0 0.0010669083268528528 -0.0082852164155046079 0 0.00082052593063236025 -0.008243302676610836 0 0.00081077055964135912 -0.0081562335784727841 0 0.0010669083268528528 -0.0082852164155046079 0 0.00099354330845117904 -0.012965916573890098 0 0.0017371406450922607 -0.01343567878530314 0 0.0013865480648730169 -0.0084806913511361551 0 0.0012269983298074251 -0.0085349627984864437 0 0.0010669083268528528 -0.0082852164155046079 0 0.0011858759322442203 -0.018893392776821772 0 0.0022181726472710892 -0.019148127255777369 0 0.00082514485044967107 -0.018345123269732672 0 0.0021244281302090573 -0.018473478356944111 0 0.0023309208887596035 -0.01923229566927119 0 0.00074876223364110444 -0.017918448839533876 0 0.00082514485044967107 -0.018345123269732672 0 0.0021244281302090573 -0.018473478356944111 0 0.0013922388205256473 -0.018949515289756403 0 0.0017070690812014586 -0.019352985491836398 0 0.0023309208887596035 -0.01923229566927119 0 0.0019524305096725312 -0.019631179943904842 0 0.0023309208887596035 -0.01923229566927119 0 0.0022015446663612645 -0.020088107210272529 0 0.0017070690812014586 -0.019352985491836398 0 0.0019524305096725312 -0.019631179943904842 0 0.0023309208887596035 -0.01923229566927119 0 0.0017070690812014586 -0.019352985491836398 0 0.0019524305096725312 -0.019631179943904842 0 0.0015708533916614054 -0.019595376322182417 0 0.0019524305096725312 -0.019631179943904842 0 0.0015708533916614054 -0.019595376322182417 0 0.0016955301676642989 -0.019906461335395264 0 0.0032952299082482117 -0.018964434219169771 0 0.0023309208887596035 -0.01923229566927119 0 0.0022015446663612645 -0.020088107210272529 0 0.0032952299082482117 -0.018964434219169771 0 0.0021244281302090573 -0.018473478356944111 0 0.0023309208887596035 -0.01923229566927119 0 0.0010814340841406485 -0.016165651924869646 0 0.0010432517597030089 -0.015340479967213274 0 -9.8469598389954675e-05 -0.016607184450913217 0 0.0013098703334111699 -0.013399940696575094 0 0.0012399340154861719 -0.019491837343632735 0 0.0013671873975405484 -0.020223511581119083 0 0.0014097152027471597 -0.020258311464750003 0 0.0012730708692916702 -0.020293465279886104 0 0.0014097152027471597 -0.020258311464750003 0 0.0012639759600059858 -0.020464237776286396 0 0.0012730708692916702 -0.020293465279886104 0 0.0010039023301791103 -0.018488064912426383 0 0.0012399340154861719 -0.019491837343632735 0 0.0016955301676642989 -0.019906461335395264 0 0.0022015446663612645 -0.020088107210272529 0 0.0015224219597800418 -0.020292311073954669 0 0.0019524305096725312 -0.019631179943904842 0 0.0016955301676642989 -0.019906461335395264 0 0.0022015446663612645 -0.020088107210272529 0 0.0011582203777556128 -0.020530990149366032 0 0.0012639759600059858 -0.020464237776286396 0 0.0012730708692916702 -0.020293465279886104 0 0.0013314392318250579 -0.020663765625061649 0 0.0012399340154861719 -0.019491837343632735 0 0.0012399340154861719 -0.019491837343632735 0 0.0015704392924237353 -0.020274957632095487 0 0.0015150834169769041 -0.020688885196913236 0 0.0020096652136750355 -0.020143595386440671 0 0.00145473731627041 -0.020341583535541295 0 0.0016955301676642989 -0.019906461335395264 0 0.0015224219597800418 -0.020292311073954669 0 0.0012130139956443619 -0.019928889320321684 0 0.0012130139956443619 -0.019928889320321684 0 0.00065957824508168267 -0.020031204507251352 0 0.00096573487075362827 -0.019675804396360325 0 0.0008787012174471901 -0.02053299308762363 0 0.0012130139956443619 -0.019928889320321684 0 0.00065957824508168267 -0.020031204507251352 0 0.00092298788702096862 -0.020513933327704348 0 0.0015704392924237353 -0.020274957632095487 0 0.0008787012174471901 -0.02053299308762363 0 0.0015224219597800418 -0.020292311073954669 0 0.0012130139956443619 -0.019928889320321684 0 0.0008787012174471901 -0.02053299308762363 0 0.00035043715754556605 -0.020455056240783483 0 0.00065957824508168267 -0.020031204507251352 0 0.0001316574837980282 -0.020026263238630139 0 0.00035043715754556605 -0.020455056240783483 0 0.00065957824508168267 -0.020031204507251352 0 -0.00016987701517416246 -0.019137637129452573 0 0.00063913560780483531 -0.019115879111666779 0 0.00044460170597079455 -0.019575727970704202 0 0.00065957824508168267 -0.020031204507251352 0 0.00044460170597079455 -0.019575727970704202 0 0.00096573487075362827 -0.019675804396360325 0 0.00044460170597079455 -0.019575727970704202 0 0.00085497879437499672 -0.019360866848328547 0 0.00096573487075362827 -0.019675804396360325 0 0.0001316574837980282 -0.020026263238630139 0 0.00065957824508168267 -0.020031204507251352 0 0.00044460170597079455 -0.019575727970704202 0 0.00063913560780483531 -0.019115879111666779 0 0.00044460170597079455 -0.019575727970704202 0 0.00085497879437499672 -0.019360866848328547 0 0.00096215588891291324 -0.019065579805715605 0 0.00085497879437499672 -0.019360866848328547 0 0.001267230953003447 -0.01937185434884315 0 0.00085497879437499672 -0.019360866848328547 0 0.001267230953003447 -0.01937185434884315 0 0.00096573487075362827 -0.019675804396360325 0 0.0013922388205256473 -0.018949515289756403 0 0.0017070690812014586 -0.019352985491836398 0 0.001267230953003447 -0.01937185434884315 0 0.0017070690812014586 -0.019352985491836398 0 0.0015708533916614054 -0.019595376322182417 0 0.001267230953003447 -0.01937185434884315 0 0.0015708533916614054 -0.019595376322182417 0 0.0012130139956443619 -0.019928889320321684 0 0.001267230953003447 -0.01937185434884315 0 0.0015708533916614054 -0.019595376322182417 0 0.0016955301676642989 -0.019906461335395264 0 0.0012130139956443619 -0.019928889320321684 0 0.0012130139956443619 -0.019928889320321684 0 0.001267230953003447 -0.01937185434884315 0 0.00096573487075362827 -0.019675804396360325 0 
</DataArray>
</PointData>
<CellData Scalars="region_id,cross_section_updated," Vectors="" Tensors="stress,">
<DataArray type="Float64" Name="region_id" format="ascii">
5 5 5 5 5 5 5 5 5 5 5 5 6 5 5 5 5 5 5 5 5 6 5 5 5 5 5 6 5 5 6 5 5 5 6 5 5 6 5 5 5 5 5 5 5 6 5 5 5 5 5 5 6 5 5 5 5 5 5 5 5 6 5 5 5 5 6 5 5 5 5 5 5 5 5 5 5 5 6 6 5 5 5 5 5 5 5 5 5 5 6 6 5 5 5 6 5 5 5 6 5 5 5 6 5 5 5 5 5 5 5 5 6 5 5 5 5 5 5 5 5 5 5 5 5 5 5 5 5 5 5 5 5 5 5 5 5 5 6 5 5 5 5 6 5 5 5 5 5 5 5 5 5 6 6 5 5 6 5 5 5 5 6 5 6 5 5 5 5 5 5 5 5 6 5 5 5 5 5 5 5 5 5 5 6 5 5 6 5 5 6 5 5 5 5 6 5 6 5 5 5 5 5 5 5 5 5 5 5 5 5 5 5 5 5 5 5 5 5 5 5 5 5 5 5 5 5 5 5 5 5 5 5 5 5 6 5 5 6 5 6 5 5 5 5 6 5 6 6 5 5 5 5 6 5 6 5 5 6 5 5 5 5 5 5 5 5 5 5 5 5 5 5 6 5 5 5 5 5 5 5 6 5 5 5 5 5 5 5 5 5 5 5 5 5 5 5 5 5 5 5 5 5 5 5 5 5 5 6 5 5 5 5 6 5 5 5 5 5 6 5 6 5 5 5 6 5 5 5 5 5 5 5 5 5 5 5 6 5 5 5 5 5 5 5 5 5 5 5 5 5 5 5 5 5 5 5 5 5 5 5 5 5 5 5 5 5 6 5 5 5 5 6 5 5 5 5 5 5 5 6 5 5 5 5 5 5 5 5 6 5 6 5 5 6 5 5 5 5 5 5 6 5 6 5 5 5 5 5 5 5 5 5 5 5 5 6 6 5 5 5 6 6 5 5 5 5 5 5 5 6 6 5 5 5 6 5 5 5 6 5 5 5 5 6 6 5 6 5 5 5 5 6 5 5 5 5 5 5 5 5 5 5 5 5 5 5 5 5 5 5 5 5 5 5 5 5 5 5 5 5 5 5 6 5 5 5 5 5 5 5 5 5 5 5 5 5 5 5 5 5 5 5 5 5 6 5 5 5 5 5 5 5 5 5 6 5 5 5 5 6 5 5 5 6 5 5 6 5 5 5 5 5 5 5 5 5 5 6 6 6 5 5 5 5 5 5 6 5 5 5 5 5 5 5 5 6 5 5 5 5 5 5 6 5 5 5 5 5 5 5 5 5 5 5 5 5 6 5 5 6 5 5 5 5 6 5 5 6 5 5 5 5 5 5 5 5 5 5 5 5 5 5 5 5 5 5 5 5 6 5 5 5 5 5 5 6 5 5 5 6 6 5 5 5 6 5 5 5 5 5 5 5 5 5 5 5 5 6 5 5 6 5 5 5 5 6 5 6 5 5 5 5 5 5 5 5 5 5 6 5 5 5 5 5 5 5 5 5 5 6 5 5 5 5 5 5 5 5 5 5 5 5 5 5 5 5 5 6 5 5 5 5 5 5 5 5 5 5 5 5 6 6 5 5 6 5 5 5 5 6 5 5 6 5 5 5 5 5 5 6 5 5 6 5 6 5 5 5 5 6 5 6 5 5 5 5 5 5 6 5 5 5 5 6 5 5 5 6 5 5 6 5 6 5 5 5 6 5 5 5 6 5 5 5 5 5 5 5 5 5 5 6 5 6 5 6 5 5 5 6 5 5 5 5 5 5 5 6 5 5 5 5 5 5 5 5 5 5 5 5 5 5 5 6 5 5 5 5 6 5 5 5 5 6 5 5 5 5 5 6 5 5 5 5 5 5 5 5 5 5 5 5 5 5 5 5 5 5 5 5 5 5 5 5 5 5 5 5 5 5 5 5 5 5 5 5 5 5 5 5 5 5 5 5 5 5 6 5 5 5 5 5 5 6 5 5 5 5 5 5 5 5 5 5 5 5 5 5 5 6 5 5 5 5 5 6 5 5 5 5 5 5 5 6 5 5 5 5 5 5 5 5 5 5 5 5 5 5 5 5 5 5 5 5 5 5 5 6 5 5 5 5 5 5 5 5 5 5 5 5 6 5 5 5 5 5 5 5 5 5 6 5 5 5 5 5 5 5 5 5 5 6 5 5 5 5 5 5 5 5 5 5 5 6 6 5 5 5 5 5 5 5 6 5 5 5 5 6 5 5 5 5 5 5 6 5 5 5 5 5 5 5 5 5 5 6 5 5 5 5 5 5 6 5 5 5 5 5 5 5 6 5 5 6 5 6 5 5 5 5 5 5 5 6 5 5 5 5 6 5 5 5 5 5 5 5 6 5 5 5 5 6 5 5 6 5 6 5 5 5 5 5 6 5 5 5 5 6 6 5 5 5 5 5 5 5 5 5 5 5 6 5 5 5 5 5 5 6 5 5 5 5 5 5 5 5 6 5 5 5 5 5 5 5 5 5 5 5 5 5 5 6 5 5 5 6 5 5 5 5 5 5 5 5 5 5 5 5 6 5 5 5 5 5 5 5 6 5 6 5 6 5 6 5 5 5 5 5 5 5 5 6 5 5 6 5 5 6 5 5 5 5 6 5 5 5 5 5 5 5 5 6 5 6 5 6 5 5 6 5 5 5 6 5 5 5 6 5 6 5 5 5 5 5 5 5 5 5 5 6 6 5 6 5 5 6 5 5 6 5 6 5 5 5 6 5 5 5 5 5 5 5 5 5 5 5 6 5 6 5 5 5 6 5 5 5 5 6 5 5 6 5 5 5 6 5 5 5 6 5 6 6 5 5 5 5 5 5 5 5 5 6 5 5 5 5 5 5 5 5 5 5 5 5 5 5 5 6 5 5 5 5 5 5 5 5 5 5 5 6 5 6 5 5 5 5 5 5 6 5 5 5 5 5 5 6 5 5 5 5 6 5 5 5 5 6 5 5 6 5 6 5 5 5 6 6 5 5 5 5 5 5 5 5 5 5 5 5 6 5 5 5 5 5 5 5 5 5 5 5 6 6 5 5 6 5 5 5 6 6 5 5 5 5 5 5 5 5 5 5 5 5 5 6 5 5 6 5 5 5 5 5 5 5 6 5 5 5 6 5 5 5 5 5 6 5 6 5 5 5 5 5 5 5 5 5 5 6 5 5 5 5 6 6 5 5 5 5 5 5 5 5 5 5 5 5 5 5 6 5 5 5 5 5 5 5 6 5 5 5 6 5 5 5 5 5 5 5 5 6 5 5 5 5 5 5 5 5 5 5 5 5 5 6 5 5 5 5 5 5 6 5 5 6 5 5 5 5 5 5 5 5 5 5 5 5 6 5 5 5 5 5 5 6 5 5 5 5 5 5 5 5 6 5 5 5 6 5 5 5 5 6 5 5 5 5 5 5 6 5 5 5 5 5 5 6 5 5 6 5 5 5 5 6 5 5 5 5 5 6 5 5 5 5 5 5 5 5 5 6 5 5 5 6 5 6 5 5 5 5 5 5 5 5 5 5 5 5 5 5 6 5 5 5 6 5 5 5 5 5 5 5 5 5 5 5 5 5 5 5 5 6 5 5 5 5 6 5 5 5 5 5 5 6 5 5 5 5 5 5 5 5 5 5 5 6 5 5 6 5 5 5 5 5 5 5 5 5 5 6 5 5 5 5 5 5 5 5 5 5 6 5 5 5 5 5 5 5 5 5 5 5 5 5 5 6 5 5 5 6 5 6 5 5 6 5 5 5 5 5 5 5 5 5 5 5 6 5 5 5 6 5 5 5 5 5 5 5 5 5 5 5 5 5 5 5 5 5 5 6 5 5 5 5 5 5 5 5 5 5 5 5 5 5 5 5 5 6 5 6 5 5 5 5 6 6 6 5 5 5 5 5 5 5 5 5 5 5 6 5 6 5 5 6 5 6 5 5 5 5 5 5 6 5 5 6 5 5 6 5 5 5 5 5 5 6 5 6 6 5 5 5 5 5 6 5 5 6 5 5 5 5 5 5 5 5 5 5 5 5 5 5 5 5 5 5 5 5 5 5 6 5 5 5 5 5 5 5 5 5 6 5 5 5 5 5 5 6 5 5 5 5 5 5 5 5 6 5 5 5 5 6 5 5 5 5 5 5 5 5 5 5 5 6 5 5 5 5 5 5 5 5 5 5 5 5 5 5 5 5 5 5 5 5 6 5 6 5 5 5 5 5 5 5 5 5 5 5 5 5 5 5 5 5 5 5 5 5 5 5 5 5 5 6 5 5 5 6 5 5 5 5 5 5 5 5 6 5 5 5 5 6 6 5 5 6 5 5 6 6 5 5 6 5 5 5 5 5 5 6 5 5 5 5 5 5 5 5 5 5 5 5 5 5 5 5 6 5 5 5 5 6 5 5 5 5 5 5 5 5 5 5 5 5 6 5 5 6 5 5 6 6 6 5 5 5 5 5 5 5 5 6 5 6 5 5 5 5 5 5 5 5 6 5 6 5 5 5 5 6 5 6 5 5 5 6 6 5 5 5 5 5 6 5 5 6 5 5 6 6 5 5 5 5 6 5 5 6 5 6 6 5 5 5 5 5 5 5 5 5 5 5 5 5 5 5 5 6 5 5 5 5 5 5 5 5 5 5 5 5 5 5 5 6 5 6 5 5 5 5 6 5 5 5 5 5 5 6 5 6 5 5 5 5 5 5 5 6 5 5 6 5 5 5 5 5 6 6 5 5 5 5 5 5 5 5 6 6 5 5 6 6 5 5 5 5 5 5 5 5 6 5 5 5 5 6 5 5 5 5 5 5 5 5 5 6 5 6 5 5 5 6 5 5 5 5 5 5 5 5 5 5 6 5 5 5 5 6 5 6 5 5 6 6 5 5 5 5 5 5 5 5 5 5 6 5 5 5 5 5 5 5 5 5 5 5 5 5 5 5 5 5 5 5 5 5 5 5 5 5 5 5 5 5 5 5 5 5 6 5 6 5 5 5 5 5 5 5 5 5 6 5 5 6 5 5 5 5 5 5 5 5 5 5 5 5 5 5 5 5 5 5 5 6 5 5 5 5 5 5 5 5 5 5 5 5 5 5 5 5 5 5 6 5 5 5 5 5 5 5 5 5 5 6 5 5 5 5 5 5 5 5 5 5 6 5 5 5 5 5 5 5 5 5 5 5 5 5 5 5 5 6 5 5 5 5 5 5 5 5 5 5 6 5 5 5 5 6 5 5 5 5 5 5 5 5 6 5 6 5 5 5 5 5 5 5 5 5 5 5 6 5 5 5 5 5 6 5 5 5 5 5 5 5 5 5 5 5 6 5 5 6 5 5 5 6 5 5 5 5 6 5 5 5 6 5 5 5 5 5 5 5 6 5 5 5 6 5 5 5 5 5 5 5 5 5 5 5 5 5 6 5 5 6 5 5 5 5 5 5 5 5 5 6 5 5 5 5 5 5 5 5 6 5 5 5 5 6 6 5 6 5 5 5 5 5 5 6 5 5 5 5 6 5 5 6 5 5 5 5 5 5 5 5 5 5 5 5 5 6 5 5 5 5 6 5 5 6 5 5 5 5 5 6 5 5 5 5 5 5 5 5 5 5 5 5 5 5 5 5 5 6 5 5 6 5 5 5 5 5 5 6 5 5 5 5 5 5 5 5 6 5 5 5 6 5 5 5 5 5 5 5 5 6 6 5 5 5 5 6 5 5 5 6 5 5 6 5 5 5 5 5 5 5 5 5 5 5 5 5 5 5 5 5 5 6 5 5 5 5 5 5 5 5 5 5 5 5 5 5 5 6 5 5 5 5 5 5 5 5 5 5 5 6 5 5 5 5 5 5 5 5 5 5 5 5 5 5 5 5 5 5 5 5 6 5 5 5 5 5 5 6 5 5 5 5 5 5 5 5 5 5 5 5 5 5 6 5 5 6 5 5 5 5 5 5 5 5 5 5 5 5 5 6 5 5 5 5 5 5 5 5 5 5 5 5 5 5 5 5 5 5 5 5 5 5 5 5 5 5 5 5 5 5 5 5 5 5 5 6 5 5 5 5 5 5 5 5 6 5 5 5 5 5 5 5 5 5 5 5 5 5 5 5 5 5 5 5 6 6 5 5 5 5 5 5 5 5 5 5 5 5 5 5 5 5 5 5 5 5 5 5 5 5 5 5 5 5 5 5 5 5 5 5 6 5 5 6 5 5 5 5 5 5 5 5 5 5 5 5 5 6 5 5 5 6 5 5 6 5 6 5 5 6 5 5 5 5 5 5 5 6 5 5 5 5 6 5 6 6 5 5 5 5 5 5 6 6 6 5 5 5 5 5 5 6 5 5 5 5 5 5 5 5 5 5 5 6 5 6 6 5 5 5 6 5 5 6 6 5 5 5 5 5 5 5 5 5 5 5 5 5 5 6 5 5 5 5 5 5 5 5 5 5 5 5 5 5 5 5 5 5 5 5 5 6 5 6 5 5 5 5 5 5 5 5 5 5 6 5 5 5 5 5 5 5 5 5 5 5 5 5 5 5 5 5 5 5 5 5 5 5 5 5 5 5 5 5 5 5 5 5 5 5 5 5 5 5 5 5 5 5 5 5 5 5 5 6 5 6 5 6 5 5 5 5 5 5 5 5 5 5 5 5 5 5 5 5 5 5 5 6 5 5 5 5 6 5 5 5 5 5 5 5 5 6 5 5 5 5 5 5 5 5 5 5 5 5 6 5 6 5 6 5 5 5 5 5 6 5 5 6 5 5 5 6 6 5 5 5 6 5 5 5 6 5 6 5 5 5 5 5 5 5 5 5 5 5 5 5 5 6 5 6 5 5 5 5 5 5 5 5 6 5 5 5 5 5 5 5 5 5 5 6 5 5 5 5 5 5 5 5 5 5 5 5 5 5 5 5 6 5 5 5 5 5 6 5 5 5 5 6 5 6 5 5 5 6 5 5 5 5 5 5 5 5 5 5 5 5 5 5 5 5 5 5 5 5 5 5 5 5 5 5 5 5 5 5 5 5 6 6 5 6 5 5 6 5 6 5 5 5 6 5 5 5 5 5 6 5 5 5 6 5 5 6 5 5 6 5 5 5 5 5 5 5 5 5 6 5 5 5 5 5 5 5 6 5 5 5 6 5 5 6 5 5 5 5 5 5 5 5 6 6 5 5 5 5 6 5 5 6 5 5 5 5 5 5 5 5 5 5 5 5 5 5 5 5 5 6 5 5 6 5 6 5 6 5 5 5 5 5 6 5 5 6 5 6 5 5 5 5 5 6 5 5 5 6 5 5 5 6 5 5 6 5 5 5 5 6 6 5 5 5 5 5 5 5 6 6 5 5 5 6 5 5 5 5 5 5 5 5 5 5 6 5 5 5 5 5 5 5 5 6 5 5 6 5 5 5 5 5 5 5 5 5 5 5 5 5 5 5 5 5 5 6 5 6 5 5 5 5 5 5 5 5 5 5 5 5 5 5 5 5 5 5 5 5 5 5 5 5 5 5 5 5 5 5 5 5 5 5 5 5 5 5 5 5 5 5 5 5 5 5 5 5 5 5 5 6 5 5 5 5 5 5 5 5 5 5 5 5 5 5 5 5 5 5 6 5 5 5 6 5 6 5 5 5 5 5 6 5 6 5 5 5 5 5 6 6 5 5 5 5 5 5 5 5 5 5 5 5 5 5 6 6 5 5 5 5 5 5 5 5 5 5 5 6 5 6 5 6 5 5 5 6 5 6 5 5 5 5 5 5 5 5 5 5 5 5 6 6 5 5 5 5 5 5 5 5 5 5 5 5 5 5 5 5 5 5 5 5 5 5 5 5 5 5 5 5 5 6 5 5 5 6 5 5 5 5 5 5 6 5 5 5 5 5 5 5 5 5 5 5 5 5 5 5 6 5 5 5 5 5 5 5 5 5 5 5 5 5 5 5 5 5 5 5 5 5 5 6 5 5 5 6 6 5 5 5 5 5 5 5 6 5 5 5 5 5 5 5 5 6 5 5 6 5 5 6 5 5 5 5 5 5 5 6 5 5 5 5 5 5 5 5 6 5 5 5 5 5 5 5 5 5 5 5 5 5 5 5 5 5 5 5 5 5 6 5 6 5 5 5 5 5 5 5 5 5 5 5 5 5 5 5 5 5 5 5 5 5 5 5 5 5 5 5 5 5 5 6 5 5 5 5 5 5 5 5 5 6 5 5 5 5 5 5 5 5 5 5 5 5 5 5 6 5 5 5 5 5 5 5 5 5 5 5 5 5 5 5 5 5 5 5 6 5 5 5 6 5 5 5 5 5 5 5 5 5 5 5 5 5 5 5 5 5 6 5 5 5 5 5 5 5 5 6 5 5 5 5 5 5 5 5 5 5 5 5 5 5 5 5 5 5 5 5 5 5 5 5 5 5 5 5 5 6 5 5 5 6 5 5 6 5 5 5 6 5 6 5 6 6 5 5 5 5 6 6 5 5 5 5 5 6 5 5 5 6 5 5 5 5 5 5 5 5 5 5 5 5 5 5 5 5 5 5 6 5 5 5 6 5 5 5 5 5 5 5 5 5 5 5 5 5 5 5 5 5 5 5 5 6 5 5 5 5 5 5 5 5 6 5 5 5 5 6 6 5 5 5 5 5 5 5 5 5 5 5 5 5 5 5 5 5 5 5 6 5 5 5 6 5 6 5 5 6 5 5 5 5 5 5 5 6 5 5 5 6 5 5 6 5 5 5 5 5 6 6 5 5 5 5 5 5 5 5 5 5 5 6 5 5 5 6 5 5 5 6 5 6 5 5 5 5 6 5 5 5 5 5 5 5 5 5 5 5 5 5 6 5 5 5 6 5 5 5 6 5 5 5 5 5 5 5 5 5 5 5 6 5 5 5 5 5 5 5 5 5 5 5 5 5 5 5 5 5 5 5 5 5 5 5 5 5 5 5 5 5 5 5 5 5 5 5 6 5 5 5 5 5 5 5 5 5 5 5 5 5 5 5 5 5 5 5 6 5 5 5 5 5 5 6 5 5 5 5 5 6 5 5 5 5 5 5 5 5 5 5 6 5 5 5 5 5 5 5 5 5 5 5 5 6 5 5 5 5 5 5 5 5 5 5 5 5 5 5 5 5 5 5 5 5 5 5 5 5 6 5 5 5 5 5 5 5 5 5 5 5 5 5 6 5 5 5 5 5 5 5 5 5 5 5 5 5 5 5 5 5 5 5 5 5 5 5 5 5 5 5 5 5 5 6 6 5 5 5 5 5 5 5 5 5 5 5 5 5 5 5 5 5 5 5 5 5 5 5 5 5 5 5 5 6 5 5 5 6 5 5 5 5 5 6 5 5 5 5 5 5 5 5 6 5 5 5 5 5 6 5 5 5 6 5 5 5 5 6 5 5 5 5 5 5 5 5 5 5 5 6 5 5 5 5 5 5 5 5 5 5 5 5 5 5 6 5 5 5 5 5 5 5 5 6 5 5 5 5 5 5 5 5 5 5 5 5 5 5 5 5 5 5 5 5 5 5 5 5 5 5 5 6 5 5 5 5 5 5 5 5 5 5 5 6 5 5 5 5 5 5 5 5 5 5 5 5 5 5 6 5 5 5 5 5 5 5 5 6 5 5 6 5 5 5 5 6 5 5 6 5 6 5 6 5 5 6 5 5 5 5 5 5 5 5 5 5 5 5 6 6 5 5 6 5 5 5 5 5 5 5 5 5 5 5 5 6 5 5 5 5 5 5 5 5 5 5 5 5 5 5 6 5 6 5 5 5 5 5 5 6 5 5 5 5 5 5 6 5 5 5 5 6 5 6 5 5 5 6 6 5 5 6 5 6 5 5 6 5 5 5 5 5 5 5 5 5 5 5 5 6 5 5 5 5 5 5 5 6 5 5 5 5 5 5 5 5 5 5 5 5 5 6 5 6 5 6 5 6 5 6 6 6 5 5 5 6 5 5 5 6 5 5 6 6 5 5 5 6 5 5 5 5 5 5 6 5 5 5 5 5 5 5 5 5 5 5 5 5 5 5 5 5 5 6 6 5 5 5 6 6 5 5 6 5 6 5 5 5 5 5 5 5 5 6 5 5 5 5 5 5 5 5 5 5 5 6 5 5 6 6 5 5 5 6 5 5 6 5 5 5 5 5 5 5 5 5 5 6 5 6 6 5 5 6 5 6 5 5 6 6 5 5 5 5 5 5 6 5 6 5 5 6 5 5 5 5 5 5 6 5 5 5 5 5 5 5 5 5 6 5 6 5 5 5 5 5 5 6 5 5 5 5 5 5 5 5 5 5 5 5 5 5 5 5 5 5 5 5 5 5 5 5 5 5 5 5 5 5 5 5 6 5 5 5 5 5 6 5 5 5 5 5 5 6 5 5 5 5 5 5 5 5 5 5 5 5 6 5 5 5 5 5 6 5 5 5 5 5 6 5 5 5 5 5 5 5 5 5 5 5 5 5 5 5 5 5 5 5 5 6 6 5 5 5 6 5 5 5 5 5 5 5 5 5 5 5 5 5 6 5 5 6 5 5 5 5 5 5 5 5 5 5 5 5 5 5 5 5 5 5 5 5 5 5 5 5 5 5 5 5 5 5 5 5 5 5 5 5 5 5 6 5 5 5 5 5 5 5 6 5 5 5 5 5 5 5 5 5 6 5 5 5 5 5 5 5 6 5 5 6 5 6 6 5 5 6 5 5 6 5 6 5 6 5 5 5 5 5 6 5 5 5 5 5 5 6 5 5 5 5 5 5 5 5 5 5 5 6 5 5 6 5 6 5 5 5 6 5 5 5 5 5 5 5 5 5 5 5 5 6 5 5 5 5 5 5 5 5 5 6 5 5 5 5 5 6 5 5 5 6 5 6 5 5 5 6 6 6 6 5 6 5 5 5 5 5 6 5 5 5 5 5 5 5 6 5 5 5 5 5 6 6 5 5 5 5 5 5 5 5 6 5 5 5 6 6 5 5 5 5 5 5 6 5 5 5 5 5 5 5 5 6 5 5 5 5 5 5 6 5 5 5 5 5 5 5 5 5 5 5 5 5 5 5 5 6 5 5 5 6 6 5 5 5 5 5 5 6 5 5 5 6 5 5 5 5 5 5 5 5 5 5 5 5 5 5 5 5 6 5 5 5 5 6 5 5 6 5 5 5 6 6 5 5 5 5 5 5 5 5 5 5 5 6 5 5 6 5 5 5 5 5 5 5 5 5 5 5 5 5 5 5 5 5 5 5 5 5 5 5 5 5 5 5 5 5 6 5 6 5 5 5 5 5 5 5 5 5 5 5 5 5 5 5 5 5 5 5 5 5 6 5 5 5 5 5 5 5 5 5 5 5 5 5 5 5 5 5 5 5 5 5 5 5 5 5 5 5 5 5 5 5 5 5 5 5 5 5 5 5 5 5 5 5 5 5 5 6 5 5 5 5 5 5 5 5 5 5 5 5 6 6 5 5 5 5 5 5 5 6 5 5 5 5 5 5 5 5 6 6 5 5 5 6 5 5 5 5 5 5 5 5 5 5 5 5 5 5 5 5 6 5 5 5 6 5 5 5 5 5 6 5 5 5 5 5 5 5 5 5 5 6 5 5 5 6 5 5 5 6 5 5 5 5 5 5 5 5 5 5 6 5 5 5 6 5 5 5 5 6 5 5 5 5 5 5 5 6 5 5 6 5 5 5 5 5 6 5 5 5 5 5 5 6 6 5 6 6 5 5 5 5 6 6 6 5 6 5 6 5 6 5 5 6 5 6 6 5 5 6 5 5 5 6 5 5 5 5 5 5 5 5 5 5 5 5 5 5 6 5 5 6 5 5 6 5 5 5 5 6 6 5 6 5 5 5 6 5 6 6 5 6 6 5 5 5 6 5 5 5 5 5 5 5 5 5 5 6 5 5 6 5 6 5 5 5 5 5 6 5 5 6 5 5 5 6 5 6 6 5 5 5 6 5 5 5 6 5 5 6 5 5 5 5 5 5 5 5 5 5 5 5 5 5 5 5 5 5 6 5 6 5 5 6 5 5 5 5 5 6 5 5 6 5 5 5 6 5 5 5 6 5 5 5 6 5 5 5 5 5 5 5 5 5 5 5 5 5 5 5 5 5 5 5 5 5 5 5 5 5 5 5 5 5 5 5 5 5 5 5 5 5 5 5 5 5 5 5 5 5 5 5 5 5 5 5 5 5 5 5 5 5 5 5 5 5 5 5 5 5 5 5 5 5 5 5 5 5 5 5 5 5 5 5 5 5 5 5 5 6 5 5 5 5 5 5 5 5 5 5 5 5 5 6 5 5 6 5 5 5 5 5 5 5 5 5 5 6 5 6 5 5 6 6 5 5 5 5 6 5 5 5 6 6 5 6 5 5 5 5 6 5 5 5 5 5 5 5 5 5 6 5 5 5 6 5 5 5 5 5 6 5 6 5 5 5 5 6 5 5 5 5 5 5 5 6 5 5 5 5 5 5 5 5 5 5 6 5 5 5 5 5 5 5 6 6 5 6 5 5 5 5 5 5 6 5 5 5 5 5 6 5 5 5 5 5 5 6 5 6 5 6 6 5 6 5 5 5 5 6 5 5 5 6 5 5 6 5 6 5 5 5 5 5 5 5 6 5 5 5 5 6 5 5 5 5 5 5 5 5 5 5 5 5 5 5 5 5 6 5 5 5 5 5 6 5 6 5 5 5 5 5 6 5 5 5 6 5 5 5 5 5 5 5 5 6 5 6 5 5 5 5 5 5 5 5 5 5 6 6 5 5 5 6 5 5 5 5 5 5 5 5 5 5 5 5 5 5 5 5 5 5 5 5 5 5 5 5 5 5 5 5 5 5 5 5 5 5 5 5 5 5 5 5 5 5 5 5 5 5 5 5 5 5 5 5 5 5 5 5 5 5 5 6 6 5 5 5 5 5 5 5 5 6 5 5 6 5 5 5 5 6 5 6 5 5 5 5 5 5 5 5 5 5 5 5 5 5 5 5 5 5 5 5 5 5 5 6 5 6 5 5 5 5 5 5 5 5 5 6 5 5 5 5 6 6 5 5 5 5 6 5 6 5 5 5 5 5 5 5 5 5 5 6 5 5 5 6 5 5 5 5 5 5 5 5 5 5 5 5 6 5 5 6 5 5 5 6 5 6 5 5 6 5 6 5 5 5 5 5 5 5 6 5 5 6 5 5 6 5 5 5 5 5 5 5 5 5 5 5 5 5 5 5 6 5 5 5 5 5 6 5 5 5 5 5 5 5 5 5 5 5 5 5 6 5 5 5 5 5 5 5 5 5 5 5 5 5 5 5 5 5 5 5 6 6 6 5 5 5 6 5 6 5 5 5 6 6 6 5 5 5 5 5 5 6 5 5 5 5 5 5 5 5 5 5 5 6 5 5 5 5 5 5 5 5 5 5 6 5 6 5 5 5 5 6 6 5 5 6 5 5 5 6 5 5 5 5 5 5 5 5 6 5 5 5 5 5 5 5 5 5 6 5 5 5 6 5 5 6 5 5 5 6 6 5 5 5 5 5 5 5 5 5 5 5 5 5 5 5 5 5 5 5 5 5 5 5 5 5 5 5 5 5 5 5 5 5 5 5 5 5 5 5 5 5 5 5 5 5 5 5 5 5 5 6 5 5 5 6 5 5 5 5 5 5 5 5 5 5 5 5 6 5 5 6 5 5 5 5 5 5 5 5 5 5 5 5 5 5 5 5 5 5 6 5 5 5 5 5 5 5 5 5 5 5 5 5 5 5 6 5 5 5 5 5 5 5 5 5 5 5 5 6 5 5 5 5 5 5 5 5 6 5 5 5 5 6 5 5 5 6 5 5 5 5 5 5 5 5 5 5 5 5 5 5 5 5 5 5 5 5 5 5 5 5 5 5 5 5 5 5 5 5 5 5 5 5 5 6 5 5 5 5 5 6 5 6 5 5 5 5 5 5 5 6 5 5 5 5 5 5 5 5 5 5 5 5 5 5 5 5 5 5 5 5 5 5 5 5 5 5 5 5 5 5 5 5 5 5 5 5 5 6 5 5 6 5 5 5 5 5 5 5 5 5 6 5 5 5 6 6 5 5 5 5 6 5 5 5 6 5 5 5 5 5 5 5 5 5 5 5 5 5 5 5 5 6 5 5 5 5 5 5 5 5 5 5 5 5 5 5 5 5 6 5 5 5 6 5 5 5 5 5 5 5 5 5 5 5 5 5 5 5 5 5 6 5 5 5 5 5 5 5 6 5 5 5 5 5 5 5 5 5 5 5 6 5 5 5 6 5 5 5 5 5 5 5 5 6 5 5 5 5 5 5 5 5 5 5 5 5 5 5 5 5 5 5 5 5 5 5 5 5 5 5 5 5 6 5 5 5 5 5 5 5 6 5 5 5 5 5 6 5 5 5 5 6 5 5 5 6 5 5 6 5 5 5 5 5 5 5 6 5 5 5 5 6 5 5 5 5 5 5 5 5 5 5 6 5 5 5 5 5 5 5 5 5 5 5 5 5 5 5 5 5 5 5 6 5 6 5 5 5 6 5 5 5 5 5 5 5 5 5 5 6 5 5 5 5 6 5 5 5 5 5 5 5 5 5 5 5 5 5 5 5 5 5 5 5 5 5 5 5 5 5 5 6 5 5 5 5 5 6 5 5 5 5 5 6 5 5 5 5 6 5 6 5 5 5 5 5 5 6 6 5 6 5 5 5 5 5 5 5 5 5 6 5 5 6 5 5 5 5 5 5 5 5 5 5 5 5 5 5 5 5 6 5 5 5 5 6 5 5 5 5 5 5 5 5 5 5 5 5 5 5 5 5 6 5 5 5 6 5 5 5 5 5 6 5 5 6 5 5 5 5 5 6 5 5 5 5 5 5 6 5 5 5 5 5 5 5 5 5 5 5 5 5 5 5 5 5 5 5 5 5 6 5 5 6 5 5 5 5 6 5 5 5 5 6 5 6 5 5 6 5 5 6 5 5 5 5 5 5 5 5 6 5 5 6 5 5 5 5 5 5 5 5 5 5 5 5 5 5 5 5 5 5 5 5 5 5 5 5 5 5 5 6 5 5 5 5 6 5 5 5 6 5 5 5 5 5 5 5 5 5 5 5 5 5 6 5 5 5 5 5 5 5 5 6 5 5 5 5 5 5 5 5 5 5 5 5 5 5 5 5 5 5 6 6 5 5 6 5 6 5 5 6 5 5 5 5 5 5 5 5 5 5 5 5 5 5 5 5 5 5 6 5 5 5 5 5 6 5 5 5 5 5 5 6 5 5 5 5 5 5 5 5 5 5 5 5 5 5 5 5 5 5 5 5 5 5 5 5 5 5 5 5 5 5 5 5 5 5 5 5 5 5 5 5 5 5 5 5 5 5 5 5 5 5 5 6 5 5 5 5 5 5 6 5 6 5 5 5 5 5 5 5 5 5 5 5 5 5 5 5 5 5 6 5 5 5 5 6 6 5 5 5 5 5 5 5 5 5 5 5 5 5 5 5 5 5 6 5 5 5 5 5 5 5 5 6 5 5 6 5 5 5 5 5 5 5 5 5 5 5 5 5 5 5 5 5 5 6 5 5 5 5 5 5 5 5 6 5 5 5 6 5 5 6 5 5 5 5 5 5 5 5 5 5 5 5 5 5 5 5 5 5 5 6 5 5 5 5 5 5 5 5 5 5 5 5 5 5 5 5 6 5 5 5 5 5 5 5 5 6 5 5 5 5 5 5 6 5 5 6 5 5 6 5 5 6 5 5 5 5 6 5 5 6 5 5 5 5 6 5 5 6 5 6 5 6 5 5 5 5 5 5 5 5 5 6 6 5 5 5 5 5 6 5 5 6 6 5 5 5 5 5 5 5 5 5 5 5 5 5 5 5 5 5 5 5 5 5 6 5 5 5 5 5 5 5 5 5 5 5 5 5 5 5 5 5 5 5 5 5 5 5 5 5 5 5 5 5 5 5 5 5 6 5 5 6 6 5 5 5 6 6 5 5 5 5 5 5 5 5 5 5 5 5 5 5 5 6 5 5 5 5 5 5 5 5 6 5 5 5 5 5 5 5 5 5 5 5 5 6 5 5 5 5 6 5 5 5 5 5 6 5 6 5 5 5 5 5 5 6 5 6 5 6 5 5 6 5 5 6 5 5 5 5 5 5 5 5 5 5 5 6 5 5 5 5 5 5 5 5 5 5 5 5 5 5 6 5 5 5 5 5 5 5 5 5 6 5 5 5 5 6 5 5 5 5 5 5 5 5 5 5 6 5 5 5 5 5 5 5 5 6 5 5 5 5 6 5 5 5 6 5 5 5 5 6 5 5 5 5 5 5 5 5 5 5 5 5 5 6 5 5 6 5 5 5 5 5 5 5 5 5 5 5 5 5 5 5 5 5 6 5 6 5 5 5 5 6 5 5 5 5 5 5 5 5 5 5 5 5 5 5 6 5 5 6 6 5 5 5 5 5 5 5 5 5 5 5 5 5 5 5 5 5 5 5 5 5 5 5 5 5 5 5 5 5 5 5 5 5 5 5 5 6 5 5 5 5 6 5 5 6 5 5 5 6 5 5 5 6 5 5 5 5 5 5 5 5 6 5 6 5 6 5 5 6 5 5 5 5 5 6 6 5 6 5 5 5 5 5 5 5 5 5 6 5 5 5 5 5 5 5 5 5 5 5 5 5 5 5 5 5 6 5 5 5 5 5 5 5 5 5 5 6 5 5 5 6 5 6 5 5 5 6 5 6 6 5 5 5 5 6 5 5 5 5 5 5 5 5 6 5 5 5 6 5 5 6 6 5 6 5 5 6 5 5 5 5 5 6 5 6 5 5 5 6 5 5 5 5 5 5 6 5 5 5 5 5 5 5 6 5 5 5 5 5 5 5 5 5 5 5 5 6 5 5 5 5 5 5 6 5 5 5 5 5 5 5 5 5 5 5 5 5 5 5 5 6 5 5 5 6 5 5 6 5 5 5 6 5 6 5 6 5 5 5 5 5 5 5 5 5 5 5 5 5 5 5 6 5 5 5 5 5 5 5 5 5 5 5 5 5 5 5 5 6 5 6 5 6 6 5 5 6 5 6 5 5 5 5 5 5 5 6 5 5 5 5 5 5 5 5 6 5 6 5 5 5 5 6 5 5 5 5 5 6 5 6 5 5 5 5 5 5 6 5 5 5 5 5 5 5 5 5 5 5 6 5 5 5 5 5 5 5 5 5 5 5 5 6 5 5 5 5 5 6 5 5 5 5 5 5 6 5 5 5 5 5 5 5 5 5 5 5 5 5 5 5 5 5 5 5 5 5 5 5 5 5 5 6 5 5 5 6 5 5 5 5 5 5 5 5 5 5 5 5 5 5 5 5 5 6 5 5 5 6 5 5 5 5 6 5 5 5 5 5 5 5 5 5 5 5 5 5 5 5 5 5 5 5 5 5 6 6 5 5 5 6 5 5 5 5 6 5 5 6 5 5 6 5 5 5 6 5 5 5 5 5 5 5 5 6 5 5 6 5 5 5 6 5 5 6 6 5 5 5 6 5 6 5 5 5 5 5 5 6 6 5 5 5 5 5 5 5 6 5 5 5 5 5 5 5 5 5 5 5 5 5 5 5 5 5 6 5 5 5 6 5 5 5 5 5 5 5 5 5 5 5 5 5 5 5 5 5 5 5 6 6 5 5 5 5 5 5 5 6 5 5 5 5 5 5 5 6 5 5 5 5 5 5 5 6 5 5 5 5 5 5 5 5 5 5 5 5 5 5 5 5 5 5 5 5 5 5 5 5 5 5 5 5 6 5 5 5 5 5 5 5 5 5 5 5 5 5 6 5 5 5 5 5 6 5 5 5 6 6 5 5 5 5 5 5 5 5 5 6 5 5 6 6 6 5 6 5 5 5 5 5 6 5 5 5 5 5 6 5 5 6 5 5 5 5 5 5 5 5 6 5 6 6 5 5 5 5 5 5 5 5 6 6 5 5 6 5 5 5 6 5 5 5 5 5 5 5 5 5 5 6 5 5 5 5 6 6 5 5 5 5 5 5 5 5 5 5 6 5 5 5 5 5 5 5 5 5 5 5 5 5 5 5 5 5 5 5 5 5 5 5 5 5 5 5 5 5 5 5 5 5 5 5 6 5 5 5 5 5 5 6 6 5 5 5 5 5 5 5 5 5 5 5 5 5 5 5 5 5 5 5 5 5 5 5 6 5 5 5 5 5 5 5 5 5 5 5 5 5 5 5 5 5 5 5 5 5 5 5 5 5 5 5 5 5 5 5 5 6 5 5 5 5 5 5 5 6 5 5 5 5 5 5 6 5 5 5 5 5 5 5 6 5 6 5 5 5 6 5 5 5 5 5 6 5 5 6 5 5 5 5 5 5 5 5 5 5 5 6 5 5 5 5 5 5 5 5 5 5 5 5 5 5 5 6 5 5 5 5 5 5 5 5 6 5 5 5 5 5 5 5 5 5 5 5 5 6 5 5 5 5 5 6 5 5 5 5 5 5 5 6 5 5 5 5 5 6 5 5 5 5 5 5 5 5 6 5 5 5 5 5 5 5 5 5 5 5 5 5 5 5 6 5 5 5 5 5 5 5 5 5 5 5 5 5 6 5 5 5 5 6 5 5 6 5 5 5 5 5 5 5 5 6 5 5 6 5 5 5 5 5 5 6 5 5 5 5 5 5 5 5 5 5 5 5 5 5 5 5 5 5 5 6 5 5 5 5 6 5 5 5 5 5 5 5 5 5 5 5 5 5 5 5 5 5 5 5 5 5 5 5 5 5 5 5 5 5 5 5 5 5 5 5 5 5 5 5 5 5 5 5 5 5 5 5 5 5 5 5 5 5 5 5 5 5 5 5 6 6 5 5 6 5 5 5 5 5 6 5 5 5 5 5 6 5 5 5 5 6 5 5 6 5 5 5 5 5 5 5 6 5 5 5 6 5 5 5 5 5 5 5 6 5 5 5 6 5 6 5 5 5 5 5 5 6 6 5 5 5 6 5 6 5 5 5 5 5 6 5 5 5 5 5 5 6 5 5 5 6 5 5 5 5 5 5 5 5 5 5 5 5 6 5 5 5 5 5 5 6 5 5 5 5 6 5 5 5 5 6 5 6 5 6 5 5 5 6 5 5 5 6 6 5 5 5 5 6 5 5 5 6 5 5 5 5 5 5 5 5 5 5 5 5 5 5 5 5 6 5 5 5 5 5 5 5 5 5 5 5 5 5 6 5 5 5 6 5 5 5 5 5 6 5 5 5 5 5 6 5 5 5 5 5 5 5 6 5 5 5 5 5 5 5 5 5 6 5 5 5 5 5 5 5 6 5 5 5 5 5 5 5 5 5 5 5 5 5 5 5 6 5 5 5 5 5 5 5 5 5 5 5 5 5 5 5 5 5 5 5 5 5 5 5 5 5 5 5 5 5 5 5 5 5 5 5 5 5 6 5 5 5 5 5 5 6 5 5 5 6 5 5 5 5 5 5 6 5 5 5 6 5 5 5 5 6 5 5 5 5 5 5 5 5 5 5 5 5 5 5 5 5 5 5 5 5 5 5 5 5 5 5 5 6 5 5 5 5 5 5 5 5 5 5 5 5 5 5 5 5 5 5 5 5 5 5 5 6 5 5 5 5 6 5 5 5 6 5 5 5 5 5 6 5 5 5 5 5 6 5 5 5 5 5 5 5 5 5 5 5 5 6 5 6 5 5 5 5 5 5 5 5 6 5 5 6 5 5 5 5 5 5 5 5 5 5 5 5 6 5 5 5 5 5 6 5 5 6 5 5 5 5 5 5 5 5 5 5 5 5 5 5 5 5 5 6 5 5 6 6 5 5 6 5 5 5 5 6 5 6 6 5 5 5 5 5 5 5 5 5 6 5 5 6 5 5 5 5 5 5 5 5 5 6 5 5 5 5 5 6 5 5 6 6 5 6 5 6 5 5 5 5 6 5 6 5 5 5 5 5 5 6 5 5 5 5 5 5 5 5 5 5 5 5 5 5 5 5 5 5 5 5 5 5 5 5 5 5 5 5 5 5 5 5 5 5 6 5 5 5 5 5 6 6 5 6 5 6 5 5 5 6 5 5 5 5 5 6 5 5 5 5 5 5 5 5 6 5 6 5 5 6 6 5 6 5 6 5 5 5 5 5 5 5 6 5 5 6 6 5 5 5 5 5 6 6 5 5 6 6 5 5 5 6 5 5 5 6 5 5 5 5 5 5 5 5 5 5 5 5 5 5 5 5 5 5 5 6 5 5 6 5 5 5 5 5 6 5 5 5 5 5 5 5 5 5 5 5 5 5 5 5 5 6 5 5 5 5 5 5 5 5 5 5 6 5 5 6 5 5 5 5 5 6 5 5 5 5 5 5 6 5 5 6 5 5 5 5 5 5 5 6 5 6 5 6 6 6 6 5 6 5 5 5 5 6 6 6 5 6 5 5 5 5 6 5 6 5 5 5 6 5 5 5 5 6 5 5 6 5 5 5 5 5 5 5 5 5 5 5 5 5 5 5 5 5 5 5 6 5 5 5 5 5 6 5 5 6 5 5 5 5 5 5 5 5 5 6 5 6 5 5 5 5 5 5 6 5 5 5 5 5 5 5 5 5 5 5 5 5 5 5 5 5 5 5 5 5 5 5 5 5 5 5 5 5 5 5 5 5 5 5 5 6 5 5 6 5 5 5 6 5 5 5 5 5 5 5 5 5 5 5 5 5 5 5 5 5 5 6 5 5 5 5 5 5 5 5 5 5 6 6 6 5 5 5 5 6 5 5 5 5 5 5 5 5 5 5 5 5 5 5 5 5 5 5 6 5 5 5 5 5 5 5 5 6 5 5 5 6 5 6 5 6 5 6 5 6 5 5 5 5 5 6 5 5 6 6 6 5 6 6 5 5 5 5 5 6 6 5 5 5 6 6 5 5 5 5 5 6 5 6 5 5 5 5 6 6 5 5 6 5 6 5 5 6 5 6 6 5 5 5 6 6 5 5 6 6 6 5 5 5 6 5 6 6 5 5 6 6 5 6 5 6 5 5 5 5 5 5 6 5 5 5 5 5 5 5 6 6 5 6 6 5 5 5 5 6 5 5 5 6 5 5 5 5 5 6 5 5 6 6 5 5 5 5 6 5 5 5 5 5 6 5 5 5 5 5 5 5 6 6 6 6 5 5 5 5 5 6 6 5 5 6 5 5 5 6 5 5 5 5 5 5 6 5 5 5 5 6 6 6 5 6 5 5 6 5 5 5 5 5 5 5 5 5 6 5 5 5 5 6 5 5 6 5 5 5 5 5 5 5 5 5 5 5 5 5 5 5 5 5 5 5 5 5 5 5 5 5 5 5 6 5 5 5 5 5 5 5 5 5 5 5 5 5 5 5 5 5 6 5 5 5 5 5 5 5 6 5 5 5 5 5 6 5 5 5 5 5 5 5 5 5 5 5 5 5 5 5 5 5 5 5 6 5 5 5 5 5 5 5 6 5 5 5 5 5 5 5 5 5 5 6 5 5 5 5 5 5 5 6 5 5 5 5 5 6 5 5 5 5 5 6 5 5 5 5 6 5 5 5 5 5 5 5 5 5 5 5 5 5 5 5 6 5 5 6 5 5 5 5 6 5 5 5 5 5 5 5 5 5 6 5 5 5 6 6 5 6 5 5 5 5 5 5 5 5 5 6 5 5 6 6 6 5 5 6 5 5 6 5 5 5 5 6 6 5 5 6 5 6 5 5 5 6 5 5 6 6 5 6 5 5 5 5 5 5 5 5 6 5 5 5 5 5 5 5 5 6 5 5 5 5 5 5 5 5 5 5 5 5 5 5 5 5 5 6 5 5 5 5 6 5 5 6 5 5 5 5 5 5 5 5 5 5 5 5 5 5 6 5 5 5 6 5 5 5 6 5 5 5 5 5 5 5 5 5 5 5 5 5 6 5 5 5 5 5 5 5 5 5 5 5 5 5 6 5 5 5 5 5 5 5 5 5 5 5 5 5 5 5 5 5 5 5 6 5 6 6 5 5 6 6 6 5 5 5 6 6 5 5 5 5 6 6 5 5 5 5 5 5 5 5 5 5 5 5 5 5 6 5 5 5 5 5 6 5 5 5 5 5 5 5 5 5 6 5 5 5 5 6 5 5 5 6 5 5 5 5 5 5 5 5 6 5 5 5 5 5 5 5 5 5 5 5 6 5 5 5 5 5 5 5 5 5 5 5 5 5 5 5 5 5 5 6 5 5 5 5 5 5 6 5 5 5 6 5 5 6 5 5 5 5 5 5 5 5 6 5 5 5 6 5 5 5 5 5 5 6 5 5 5 5 6 5 6 5 5 5 5 5 5 5 5 5 5 6 5 5 5 5 5 6 5 5 5 6 5 5 5 5 5 6 5 5 5 5 5 5 5 5 5 5 6 5 5 5 5 5 6 5 5 6 5 5 5 5 5 5 5 5 5 5 6 5 5 6 5 5 5 5 5 5 6 5 5 6 5 5 5 5 5 5 5 5 5 5 5 5 5 5 5 5 5 5 5 5 5 5 5 5 5 5 5 5 5 5 5 5 5 5 5 5 5 5 5 5 5 5 5 5 5 5 5 5 5 5 5 6 5 5 5 6 5 5 5 5 5 5 6 5 5 5 5 5 5 5 5 5 5 5 5 5 5 5 5 5 5 5 5 5 5 5 5 5 5 5 5 5 6 5 5 5 6 5 5 5 5 5 5 5 5 5 5 5 5 5 5 5 5 5 5 5 5 5 5 5 5 5 5 5 5 5 5 6 5 5 5 6 5 6 5 5 5 5 5 5 5 5 6 5 5 6 5 5 5 5 5 5 5 6 5 5 5 5 5 5 5 5 5 6 5 5 5 5 5 5 5 5 5 5 5 5 5 5 5 5 5 5 5 5 5 5 5 5 5 5 5 5 5 5 6 5 5 5 5 5 5 5 5 5 5 5 5 5 5 6 5 5 5 5 5 6 6 5 5 5 5 6 5 5 5 5 5 5 6 6 5 5 5 6 5 5 6 5 5 5 5 5 5 5 5 5 5 5 5 5 5 5 5 5 5 5 5 5 5 5 6 6 5 6 5 5 6 5 5 5 6 5 5 5 5 5 5 5 5 5 5 5 5 5 5 5 5 5 5 5 5 6 5 5 6 5 5 5 6 5 5 6 5 6 5 5 5 5 5 5 5 5 5 5 5 5 5 6 5 5 5 5 6 5 5 5 5 5 5 5 5 5 5 5 5 5 5 5 6 5 5 5 5 5 5 5 5 5 6 5 6 5 5 5 6 5 5 5 5 5 5 5 5 5 5 6 5 6 5 5 5 5 5 5 6 5 5 5 5 6 5 5 5 5 6 5 5 5 5 5 5 5 5 5 5 5 5 5 5 5 5 5 5 5 6 5 5 5 5 5 5 5 5 5 5 5 5 5 5 5 5 5 5 6 6 5 5 5 5 5 5 6 5 6 5 5 5 5 6 5 5 5 5 5 5 5 5 5 5 6 5 5 5 5 5 5 6 5 5 6 6 5 5 6 5 6 5 5 5 5 5 6 6 5 5 5 5 5 5 6 5 5 6 6 6 5 5 5 5 5 5 5 6 6 6 5 5 6 5 5 5 6 5 6 5 5 5 5 5 5 5 5 6 5 5 6 5 5 5 5 5 5 6 5 6 5 5 5 5 6 6 5 5 5 5 5 5 5 5 5 5 6 5 5 5 5 6 5 5 5 5 5 5 5 6 5 5 5 5 5 6 6 5 6 5 5 6 5 5 6 5 5 5 6 5 5 5 5 5 5 6 5 6 5 6 6 5 5 5 6 5 5 5 5 6 6 5 6 5 5 5 5 5 6 6 5 5 5 6 5 5 6 5 5 5 5 5 5 5 5 5 5 5 5 5 5 5 6 5 6 5 5 5 6 5 6 5 5 5 5 5 5 5 5 5 5 6 5 5 6 5 5 5 6 6 5 5 5 5 6 5 5 5 5 5 5 5 5 5 5 5 5 5 5 5 
</DataArray>
<DataArray type="Float64" Name="stress" NumberOfComponents="9" format="ascii">
-67.223449688494398 -426.01195641448066 0 -426.01195641448066 4996.0630653941953 0 0 0 0 -0.53654343468598609 -34.859909410908585 0 -34.859909410908585 4204.9778831209842 0 0 0 0 -20.142531350345919 -96.925933406480908 0 -96.925933406480908 4516.6532745399018 0 0 0 0 408.93302913764518 -510.58036229960999 0 -510.58036229960999 3922.4986004296152 0 0 0 0 308.26495643550606 -926.76321126998664 0 -926.76321126998664 3651.6902601301845 0 0 0 0 -284.47836148890093 -863.79273361806554 0 -863.79273361806554 4121.0941667724546 0 0 0 0 -461.04240895435134 -1524.2435390472892 0 -1524.2435390472892 4139.244107664168 0 0 0 0 -583.2611698594643 -994.67811077477927 0 -994.67811077477927 5000.8148649579452 0 0 0 0 -172.65540668768864 -1124.7160231766538 0 -1124.7160231766538 1862.9385204325517 0 0 0 0 -1192.5630224781512 -455.91630258734949 0 -455.91630258734949 4028.1434808201639 0 0 0 0 -1118.1329695870054 1695.6595679801831 0 1695.6595679801831 1205.5938750871555 0 0 0 0 -551.51080467858537 -2571.0672936008195 0 -2571.0672936008195 8212.7301453847613 0 0 0 0 -9.4135317559099416 5.8596732701809628 0 5.8596732701809628 18.796155830885539 0 0 0 0 -79.527022768768916 -1327.9659807460739 0 -1327.9659807460739 3783.2275091604533 0 0 0 0 637.37131181166626 -407.66689748207864 0 -407.66689748207864 4300.7863474369769 0 0 0 0 -2862.0011121136149 480.33526379420073 0 480.33526379420073 6788.0534689357155 0 0 0 0 -116.03835997111072 -729.20609900453564 0 -729.20609900453564 5359.4639390750235 0 0 0 0 21.925192223877403 -209.6150151271213 0 -209.6150151271213 1034.6006344733032 0 0 0 0 -307.64783302794893 -2225.6769921055966 0 -2225.6769921055966 3739.5089854132966 0 0 0 0 18.544842019822227 1798.6521526551514 0 1798.6521526551514 6195.5919320957837 0 0 0 0 -318.39715207086635 -1952.2591624968311 0 -1952.2591624968311 -31.38768392149359 0 0 0 0 4.0054499578471177 -12.389939750156174 0 -12.389939750156174 24.316470498460774 0 0 0 0 -53.13565457590424 -382.36955953751749 0 -382.36955953751749 653.54771223467833 0 0 0 0 -780.78165814325371 298.33262858228409 0 298.33262858228409 36.04116837514448 0 0 0 0 958.39914398545261 -2100.1884711693565 0 -2100.1884711693565 2952.8695869825897 0 0 0 0 120.93777084080284 1826.3538605788126 0 1826.3538605788126 2399.957465145475 0 0 0 0 282.58593722859769 -1017.2505998256165 0 -1017.2505998256165 881.71711653490274 0 0 0 0 7.0074960351699342 -26.977735661227015 0 -26.977735661227015 53.274179426967748 0 0 0 0 -996.05248257086544 -255.90998507731274 0 -255.90998507731274 200.12618996547826 0 0 0 0 -208.90743221772937 136.82995255878632 0 136.82995255878632 207.29848103906261 0 0 0 0 -14.140043834952316 0.40227353613525452 0 0.40227353613525452 42.219428525338714 0 0 0 0 387.34073761976151 949.31048867082586 0 949.31048867082586 567.08450572851871 0 0 0 0 62.034367652838228 -352.26166158412525 0 -352.26166158412525 200.21108130944776 0 0 0 0 90.332972753431932 -417.33453018727596 0 -417.33453018727596 808.28335330693517 0 0 0 0 21.476932652034215 -31.367545126638021 0 -31.367545126638021 47.146480273334618 0 0 0 0 249.98006799746395 278.17662799688242 0 278.17662799688242 1159.9153442292154 0 0 0 0 -658.56033630546324 288.52606187465426 0 288.52606187465426 48.783775874213461 0 0 0 0 2.0269628544105998 3.6675859913652857 0 3.6675859913652857 31.699626539911492 0 0 0 0 -388.45911391971731 -365.83908101198176 0 -365.83908101198176 3592.3606966415973 0 0 0 0 149.77186700506627 -1125.8164854874485 0 -1125.8164854874485 2028.4314536218153 0 0 0 0 -300.17129108631616 -829.7007500470645 0 -829.7007500470645 4114.7315726360976 0 0 0 0 -24.270060803732576 892.18338387778203 0 892.18338387778203 2319.9185569569818 0 0 0 0 156.15715116884456 359.30007048812604 0 359.30007048812604 1196.5006132883136 0 0 0 0 63.257044897314394 849.93468664999091 0 849.93468664999091 -348.77737100268132 0 0 0 0 -673.35634470714365 457.10221543977241 0 457.10221543977241 711.88881867447344 0 0 0 0 0.16132268234816971 5.2534004030959522 0 5.2534004030959522 9.3022837485237915 0 0 0 0 181.53678946535467 -1399.4560005178309 0 -1399.4560005178309 4273.5509830583178 0 0 0 0 93.351743613546773 -613.61037006168044 0 -613.61037006168044 2476.8540853208251 0 0 0 0 -284.7352223782957 -457.37125053630007 0 -457.37125053630007 1207.868654875012 0 0 0 0 294.55139911841798 -548.49976975191385 0 -548.49976975191385 1070.2656484845793 0 0 0 0 -506.10888712863539 424.40599884722087 0 424.40599884722087 1194.0876807475288 0 0 0 0 147.49778062847699 -527.85009875692776 0 -527.85009875692776 745.66934235101508 0 0 0 0 2.0451584851788374 11.517096362914828 0 11.517096362914828 33.084069496326492 0 0 0 0 143.18419898689243 -466.36421454975789 0 -466.36421454975789 1359.0269748461433 0 0 0 0 0.79808996194911752 11.975991481464007 0 11.975991481464007 1388.9228685703856 0 0 0 0 130.38950240256341 -905.77247696009181 0 -905.77247696009181 3340.9591675264091 0 0 0 0 -60.03443820133603 10.429222988703259 0 10.429222988703259 1747.885222603767 0 0 0 0 61.838436543346646 -722.33081080709962 0 -722.33081080709962 4592.4665909175383 0 0 0 0 582.45192713623987 504.1773479683543 0 504.1773479683543 1011.9710233694568 0 0 0 0 600.04039920029675 527.46099592748214 0 527.46099592748214 -247.95583441302006 0 0 0 0 227.88503493489179 -944.88867091321663 0 -944.88867091321663 3648.8986656179914 0 0 0 0 2.4995853892596851 5.6443881038979669 0 5.6443881038979669 15.989559534024409 0 0 0 0 360.46200556906911 -1504.2648018064956 0 -1504.2648018064956 4041.5871316638004 0 0 0 0 416.05946110346667 -971.2449488046841 0 -971.2449488046841 2709.2633733731655 0 0 0 0 320.27240952042143 -1085.3647230688657 0 -1085.3647230688657 3084.4506544503383 0 0 0 0 393.3524632081635 -1124.8990561654464 0 -1124.8990561654464 2732.9301832185938 0 0 0 0 3.1148066070118512 1.6552123293521674 0 1.6552123293521674 7.8043436820606615 0 0 0 0 510.00673816686458 -268.81799649182722 0 -268.81799649182722 4625.6275536716203 0 0 0 0 357.54557896090267 -504.34978831539411 0 -504.34978831539411 5002.0734298401876 0 0 0 0 -25.040019157001922 31.367220736861782 0 31.367220736861782 4328.8593070261268 0 0 0 0 -147.74961463925104 -959.68879849511723 0 -959.68879849511723 4058.3428651982031 0 0 0 0 374.38038426873294 -765.34594059852679 0 -765.34594059852679 2257.2390765105119 0 0 0 0 521.32300497972187 -451.4827452634745 0 -451.4827452634745 2909.423270626743 0 0 0 0 -287.05139692208581 82.8741875030355 0 82.8741875030355 4989.8028289158683 0 0 0 0 322.30660601543661 353.05352908815803 0 353.05352908815803 308.52169494891132 0 0 0 0 137.364790715335 692.82696537280208 0 692.82696537280208 3064.278651378816 0 0 0 0 -219.90799755001325 -715.69694812666785 0 -715.69694812666785 2703.7059803902375 0 0 0 0 444.56880301009869 -1000.9761627112675 0 -1000.9761627112675 2631.4323911025785 0 0 0 0 1.0723523646394282 0.48060743051263444 0 0.48060743051263444 5.4891792154678711 0 0 0 0 4.7689009139156688 1.8417915908748057 0 1.8417915908748057 8.1016498039485896 0 0 0 0 335.12066635250187 -866.51598250175084 0 -866.51598250175084 2772.7733568316617 0 0 0 0 442.38177012920278 -698.40691952981069 0 -698.40691952981069 2913.2459040029426 0 0 0 0 964.17765868336357 -2526.250239334564 0 -2526.250239334564 4997.2584474958021 0 0 0 0 -25.610480269159979 -63.556580654396384 0 -63.556580654396384 2212.1931079343594 0 0 0 0 -1223.9819003152093 1577.590865292399 0 1577.590865292399 531.21775621196139 0 0 0 0 -405.22145414800184 -105.01998031920448 0 -105.01998031920448 3863.6511413144326 0 0 0 0 9.7906327426384081 -943.64864955917074 0 -943.64864955917074 3580.9309297692671 0 0 0 0 637.8077218526912 -573.84105328281476 0 -573.84105328281476 2086.7537939624453 0 0 0 0 -10.295889360665612 -676.0762630991012 0 -676.0762630991012 2326.0108463481301 0 0 0 0 -303.59513688477188 -948.93467679480091 0 -948.93467679480091 2153.9951918555671 0 0 0 0 -0.68644438362261151 6.8542208166416572 0 6.8542208166416572 17.006028280422299 0 0 0 0 -6.4894722620903122 18.443253501209739 0 18.443253501209739 34.062811390000093 0 0 0 0 58.976567383820282 -202.96753888065723 0 -202.96753888065723 2027.3798460796825 0 0 0 0 481.26797460187134 -1900.2543243817017 0 -1900.2543243817017 4626.9960931254172 0 0 0 0 -177.09244033004333 -1046.8665620947249 0 -1046.8665620947249 3566.1662112253625 0 0 0 0 -16.396415745291801 17.73877856143335 0 17.73877856143335 38.175069932833424 0 0 0 0 -180.46847266606423 -1138.3793940498581 0 -1138.3793940498581 3587.7171901787515 0 0 0 0 206.28742452097867 -1094.4426197550492 0 -1094.4426197550492 4359.1792044117028 0 0 0 0 18.055435438242966 -1440.3077655801972 0 -1440.3077655801972 5201.9287861291232 0 0 0 0 -4.3927554524199826 6.1477221168397307 0 6.1477221168397307 18.043103685422039 0 0 0 0 447.21804469041581 -2187.1871990683867 0 -2187.1871990683867 5318.1937640076012 0 0 0 0 410.29266676826774 -1719.1191942598671 0 -1719.1191942598671 4411.7740758818973 0 0 0 0 444.08476204693284 -616.68416058147523 0 -616.68416058147523 2757.0058748243173 0 0 0 0 -10.180468108368757 15.009044691884895 0 15.009044691884895 33.057717003061583 0 0 0 0 -80.402599974247096 -683.032864831599 0 -683.032864831599 313.71321132322919 0 0 0 0 -647.31581505039094 508.69124682326219 0 508.69124682326219 282.15706294916163 0 0 0 0 210.17877078144804 -1531.5911942059047 0 -1531.5911942059047 1699.3012088111864 0 0 0 0 691.84283327413732 -293.20042088900664 0 -293.20042088900664 345.52575808066467 0 0 0 0 -41.890583615377182 -477.47799766304524 0 -477.47799766304524 427.93682123913095 0 0 0 0 -86.587737923439136 -323.37517718821255 0 -323.37517718821255 668.11859432319761 0 0 0 0 2503.11115860983 -1754.8337177784342 0 -1754.8337177784342 235.24882295998395 0 0 0 0 -190.29919967760236 586.45253302255151 0 586.45253302255151 5730.384294050833 0 0 0 0 12.917542320703745 -12.45931800211666 0 -12.45931800211666 14.829765916069277 0 0 0 0 923.72849177323951 -1982.1705911557801 0 -1982.1705911557801 5108.8343294635524 0 0 0 0 556.02095213851453 -1621.5347679218721 0 -1621.5347679218721 1936.836465499684 0 0 0 0 1482.0274957369402 236.67483316813014 0 236.67483316813014 3218.902834361852 0 0 0 0 312.02030397473936 -1685.2189199102941 0 -1685.2189199102941 4342.8059955259814 0 0 0 0 215.78273277519929 -1406.4162168097828 0 -1406.4162168097828 1838.5305740515469 0 0 0 0 354.45042715432123 -1713.2083421785865 0 -1713.2083421785865 2062.3266385980387 0 0 0 0 294.66761261986926 -1281.3806917805196 0 -1281.3806917805196 2812.3663927653106 0 0 0 0 294.15968467033713 -1255.1165993832183 0 -1255.1165993832183 1523.7333828107803 0 0 0 0 70.556918049217984 -886.45283414004371 0 -886.45283414004371 1395.9566320797458 0 0 0 0 84.24209799289747 -1071.2420604392178 0 -1071.2420604392178 1975.0209947848343 0 0 0 0 440.36155771639932 -1388.5849364057276 0 -1388.5849364057276 871.69854372928967 0 0 0 0 504.91972998244512 -1719.8506446648025 0 -1719.8506446648025 1916.0617644890008 0 0 0 0 74.6309335139822 -1294.1661520921043 0 -1294.1661520921043 3018.9697548570111 0 0 0 0 115.15156014615968 -1222.9166179479726 0 -1222.9166179479726 1807.8397054240522 0 0 0 0 395.97757488895809 -1329.8409568222996 0 -1329.8409568222996 1191.8396501711686 0 0 0 0 -185.77564457469049 -170.57215659398207 0 -170.57215659398207 1334.0116828638565 0 0 0 0 289.47924198759864 -914.88303890910902 0 -914.88303890910902 2195.9997563535612 0 0 0 0 334.78857222204624 -977.42649827116111 0 -977.42649827116111 2626.3807588957206 0 0 0 0 936.16079726543933 -722.60024224319932 0 -722.60024224319932 2096.2822511343184 0 0 0 0 -446.24155169588221 -500.61686685919994 0 -500.61686685919994 4191.2899510114839 0 0 0 0 997.86927677708388 -1658.0987826820819 0 -1658.0987826820819 3319.0583543342073 0 0 0 0 728.19473119003896 -2370.4356209085454 0 -2370.4356209085454 2096.1948072011728 0 0 0 0 -22.185657298892238 -848.51679830253124 0 -848.51679830253124 1395.0493455286414 0 0 0 0 -6.3074637114796133 -539.6050291162901 0 -539.6050291162901 920.41969175038685 0 0 0 0 -386.80144228965673 82.83456514887439 0 82.83456514887439 50.407635523850331 0 0 0 0 11.049766959609812 -10.742565638342825 0 -10.742565638342825 9.1212609509636309 0 0 0 0 644.95347618320511 -1632.9563239211366 0 -1632.9563239211366 -872.81285334471613 0 0 0 0 -159.17313968295025 -1025.9877761707103 0 -1025.9877761707103 -53.336321239024983 0 0 0 0 -759.34333650978851 -236.46425448523951 0 -236.46425448523951 1004.5198052949563 0 0 0 0 -379.74214830393521 -589.90743201844452 0 -589.90743201844452 73.069151846524619 0 0 0 0 21.454981741016482 -22.536020169629126 0 -22.536020169629126 17.327449910787095 0 0 0 0 -629.88064641510414 -585.27068935117859 0 -585.27068935117859 2606.058269892892 0 0 0 0 424.9043859044491 510.91809506631762 0 510.91809506631762 2564.5417679071616 0 0 0 0 -680.13352128911936 203.32115760348643 0 203.32115760348643 2669.4700521671039 0 0 0 0 70.612127925827281 -901.19270806657005 0 -901.19270806657005 3213.4299846051435 0 0 0 0 -320.16916327753256 -159.41965786336914 0 -159.41965786336914 2263.3251570341235 0 0 0 0 1019.7299556669483 -456.97034406297371 0 -456.97034406297371 925.45756561857706 0 0 0 0 939.30778143348289 -846.76738813432166 0 -846.76738813432166 2535.4127880416345 0 0 0 0 -18.065863949619143 12.561608946485649 0 12.561608946485649 41.719183564069681 0 0 0 0 -7.1555535355109896 -25.754922185325995 0 -25.754922185325995 49.184779117902508 0 0 0 0 -21.383677474418445 8.9910284183333431 0 8.9910284183333431 20.772407893219111 0 0 0 0 -15.530011293786067 15.145846782432628 0 15.145846782432628 21.75899833247604 0 0 0 0 -4.6576640935717677 50.097012062396971 0 50.097012062396971 1.1815656130784191 0 0 0 0 -24.72345269362512 8.7853449716421892 0 8.7853449716421892 56.268648190045496 0 0 0 0 -27.576496449331163 19.216921727256477 0 19.216921727256477 31.197063884665511 0 0 0 0 -18.44846927439346 -1.5193990886073152 0 -1.5193990886073152 56.276127606615773 0 0 0 0 27.112982454079429 91.726552798514604 0 91.726552798514604 117.92943983311852 0 0 0 0 -27.134424180735607 -9.0466763190343045 0 -9.0466763190343045 59.364996126649203 0 0 0 0 -13.59004173151061 3.1496294600947294 0 3.1496294600947294 39.441411873031029 0 0 0 0 0.99151860470315256 -3.6847286876973158 0 -3.6847286876973158 19.234907352398679 0 0 0 0 -137.78738574796262 -597.2105089134493 0 -597.2105089134493 1238.6849564331133 0 0 0 0 -35.357720485740565 12.093067508215853 0 12.093067508215853 34.475903554760123 0 0 0 0 -28.317137038681722 -81.229397990986399 0 -81.229397990986399 73.407050289490144 0 0 0 0 -255.56479067164696 64.458863452976402 0 64.458863452976402 1053.4768953096936 0 0 0 0 -401.42193271299072 -40.632412780910272 0 -40.632412780910272 1331.7601500615856 0 0 0 0 -331.00740542898166 -489.44609073514584 0 -489.44609073514584 1523.9372700427339 0 0 0 0 -258.07216112732658 -54.579039249700145 0 -54.579039249700145 1327.4868759006204 0 0 0 0 81.704950760264182 -302.41710125121972 0 -302.41710125121972 430.29933746307506 0 0 0 0 25.317533939122768 708.20040623763634 0 708.20040623763634 1768.7284667485183 0 0 0 0 -249.22529233888417 119.19661882692162 0 119.19661882692162 590.45313183180406 0 0 0 0 -0.2717022509717113 0.079907539503807357 0 0.079907539503807357 -0.7100712477063098 0 0 0 0 -461.40952593705788 -252.6564226515984 0 -252.6564226515984 988.64068197014058 0 0 0 0 -530.72375993618789 5.1267995727239395 0 5.1267995727239395 1266.8052829968365 0 0 0 0 -630.41059106603643 -110.56517651228205 0 -110.56517651228205 1520.7030886948487 0 0 0 0 -559.7803149963313 -482.03944369395504 0 -482.03944369395504 1543.5620863970107 0 0 0 0 -1290.4665467762698 -369.03066107877748 0 -369.03066107877748 1473.0923415843718 0 0 0 0 -1844.2747392586834 -1194.6844325123457 0 -1194.6844325123457 492.91797427128768 0 0 0 0 -1236.2035940773833 -302.90536986038933 0 -302.90536986038933 1201.4411350151931 0 0 0 0 -556.15388960608379 644.47623488055251 0 644.47623488055251 486.41644254246785 0 0 0 0 -1295.7053807860589 -44.937724454986892 0 -44.937724454986892 192.99455151206348 0 0 0 0 -907.20568536829182 94.708429320220603 0 94.708429320220603 115.63511680581723 0 0 0 0 -11.667358603758474 9.6392385528490507 0 9.6392385528490507 13.145308453128848 0 0 0 0 -45.86240929925043 -49.500021289364668 0 -49.500021289364668 531.6861628147235 0 0 0 0 -23.989761056378939 22.09422332108079 0 22.09422332108079 -25.153265270375414 0 0 0 0 1.4934691530536792 28.448119522194844 0 28.448119522194844 28.982348316625036 0 0 0 0 -1157.1697295515157 622.80750247134711 0 622.80750247134711 -41.958489409371396 0 0 0 0 -33.983821545710725 18.905754042665649 0 18.905754042665649 -0.47547872666564217 0 0 0 0 9.1788615473031783 1.4971517700710137 0 1.4971517700710137 3.7461185329671025 0 0 0 0 -54.673833882111467 -8.3983115110531799 0 -8.3983115110531799 -24.146932245768312 0 0 0 0 -1151.3888582383372 4.6138636054389508 0 4.6138636054389508 -127.26767439462128 0 0 0 0 -1187.3683677514002 3310.819270618078 0 3310.819270618078 -1658.991217114708 0 0 0 0 -2232.0123402463164 2356.9086787834458 0 2356.9086787834458 2888.5425763254361 0 0 0 0 27.038919585897847 33.973403117783477 0 33.973403117783477 25.171691260007748 0 0 0 0 -898.12258318245176 -1107.4750221043432 0 -1107.4750221043432 2598.7955207391715 0 0 0 0 31.225186210555176 26.646326641230985 0 26.646326641230985 22.187196076116606 0 0 0 0 1599.618850480344 1448.8880289371155 0 1448.8880289371155 1924.4156613992236 0 0 0 0 2510.6108741511503 639.04701044692592 0 639.04701044692592 1314.1831586996559 0 0 0 0 2057.2062704514069 -605.17728405108573 0 -605.17728405108573 890.51520990495919 0 0 0 0 -240.49696944952984 -230.16760875062027 0 -230.16760875062027 783.7758838696609 0 0 0 0 0.39511952147518059 -802.04122390688281 0 -802.04122390688281 1407.3829861670092 0 0 0 0 10.441917368306015 -487.08693023378692 0 -487.08693023378692 1784.5950856832642 0 0 0 0 -37.020948986576059 -637.1579189413751 0 -637.1579189413751 1418.4565706706726 0 0 0 0 419.12150959058556 -760.20296109791525 0 -760.20296109791525 1651.8147966341057 0 0 0 0 704.8036465073294 -343.67432256806205 0 -343.67432256806205 2113.7087395990384 0 0 0 0 1043.2848149601743 -148.23343005011702 0 -148.23343005011702 1415.4089802106464 0 0 0 0 1044.6809429828559 -54.835876354067295 0 -54.835876354067295 1116.0028335374955 0 0 0 0 1112.9173989845676 233.53802031835221 0 233.53802031835221 1960.4692911159218 0 0 0 0 1120.8480854385282 403.2198884112222 0 403.2198884112222 1809.2910929691425 0 0 0 0 1164.1008979994326 296.17820971260153 0 296.17820971260153 2008.3994796700717 0 0 0 0 769.90038212177478 -503.28236395695785 0 -503.28236395695785 2505.0428614922421 0 0 0 0 929.21391425022148 -248.92000046841713 0 -248.92000046841713 2600.4713806767795 0 0 0 0 2646.8476127974982 -1026.8683959579321 0 -1026.8683959579321 2883.0847609357734 0 0 0 0 1412.2241792468612 -173.99168929452935 0 -173.99168929452935 2246.5927870167507 0 0 0 0 754.37925647162388 120.26920026443258 0 120.26920026443258 2252.0942854048481 0 0 0 0 432.71710574227552 111.87853830993117 0 111.87853830993117 2065.1768553165894 0 0 0 0 728.18872704742341 212.47691176481749 0 212.47691176481749 2098.6873323286709 0 0 0 0 934.6526209587654 608.19834033347433 0 608.19834033347433 1837.9067746869605 0 0 0 0 567.92149881041928 739.61645827401662 0 739.61645827401662 2041.7921781508485 0 0 0 0 230.95877275749467 303.77309450991743 0 303.77309450991743 1879.3099727459194 0 0 0 0 -191.90347520004116 389.24187742269714 0 389.24187742269714 2075.2882178532964 0 0 0 0 477.38486568175642 1272.5582127793168 0 1272.5582127793168 2415.8711688622425 0 0 0 0 191.22145578116852 488.63577730724501 0 488.63577730724501 1577.5998368343862 0 0 0 0 33.34423172932236 -112.28415067451715 0 -112.28415067451715 1445.4259370008367 0 0 0 0 267.46661434919315 473.70056109868892 0 473.70056109868892 490.72604317145306 0 0 0 0 234.96521902964173 391.8142828434211 0 391.8142828434211 1800.7322127398365 0 0 0 0 -12.257155967619575 -85.395525021798676 0 -85.395525021798676 -146.85701082010928 0 0 0 0 318.86421234342794 -276.20822031911848 0 -276.20822031911848 -63.9425476873148 0 0 0 0 -8.6461222334214654 -436.40103492574417 0 -436.40103492574417 662.08960823147208 0 0 0 0 387.15901126251384 193.01258518728264 0 193.01258518728264 -368.99907785860705 0 0 0 0 -933.57266509760029 266.96176654998817 0 266.96176654998817 4513.7579556686105 0 0 0 0 12.555268575646437 306.33311646795482 0 306.33311646795482 -308.18080238837501 0 0 0 0 -671.23726079391963 1248.0463143811412 0 1248.0463143811412 339.76227130963525 0 0 0 0 44.846463862054954 68.950513798558745 0 68.950513798558745 81.641114819105837 0 0 0 0 102.35880328284838 -114.42626815950644 0 -114.42626815950644 497.14754681286286 0 0 0 0 -458.09637967220624 -1163.1429602872522 0 -1163.1429602872522 -22.622270862061669 0 0 0 0 8.9469488604596652 3.0905244489550228 0 3.0905244489550228 23.34835419133077 0 0 0 0 -84.98651568735022 11.787734519737569 0 11.787734519737569 96.308256965421606 0 0 0 0 -17.974948510167795 15.711524954043739 0 15.711524954043739 62.556145562113556 0 0 0 0 -57.282455046362657 5.6213946719326486 0 5.6213946719326486 90.00705662240216 0 0 0 0 -29.870597609515244 37.492279884958407 0 37.492279884958407 57.968689567547699 0 0 0 0 -93.546580014233768 61.123387916501088 0 61.123387916501088 74.836605732813041 0 0 0 0 -42.688463058821526 49.534945702442201 0 49.534945702442201 65.884658138034865 0 0 0 0 -5.8324678042178508 5.4473470477207968 0 5.4473470477207968 23.700831743942729 0 0 0 0 -2.7765407470724313 -432.18210117513081 0 -432.18210117513081 -567.27579625687576 0 0 0 0 -60.444774805372852 0.066888380902696554 0 0.066888380902696554 77.751044062275469 0 0 0 0 -59.959593730259868 34.163698867642367 0 34.163698867642367 88.284410439199974 0 0 0 0 111.13987725368315 129.90284286960195 0 129.90284286960195 -388.08451015947503 0 0 0 0 659.39072975923045 -45.570068938075565 0 -45.570068938075565 -508.8173615466294 0 0 0 0 -151.74857544402403 1403.5210723041455 0 1403.5210723041455 583.40534339753503 0 0 0 0 -51.662165971407376 140.99264736174518 0 140.99264736174518 -541.84436506511702 0 0 0 0 -29.67512042999963 -9.0338271720350178 0 -9.0338271720350178 25.863034176065838 0 0 0 0 -326.20102200541805 186.16035880357595 0 186.16035880357595 -38.094524425665441 0 0 0 0 -36.150951677631433 -4.7380310483148662 0 -4.7380310483148662 72.960979183279363 0 0 0 0 -94.572296429107155 -291.77583776482788 0 -291.77583776482788 268.7835378430027 0 0 0 0 235.10466821663249 -171.48561101761879 0 -171.48561101761879 140.14734294426307 0 0 0 0 -1.3173520102690759 5.348096635100184 0 5.348096635100184 13.461345125318644 0 0 0 0 -180.24244505800652 -170.85914441912973 0 -170.85914441912973 767.57852005460882 0 0 0 0 865.24222917668158 951.20417369187635 0 951.20417369187635 29.390790519741131 0 0 0 0 1078.0426230236699 590.25913211307852 0 590.25913211307852 626.07830065098824 0 0 0 0 539.80516236071878 1126.6726737207596 0 1126.6726737207596 737.01997739158105 0 0 0 0 319.59408999553216 604.24815923206916 0 604.24815923206916 1465.0202701359813 0 0 0 0 25.287585922158087 834.48372109447519 0 834.48372109447519 1818.0243914550665 0 0 0 0 578.35644877442019 894.29049155374105 0 894.29049155374105 916.34540190105326 0 0 0 0 820.58136840751104 1893.6438215442759 0 1893.6438215442759 1487.8113078351162 0 0 0 0 2559.3606416914226 714.89539945241995 0 714.89539945241995 -88.310121995600639 0 0 0 0 797.53801909741742 2220.4219644426703 0 2220.4219644426703 2957.3833327620814 0 0 0 0 33.099029448239889 1585.8971359783318 0 1585.8971359783318 3792.4405422763648 0 0 0 0 28.565871053577212 728.30565632787693 0 728.30565632787693 2612.9690962377936 0 0 0 0 3016.2497930630566 2134.3633292303202 0 2134.3633292303202 -4197.6495759970712 0 0 0 0 -220.28168969899707 115.86531225423096 0 115.86531225423096 3706.2419329078234 0 0 0 0 24.029420474672168 14.018410631917988 0 14.018410631917988 5.9795875344515821 0 0 0 0 3922.9842402765589 -699.28254907990049 0 -699.28254907990049 -2685.2182309245691 0 0 0 0 708.01201993691029 890.19769508970785 0 890.19769508970785 -1637.6383469854336 0 0 0 0 4479.6308000417657 752.23756030678487 0 752.23756030678487 -4287.1636970669788 0 0 0 0 344.69161250144862 305.29637627803459 0 305.29637627803459 56.935180818568369 0 0 0 0 -206.13169580450585 -235.84026628447828 0 -235.84026628447828 1967.10374576498 0 0 0 0 123.55716334849603 181.31361584240221 0 181.31361584240221 63.447536922001746 0 0 0 0 186.0995511567653 98.357529456996417 0 98.357529456996417 -14.18717746231664 0 0 0 0 6.2985637214502752 -0.0070632395413525728 0 -0.0070632395413525728 -2.1962201860196728 0 0 0 0 -24.340857706480961 -30.062837974244758 0 -30.062837974244758 -16.907557027647272 0 0 0 0 69.865800401435081 96.860586521666846 0 96.860586521666846 233.85330133928073 0 0 0 0 -4.5369287523450978 -60.054464106400019 0 -60.054464106400019 434.81506303820061 0 0 0 0 68.403973435807529 376.28108606172464 0 376.28108606172464 857.1859160332242 0 0 0 0 -24.346377355643199 143.14609299084259 0 143.14609299084259 857.52446105236788 0 0 0 0 -16.967716923293267 95.007297290771476 0 95.007297290771476 1397.4204270530026 0 0 0 0 356.72543549374677 474.90803977653559 0 474.90803977653559 1006.6433584940678 0 0 0 0 495.3163694461864 365.01483665243722 0 365.01483665243722 1135.9156265396377 0 0 0 0 136.5828111586452 454.15201275116124 0 454.15201275116124 1039.5915606361596 0 0 0 0 326.99711875004277 618.29961961492518 0 618.29961961492518 895.93507375787885 0 0 0 0 598.71877795548062 811.69204100840579 0 811.69204100840579 671.3744476165848 0 0 0 0 357.69736555075292 693.35694170033094 0 693.35694170033094 319.06952096353052 0 0 0 0 334.36461098269069 737.49261305794971 0 737.49261305794971 486.79820923731313 0 0 0 0 269.99254723021022 775.09019294731843 0 775.09019294731843 711.05174565634388 0 0 0 0 248.69647698186509 498.94614180082135 0 498.94614180082135 724.90310419566867 0 0 0 0 221.52906600083998 507.32339449275969 0 507.32339449275969 805.81288492673775 0 0 0 0 104.31918940898504 357.08531700145977 0 357.08531700145977 835.40573025477352 0 0 0 0 211.45793757794945 280.27475560667153 0 280.27475560667153 722.71545427133242 0 0 0 0 -11.249087055067776 249.26758690083807 0 249.26758690083807 719.91895882765675 0 0 0 0 191.5557986001993 383.56199559477318 0 383.56199559477318 452.79340393321763 0 0 0 0 159.25936118076515 138.1355601123505 0 138.1355601123505 336.42037405457086 0 0 0 0 115.21580643681045 158.67260582507151 0 158.67260582507151 366.46159557018109 0 0 0 0 27.155200552643691 346.71009051256442 0 346.71009051256442 107.96243023613351 0 0 0 0 161.06038815674219 55.294766523424187 0 55.294766523424187 257.85781860462885 0 0 0 0 215.12966614625839 -22.828908164301538 0 -22.828908164301538 723.52407058310928 0 0 0 0 96.232512892036539 185.47907862128341 0 185.47907862128341 574.99085691150685 0 0 0 0 -0.15484494988341879 -2.9191334549627044 0 -2.9191334549627044 9.6198645601354542 0 0 0 0 281.96544854547574 -123.74854760926246 0 -123.74854760926246 55.270160463114735 0 0 0 0 58.136232116434257 309.39684509320796 0 309.39684509320796 1026.1650552098145 0 0 0 0 51.988436380381245 89.208904795286799 0 89.208904795286799 304.92815121627063 0 0 0 0 53.086464027926922 262.17269479298557 0 262.17269479298557 625.53362506075064 0 0 0 0 1.2866657565191613 -8.8741384644702208 0 -8.8741384644702208 24.492072155815407 0 0 0 0 1.1362172599954192 -19.000395112310798 0 -19.000395112310798 290.32206668080471 0 0 0 0 -2.7452411246422344 -10.504526716191322 0 -10.504526716191322 19.163914284159546 0 0 0 0 -6.9880131377867656 -11.402696754004864 0 -11.402696754004864 45.251469031860324 0 0 0 0 75.268428766285524 -1232.75209200471 0 -1232.75209200471 5557.6017469672952 0 0 0 0 254.56742863474847 1589.7553354319825 0 1589.7553354319825 4071.4253567403721 0 0 0 0 2.0382913074976088 -5.5574261670991518 0 -5.5574261670991518 17.3476684813171 0 0 0 0 -194.09144295588368 -688.4653001437182 0 -688.4653001437182 2719.7365930579836 0 0 0 0 -21.475638083813639 0.43102368287031823 0 0.43102368287031823 23.742736441615278 0 0 0 0 244.18613562403175 525.73176574693935 0 525.73176574693935 1472.0473159407848 0 0 0 0 -453.4968990754096 -218.75144628807902 0 -218.75144628807902 313.09653655630245 0 0 0 0 54.738004663954598 -100.75708934887371 0 -100.75708934887371 342.92471015304909 0 0 0 0 -7.2521937570751707 -8.3289360853572276 0 -8.3289360853572276 46.466745711023691 0 0 0 0 10.019171220034423 321.86531515476236 0 321.86531515476236 913.86121097549039 0 0 0 0 767.96154385541183 32.979667337727733 0 32.979667337727733 268.49481876261416 0 0 0 0 -2.4738155016553227 361.52642087460117 0 361.52642087460117 1952.9939567155379 0 0 0 0 639.53235859148458 -550.0609174148849 0 -550.0609174148849 355.94579040879034 0 0 0 0 4.8022560787961686 429.71970125418738 0 429.71970125418738 4353.6006042415975 0 0 0 0 -155.85622164671062 -823.15779179866877 0 -823.15779179866877 3005.5901572439179 0 0 0 0 -403.72265970014303 -250.43458207922231 0 -250.43458207922231 4850.5808567148779 0 0 0 0 874.42301188008582 -1842.3914328085266 0 -1842.3914328085266 1272.3415247833036 0 0 0 0 -0.11142411693542342 97.732350486636278 0 97.732350486636278 81.722423719256767 0 0 0 0 83.839082714916685 156.95880518695776 0 156.95880518695776 4661.9977716698486 0 0 0 0 -459.95459204269815 -68.542580431443639 0 -68.542580431443639 5417.9254970382026 0 0 0 0 -0.2212875221964129 3.2198024528110523 0 3.2198024528110523 20.57827258580312 0 0 0 0 545.60849356331096 -1823.5847757789998 0 -1823.5847757789998 4742.5608340275794 0 0 0 0 503.60790852345758 -773.9363054003843 0 -773.9363054003843 465.05066678213552 0 0 0 0 295.9453768891467 -465.24030423037766 0 -465.24030423037766 3458.9346302292688 0 0 0 0 -9.4554338794456498 -940.22395651274201 0 -940.22395651274201 3112.4451844072319 0 0 0 0 906.57548715800135 -680.17034297609644 0 -680.17034297609644 3529.9552557906427 0 0 0 0 -256.46705379889215 -1063.9050505316955 0 -1063.9050505316955 3997.4607838528173 0 0 0 0 -280.32816014063167 -441.60164400466601 0 -441.60164400466601 3801.0094372931926 0 0 0 0 -297.64945103076104 -715.81467000982957 0 -715.81467000982957 3017.7657052288705 0 0 0 0 8.8407849596100618 -569.54116863500894 0 -569.54116863500894 2982.8228781776706 0 0 0 0 217.93815422724271 -211.86759167347191 0 -211.86759167347191 3112.8236071380234 0 0 0 0 211.18032921488071 -159.55092187597165 0 -159.55092187597165 3614.0530503175978 0 0 0 0 -141.9371013831211 -363.48072997164127 0 -363.48072997164127 4240.7801926961583 0 0 0 0 148.27977040556777 -248.1576511952735 0 -248.1576511952735 3574.6839218943496 0 0 0 0 -233.84203764932079 -486.46469881703888 0 -486.46469881703888 3776.7823358229361 0 0 0 0 1176.7452621458644 -840.20969272340517 0 -840.20969272340517 2951.0871344905754 0 0 0 0 221.07592723025209 -845.88563872531086 0 -845.88563872531086 3608.0860299787309 0 0 0 0 229.4748417981591 -882.78067130215641 0 -882.78067130215641 3622.2470919891493 0 0 0 0 50.704117346355815 -612.30877418939781 0 -612.30877418939781 3404.691949296277 0 0 0 0 -149.35387264540373 -521.87621809480333 0 -521.87621809480333 3670.1757902132886 0 0 0 0 172.35263729702501 -181.03442968166928 0 -181.03442968166928 2793.1940886022057 0 0 0 0 224.21448597523568 -538.60682324510708 0 -538.60682324510708 3399.6862458280139 0 0 0 0 419.15636848815507 -379.0483136032417 0 -379.0483136032417 2550.6468878005689 0 0 0 0 465.38139085439138 -303.00745502166683 0 -303.00745502166683 2598.3085563407003 0 0 0 0 446.02392399794678 -15.019155006564688 0 -15.019155006564688 2077.6981733510838 0 0 0 0 226.70293056452633 -216.30902799808609 0 -216.30902799808609 2772.0938813574612 0 0 0 0 -432.23147028317032 584.88678474630433 0 584.88678474630433 1802.9372098912572 0 0 0 0 326.9867464264081 -772.41622726840433 0 -772.41622726840433 695.04636294635566 0 0 0 0 454.16623978023665 -394.54418394423556 0 -394.54418394423556 117.881329521726 0 0 0 0 239.92778432498542 -324.27282952653258 0 -324.27282952653258 1844.599964526933 0 0 0 0 3.0590592676072816 -4.981781633141992 0 -4.981781633141992 2.9051682635774227 0 0 0 0 -110.23562832528546 117.36549562619621 0 117.36549562619621 1671.957898454184 0 0 0 0 -230.34170549348644 -846.05583197213127 0 -846.05583197213127 3590.4879631487056 0 0 0 0 -169.22619636470472 1253.1758161356083 0 1253.1758161356083 -727.39716479666822 0 0 0 0 -207.7090987685246 -670.63461965829265 0 -670.63461965829265 4561.0896116425502 0 0 0 0 -5.9576979033923365 5.2022895846290567 0 5.2022895846290567 8.7871141869815972 0 0 0 0 616.65569034117948 -279.10492031719332 0 -279.10492031719332 -165.03543471627563 0 0 0 0 235.45370889856804 -628.02776221834938 0 -628.02776221834938 462.11047641299228 0 0 0 0 -630.02291027321689 185.83559870309728 0 185.83559870309728 903.39218287541007 0 0 0 0 31.35748385475074 33.718727881772793 0 33.718727881772793 747.12416209360526 0 0 0 0 137.51657489253654 -626.48793437267886 0 -626.48793437267886 625.63627940684091 0 0 0 0 895.95346093156581 -24.685351371772413 0 -24.685351371772413 -28.124885351338889 0 0 0 0 97.181745910653632 -144.83658124478825 0 -144.83658124478825 2.7988551634007308 0 0 0 0 3.7885221428652676 -5.2414814161419798 0 -5.2414814161419798 7.4278671778849343 0 0 0 0 -82.191513300781025 -462.95771064473956 0 -462.95771064473956 74.216245290677762 0 0 0 0 -339.72755346221402 -193.47112421381462 0 -193.47112421381462 187.47490428300807 0 0 0 0 -2.2177286887507535 161.38725098859868 0 161.38725098859868 85.256607887205519 0 0 0 0 188.42255284052615 12.206864374453289 0 12.206864374453289 49.46385473421833 0 0 0 0 -120.69370551034633 5.8393033316169749 0 5.8393033316169749 100.71077014412731 0 0 0 0 5.1780801694727359 10.275147692296741 0 10.275147692296741 52.423839209659491 0 0 0 0 -36.714810418018033 47.090157170976454 0 47.090157170976454 99.296581322935026 0 0 0 0 71.750068242749421 55.050255597001524 0 55.050255597001524 51.666737488720628 0 0 0 0 10.016326874630066 -16.318304359953288 0 -16.318304359953288 21.258237919449357 0 0 0 0 -229.22171186981905 -316.20573517157754 0 -316.20573517157754 -119.26923920899571 0 0 0 0 3.0739580349900093 -9.2634759035790921 0 -9.2634759035790921 52.439111979557197 0 0 0 0 -0.95133480054980168 49.539075917782611 0 49.539075917782611 52.695172511138253 0 0 0 0 -30.646440602144594 -40.191053705988452 0 -40.191053705988452 115.56444772305258 0 0 0 0 -5.4043692274748167 15.021399827758898 0 15.021399827758898 63.226957999945284 0 0 0 0 -133.523765609164 -416.24846370707382 0 -416.24846370707382 -274.95085924453451 0 0 0 0 -224.71245541124699 -251.65252182833501 0 -251.65252182833501 -146.60046941045584 0 0 0 0 204.79997596389293 -194.56506520215044 0 -194.56506520215044 -183.84755826051696 0 0 0 0 247.03743741773786 -66.184041835884273 0 -66.184041835884273 -169.84475382283563 0 0 0 0 78.022329855403768 -175.4084828565974 0 -175.4084828565974 -76.402579779176449 0 0 0 0 26.825017978389042 -309.46387247912935 0 -309.46387247912935 -396.47520386903017 0 0 0 0 8.9960583828007596 -5.3390195975800339 0 -5.3390195975800339 3.7574207098577403 0 0 0 0 78.385729417489756 -123.17046912712613 0 -123.17046912712613 -396.31783727341099 0 0 0 0 18.574205039416096 -18.253431985866513 0 -18.253431985866513 15.136715493581278 0 0 0 0 13.296339355117652 6.4605389114585705 0 6.4605389114585705 453.22391113814956 0 0 0 0 47.380465842327112 125.99858369785943 0 125.99858369785943 485.73826677339093 0 0 0 0 51.697308884313543 112.17712755763205 0 112.17712755763205 529.8491622643196 0 0 0 0 188.04986249156241 160.71465042678756 0 160.71465042678756 536.17021505549201 0 0 0 0 65.627460549711259 88.983275205304381 0 88.983275205304381 387.37934593039972 0 0 0 0 130.29670330120331 10.211708588736656 0 10.211708588736656 539.3823804614367 0 0 0 0 -3.8446405516990581 -51.013634006958455 0 -51.013634006958455 210.80798111547483 0 0 0 0 -78.692612339365382 75.734986442927038 0 75.734986442927038 759.8069816112984 0 0 0 0 16.049572581424357 207.14341860829154 0 207.14341860829154 638.14907814504863 0 0 0 0 -5.3401833675497983 44.383350650547072 0 44.383350650547072 639.81729857804021 0 0 0 0 50.607160630295368 99.161470054939855 0 99.161470054939855 491.24778822955705 0 0 0 0 17.886325811374263 14.172715896507725 0 14.172715896507725 27.830460028317248 0 0 0 0 4.2725396899244696 -11.268127874276217 0 -11.268127874276217 14.742507617821843 0 0 0 0 1.7569750229815462 -1.2958492865198536 0 -1.2958492865198536 1.4356450933640303 0 0 0 0 23.898201592549299 -59.858175187240704 0 -59.858175187240704 -32.450720425200416 0 0 0 0 37.976347276228694 17.504551199934212 0 17.504551199934212 -49.169434069030103 0 0 0 0 -46.036457269577795 -13.482023260003189 0 -13.482023260003189 48.983535841252888 0 0 0 0 12.54988219169339 -18.818094722042744 0 -18.818094722042744 16.789832991913556 0 0 0 0 8.8995575611767475 -8.7878291927909373 0 -8.7878291927909373 -7.0922241596728668 0 0 0 0 -4.1701014550581021 -69.146908473296207 0 -69.146908473296207 37.050499566044891 0 0 0 0 -312.34086147792004 -206.33734569900844 0 -206.33734569900844 -184.96308548639354 0 0 0 0 -510.22340962619182 -318.04038901050808 0 -318.04038901050808 66.301799706037855 0 0 0 0 -2.4621693250438739 -24.403234907887963 0 -24.403234907887963 10.914496078039519 0 0 0 0 -341.65566304243168 -222.69487933968867 0 -222.69487933968867 -48.032162626448553 0 0 0 0 -8.0422217143309354 -12.70908366724143 0 -12.70908366724143 37.415470374879078 0 0 0 0 -7.6850173540910873 -12.522092144143244 0 -12.522092144143244 28.012641553010326 0 0 0 0 -1.1424579954038201 -16.458064946738098 0 -16.458064946738098 39.616019648861254 0 0 0 0 -13.573596484161994 4.444787173798602 0 4.444787173798602 27.407049667341198 0 0 0 0 -555.44630376462192 -40.820076551761304 0 -40.820076551761304 307.88589336097357 0 0 0 0 -501.42437002589236 375.60357372415092 0 375.60357372415092 -94.806515737989685 0 0 0 0 -0.00671059681501107 -2.715741230706044 0 -2.715741230706044 15.06775912566809 0 0 0 0 -2.2428784045982546 2.7968440135315404 0 2.7968440135315404 0.79161410901696172 0 0 0 0 150.97479772288852 -397.78101088144467 0 -397.78101088144467 344.81889833602145 0 0 0 0 -0.51624464426436134 384.89754215705034 0 384.89754215705034 -43.957400772633264 0 0 0 0 -183.63847037856567 110.59068256501632 0 110.59068256501632 316.28676966781859 0 0 0 0 0.63613265046420508 -7.4474367261990437 0 -7.4474367261990437 16.490316612213405 0 0 0 0 -14.169155044053014 13.599064668145729 0 13.599064668145729 42.822596059762873 0 0 0 0 -16.792828771879613 -28.532612381131912 0 -28.532612381131912 8.4985020437452476 0 0 0 0 0.90748105832801684 -6.2639683801535284 0 -6.2639683801535284 2.0067599386966322 0 0 0 0 -2.2074930253473042 3.4278872883005533 0 3.4278872883005533 16.868487669649767 0 0 0 0 -4.6812006246603683 2.9571906391937546 0 2.9571906391937546 8.0910149628331851 0 0 0 0 -0.80428688048031871 0.17275349824279829 0 0.17275349824279829 2.8057747286337076 0 0 0 0 0.00046642202466127235 -2.8005954923719401 0 -2.8005954923719401 6.7858316399506293 0 0 0 0 0.85855690517890526 -1.4321526285590949 0 -1.4321526285590949 2.8144129905182922 0 0 0 0 -0.052374884511726692 35.800371773933875 0 35.800371773933875 295.83070858380233 0 0 0 0 17.832492858834101 66.372443158194073 0 66.372443158194073 233.67728492668539 0 0 0 0 25.81878885002061 47.557059095270233 0 47.557059095270233 258.2720507303311 0 0 0 0 25.572919042314183 75.912246224470437 0 75.912246224470437 264.78593425140934 0 0 0 0 3.7365230607293856 -4.2923141409021923 0 -4.2923141409021923 4.7130976475094712 0 0 0 0 -21.085955325382802 35.676242708832433 0 35.676242708832433 409.42015324141539 0 0 0 0 81.744688108391642 172.20619394518144 0 172.20619394518144 429.31390317936894 0 0 0 0 -15.134170426099551 24.533198050718056 0 24.533198050718056 423.18564079279895 0 0 0 0 -6.260553394933531 54.367437985958531 0 54.367437985958531 359.45963452533761 0 0 0 0 -34.559451296860232 -4.2751968958036741 0 -4.2751968958036741 331.15727051349677 0 0 0 0 -0.068795251070560337 16.022515540978929 0 16.022515540978929 287.55888620612677 0 0 0 0 12.733602349074289 -0.77258367126341909 0 -0.77258367126341909 326.68234521817067 0 0 0 0 -22.761370014779061 -46.32127779093571 0 -46.32127779093571 324.55861808652935 0 0 0 0 -10.828020533610335 3.1794354534122249 0 3.1794354534122249 244.14899340664851 0 0 0 0 -30.534741251356849 -54.272486100206152 0 -54.272486100206152 215.59617177341715 0 0 0 0 1.4264059356014371 -45.196856808773191 0 -45.196856808773191 186.80477252211131 0 0 0 0 -30.467296825788843 -44.566569280330441 0 -44.566569280330441 186.86841086300774 0 0 0 0 59.885975621797286 109.23305994617112 0 109.23305994617112 530.88629483766272 0 0 0 0 -29.858957348604235 -23.964210797872511 0 -23.964210797872511 447.13721506032743 0 0 0 0 2.4298797943091586 15.847644628636772 0 15.847644628636772 541.034928447727 0 0 0 0 34.678194578262662 35.541067352169193 0 35.541067352169193 319.8134168710676 0 0 0 0 -3.3842054805217003 -47.549316571647068 0 -47.549316571647068 366.38841227026569 0 0 0 0 40.209792096218337 32.991450785564666 0 32.991450785564666 397.9541423478222 0 0 0 0 -20.166291654961867 -1.872140755149303 0 -1.872140755149303 470.22504855277293 0 0 0 0 2.7910077991736983 -50.546252341628133 0 -50.546252341628133 96.109525108797243 0 0 0 0 -28.58598667940322 -30.239910149946809 0 -30.239910149946809 213.35987982399456 0 0 0 0 22.172527188703583 8.1224884744769952 0 8.1224884744769952 220.10955087520415 0 0 0 0 65.441788472501116 -11.161364213527122 0 -11.161364213527122 45.65288649321883 0 0 0 0 22.94459293195024 9.7349666794762015 0 9.7349666794762015 44.721430210629478 0 0 0 0 -9.9527367749449525 -36.728271756212052 0 -36.728271756212052 279.91860891858232 0 0 0 0 -66.216782800634974 55.903065720347513 0 55.903065720347513 69.197219590452733 0 0 0 0 -12.882097645984459 -42.143525256098656 0 -42.143525256098656 -2.1467982468311675 0 0 0 0 -62.958181122898836 3.9722909525007708 0 3.9722909525007708 34.569954920385499 0 0 0 0 -8.8018861173898415 95.406451043840207 0 95.406451043840207 -121.81173403688445 0 0 0 0 56.934455521696691 119.98656204607687 0 119.98656204607687 431.78997186309425 0 0 0 0 4.8084316523515129 7.9327840574779032 0 7.9327840574779032 3.3580600443702053 0 0 0 0 -64.941921261742209 -162.86424671424902 0 -162.86424671424902 549.69308600292425 0 0 0 0 140.70298307499888 -192.8361290130415 0 -192.8361290130415 98.506200864620041 0 0 0 0 0.093068702591370817 5.0185569622481125 0 5.0185569622481125 97.942645202514541 0 0 0 0 -30.466362587880532 5.0767279615829466 0 5.0767279615829466 121.30925266504346 0 0 0 0 20.580590515096844 -8.2991571815073257 0 -8.2991571815073257 32.563303928458481 0 0 0 0 -6.7599095099826485 32.321520908633829 0 32.321520908633829 -102.73401626583654 0 0 0 0 3.1639160675393754 136.43969059103983 0 136.43969059103983 -139.78998711039458 0 0 0 0 -51.138522617339788 129.23051151048276 0 129.23051151048276 38.965559800388291 0 0 0 0 -6.3026508399980221 -23.743751318661339 0 -23.743751318661339 63.905481131761917 0 0 0 0 -0.09743863911009279 -24.322856934697484 0 -24.322856934697484 324.37133209731837 0 0 0 0 146.61341343022784 -37.88769870615215 0 -37.88769870615215 171.99421151253046 0 0 0 0 0.52529249756543095 -16.299683042438119 0 -16.299683042438119 169.03700634082634 0 0 0 0 -1.2839068688290922 133.86049714967521 0 133.86049714967521 7.9353053780796472 0 0 0 0 -121.96147740659467 160.54966297248029 0 160.54966297248029 46.310534363766692 0 0 0 0 62.681235506704411 54.840793534865952 0 54.840793534865952 -38.274270382564282 0 0 0 0 -55.504158813829918 92.771866586030228 0 92.771866586030228 103.64195654823561 0 0 0 0 101.98127387220416 -1.1208353730617091 0 -1.1208353730617091 124.61125371216622 0 0 0 0 -8.4185337603948369 123.40147028779029 0 123.40147028779029 170.53312250063755 0 0 0 0 -27.036983077095783 62.417990580230253 0 62.417990580230253 44.898503991542384 0 0 0 0 -43.71386287560756 -436.8315184538078 0 -436.8315184538078 795.51002136079478 0 0 0 0 -75.989208984219317 11.423436467739521 0 11.423436467739521 710.93987843622745 0 0 0 0 0.58906568597591424 2.1655386014897999 0 2.1655386014897999 3.1605961383377803 0 0 0 0 21.957515776532958 -135.81504219486305 0 -135.81504219486305 277.83836612576852 0 0 0 0 100.80899397318476 137.87631921207867 0 137.87631921207867 348.22683847654844 0 0 0 0 257.04223283105694 -301.59539380784554 0 -301.59539380784554 285.36985879845452 0 0 0 0 -118.10455314785213 -5.9547189054719638 0 -5.9547189054719638 341.53363394009648 0 0 0 0 -107.6931347416762 57.782307459274307 0 57.782307459274307 -121.949306684779 0 0 0 0 -332.14862026440551 176.26021022500936 0 176.26021022500936 235.85333658392483 0 0 0 0 -53.204471153480881 77.240909788757563 0 77.240909788757563 -244.17097600712441 0 0 0 0 -372.66970547036544 232.94301687186817 0 232.94301687186817 -135.70669026976975 0 0 0 0 -859.78104435232399 10.355999054212589 0 10.355999054212589 65.558726922259666 0 0 0 0 -7.9371059685315224 4.8553026253084965 0 4.8553026253084965 11.186063292302606 0 0 0 0 -152.39795454398882 -174.09380722924834 0 -174.09380722924834 385.92562178662047 0 0 0 0 -12.749771697795211 -6.9043050884756667 0 -6.9043050884756667 52.518347057222854 0 0 0 0 -88.270758146466505 -135.92748767932062 0 -135.92748767932062 -57.207433304458391 0 0 0 0 -44.365299475249003 186.38173140717663 0 186.38173140717663 203.31937691027997 0 0 0 0 -11.869932942739274 41.57047488884524 0 41.57047488884524 126.85651373597409 0 0 0 0 -89.896418566581929 137.97112720088444 0 137.97112720088444 155.92953887398471 0 0 0 0 -112.29122024434423 27.098571544440347 0 27.098571544440347 172.7950175713413 0 0 0 0 -103.03326208867657 -57.404935769336589 0 -57.404935769336589 58.513608288310934 0 0 0 0 -33.498883293117167 -17.552844933432297 0 -17.552844933432297 112.04187856945271 0 0 0 0 -70.059370959300509 18.552007819747814 0 18.552007819747814 170.28619918006007 0 0 0 0 -159.33691237227868 196.15087502470124 0 196.15087502470124 -5.7503453044046182 0 0 0 0 3.8001157869557587 -8.5382138944163444 0 -8.5382138944163444 0.12530301384379072 0 0 0 0 -224.26771167016705 128.92989161598962 0 128.92989161598962 -4.6996467366116121 0 0 0 0 -173.42775318513941 111.87457880377769 0 111.87457880377769 -69.174460488633486 0 0 0 0 -164.77186592423868 142.0756987981149 0 142.0756987981149 22.483925191889284 0 0 0 0 -129.23195163514174 16.248592384945368 0 16.248592384945368 115.49877521028975 0 0 0 0 -85.164281818587597 151.33072971465299 0 151.33072971465299 -17.174984883225989 0 0 0 0 -416.91070569254316 51.944831668864936 0 51.944831668864936 -12.128602032200433 0 0 0 0 -138.90593585083383 125.87424513034784 0 125.87424513034784 -128.6049006304238 0 0 0 0 -399.53083802744777 -34.809760235191789 0 -34.809760235191789 -12.342190357740037 0 0 0 0 -385.69377813607207 -0.34343555843224749 0 -0.34343555843224749 56.527154700030223 0 0 0 0 -95.508906358583317 -17.940505588252563 0 -17.940505588252563 53.877048677066341 0 0 0 0 -25.435959327070307 -17.796647989281631 0 -17.796647989281631 43.172933763508695 0 0 0 0 -20.968985240801093 49.531520764242828 0 49.531520764242828 22.505507251711549 0 0 0 0 -32.543151481437903 -76.460539544969635 0 -76.460539544969635 84.018719563512718 0 0 0 0 -327.57927603811549 11.064015246578492 0 11.064015246578492 -122.13593094120733 0 0 0 0 -189.25634228075251 142.84556815944961 0 142.84556815944961 -67.673696204976295 0 0 0 0 -139.18527905179917 190.48927439277759 0 190.48927439277759 -25.657047846936621 0 0 0 0 -130.23374625310385 203.33411639917176 0 203.33411639917176 -14.992928153835237 0 0 0 0 -789.96832330549569 -791.37412640841649 0 -791.37412640841649 -708.87388880294748 0 0 0 0 -172.220673298772 127.97425877356727 0 127.97425877356727 -1684.4842202051077 0 0 0 0 -4.521077166792546 -4.9924709378501984 0 -4.9924709378501984 52.923811066202575 0 0 0 0 -16.393651190846423 -1661.4877024303132 0 -1661.4877024303132 264.77956762089161 0 0 0 0 695.59345436105832 -2437.0524707722652 0 -2437.0524707722652 728.87203003588365 0 0 0 0 1364.634785406121 -394.61342845184845 0 -394.61342845184845 -2072.8487075165031 0 0 0 0 2841.429474710736 -1557.2441924782615 0 -1557.2441924782615 -1449.1213458338461 0 0 0 0 -91.034157555091952 -15.108514814019145 0 -15.108514814019145 117.17360573555925 0 0 0 0 -13.272635077420546 -65.531589206399076 0 -65.531589206399076 -16.079334383131936 0 0 0 0 266.06632861413982 -89.188457940661465 0 -89.188457940661465 20.109389562632714 0 0 0 0 -93.297216169455481 -190.10265995839165 0 -190.10265995839165 73.964785855350783 0 0 0 0 -2.0790228586490276 7.7322062839902461 0 7.7322062839902461 45.696210518598264 0 0 0 0 1840.0353926609009 1379.1463675644845 0 1379.1463675644845 163.52099656683276 0 0 0 0 -970.91365630176551 571.29236502705317 0 571.29236502705317 1578.6139111673401 0 0 0 0 -280.69259838432663 1872.1496813578269 0 1872.1496813578269 2570.0702044519567 0 0 0 0 -1049.1397649977398 1404.4323588970001 0 1404.4323588970001 1363.7099963625515 0 0 0 0 -275.98282285316873 -308.8431425394665 0 -308.8431425394665 -348.73541761509841 0 0 0 0 -350.72021976344195 -355.95013294243836 0 -355.95013294243836 1136.7073912554479 0 0 0 0 3.8819019973658992 8.1346734549051689 0 8.1346734549051689 8.1732835900736518 0 0 0 0 -69.220940116267229 99.506615536709432 0 99.506615536709432 -74.280564263870474 0 0 0 0 -0.10965676900521666 37.25872701942717 0 37.25872701942717 -60.323757865968219 0 0 0 0 -49.00080901012555 55.556161333544878 0 55.556161333544878 -62.172059113974683 0 0 0 0 0.13816874198528326 51.732381635755807 0 51.732381635755807 2.911816335428739 0 0 0 0 21.577728271318094 83.054247123947789 0 83.054247123947789 -111.2240698003443 0 0 0 0 18.974352820439591 28.333964614852448 0 28.333964614852448 -82.228816043105326 0 0 0 0 -20.651979979636593 47.751901408075355 0 47.751901408075355 -153.79834596227738 0 0 0 0 -48.87583028039063 140.40261728259793 0 140.40261728259793 -120.13242922694189 0 0 0 0 -21.351023314061422 72.75032395197195 0 72.75032395197195 -24.9092357400732 0 0 0 0 -229.06206395746244 113.38212581745756 0 113.38212581745756 10.775243711308576 0 0 0 0 -1008.2270799749726 1796.9229582970438 0 1796.9229582970438 4271.3118711721036 0 0 0 0 19.79419462733108 -65.156503892983892 0 -65.156503892983892 62.36171559883951 0 0 0 0 24.14585405067028 6.3278852654798357 0 6.3278852654798357 192.63759813962679 0 0 0 0 3.1675605757577063 0.34526063879646074 0 0.34526063879646074 -0.16867385992043182 0 0 0 0 59.701289518905014 4.0076393812414608 0 4.0076393812414608 -26.567568638274679 0 0 0 0 -13.122876855373534 38.60080918953463 0 38.60080918953463 -37.924690013118379 0 0 0 0 -4.6192284424141148 5.9630165348426374 0 5.9630165348426374 4.2727056781812109 0 0 0 0 -11.210191670429367 27.669544129093993 0 27.669544129093993 -12.354302728941548 0 0 0 0 -40.952918561775959 -38.909574871293444 0 -38.909574871293444 26.245702467851515 0 0 0 0 -26.136657507171549 4.5013371722961892 0 4.5013371722961892 15.616399020520475 0 0 0 0 -246.68420586052162 -10.037178990212851 0 -10.037178990212851 131.632971793857 0 0 0 0 -48.893250184772782 25.91755142192109 0 25.91755142192109 59.260434929359747 0 0 0 0 -76.170982052556496 -4.118063371952303 0 -4.118063371952303 76.879918753169477 0 0 0 0 -97.430264335062247 -48.834105996640574 0 -48.834105996640574 122.41861241449078 0 0 0 0 -42.864446145709465 -2.7015029439374274 0 -2.7015029439374274 77.464875401839777 0 0 0 0 -18.472824260315065 -52.410981027744128 0 -52.410981027744128 113.96839538843051 0 0 0 0 -95.010959617254684 -16.535270284191938 0 -16.535270284191938 126.06091361306153 0 0 0 0 -91.537000255811336 -37.585358455224195 0 -37.585358455224195 221.80244625825435 0 0 0 0 -93.312432786753504 -1.5946816244631918 0 -1.5946816244631918 103.57223635904666 0 0 0 0 -81.517509224263108 32.49139450637449 0 32.49139450637449 186.00504125418047 0 0 0 0 -21.245477576114922 -122.57660971503719 0 -122.57660971503719 375.23284978463198 0 0 0 0 213.29509009894582 74.306443067180226 0 74.306443067180226 225.19188763330021 0 0 0 0 54.209448326271968 -22.212184681819053 0 -22.212184681819053 174.45013079755881 0 0 0 0 -19.05949622365371 -4.3181728072655687 0 -4.3181728072655687 173.6894929465343 0 0 0 0 144.76367206604505 82.788281116219878 0 82.788281116219878 192.67255813648808 0 0 0 0 56.965726447853513 29.712937063592108 0 29.712937063592108 235.59860427048989 0 0 0 0 41.375113999621135 -125.02944367250893 0 -125.02944367250893 507.52121609484311 0 0 0 0 76.590235916486108 114.42157759279871 0 114.42157759279871 484.506475861941 0 0 0 0 181.47658879212258 290.06040763026976 0 290.06040763026976 -102.13310860309866 0 0 0 0 -33.994221871623267 75.674747293902328 0 75.674747293902328 -328.58180762510165 0 0 0 0 -64.413816486873657 78.18936701749044 0 78.18936701749044 -259.3167506827449 0 0 0 0 -58.942530626816733 89.73616742559534 0 89.73616742559534 -237.04272235525423 0 0 0 0 19.708860888127674 141.65391158717102 0 141.65391158717102 -257.27456391262967 0 0 0 0 111.25463868558109 28.502679831799469 0 28.502679831799469 -238.8648758426425 0 0 0 0 118.60194847362072 140.85623707755076 0 140.85623707755076 -298.92309546642355 0 0 0 0 1.7913031927168905 2.879582303277644 0 2.879582303277644 4.7885292203172298 0 0 0 0 115.01348376692249 -214.70052777509409 0 -214.70052777509409 403.7231270687189 0 0 0 0 185.29839228764467 46.615054502850398 0 46.615054502850398 -373.33130403632822 0 0 0 0 118.34384448877989 -178.62369118295692 0 -178.62369118295692 219.15701912392979 0 0 0 0 -193.52654686424717 248.93609295436181 0 248.93609295436181 171.52069996787941 0 0 0 0 -175.12645065836443 319.89317611597653 0 319.89317611597653 467.54095518685062 0 0 0 0 -190.85814321053567 116.41202466424875 0 116.41202466424875 58.836939646716928 0 0 0 0 2.355884518524102 -9.9803975907591962 0 -9.9803975907591962 43.876902072174772 0 0 0 0 -40.072649024291422 330.49743041035981 0 330.49743041035981 -222.54315643256996 0 0 0 0 -26.336512462465862 -8.4103300981914799 0 -8.4103300981914799 286.62970619629778 0 0 0 0 50.937995074876653 127.01348791201599 0 127.01348791201599 -144.09454452706268 0 0 0 0 13.267013196847135 4.5689137117199436 0 4.5689137117199436 36.629331487538366 0 0 0 0 -13.56731534273276 35.474984833203024 0 35.474984833203024 108.52716639359676 0 0 0 0 64.205131280614069 -49.339521177549614 0 -49.339521177549614 8.8782475484113093 0 0 0 0 8.5725468041904378 34.541060998304602 0 34.541060998304602 242.23425835793023 0 0 0 0 -61.948534740246487 366.84748582781685 0 366.84748582781685 -196.9106018251332 0 0 0 0 -7.3452742026248607 40.577278870633762 0 40.577278870633762 113.22643264575623 0 0 0 0 -104.55269975891451 54.876110589990276 0 54.876110589990276 322.23066843097331 0 0 0 0 289.37471325562456 -575.3071435085003 0 -575.3071435085003 22.422338382370071 0 0 0 0 -122.33211276575162 -124.56453658387181 0 -124.56453658387181 1161.4417862206465 0 0 0 0 86.455711783311244 483.02942918548069 0 483.02942918548069 1211.7456266366935 0 0 0 0 89.845469138954741 -150.62126791442279 0 -150.62126791442279 288.80420678119845 0 0 0 0 -27.660926725839772 56.847420330319437 0 56.847420330319437 677.13848285545828 0 0 0 0 106.62840806160207 189.7143980089777 0 189.7143980089777 553.27719687321223 0 0 0 0 -187.94861722645192 -54.191271639072511 0 -54.191271639072511 404.72882400608796 0 0 0 0 46.673307890368505 91.45949350068986 0 91.45949350068986 246.27069948869757 0 0 0 0 259.34566878344503 -155.0640991445689 0 -155.0640991445689 -270.22632436867571 0 0 0 0 -52.790572711125606 98.034947665626532 0 98.034947665626532 265.33863015827956 0 0 0 0 9.5662510519905481 257.95422834857891 0 257.95422834857891 -420.53576593266189 0 0 0 0 2.5003282752113227 -1.4545734455140291 0 -1.4545734455140291 0.15629728652515951 0 0 0 0 -83.530076263406045 214.99160237520118 0 214.99160237520118 -144.31443496892462 0 0 0 0 -26.759603323742169 -350.16363163050391 0 -350.16363163050391 422.44564322760561 0 0 0 0 -14.547587521326092 27.799249273636036 0 27.799249273636036 113.17856262971299 0 0 0 0 157.02749927772766 -596.96363449361888 0 -596.96363449361888 72.928596456098603 0 0 0 0 -365.33838950816221 939.20875513262945 0 939.20875513262945 644.44353640344343 0 0 0 0 15.864331848180427 251.76357775949145 0 251.76357775949145 208.77943265663998 0 0 0 0 -34.824583688771327 93.603310734306433 0 93.603310734306433 -8.1246412297768984 0 0 0 0 -6.2230243945479025 11.688315408173956 0 11.688315408173956 15.170818157451549 0 0 0 0 -101.56630424929244 -29.355117738319677 0 -29.355117738319677 -3.7753892262117006 0 0 0 0 5.9979982118408586 7.3362695258997235 0 7.3362695258997235 8.3126270960282795 0 0 0 0 -156.19729484433162 193.12035966053281 0 193.12035966053281 0.21766075100458693 0 0 0 0 16.851636244270253 -25.184546564722041 0 -25.184546564722041 111.70612928332412 0 0 0 0 25.50216907670665 -6.8512793711706763 0 -6.8512793711706763 83.162417653598823 0 0 0 0 4.0942109419493136 9.6579043139026908 0 9.6579043139026908 17.031849540857365 0 0 0 0 -40.260999975738741 -23.58972084202469 0 -23.58972084202469 34.366501267417334 0 0 0 0 -40.566398404746479 -65.800218111263263 0 -65.800218111263263 -57.228020473354263 0 0 0 0 -190.34108531248239 103.63264089001768 0 103.63264089001768 15.301862092572264 0 0 0 0 -6.1549308005162402 -443.32884305835978 0 -443.32884305835978 -247.74648695689393 0 0 0 0 -35.54224532455919 -141.81863340768177 0 -141.81863340768177 -80.078971752789585 0 0 0 0 -152.86596418640852 24.015053049079143 0 24.015053049079143 140.89173506569932 0 0 0 0 -30.190361722031064 -10.985138202212539 0 -10.985138202212539 89.713339735006457 0 0 0 0 -46.928933313553898 2.4790610849595396 0 2.4790610849595396 166.9491819988325 0 0 0 0 -56.560898944255314 59.969778423706884 0 59.969778423706884 -17.418491360944245 0 0 0 0 -86.338420184410097 19.662729557734565 0 19.662729557734565 171.13511447403653 0 0 0 0 -109.37032892520097 32.73738087676611 0 32.73738087676611 379.19374367260025 0 0 0 0 -104.47475999574681 -94.231767022618442 0 -94.231767022618442 327.4589447276885 0 0 0 0 965.75755313486115 25.424182232491148 0 25.424182232491148 -415.15178394048417 0 0 0 0 78.954379385749235 331.6563801200391 0 331.6563801200391 684.66703496710397 0 0 0 0 -40.301755623599092 68.992353843845194 0 68.992353843845194 125.26613938633818 0 0 0 0 -137.19275741077581 -138.33846851911221 0 -138.33846851911221 683.75553209099155 0 0 0 0 -35.033192813116784 -206.38752830360318 0 -206.38752830360318 273.17532871552976 0 0 0 0 0.22618790011105294 -0.17059484724136986 0 -0.17059484724136986 9.8372210389627526 0 0 0 0 -96.590127383082745 -85.456461047346238 0 -85.456461047346238 288.82634488720214 0 0 0 0 -52.213319144139405 -125.48123866863898 0 -125.48123866863898 284.31102199371162 0 0 0 0 9.8210200422740854 -82.020829236636928 0 -82.020829236636928 -12.317795514522004 0 0 0 0 -96.141454269670703 -62.364111538889119 0 -62.364111538889119 278.19765567453578 0 0 0 0 -96.475140839072083 -59.909407743434713 0 -59.909407743434713 260.54728629652527 0 0 0 0 -55.569665776114562 -95.212464230004116 0 -95.212464230004116 155.88978099697852 0 0 0 0 -74.802230604785109 -42.685464109788882 0 -42.685464109788882 269.9369248842122 0 0 0 0 -68.046472831526899 -58.77701055232319 0 -58.77701055232319 289.74490193805104 0 0 0 0 -14.160359140480068 -15.514490950539766 0 -15.514490950539766 251.75736393893021 0 0 0 0 3.0939342456049417 28.366072100645397 0 28.366072100645397 341.29068630177244 0 0 0 0 -21.741654638211457 -70.562795555277262 0 -70.562795555277262 315.05302844977268 0 0 0 0 7.8019211770233596 -45.756792015083192 0 -45.756792015083192 320.36328258049616 0 0 0 0 -22.447303127063378 -58.045285905493074 0 -58.045285905493074 251.21066137132584 0 0 0 0 50.848506801286931 -49.437344844671316 0 -49.437344844671316 62.061661254159844 0 0 0 0 42.514682845805055 -71.238091217222973 0 -71.238091217222973 131.60530464825933 0 0 0 0 -58.612901300253725 -39.545588854976813 0 -39.545588854976813 270.23589764356439 0 0 0 0 -55.753751762673801 -28.794813264270488 0 -28.794813264270488 235.61066375319206 0 0 0 0 16.341455485858539 8.112876642243279 0 8.112876642243279 4.4911462840527605 0 0 0 0 666.73401378166727 832.85947703145212 0 832.85947703145212 -517.94882826489265 0 0 0 0 614.96618513703288 480.2652841496074 0 480.2652841496074 -1525.0549182694012 0 0 0 0 81.238948486724894 740.52174427474529 0 740.52174427474529 1362.2940910371663 0 0 0 0 541.95401384226477 1000.6435446677533 0 1000.6435446677533 643.34932142023172 0 0 0 0 -62.570692217426085 136.27868843456235 0 136.27868843456235 1479.3197260251773 0 0 0 0 -141.26224327915486 178.67181666568285 0 178.67181666568285 181.98566796998784 0 0 0 0 -107.07028778789845 -48.89988763632573 0 -48.89988763632573 787.17095740060995 0 0 0 0 125.84304352750883 678.11713944278017 0 678.11713944278017 673.93611342017266 0 0 0 0 36.679815674590827 548.53357788713402 0 548.53357788713402 485.94573050932377 0 0 0 0 169.85384145360877 201.79260549588071 0 201.79260549588071 23.88051147574879 0 0 0 0 450.12027371424711 552.03785406352836 0 552.03785406352836 222.03036669299763 0 0 0 0 -480.23630308268184 -19.351739491085027 0 -19.351739491085027 507.48014166274879 0 0 0 0 -6.8286331251740959 -11.568484448601552 0 -11.568484448601552 24.24404341960863 0 0 0 0 -13.603616488778201 -10.558120026940774 0 -10.558120026940774 82.753015533978271 0 0 0 0 -16.029119854775729 -67.654606639422127 0 -67.654606639422127 -39.078302743204404 0 0 0 0 -876.86976578972281 148.71642322378466 0 148.71642322378466 1060.9988832026866 0 0 0 0 -15.431783363353157 -3.8662324943337296 0 -3.8662324943337296 59.693648017422305 0 0 0 0 -133.37460504177491 3.6459062349167652 0 3.6459062349167652 277.9253160491935 0 0 0 0 652.89238437773997 -0.7799817046698081 0 -0.7799817046698081 -299.03559186386701 0 0 0 0 10.553987946125062 104.27322553296108 0 104.27322553296108 113.72796962645953 0 0 0 0 -63.053649992081205 3.0918808044916659 0 3.0918808044916659 178.64622772568691 0 0 0 0 0.061060000626075972 1.1577284059657842 0 1.1577284059657842 10.480079249976598 0 0 0 0 -639.42818153404187 -289.14027866184915 0 -289.14027866184915 -183.69271703007871 0 0 0 0 153.86648546268145 96.165797691020998 0 96.165797691020998 -256.79172375328199 0 0 0 0 -7.4140397867058514 -19.901327200753535 0 -19.901327200753535 43.220980057178821 0 0 0 0 -461.78321013277355 -509.30975742841474 0 -509.30975742841474 78.039000452619803 0 0 0 0 118.68738178550313 119.86519377207514 0 119.86519377207514 -62.781076112805749 0 0 0 0 1331.4010495936664 380.13931367987425 0 380.13931367987425 -422.11957100572909 0 0 0 0 713.6566125673736 -451.83295117283342 0 -451.83295117283342 480.4808152395708 0 0 0 0 6.7628077276062477 648.88620271418222 0 648.88620271418222 392.75126665360585 0 0 0 0 272.13030513689546 752.41839824848648 0 752.41839824848648 -304.56832680301886 0 0 0 0 8.7686644406819987 13.554371536707563 0 13.554371536707563 16.263108397231292 0 0 0 0 423.3040732613 1332.8003596944441 0 1332.8003596944441 -618.64416114464257 0 0 0 0 1002.6641150896328 949.72782670971264 0 949.72782670971264 -637.06804367134464 0 0 0 0 0.50970805678052145 -18.925121765418709 0 -18.925121765418709 27.373663646289373 0 0 0 0 19.527074948790528 26.887257906063496 0 26.887257906063496 65.015380548502435 0 0 0 0 17.486690039503234 14.107076333354371 0 14.107076333354371 18.983400495986288 0 0 0 0 369.17648105638557 1340.3286884622489 0 1340.3286884622489 598.61770229496324 0 0 0 0 34.490042602878475 42.87320460160845 0 42.87320460160845 93.193753839405872 0 0 0 0 173.90346260522347 -1699.9264517559354 0 -1699.9264517559354 -80.207433266055887 0 0 0 0 23.0613029553042 11.239757368632127 0 11.239757368632127 129.03899324516533 0 0 0 0 0.20955423644689608 -25.621205529726865 0 -25.621205529726865 39.443415393569353 0 0 0 0 52.680732714918463 70.718118799173681 0 70.718118799173681 212.45195057132514 0 0 0 0 5.7665283844137001 -4.0430564494729992 0 -4.0430564494729992 -10.364673313562434 0 0 0 0 8.6103534082770921 10.379328675211582 0 10.379328675211582 83.150841970491456 0 0 0 0 74.793860933938049 21.177493863106065 0 21.177493863106065 67.78038815758191 0 0 0 0 23.364152730470067 13.602165678331403 0 13.602165678331403 24.863623125827871 0 0 0 0 29.334959329575895 -4.8912011274478573 0 -4.8912011274478573 46.505238115230895 0 0 0 0 27.942708039308627 31.485849692799093 0 31.485849692799093 92.604920318362929 0 0 0 0 31.943982187250299 -4.0806151817596401 0 -4.0806151817596401 21.597635740155965 0 0 0 0 -5.5427448174569109 12.606404996057542 0 12.606404996057542 46.683910870893328 0 0 0 0 -36.48145224262899 -10.950581382412565 0 -10.950581382412565 38.834657074257848 0 0 0 0 -1.3377792163611275 -28.770666374890425 0 -28.770666374890425 37.208456909691449 0 0 0 0 -21.421075804172688 75.855910741636762 0 75.855910741636762 4.8866430010093609 0 0 0 0 -74.457829278000418 26.498789527395274 0 26.498789527395274 113.05505306619307 0 0 0 0 -7.4750237515326727 7.0688925214106959 0 7.0688925214106959 72.872541372594156 0 0 0 0 -101.26479414345017 -57.248745483211678 0 -57.248745483211678 95.422048282984179 0 0 0 0 31.982316352622892 -28.921787161179054 0 -28.921787161179054 114.59812505796435 0 0 0 0 -186.25553990565641 440.69405155740242 0 440.69405155740242 90.281183270097245 0 0 0 0 -1.7138686199934878 7.0483653413143941 0 7.0483653413143941 32.426865173571571 0 0 0 0 -300.15757409184152 -113.07086962777248 0 -113.07086962777248 446.68777910759673 0 0 0 0 188.81366357318984 190.78902090454358 0 190.78902090454358 195.87197222356917 0 0 0 0 3.7427010132397616 0.91945147972791119 0 0.91945147972791119 -3.2799467017846666 0 0 0 0 68.634317757620011 99.25514362847025 0 99.25514362847025 -84.67485658035821 0 0 0 0 3.5663277439618053 14.917591811913628 0 14.917591811913628 -36.623604988917918 0 0 0 0 238.00621845614523 -103.25341476740141 0 -103.25341476740141 -104.91890859791602 0 0 0 0 101.45111751787499 69.66193240195571 0 69.66193240195571 -58.790703673905227 0 0 0 0 26.486265287990136 33.37651354265472 0 33.37651354265472 41.698729014467972 0 0 0 0 23.173233563687159 12.807567092697155 0 12.807567092697155 -6.5662125007704759 0 0 0 0 141.99985715850562 -85.978754775012931 0 -85.978754775012931 63.305442991157179 0 0 0 0 203.61310820250802 196.31536932837298 0 196.31536932837298 196.35592120104411 0 0 0 0 215.41329760206082 -241.70309285050462 0 -241.70309285050462 327.89447332800773 0 0 0 0 1.4572712812813107 0.11078548110386777 0 0.11078548110386777 4.0263014823749756 0 0 0 0 -126.86205215931204 -86.374748552261735 0 -86.374748552261735 520.30078787216917 0 0 0 0 -58.778525524758379 -184.1086779312318 0 -184.1086779312318 651.0033057589244 0 0 0 0 -62.051244127844711 -104.208497824402 0 -104.208497824402 500.43326190769221 0 0 0 0 -36.805057441438521 -181.3383273614636 0 -181.3383273614636 619.60373262566281 0 0 0 0 -27.668805962216538 -163.72643876392249 0 -163.72643876392249 567.47358796480694 0 0 0 0 -52.396106789559781 -110.61270560239791 0 -110.61270560239791 522.23746022432169 0 0 0 0 -141.52207931944395 -107.32815848285099 0 -107.32815848285099 529.43408691961668 0 0 0 0 -45.044349125033477 -158.20238333854104 0 -158.20238333854104 551.73826560826274 0 0 0 0 -10.337157609064207 -14.069690697291662 0 -14.069690697291662 404.82548488173052 0 0 0 0 -149.65923404132991 -161.73993003873329 0 -161.73993003873329 305.84320396347903 0 0 0 0 12.276348168219524 5.0337284430888474 0 5.0337284430888474 12.50185160634198 0 0 0 0 -22.628761126199606 -151.71123394745518 0 -151.71123394745518 450.37587486975826 0 0 0 0 2.740801203765971 3.7798249861198663 0 3.7798249861198663 1.5975563319534842 0 0 0 0 9.7643230610671026 1.8664153840491053 0 1.8664153840491053 26.54564747241966 0 0 0 0 8.1533886485955929 6.9350290421892282 0 6.9350290421892282 9.1974974452656255 0 0 0 0 11.666553349657875 2.076182202254131 0 2.076182202254131 17.069430180228665 0 0 0 0 75.332186120151164 118.09268058484304 0 118.09268058484304 290.32346195916762 0 0 0 0 49.678943109925967 -74.588772085131495 0 -74.588772085131495 810.62389291451836 0 0 0 0 1.9085463775671387 -1.663349011646801 0 -1.663349011646801 0.50545072824854742 0 0 0 0 58.943678324322718 -79.957503499179438 0 -79.957503499179438 531.58060683790245 0 0 0 0 -4.448733990954679 -129.80367922551522 0 -129.80367922551522 694.31790724099847 0 0 0 0 48.39600151572813 -102.78512294901884 0 -102.78512294901884 482.4385681921849 0 0 0 0 -22.197341739035437 -86.581242822463537 0 -86.581242822463537 968.97551541552093 0 0 0 0 -9.0815156257558556 -105.30999413323298 0 -105.30999413323298 621.24952680178103 0 0 0 0 50.28574680732163 -93.62074372832285 0 -93.62074372832285 629.86007445014548 0 0 0 0 22.187637294557135 -188.46919293319661 0 -188.46919293319661 746.25630148813798 0 0 0 0 9.4180320892224856 -1.8670086263270349 0 -1.8670086263270349 2.7325973348384025 0 0 0 0 1.8803699746767961 -13.577136398373113 0 -13.577136398373113 20.053438236509464 0 0 0 0 -13.757940033865452 11.046556392093407 0 11.046556392093407 47.761924184058444 0 0 0 0 -62.733184914265621 -4.3375382191588869 0 -4.3375382191588869 211.18189240955689 0 0 0 0 -55.604308365566794 92.475693813874386 0 92.475693813874386 137.49551090099158 0 0 0 0 72.070667303702294 27.475866500661141 0 27.475866500661141 174.38178923662053 0 0 0 0 97.933118044027651 90.346154569251667 0 90.346154569251667 269.59334395034239 0 0 0 0 -54.082894373308648 -6.2743325008782449 0 -6.2743325008782449 203.32432012056233 0 0 0 0 -55.507474506137896 -19.071599671442527 0 -19.071599671442527 266.08425653830636 0 0 0 0 -65.80434224704868 -28.956684484008292 0 -28.956684484008292 170.41563963075168 0 0 0 0 -81.543057292715503 10.368368778348668 0 10.368368778348668 147.07340300544456 0 0 0 0 -154.31114735090335 43.526501862383157 0 43.526501862383157 74.078347977774683 0 0 0 0 -93.998115108092861 74.106593808210164 0 74.106593808210164 31.431046883812087 0 0 0 0 -62.719839766613859 0.12757383888674667 0 0.12757383888674667 81.876476296805777 0 0 0 0 259.11076825384953 326.91453621827532 0 326.91453621827532 8.6960784940747544 0 0 0 0 -68.57077325640256 90.734356355726959 0 90.734356355726959 -134.53597260353854 0 0 0 0 1.9656873883349339 36.169118579305078 0 36.169118579305078 63.367447181763993 0 0 0 0 -100.90494706127811 102.11654651786739 0 102.11654651786739 23.890401222532091 0 0 0 0 -84.97502849826185 38.311860216849709 0 38.311860216849709 51.180582671629963 0 0 0 0 -111.72392853235124 99.727068106316437 0 99.727068106316437 96.373284531620811 0 0 0 0 210.57012304371756 170.17910574937559 0 170.17910574937559 145.39063559346687 0 0 0 0 2.4886209641733208 0.70269096190061475 0 0.70269096190061475 -1.4907269385887219 0 0 0 0 475.75639690990397 -31.379309110561735 0 -31.379309110561735 -553.76346467356052 0 0 0 0 81.580339113304944 -129.75679274745926 0 -129.75679274745926 639.36121155718865 0 0 0 0 49.174543326422963 1.66001956969194 0 1.66001956969194 164.83795479957189 0 0 0 0 -170.18271848744098 -36.701302688266878 0 -36.701302688266878 270.94745329668513 0 0 0 0 -3.2576278310104589 32.866859749747107 0 32.866859749747107 63.361312940503524 0 0 0 0 -101.76690244766712 197.1523394489368 0 197.1523394489368 11.257207666814793 0 0 0 0 -81.644091224401336 221.72877366345347 0 221.72877366345347 -5.9423911517878878 0 0 0 0 69.021941500515595 189.55402929595584 0 189.55402929595584 90.63525644200854 0 0 0 0 -71.417105067107244 57.726502409895602 0 57.726502409895602 -33.082472093621618 0 0 0 0 -41.155490757192638 157.83043837313744 0 157.83043837313744 -75.756351689367875 0 0 0 0 -10.293231589295711 25.584358974068749 0 25.584358974068749 56.754939237256195 0 0 0 0 49.830070311841155 -170.55730034730368 0 -170.55730034730368 196.25221624473852 0 0 0 0 -13.989723637776478 87.92709636593645 0 87.92709636593645 50.673694251490815 0 0 0 0 6.35777623781496 -115.51864105198183 0 -115.51864105198183 132.98966379843841 0 0 0 0 10.194236108151017 -68.635651659020368 0 -68.635651659020368 253.47727631541784 0 0 0 0 73.002909491791343 -231.58641132371122 0 -231.58641132371122 370.52825711245168 0 0 0 0 192.44373832546887 -250.99001336817309 0 -250.99001336817309 289.4797802639805 0 0 0 0 160.11641388345868 -210.04735860740948 0 -210.04735860740948 280.65282814431703 0 0 0 0 172.45199638481563 -238.19655764110939 0 -238.19655764110939 326.07515979142045 0 0 0 0 215.25903964713575 -176.38385111590105 0 -176.38385111590105 260.12289685480869 0 0 0 0 242.69429526198576 -291.13240608496199 0 -291.13240608496199 360.58311758600757 0 0 0 0 366.07464349011434 -136.06923292014108 0 -136.06923292014108 375.97143328042876 0 0 0 0 300.25868467184375 -124.92790432139736 0 -124.92790432139736 583.07928042099229 0 0 0 0 257.92170449471041 169.8624088431643 0 169.8624088431643 607.9584504489103 0 0 0 0 367.06625615616622 -88.332636343489867 0 -88.332636343489867 422.54989180590383 0 0 0 0 -106.45023385389277 -87.583533496877862 0 -87.583533496877862 1116.6212779885245 0 0 0 0 -118.39348773455731 310.11802133369929 0 310.11802133369929 950.47203345769958 0 0 0 0 -68.992268902192791 -61.139871791825499 0 -61.139871791825499 455.68596578938013 0 0 0 0 76.090842315729788 -23.999385905714007 0 -23.999385905714007 395.23902305377123 0 0 0 0 61.526095565193827 -72.688841901272099 0 -72.688841901272099 442.14145185615052 0 0 0 0 -19.518264206723416 -153.98981702061792 0 -153.98981702061792 340.38066629049717 0 0 0 0 -5.6216473724380194 -205.23096224773326 0 -205.23096224773326 167.76150289832367 0 0 0 0 -11.154863174625007 -176.97539154586411 0 -176.97539154586411 742.30169208379084 0 0 0 0 45.334999868104205 -357.310260215374 0 -357.310260215374 456.99232988862059 0 0 0 0 -9.4968373247579621 -268.11135913312319 0 -268.11135913312319 626.49150492541594 0 0 0 0 45.443769955200196 -187.83417834913053 0 -187.83417834913053 460.6479493516963 0 0 0 0 71.579851739762034 -226.84123942967926 0 -226.84123942967926 224.67481741031224 0 0 0 0 31.055379755676313 -227.01139255915041 0 -227.01139255915041 438.06035299355062 0 0 0 0 151.4163166646855 -157.02360461104763 0 -157.02360461104763 391.70681161195171 0 0 0 0 103.00893536420813 -235.25226716833276 0 -235.25226716833276 269.463969612254 0 0 0 0 45.106465634713295 -196.80002737476138 0 -196.80002737476138 439.0565593441861 0 0 0 0 167.0171658687604 -233.55936968111746 0 -233.55936968111746 358.75028668428422 0 0 0 0 196.11616871265517 -32.858693171387131 0 -32.858693171387131 610.97515607996138 0 0 0 0 320.35751321719022 -220.46781119865773 0 -220.46781119865773 330.55186712297291 0 0 0 0 179.55582602397078 -256.46157933164432 0 -256.46157933164432 302.17277872763225 0 0 0 0 185.94894333887322 -256.64681843445396 0 -256.64681843445396 299.66107545237173 0 0 0 0 98.914928139610652 -211.77469885555183 0 -211.77469885555183 342.57629442839607 0 0 0 0 105.49670398361934 -220.89362390780298 0 -220.89362390780298 278.1949808656791 0 0 0 0 -19.458414228840184 8.6513748420766206 0 8.6513748420766206 228.58311951692576 0 0 0 0 30.966363858860177 -139.20972017488202 0 -139.20972017488202 280.6259200468121 0 0 0 0 -26.352945765770073 -116.76665279286681 0 -116.76665279286681 236.13904211312183 0 0 0 0 65.348894162628994 -140.54156938812048 0 -140.54156938812048 107.22708115135902 0 0 0 0 -41.715153748015837 -53.951017194347514 0 -53.951017194347514 155.84778645646293 0 0 0 0 -112.61488845731128 10.170202514942503 0 10.170202514942503 6.4100531631847844 0 0 0 0 -129.15590318561226 -117.26758428461471 0 -117.26758428461471 71.247254147776403 0 0 0 0 -3.9401314251581425 -102.9762500736033 0 -102.9762500736033 44.500784222560469 0 0 0 0 -115.47239739890847 -70.811377055310004 0 -70.811377055310004 155.19918939656054 0 0 0 0 2.238941259033318 0.30006531787850577 0 0.30006531787850577 -0.48820548445060297 0 0 0 0 -77.00606353533135 -23.275514602331896 0 -23.275514602331896 -42.31260929160635 0 0 0 0 -82.925424758002009 -6.3309066901856568 0 -6.3309066901856568 -1.6096355308436614 0 0 0 0 -42.650623220572015 -80.542224860015267 0 -80.542224860015267 43.061691371418419 0 0 0 0 9.9865371666292049 10.333856957218813 0 10.333856957218813 61.997441048624751 0 0 0 0 12.509532099084481 -1.5480786643311149 0 -1.5480786643311149 -26.02973011956783 0 0 0 0 81.527188374495381 -67.228310601734847 0 -67.228310601734847 76.619614007773635 0 0 0 0 4.4679198649791108 -0.51749986085903288 0 -0.51749986085903288 -0.14128273068043029 0 0 0 0 43.895069849873721 -36.79324410677691 0 -36.79324410677691 48.002722625220485 0 0 0 0 115.26063566210162 236.85036738035751 0 236.85036738035751 287.1172513634956 0 0 0 0 217.7694906826199 -10.111475589015754 0 -10.111475589015754 321.98277857224457 0 0 0 0 86.015602886900979 232.35827810055343 0 232.35827810055343 451.17906151074931 0 0 0 0 55.476475593173291 108.04943625668238 0 108.04943625668238 237.44929860036791 0 0 0 0 -24.827442053393952 -4.538347711742972 0 -4.538347711742972 181.48407406669867 0 0 0 0 -41.263917318928179 18.752055049952105 0 18.752055049952105 155.99513556943566 0 0 0 0 2.3810132166413496 144.56577248862595 0 144.56577248862595 239.55346480385197 0 0 0 0 79.055708059142944 161.42536794854823 0 161.42536794854823 159.04740813124954 0 0 0 0 9.8322895449748557 80.943306834417854 0 80.943306834417854 8.5391095119994134 0 0 0 0 -168.90675378985634 -13.863511382856814 0 -13.863511382856814 160.57997126622649 0 0 0 0 326.26774626498718 -182.39759210823104 0 -182.39759210823104 548.49580715932825 0 0 0 0 520.96316662492109 69.976845037148451 0 69.976845037148451 294.17145835867268 0 0 0 0 36.228183294722385 64.051505254628864 0 64.051505254628864 576.84802594636858 0 0 0 0 259.69249710352278 -55.773963640483998 0 -55.773963640483998 312.21167553334089 0 0 0 0 5.3471333673050445 0.32469474983599866 0 0.32469474983599866 0.50529189362841009 0 0 0 0 70.827527051452762 351.59889021880736 0 351.59889021880736 433.56149294727948 0 0 0 0 93.574137268750292 -42.623570722375007 0 -42.623570722375007 765.26688553309941 0 0 0 0 342.13357031101577 110.54348240371473 0 110.54348240371473 784.65489377831545 0 0 0 0 327.45816188069233 131.27937830763403 0 131.27937830763403 67.440132370444189 0 0 0 0 33.943417393343339 -154.4190454427744 0 -154.4190454427744 533.03774958902068 0 0 0 0 3.1923701561419096 0.28139413713500971 0 0.28139413713500971 -0.26865609631940401 0 0 0 0 365.5496502496926 22.871737300887617 0 22.871737300887617 341.19641342999239 0 0 0 0 308.10527466112717 273.13565394999023 0 273.13565394999023 350.31325725435727 0 0 0 0 257.02664452380134 236.09175671181583 0 236.09175671181583 325.2764298539696 0 0 0 0 514.46811137748182 397.78888973590801 0 397.78888973590801 374.3791060942749 0 0 0 0 255.75337464960879 225.84563492789675 0 225.84563492789675 260.78264789659443 0 0 0 0 -15.681383042097195 68.788304487708956 0 68.788304487708956 402.33551469040685 0 0 0 0 104.22321726621306 259.10378319962911 0 259.10378319962911 518.44697257180087 0 0 0 0 1.2811143723227096 2.6239945219443968 0 2.6239945219443968 4.200296469470743 0 0 0 0 153.04127543396956 -4.8998704550274397 0 -4.8998704550274397 200.04759622097481 0 0 0 0 141.45430047835589 194.26456114964822 0 194.26456114964822 398.64258643419453 0 0 0 0 -16.056522165119986 47.154899719796958 0 47.154899719796958 270.37073809388676 0 0 0 0 93.614953515740581 55.037557443356491 0 55.037557443356491 266.23024762976638 0 0 0 0 69.992538118789071 -105.57627749185485 0 -105.57627749185485 38.432911506708479 0 0 0 0 132.40369364803746 22.136483203597891 0 22.136483203597891 171.83339673554292 0 0 0 0 114.6263811800186 -89.531813111861993 0 -89.531813111861993 147.48167166413441 0 0 0 0 175.20276558287514 76.647282573700068 0 76.647282573700068 317.26474427039648 0 0 0 0 351.36962197780417 44.669616820203373 0 44.669616820203373 305.50564748997567 0 0 0 0 240.42010597981789 -6.1602786132862093 0 -6.1602786132862093 161.22518577682786 0 0 0 0 94.993113187457311 -79.755407014235971 0 -79.755407014235971 327.87128189504438 0 0 0 0 95.889087311857566 -40.524682104238309 0 -40.524682104238309 68.291388644298422 0 0 0 0 121.74238840634825 -105.34198379407098 0 -105.34198379407098 32.770442169086891 0 0 0 0 -26.476426258375795 -112.41740972612752 0 -112.41740972612752 165.70898922387278 0 0 0 0 29.230392486719666 -124.68986589708584 0 -124.68986589708584 2.9689141926792217 0 0 0 0 14.015995341886992 -79.008274894073111 0 -79.008274894073111 105.44571221862861 0 0 0 0 -159.03341296449889 -74.138661021410371 0 -74.138661021410371 132.78593564066614 0 0 0 0 124.70947603796139 -67.116331754987186 0 -67.116331754987186 139.00421782765079 0 0 0 0 -29.458185262669758 -88.458910124794784 0 -88.458910124794784 299.70628063540062 0 0 0 0 44.282846265377884 56.297252656731871 0 56.297252656731871 304.32490269157415 0 0 0 0 -36.038641094750346 30.369888972729314 0 30.369888972729314 359.90854907613539 0 0 0 0 70.607059564568772 96.995074626698624 0 96.995074626698624 325.46117840847728 0 0 0 0 29.714450621887181 28.040067052813356 0 28.040067052813356 384.74069102393696 0 0 0 0 10.571292665871098 -2.1447579151997616 0 -2.1447579151997616 1.2465335963080264 0 0 0 0 0.81950563146983768 106.57431262585305 0 106.57431262585305 495.46403725657001 0 0 0 0 18.10041282547445 -29.184298012307408 0 -29.184298012307408 150.61923142808519 0 0 0 0 -60.605938105229143 -84.88999252173744 0 -84.88999252173744 261.84022470549098 0 0 0 0 -31.653998571761804 80.622415932088188 0 80.622415932088188 353.47227873216616 0 0 0 0 -33.205851238143623 43.957917562865987 0 43.957917562865987 431.77298801606958 0 0 0 0 14.324638879571921 -20.003520659218339 0 -20.003520659218339 170.52638325901353 0 0 0 0 -120.50593585939714 -58.783968397161516 0 -58.783968397161516 233.48351791579626 0 0 0 0 -55.214003738407882 -85.84260872854793 0 -85.84260872854793 25.526416566135595 0 0 0 0 -152.3932564863926 -34.197952263442858 0 -34.197952263442858 228.81917781473021 0 0 0 0 -141.71482823144316 -140.56251283700453 0 -140.56251283700453 120.21754622156732 0 0 0 0 104.06909904215081 10.451852444890392 0 10.451852444890392 15.888245749636553 0 0 0 0 -180.79443057027584 -232.18768089980586 0 -232.18768089980586 77.522132944975965 0 0 0 0 0.15742060738741515 -48.14162491203534 0 -48.14162491203534 114.57536532359234 0 0 0 0 283.11360277380481 10.117300876998343 0 10.117300876998343 -31.686710452595435 0 0 0 0 -26.992155963739606 -233.0283884294513 0 -233.0283884294513 -76.596091457264265 0 0 0 0 305.58749274820821 278.13876351268846 0 278.13876351268846 135.38974320503621 0 0 0 0 7.3276027269021142 -571.40464402874932 0 -571.40464402874932 -13.044864906085422 0 0 0 0 -972.24885614962614 -332.92380165688519 0 -332.92380165688519 388.61241188400891 0 0 0 0 33.044131938230748 440.57778213259007 0 440.57778213259007 606.04462933612376 0 0 0 0 -133.07678055299311 159.03316488486598 0 159.03316488486598 474.88822677938151 0 0 0 0 -181.01521852619544 -88.603846382553456 0 -88.603846382553456 -46.333696558693191 0 0 0 0 -257.88759001331073 21.115597772004548 0 21.115597772004548 -202.45567573487642 0 0 0 0 1.9149646523785115 -9.8837622531434022 0 -9.8837622531434022 45.571099737060251 0 0 0 0 -438.01177205505337 -0.038724183919839561 0 -0.038724183919839561 290.10175850540691 0 0 0 0 -510.09905374773371 149.9946292599052 0 149.9946292599052 10.06426124155405 0 0 0 0 -0.52418039837779196 -18.199319598352304 0 -18.199319598352304 -25.222644944049534 0 0 0 0 186.39861788276744 178.31396545754978 0 178.31396545754978 336.37339605002489 0 0 0 0 487.76927627727554 522.00657829830743 0 522.00657829830743 548.17086491780356 0 0 0 0 79.344994936506055 78.021479784947587 0 78.021479784947587 531.04745530283799 0 0 0 0 208.75811326879261 344.67739785333106 0 344.67739785333106 765.78387668472715 0 0 0 0 -325.27854181196403 -136.07358645176282 0 -136.07358645176282 418.43981137103401 0 0 0 0 -15.620944876313509 351.72531184713444 0 351.72531184713444 1259.739435043768 0 0 0 0 346.16317884637931 838.93570222746348 0 838.93570222746348 1069.2920595883625 0 0 0 0 -0.29526955157927742 -1.6840225436851881 0 -1.6840225436851881 5.8985202819886808 0 0 0 0 43.022751172530498 -142.83122249165899 0 -142.83122249165899 444.03144135342154 0 0 0 0 0.57577202091951096 316.15129316798993 0 316.15129316798993 1032.9987409450259 0 0 0 0 7.1437417451476222 69.703639899613336 0 69.703639899613336 1042.3177191480354 0 0 0 0 26.373699160003255 -110.05857659490357 0 -110.05857659490357 608.51594272523653 0 0 0 0 -172.92569422008864 -105.84266991076584 0 -105.84266991076584 275.69630778449573 0 0 0 0 -114.37658590803903 -241.67615897673386 0 -241.67615897673386 27.924617276294157 0 0 0 0 149.52028558548136 -7.9687809554743581 0 -7.9687809554743581 245.4948238360812 0 0 0 0 -75.07300112017333 127.93742190529883 0 127.93742190529883 565.56980299350107 0 0 0 0 -228.74864063729638 -311.30536594949081 0 -311.30536594949081 -24.641919727917411 0 0 0 0 174.56820996852429 -29.830316285289882 0 -29.830316285289882 36.757855177726015 0 0 0 0 -192.33202704324509 -116.88444534887094 0 -116.88444534887094 31.620920090010259 0 0 0 0 -7.4470116250671019 -35.268926655739847 0 -35.268926655739847 128.5967478478106 0 0 0 0 4.8261987578220458 -30.408341855070717 0 -30.408341855070717 56.309504353111379 0 0 0 0 -596.04002254398824 -379.69972006510943 0 -379.69972006510943 53.239417286433309 0 0 0 0 -43.043590725545982 -124.19050735028577 0 -124.19050735028577 -9.2193760630943871 0 0 0 0 -377.61812221486321 -152.01829338550669 0 -152.01829338550669 41.046968894253951 0 0 0 0 -47.768342212126782 -88.883487152890666 0 -88.883487152890666 119.46213047523634 0 0 0 0 -358.22473056624449 -220.36468369212525 0 -220.36468369212525 273.98276085349789 0 0 0 0 -284.02535802166744 -318.15033688115363 0 -318.15033688115363 -104.27056954568252 0 0 0 0 -445.40466225971727 -366.24184993766539 0 -366.24184993766539 -55.112856825406197 0 0 0 0 -14.014226834952273 6.9329707041052018 0 6.9329707041052018 41.138682784124001 0 0 0 0 -311.67481823797834 -201.40344558334618 0 -201.40344558334618 50.999078287743032 0 0 0 0 -88.660525195620721 -15.333096683549229 0 -15.333096683549229 99.419185172489961 0 0 0 0 -311.84304458497888 -775.65537426215633 0 -775.65537426215633 -192.38628449544194 0 0 0 0 -184.59956161557216 36.009582221583514 0 36.009582221583514 259.50633897201624 0 0 0 0 0.98318473312174282 -39.554495291314083 0 -39.554495291314083 188.32403469587268 0 0 0 0 -410.20921874757784 92.174375777787645 0 92.174375777787645 423.00300833361689 0 0 0 0 -399.01609275099042 -180.28217577376563 0 -180.28217577376563 -121.51297736971173 0 0 0 0 -672.37093278570524 612.86135472593014 0 612.86135472593014 2834.3417514917819 0 0 0 0 -631.50529507697001 -215.52245665085502 0 -215.52245665085502 571.19568631598668 0 0 0 0 386.90618790743292 504.6653016561977 0 504.6653016561977 5.2129862601723289 0 0 0 0 757.00592840834724 2118.577437520762 0 2118.577437520762 1427.7629334270896 0 0 0 0 25.182102548728324 16.682510014649523 0 16.682510014649523 12.15648657741059 0 0 0 0 -43.370841016721897 -160.3447563529553 0 -160.3447563529553 1915.2802414726757 0 0 0 0 443.00590270067914 587.91126999197877 0 587.91126999197877 836.42751627083635 0 0 0 0 -28.859583484463656 1623.8064461258473 0 1623.8064461258473 2944.7270633795561 0 0 0 0 1602.1725725126526 -1.125510541285621 0 -1.125510541285621 -2377.0420607914566 0 0 0 0 3746.6865659705782 5508.6326886696625 0 5508.6326886696625 -3723.5247315807501 0 0 0 0 -0.31184563070793597 -151.73353220859281 0 -151.73353220859281 -168.55517835789942 0 0 0 0 -194.1596063167492 -178.62459412726457 0 -178.62459412726457 -237.21239612732461 0 0 0 0 -332.06160865692027 -342.09030480717774 0 -342.09030480717774 -221.0891370136369 0 0 0 0 -116.40049065583355 -227.83302666919917 0 -227.83302666919917 -208.48788838251494 0 0 0 0 -259.63331609680961 -142.81772631810782 0 -142.81772631810782 -277.46386996543151 0 0 0 0 -3.8416496171206447 -1.4043795988126817 0 -1.4043795988126817 6.6655466129219576 0 0 0 0 -335.17729864676585 -108.95843738791882 0 -108.95843738791882 -121.17351967508148 0 0 0 0 -671.26344926707839 -393.12358007916191 0 -393.12358007916191 -109.56215508197056 0 0 0 0 0.42487604213094976 96.912008516963397 0 96.912008516963397 -38.534546842623968 0 0 0 0 -747.28571696259553 452.11424230859939 0 452.11424230859939 1214.2404139419086 0 0 0 0 482.77716024951837 310.8882761243633 0 310.8882761243633 117.52956652158173 0 0 0 0 469.75332383392947 955.60819611774787 0 955.60819611774787 1123.8852200905676 0 0 0 0 -3.2195398202739511 1.1177071591770584 0 1.1177071591770584 3.9187390750212785 0 0 0 0 -119.2804585818667 -167.51458683879173 0 -167.51458683879173 425.28885397166596 0 0 0 0 -312.72859815853735 181.50361577700824 0 181.50361577700824 670.76328705625201 0 0 0 0 -227.56754607029598 -614.80060880276142 0 -614.80060880276142 110.41877959767589 0 0 0 0 -87.673589573389108 -829.24149345392652 0 -829.24149345392652 58.241912474477431 0 0 0 0 -259.16205634539028 -287.59312919684453 0 -287.59312919684453 726.36549759509217 0 0 0 0 -54.804713358069307 -301.62879264730873 0 -301.62879264730873 602.65039678718313 0 0 0 0 -102.24263628312175 -757.9526602929709 0 -757.9526602929709 1122.2089820869442 0 0 0 0 0.2265834305654697 2.2460205380088496 0 2.2460205380088496 7.4943298908559655 0 0 0 0 -277.6713797919324 -34.729087470048398 0 -34.729087470048398 1577.9971733787388 0 0 0 0 863.2332672158318 114.96861355315923 0 114.96861355315923 -802.54656402941328 0 0 0 0 -1.5989289516494667 11.659537707256231 0 11.659537707256231 18.081613284329535 0 0 0 0 576.15162430538658 -298.92684481840115 0 -298.92684481840115 -1231.8064203143003 0 0 0 0 -1.1769200886679685 -15.630814606114555 0 -15.630814606114555 158.96584264088523 0 0 0 0 906.33594612003253 345.43532800348476 0 345.43532800348476 -66.400797701091506 0 0 0 0 -698.37061270157892 784.6419735704294 0 784.6419735704294 1951.7810734358791 0 0 0 0 -1018.4299599003268 6.6184363771462813 0 6.6184363771462813 684.69896852891543 0 0 0 0 -728.70345603926467 486.50688273181004 0 486.50688273181004 325.92465986814932 0 0 0 0 -310.9391357541046 224.18976987778115 0 224.18976987778115 -522.51161861431319 0 0 0 0 1436.4964850269525 -125.39988148767588 0 -125.39988148767588 -1099.0462330876326 0 0 0 0 -459.16819338974881 -702.14225084281134 0 -702.14225084281134 333.41443109506508 0 0 0 0 -1.1011608264137691 -1.9909663450799115 0 -1.9909663450799115 57.179754437952795 0 0 0 0 -219.19559406497433 -618.25549520124332 0 -618.25549520124332 -297.40922012779629 0 0 0 0 -30.905333984426761 -251.61273646027985 0 -251.61273646027985 295.72473992325831 0 0 0 0 -115.1840469995368 144.23987809859682 0 144.23987809859682 327.87498935814074 0 0 0 0 -192.91000780625291 70.978229876847763 0 70.978229876847763 71.735145513099269 0 0 0 0 39.47557746066952 54.093962368673914 0 54.093962368673914 42.783871333258105 0 0 0 0 -572.90715390573632 249.49967873907599 0 249.49967873907599 65.105877261827118 0 0 0 0 -622.98543520232124 -382.54095660014718 0 -382.54095660014718 -177.76433021458797 0 0 0 0 60.489003444672562 74.881615890059038 0 74.881615890059038 70.503252344609336 0 0 0 0 24.46080482839352 153.06663618337188 0 153.06663618337188 75.967393398923832 0 0 0 0 -3.6149034358768404 9.9758677032941705 0 9.9758677032941705 24.871399626325001 0 0 0 0 88.280312952911117 217.48472375655547 0 217.48472375655547 92.312121639042743 0 0 0 0 14.674825454428628 23.904435794005622 0 23.904435794005622 501.33776694093831 0 0 0 0 -9.8092641752987095 32.460495713439499 0 32.460495713439499 -21.896030981543333 0 0 0 0 -14.276057575982236 41.16111852175527 0 41.16111852175527 -33.08728473696101 0 0 0 0 -0.41286933886749466 60.315292189545289 0 60.315292189545289 -6.7858089629244205 0 0 0 0 -41.65673712510079 78.987215527813532 0 78.987215527813532 -19.104774423412891 0 0 0 0 -42.519901743667553 39.490606406101904 0 39.490606406101904 -22.550498730852269 0 0 0 0 -20.372362198884552 17.734878128931683 0 17.734878128931683 45.455408681051836 0 0 0 0 -21.773084835504505 101.65947988425023 0 101.65947988425023 154.30388110844069 0 0 0 0 36.552930317804567 91.694477202705457 0 91.694477202705457 275.43537721768371 0 0 0 0 -19.880701429789507 27.31323426370767 0 27.31323426370767 -25.88573517386655 0 0 0 0 428.70592823051084 481.14984238356556 0 481.14984238356556 89.624040298294858 0 0 0 0 -3.9016641050498073 2.7546070468940513 0 2.7546070468940513 -0.095650568692633442 0 0 0 0 246.60549458510104 372.71940473775612 0 372.71940473775612 983.30769047288049 0 0 0 0 385.74861135444189 865.16463845052931 0 865.16463845052931 1282.2420342161495 0 0 0 0 -83.685033690242562 207.94915893537836 0 207.94915893537836 779.98169208868057 0 0 0 0 199.53279772581209 452.40589425605503 0 452.40589425605503 990.87492860783823 0 0 0 0 168.44561506013815 -333.78481220210233 0 -333.78481220210233 196.11509388824197 0 0 0 0 -3.6264865735765994 -2.1639981224155491 0 -2.1639981224155491 12.542657893212436 0 0 0 0 742.13634690998788 -119.30128559359218 0 -119.30128559359218 158.94950181122113 0 0 0 0 -273.04493131201934 -66.784813736226624 0 -66.784813736226624 988.06849815085297 0 0 0 0 -238.89812919438918 416.21413639753882 0 416.21413639753882 1562.7395510522074 0 0 0 0 -91.507085499146342 -29.463905660166347 0 -29.463905660166347 583.12442518183161 0 0 0 0 7.442013707005497 -2.9153960576055908 0 -2.9153960576055908 1.9819077816401744 0 0 0 0 1.8651683397749714 -1.1623406111494319 0 -1.1623406111494319 1.3164782622372684 0 0 0 0 180.68810666214449 261.5734727713243 0 261.5734727713243 632.53111566908046 0 0 0 0 -169.41510701660081 -9.8673655841121217 0 -9.8673655841121217 353.41154103472945 0 0 0 0 -70.390101690832125 272.48371407084051 0 272.48371407084051 864.78357650489488 0 0 0 0 -3.0987369093704729 -317.42775473325673 0 -317.42775473325673 832.72077628910483 0 0 0 0 -76.652440557933915 126.89811716382246 0 126.89811716382246 768.5447763933189 0 0 0 0 -83.21117553449767 219.93487026924413 0 219.93487026924413 619.24554497907229 0 0 0 0 80.4549347384459 105.01640498034726 0 105.01640498034726 151.69453510429594 0 0 0 0 15.18674796223695 7.6776781184482843 0 7.6776781184482843 201.44850386278176 0 0 0 0 67.068305562210298 70.222228037412606 0 70.222228037412606 271.6824069585175 0 0 0 0 -72.840112856734777 17.06346096447669 0 17.06346096447669 205.40232640033037 0 0 0 0 127.37498209284584 29.912827315766847 0 29.912827315766847 11.94138714993278 0 0 0 0 -1.3664762796420593 0.53745835874127046 0 0.53745835874127046 2.1525675861460627 0 0 0 0 130.12221998102632 -50.275064413466225 0 -50.275064413466225 27.835497472901807 0 0 0 0 26.83543352938068 -32.794701358724524 0 -32.794701358724524 181.96556516763087 0 0 0 0 18.463598967069856 18.32178393866684 0 18.32178393866684 -3.9978402783162892 0 0 0 0 29.1771626756572 -81.569726937274027 0 -81.569726937274027 -2.4606677032675748 0 0 0 0 -88.340706136778522 -8.8672174569255731 0 -8.8672174569255731 126.56849334694107 0 0 0 0 343.07684087147055 -9.8384562460023517 0 -9.8384562460023517 -233.23129707325552 0 0 0 0 1.551693854492586 -4.8989169135633466 0 -4.8989169135633466 17.92565664067622 0 0 0 0 49.565654699368736 15.474038496817229 0 15.474038496817229 -160.27119129383027 0 0 0 0 -135.44408278853226 -83.773470149993955 0 -83.773470149993955 -105.00657635131938 0 0 0 0 135.76702748108664 -75.229226690549694 0 -75.229226690549694 -301.30734189218856 0 0 0 0 144.91772550677845 -243.21912973832514 0 -243.21912973832514 -37.312692265506485 0 0 0 0 -29.748329569162593 -82.702428142847566 0 -82.702428142847566 102.88719354841032 0 0 0 0 26.446262544062336 -10.083984314457211 0 -10.083984314457211 66.656095585871299 0 0 0 0 123.53541520530388 262.68439960920159 0 262.68439960920159 448.99952994522573 0 0 0 0 144.74005375565321 176.75083988721781 0 176.75083988721781 115.05440805806552 0 0 0 0 0.52570722966450389 -0.82827504309236755 0 -0.82827504309236755 6.5425460272102995 0 0 0 0 672.85865133387483 -195.60899782033493 0 -195.60899782033493 79.328978553514389 0 0 0 0 79.415506977116365 15.887481500167269 0 15.887481500167269 628.35652393864439 0 0 0 0 24.924594286760566 178.47619933600708 0 178.47619933600708 417.79352830054268 0 0 0 0 115.20662364238569 112.20790330672207 0 112.20790330672207 413.71956981738913 0 0 0 0 25.780717908054612 182.14011969654621 0 182.14011969654621 428.84635907803204 0 0 0 0 -4.4736696064860553 123.10410697530733 0 123.10410697530733 429.10677168987058 0 0 0 0 34.577774260556907 140.82787610702053 0 140.82787610702053 255.67120558181091 0 0 0 0 -0.25301398490228166 148.84179137641786 0 148.84179137641786 426.08114484135535 0 0 0 0 36.259327923643468 152.86281438558672 0 152.86281438558672 368.72663799592374 0 0 0 0 36.33761433665768 174.80993281817609 0 174.80993281817609 422.04094130339308 0 0 0 0 -34.329349981350788 134.97938288840442 0 134.97938288840442 532.31721450049736 0 0 0 0 125.92666084019754 192.38213808315174 0 192.38213808315174 411.62034069434048 0 0 0 0 -21.252468961729164 250.63960414686937 0 250.63960414686937 581.1295470485702 0 0 0 0 18.367624545999206 168.84635759278058 0 168.84635759278058 288.25185933213106 0 0 0 0 3.9925921489837179 -7.4590524471558011 0 -7.4590524471558011 10.235648597228202 0 0 0 0 38.814083053299328 94.669883956577905 0 94.669883956577905 118.57618613483555 0 0 0 0 192.48551904080341 218.23562935528389 0 218.23562935528389 507.08629674666918 0 0 0 0 102.71768949613556 290.64792856257463 0 290.64792856257463 625.3422898962508 0 0 0 0 1.0515034933667167 -2.541529542931221 0 -2.541529542931221 4.6007800135028774 0 0 0 0 92.441150582443697 -67.246678533693057 0 -67.246678533693057 839.2763299250264 0 0 0 0 168.56985034541583 479.06357003209951 0 479.06357003209951 1145.6580618070684 0 0 0 0 4.4881302863914243 103.2253911888447 0 103.2253911888447 684.53666736605055 0 0 0 0 17.352372797424323 8.3572076962623214 0 8.3572076962623214 241.02386931889373 0 0 0 0 212.35902139058271 -7.0788531082835107 0 -7.0788531082835107 241.50292968490112 0 0 0 0 -48.991630470618475 70.391360385236567 0 70.391360385236567 351.79797856784762 0 0 0 0 0.024218225001732208 90.263048762388507 0 90.263048762388507 321.62715635860059 0 0 0 0 40.718311776721521 23.828316424296418 0 23.828316424296418 307.60467849755605 0 0 0 0 -15.993147966282777 61.915061698130557 0 61.915061698130557 282.75124722563123 0 0 0 0 5.658219233555883 -10.605135736657417 0 -10.605135736657417 166.54004662779698 0 0 0 0 -26.588355071133265 17.626393700480548 0 17.626393700480548 145.4527419213855 0 0 0 0 2.4564064187466101 4.6984427143770517 0 4.6984427143770517 -46.405294310306999 0 0 0 0 3.2975405730800684 1.5254697246956006 0 1.5254697246956006 3.0482100392202689 0 0 0 0 -51.284735128104558 -89.575630210039662 0 -89.575630210039662 2.8984512806109706 0 0 0 0 -32.964499947995137 -25.576179900761872 0 -25.576179900761872 -34.029679942512303 0 0 0 0 13.438385411149284 -73.981915327655315 0 -73.981915327655315 10.438527411093673 0 0 0 0 21.624951264147967 -6.1119691746393983 0 -6.1119691746393983 -1.403034488150297 0 0 0 0 26.308414085671757 -98.174446483007614 0 -98.174446483007614 166.97569657654685 0 0 0 0 -20.888808834199153 -62.120393471700481 0 -62.120393471700481 -9.4432596646575462 0 0 0 0 57.375408380155022 -34.794499101412157 0 -34.794499101412157 -176.14157691539276 0 0 0 0 15.020246363161654 8.5702110745472488 0 8.5702110745472488 4.6414961754069193 0 0 0 0 12.546441864928966 -0.63439874247638173 0 -0.63439874247638173 0.68683119578393637 0 0 0 0 12.5607242271386 2.3238699706026589 0 2.3238699706026589 1.8315929990425268 0 0 0 0 21.548728133377423 1.0267155573512099 0 1.0267155573512099 22.494185827295041 0 0 0 0 9.7748311980252396 0.88465105500384489 0 0.88465105500384489 8.6640688684789371 0 0 0 0 18.309460822770234 4.7075041360535153 0 4.7075041360535153 2.498511039318025 0 0 0 0 12.785057686424556 -0.94439886791451544 0 -0.94439886791451544 0.33381735984694672 0 0 0 0 14.786300940281762 -66.706054670569074 0 -66.706054670569074 -118.44062783275876 0 0 0 0 160.92225388982342 -86.295436740213745 0 -86.295436740213745 -1.2693248697341915 0 0 0 0 -23.309662336216206 51.010605582866106 0 51.010605582866106 12.351851324705422 0 0 0 0 224.90166948270507 59.297973689470382 0 59.297973689470382 8.5810353226552252 0 0 0 0 38.724966435522219 -106.5932785065902 0 -106.5932785065902 -2.9135402755798054 0 0 0 0 112.62882446738331 -8.4013201264716599 0 -8.4013201264716599 -9.3040759561527011 0 0 0 0 3.2501300522180827 -42.779751044559816 0 -42.779751044559816 -14.917766974860967 0 0 0 0 84.926686038786102 -19.981120399979773 0 -19.981120399979773 -81.523639549710424 0 0 0 0 27.757334068478997 12.096081479222921 0 12.096081479222921 -3.5510385685255939 0 0 0 0 79.940234314410645 57.50571438045688 0 57.50571438045688 -235.1193365467866 0 0 0 0 19.007842724196962 -63.6164946922745 0 -63.6164946922745 -25.407193006520629 0 0 0 0 2.4667349232066087 -3.8119308675382495 0 -3.8119308675382495 -6.4307904889560268 0 0 0 0 79.753225499159271 -52.844263256817612 0 -52.844263256817612 31.05353738928261 0 0 0 0 11.004439600767171 -17.860382411682508 0 -17.860382411682508 -25.896098933624671 0 0 0 0 1.9830644631481125 1.3455730261755319 0 1.3455730261755319 1.1062389418286713 0 0 0 0 6.5440362058881192 13.352037526210779 0 13.352037526210779 -6.448529395944206 0 0 0 0 178.03117530560576 59.450346625678321 0 59.450346625678321 -16.578228152015072 0 0 0 0 2.039970078552642 34.25123133264924 0 34.25123133264924 -20.177045865691071 0 0 0 0 30.621532918151388 -260.2216443432817 0 -260.2216443432817 124.46913851279487 0 0 0 0 27.697235976133491 -26.853526752348394 0 -26.853526752348394 26.500678068032364 0 0 0 0 -55.462929388802877 197.53577677100657 0 197.53577677100657 7.2036134524641966 0 0 0 0 -85.307618944522801 -60.083945523553666 0 -60.083945523553666 371.45440423798573 0 0 0 0 -140.09455135060489 86.326335253753314 0 86.326335253753314 307.33829862775201 0 0 0 0 -142.04313876292755 220.59522317561832 0 220.59522317561832 80.273517367044406 0 0 0 0 -89.606455242202628 140.10404368107174 0 140.10404368107174 -14.097936896883766 0 0 0 0 -114.48682523482012 158.971584079698 0 158.971584079698 178.5982482487816 0 0 0 0 -5.3587991584536212 41.619800976337046 0 41.619800976337046 115.00882036273106 0 0 0 0 12.23512276799147 -1.4929406985504556 0 -1.4929406985504556 3.9199691382724495 0 0 0 0 14.544221465915761 -4.3711482149932541 0 -4.3711482149932541 4.1601605126604086 0 0 0 0 27.927098174141065 -0.0021881350317016768 0 -0.0021881350317016768 9.0439356930078247 0 0 0 0 15.668056392999839 4.8943497873096709 0 4.8943497873096709 11.01556718953622 0 0 0 0 25.823369347198366 8.9206794246848489 0 8.9206794246848489 17.270515995438245 0 0 0 0 3.8979528976200508 2.6377542100350433 0 2.6377542100350433 0.70184673386479091 0 0 0 0 26.457355169412267 5.5717678490589151 0 5.5717678490589151 7.8978401960566771 0 0 0 0 17.972309569053323 10.59294488749083 0 10.59294488749083 19.552159545622089 0 0 0 0 11.573277801597404 -2.3092751395106683 0 -2.3092751395106683 16.267012481568202 0 0 0 0 36.158061669479139 107.85041584571627 0 107.85041584571627 62.079454358847215 0 0 0 0 33.098536545573097 67.146956216106446 0 67.146956216106446 -3.8730215973364466 0 0 0 0 -103.11250452276408 26.608543831576753 0 26.608543831576753 18.350188729131787 0 0 0 0 14.264327940869666 -8.7113308070613549 0 -8.7113308070613549 16.555521850377794 0 0 0 0 75.997619868276161 -115.30215210087954 0 -115.30215210087954 -72.265672197527238 0 0 0 0 36.014604334372734 5.5034188197657841 0 5.5034188197657841 9.9204618004432632 0 0 0 0 31.130429662926872 -8.837795454209413 0 -8.837795454209413 -20.300584466212058 0 0 0 0 7.709420263638437 -0.2304105682759392 0 -0.2304105682759392 -10.24475521985438 0 0 0 0 32.537170884976604 7.5167291147088235 0 7.5167291147088235 13.724903173440907 0 0 0 0 0.63324304388448271 2.0803926781937054 0 2.0803926781937054 8.41627371554506 0 0 0 0 35.206486228143604 10.507775073112327 0 10.507775073112327 12.3718951304852 0 0 0 0 7.3290840143038167 6.6533940938070373 0 6.6533940938070373 5.8437595058439911 0 0 0 0 8.0390687530000378 9.1426127472605003 0 9.1426127472605003 11.040479634604026 0 0 0 0 5.1854375991558754 8.2952886674011097 0 8.2952886674011097 11.555655115938862 0 0 0 0 4.4389255140011983 5.99491968393977 0 5.99491968393977 18.366554463504599 0 0 0 0 0.85774318123685589 13.340096213089964 0 13.340096213089964 12.724321713836616 0 0 0 0 -37.046311217822222 -0.055076570871278818 0 -0.055076570871278818 87.511293488426929 0 0 0 0 1.7494719306399702 56.641033559653636 0 56.641033559653636 83.479767371311482 0 0 0 0 -10.137967505658253 16.543689359044492 0 16.543689359044492 -23.29807359191409 0 0 0 0 2.0581790052069664 108.77549968086214 0 108.77549968086214 295.46664969503263 0 0 0 0 1.1981705679620553 0.85170457914969688 0 0.85170457914969688 -1.6369381662019489 0 0 0 0 0.52807418625352986 9.3664700753034289 0 9.3664700753034289 -2.7196341587982502 0 0 0 0 0.82210788517386391 -8.5955070087907188 0 -8.5955070087907188 59.056391661404632 0 0 0 0 -0.043970484439410651 -6.0352522675443385 0 -6.0352522675443385 37.150527444253676 0 0 0 0 1.4102835162558449 -2.5334546301098726 0 -2.5334546301098726 23.697472184921025 0 0 0 0 3.4952146336947862 0.8684230195449345 0 0.8684230195449345 22.454066435023378 0 0 0 0 2.5848141705662604 4.1446694909808279 0 4.1446694909808279 11.634592564282464 0 0 0 0 27.989783192504547 1.9854131478987256 0 1.9854131478987256 7.2989084152059149 0 0 0 0 21.838347149646097 5.6989605410896331 0 5.6989605410896331 12.269939133475873 0 0 0 0 3.2982284718829371 -2.6710647812543247 0 -2.6710647812543247 15.74072161421395 0 0 0 0 14.81703771431421 5.053695000829407 0 5.053695000829407 22.676040997078189 0 0 0 0 15.318228657602681 -0.17701651559160281 0 -0.17701651559160281 1.4678317044392348 0 0 0 0 15.800489054625359 5.1354980867099584 0 5.1354980867099584 15.7375710542874 0 0 0 0 7.4244122215548032 0.21717785112878119 0 0.21717785112878119 21.679288282524794 0 0 0 0 5.6793363469432734 -3.7361622339390124 0 -3.7361622339390124 22.804627281618195 0 0 0 0 10.459888624040884 -7.1918546905384169 0 -7.1918546905384169 8.6082119686314833 0 0 0 0 19.259961806337742 -19.080367502960144 0 -19.080367502960144 -3.7156364061665954 0 0 0 0 -33.882063209799526 -69.475457937486453 0 -69.475457937486453 19.135470968263689 0 0 0 0 36.741679104323055 -16.998209439857305 0 -16.998209439857305 -11.925429335862646 0 0 0 0 -3.7350840279505064 -24.459365167850592 0 -24.459365167850592 1.0371601645574628 0 0 0 0 58.268798209409397 -27.285766298062754 0 -27.285766298062754 -2.0521648604717484 0 0 0 0 45.501375264531816 -16.412865481019708 0 -16.412865481019708 16.240721111887979 0 0 0 0 37.689942854201945 -41.620780569982344 0 -41.620780569982344 -5.1703187955627072 0 0 0 0 51.167528757972832 -31.020102909633351 0 -31.020102909633351 1.6912757696318295 0 0 0 0 33.6622497517601 11.259134428803009 0 11.259134428803009 -3.320919148858593 0 0 0 0 34.223696870152708 14.377870095713661 0 14.377870095713661 12.634959251560417 0 0 0 0 56.562734303826801 7.5044452780584834 0 7.5044452780584834 -18.869143339192306 0 0 0 0 2.5555848631006093 -4.4799150223539392 0 -4.4799150223539392 -1.251746409405972 0 0 0 0 16.038270887198451 16.152546504830752 0 16.152546504830752 -20.413618213430709 0 0 0 0 16.899407159747433 -3.1245861567404898 0 -3.1245861567404898 5.707206105048515 0 0 0 0 33.025295214021753 4.3382163047444919 0 4.3382163047444919 -47.049709422187334 0 0 0 0 34.875720726075087 -16.650965409684432 0 -16.650965409684432 -11.730467567980668 0 0 0 0 13.920177597919292 -140.56681649468919 0 -140.56681649468919 -282.09462180911851 0 0 0 0 4.0393553414781467 -4.3699792607896768 0 -4.3699792607896768 0.77101750469548591 0 0 0 0 21.903509965275617 311.17341515320231 0 311.17341515320231 449.85865647355604 0 0 0 0 -305.02556114465665 -221.97683052450998 0 -221.97683052450998 295.05393307320264 0 0 0 0 282.97697061230269 0.83416217610920285 0 0.83416217610920285 -121.86824760765012 0 0 0 0 -84.308478730872878 -71.583749390935736 0 -71.583749390935736 -195.26313263424981 0 0 0 0 3.5547945648760839 -10.300048925618583 0 -10.300048925618583 26.424865531873074 0 0 0 0 -186.34658626656795 -484.76768361479117 0 -484.76768361479117 609.46496401345212 0 0 0 0 571.02275096473306 -171.38270935059609 0 -171.38270935059609 -395.89635522701701 0 0 0 0 -1.5584979889906603 -15.567363382238518 0 -15.567363382238518 14.953259206277551 0 0 0 0 -2.9942116634617832 -10.426144553059203 0 -10.426144553059203 75.178370225024992 0 0 0 0 -226.53459577809917 41.376352793463411 0 41.376352793463411 477.09740613877102 0 0 0 0 6.2935519246525473 -27.020444669151402 0 -27.020444669151402 91.684391474496806 0 0 0 0 -0.28738601423979437 -18.820341755980312 0 -18.820341755980312 66.739101227273963 0 0 0 0 6.348687583094943 5.466272528450645 0 5.466272528450645 87.438616555118642 0 0 0 0 -2.0912977104624986 -13.845946844619903 0 -13.845946844619903 66.752029870636761 0 0 0 0 -3.4579787901200234 -1.5364184828176803 0 -1.5364184828176803 54.844649899160686 0 0 0 0 -8.1892850639505141 18.094681746041385 0 18.094681746041385 30.032382169558517 0 0 0 0 -11.125477399170165 -4.8907268534203467 0 -4.8907268534203467 64.914936696992299 0 0 0 0 -5.199994809160799 -5.3539659548167897 0 -5.3539659548167897 70.046006796877151 0 0 0 0 2.9766214554534587 15.132739396938078 0 15.132739396938078 30.247519906361553 0 0 0 0 -0.029372352431892068 -0.24699408347805729 0 -0.24699408347805729 113.61379173782552 0 0 0 0 3.5036214447793554 11.685029432506781 0 11.685029432506781 104.09645794168318 0 0 0 0 -4.4554282506110212 6.6788537088295925 0 6.6788537088295925 81.909094626375008 0 0 0 0 -0.49300560248775582 -3.0763120373885613 0 -3.0763120373885613 96.562596161849115 0 0 0 0 8.8369906383595662 0.60199832018406596 0 0.60199832018406596 96.693057673386647 0 0 0 0 -6.2071329754285216 -26.200317236278352 0 -26.200317236278352 144.81229993711167 0 0 0 0 -9.587733781474526 2.5903641375807638 0 2.5903641375807638 121.51618105683883 0 0 0 0 2.7618627187621314 25.286703189787659 0 25.286703189787659 121.03084582113661 0 0 0 0 -5.9406923240258038 4.9165312137629371 0 4.9165312137629371 92.821778832003474 0 0 0 0 -17.171467797070818 -13.314632307401581 0 -13.314632307401581 56.276424650919495 0 0 0 0 -11.990060644855475 -6.8566806611361244 0 -6.8566806611361244 95.596211411082095 0 0 0 0 -47.977425742662774 5.2628042000869755 0 5.2628042000869755 89.147958193316299 0 0 0 0 -41.245820130915945 -8.7031242193479557 0 -8.7031242193479557 97.935602101846598 0 0 0 0 14.037621781035341 -18.63234439471853 0 -18.63234439471853 49.769325608816871 0 0 0 0 -36.559141377247215 -4.8664664511779847 0 -4.8664664511779847 78.738353954599006 0 0 0 0 53.128285124232207 -4.3222043935529655 0 -4.3222043935529655 88.482945274357917 0 0 0 0 50.152724865249183 13.421342296744115 0 13.421342296744115 98.639966949733207 0 0 0 0 38.647318988772895 4.5969450315169524 0 4.5969450315169524 87.834107191586554 0 0 0 0 13.274046265090874 -27.988871757086599 0 -27.988871757086599 88.08069046613673 0 0 0 0 39.809341491771193 4.079444685659837 0 4.079444685659837 80.114817140056402 0 0 0 0 10.77835903290179 -27.941785461553081 0 -27.941785461553081 82.649723488112613 0 0 0 0 -30.149303136826347 -55.828896082959545 0 -55.828896082959545 60.128921477647964 0 0 0 0 -23.580557832642398 4.3055907499174282 0 4.3055907499174282 78.471958946771338 0 0 0 0 34.638417632475466 -20.134710169324535 0 -20.134710169324535 71.484725134825567 0 0 0 0 2.5736178449745069 45.893636395995841 0 45.893636395995841 108.66413666574226 0 0 0 0 -17.192444520098199 -16.473056104053143 0 -16.473056104053143 51.078365084571146 0 0 0 0 -44.505770198175014 56.523254580752109 0 56.523254580752109 180.71403770696634 0 0 0 0 0.95984389141267457 70.326496669546032 0 70.326496669546032 109.84898119973514 0 0 0 0 31.560073945665863 122.99587288031216 0 122.99587288031216 193.30998743935197 0 0 0 0 -34.3280253522571 55.965080528687395 0 55.965080528687395 256.92590112133621 0 0 0 0 138.96196999627136 13.807094916905044 0 13.807094916905044 184.79639539096388 0 0 0 0 -32.371476215127586 58.322586981935274 0 58.322586981935274 176.7190150615279 0 0 0 0 -100.45929195583449 10.140561226871796 0 10.140561226871796 212.40946803555562 0 0 0 0 -73.400145720265755 -1.7210270006471546 0 -1.7210270006471546 167.6615917797244 0 0 0 0 -60.410078500361124 -32.588340057409368 0 -32.588340057409368 101.39643762397645 0 0 0 0 -114.63819361366404 -43.55118333486098 0 -43.55118333486098 133.52078267066827 0 0 0 0 -29.530111068881979 -10.422069988098883 0 -10.422069988098883 113.64798611416336 0 0 0 0 -2.6327259602797612 -23.726670362670156 0 -23.726670362670156 97.905737364937451 0 0 0 0 -35.120937962494281 5.4932200090661354 0 5.4932200090661354 100.54607636233777 0 0 0 0 1.8035744392731878 -5.9934655602890388 0 -5.9934655602890388 20.44888033073709 0 0 0 0 -47.100990229744752 18.188238548585673 0 18.188238548585673 135.41513550997479 0 0 0 0 -35.509720280619149 20.030394588564377 0 20.030394588564377 133.65629813337 0 0 0 0 -497.35950374620779 150.830598067143 0 150.830598067143 135.37081093015149 0 0 0 0 -173.09132134437729 -68.40632578088821 0 -68.40632578088821 110.57267987039813 0 0 0 0 -47.223718789896338 -181.8596484769223 0 -181.8596484769223 140.36583481038542 0 0 0 0 -48.177668371811478 -11.732269186337362 0 -11.732269186337362 100.76582314528059 0 0 0 0 -2.5441304941356893 -4.6851516665070463 0 -4.6851516665070463 5.1446843595660994 0 0 0 0 359.85769988374204 -199.50031842689714 0 -199.50031842689714 -31.726669364943518 0 0 0 0 -399.16400634592901 -29.717862503068318 0 -29.717862503068318 118.72360314432444 0 0 0 0 -52.294970243113994 -33.537219053896479 0 -33.537219053896479 -6.4141007349389838 0 0 0 0 -96.110828040018987 -10.449624009072068 0 -10.449624009072068 -15.132776251179166 0 0 0 0 -308.25416779292391 -192.58802720690437 0 -192.58802720690437 -71.567670129807084 0 0 0 0 -693.00731192521926 8.4279078085091896 0 8.4279078085091896 69.587040010315832 0 0 0 0 -10.932679779184658 -43.739354345495457 0 -43.739354345495457 2.3874346475528228 0 0 0 0 68.021214557924395 28.434343106040615 0 28.434343106040615 97.493250434339643 0 0 0 0 61.20075259191799 39.20426058232988 0 39.20426058232988 135.69881456040457 0 0 0 0 46.029601106016344 -8.9002022192580625 0 -8.9002022192580625 106.31757579946498 0 0 0 0 49.344250507037941 5.3973956048503169 0 5.3973956048503169 126.55247731893542 0 0 0 0 -3.7724405433930333 11.713064130612139 0 11.713064130612139 77.730303990929087 0 0 0 0 19.209098273666314 24.143867047052481 0 24.143867047052481 59.973478737760161 0 0 0 0 58.637076572025762 23.126935571694048 0 23.126935571694048 52.008671555726323 0 0 0 0 -490.90433550327634 -117.45403165405878 0 -117.45403165405878 133.13679566002975 0 0 0 0 80.616447661632264 -0.91436438924938557 0 -0.91436438924938557 68.658912639330083 0 0 0 0 -1.69428930793982 7.2796397665992281 0 7.2796397665992281 48.366953239439823 0 0 0 0 -263.44384901511415 -31.485143559447692 0 -31.485143559447692 107.50495527940802 0 0 0 0 21.508264984644484 -23.842626315868984 0 -23.842626315868984 29.749344530957387 0 0 0 0 -12.106006459755562 -8.3332551198532485 0 -8.3332551198532485 60.057450357084718 0 0 0 0 146.32480938625667 -15.422542868298478 0 -15.422542868298478 202.37753600436554 0 0 0 0 1.779989746113003 11.101921114504663 0 11.101921114504663 18.638091812630563 0 0 0 0 53.101814231322351 156.69829928756371 0 156.69829928756371 104.17391899746508 0 0 0 0 158.52631528107668 114.11993783550861 0 114.11993783550861 130.65448645922879 0 0 0 0 -41.163111991176265 44.123606984940125 0 44.123606984940125 131.14885655127 0 0 0 0 -10.339595486983146 13.544030735372701 0 13.544030735372701 88.504042892160015 0 0 0 0 0.40806402060815472 9.340803213292844 0 9.340803213292844 16.969524483106511 0 0 0 0 -78.049281228108157 -77.165740999324044 0 -77.165740999324044 52.919768557010684 0 0 0 0 -129.85191006903915 -63.620038135893992 0 -63.620038135893992 -20.312702989511308 0 0 0 0 -115.34785390663819 -25.320008335827879 0 -25.320008335827879 76.238887797575444 0 0 0 0 -61.224470331897464 -16.867124787080684 0 -16.867124787080684 73.626829858811107 0 0 0 0 -2.1128895628144164 -12.64423235085269 0 -12.64423235085269 47.392952710331883 0 0 0 0 -17.500754516548113 -51.336880618138821 0 -51.336880618138821 42.70614916580962 0 0 0 0 -47.430596962329219 -28.619277360434353 0 -28.619277360434353 36.060245692053286 0 0 0 0 -193.83347396562385 -118.82629313467987 0 -118.82629313467987 86.743888243305264 0 0 0 0 -82.603489282939336 -114.17216029172414 0 -114.17216029172414 10.93796219892829 0 0 0 0 -78.968833637256012 -90.599516221652266 0 -90.599516221652266 142.91134836681886 0 0 0 0 8.8265121992833429 -153.06607384826384 0 -153.06607384826384 84.557556373722036 0 0 0 0 -386.25822305133215 -59.862698384282339 0 -59.862698384282339 100.39991514172289 0 0 0 0 -3.1539889697289798 -6.5315936131656969 0 -6.5315936131656969 8.111878671154102 0 0 0 0 141.27958767845757 -102.55547345923696 0 -102.55547345923696 -0.7908463168569142 0 0 0 0 -214.71201777923125 -83.274066624086117 0 -83.274066624086117 -23.45180199522656 0 0 0 0 -221.83399529488815 10.347310611759895 0 10.347310611759895 -8.7077111459766456 0 0 0 0 -218.80688771421592 -91.50620538831572 0 -91.50620538831572 25.972783119570522 0 0 0 0 -382.3344201282448 -64.829301256260806 0 -64.829301256260806 53.466436110451468 0 0 0 0 -189.37720985488068 -1.1470785164128756 0 -1.1470785164128756 39.447198634108645 0 0 0 0 -153.01231132169414 -121.88466202879499 0 -121.88466202879499 102.89433204871602 0 0 0 0 -116.30460050598685 -99.015484192001168 0 -99.015484192001168 62.460017440505908 0 0 0 0 -202.63059034480284 8.1039521653510747 0 8.1039521653510747 -39.237147200459731 0 0 0 0 -224.65425494070223 -0.28426435842266073 0 -0.28426435842266073 52.419798474756135 0 0 0 0 -501.43777574359865 61.811937586549902 0 61.811937586549902 40.379868089221418 0 0 0 0 -6.8777909506173867 -7.0114816486342271 0 -7.0114816486342271 10.325271714049421 0 0 0 0 -1.4284329367783757 -2.029055897879914 0 -2.029055897879914 0.71628189733627323 0 0 0 0 17.821593396582102 -30.206695834640414 0 -30.206695834640414 -103.15117334050592 0 0 0 0 -21.819375577754727 0.85541458836814854 0 0.85541458836814854 40.122185528758564 0 0 0 0 -3.6144559610126272 -4.2978841448313752 0 -4.2978841448313752 0.59615713690971006 0 0 0 0 -358.02623728295566 30.088281784297578 0 30.088281784297578 55.512192254944239 0 0 0 0 -8.0091904740456812 -6.7695759764974355 0 -6.7695759764974355 -4.6777347054303391 0 0 0 0 -277.91131828311518 -54.1267232129685 0 -54.1267232129685 27.549483200251416 0 0 0 0 -6.9686798459728578 0.22453433354750985 0 0.22453433354750985 8.529442668247583 0 0 0 0 -9.4873661218426584 13.02187173534071 0 13.02187173534071 17.424145317693558 0 0 0 0 -18.069345439484096 112.93589224589959 0 112.93589224589959 100.25742915920637 0 0 0 0 -15.02627482988828 -47.637200059303723 0 -47.637200059303723 -80.139895046238962 0 0 0 0 -20.602274082440999 -59.475446304306388 0 -59.475446304306388 192.31416380235169 0 0 0 0 -33.56706204768534 -21.227226986138703 0 -21.227226986138703 46.825697657564888 0 0 0 0 -35.974544451761631 -16.310114905858427 0 -16.310114905858427 48.77541008638218 0 0 0 0 -35.989170952636414 -23.472894144390011 0 -23.472894144390011 44.818715530534973 0 0 0 0 -36.157742983848493 -24.529268137534928 0 -24.529268137534928 53.531924020149745 0 0 0 0 -70.898583301324834 -3.0969135089835618 0 -3.0969135089835618 56.19786479351751 0 0 0 0 -48.878391378288143 -12.262360432301648 0 -12.262360432301648 47.632158311957028 0 0 0 0 -63.876466627334594 -24.387802940123947 0 -24.387802940123947 54.739220345247304 0 0 0 0 128.46660461456486 97.383015194554901 0 97.383015194554901 135.71125730647327 0 0 0 0 149.1462679375818 217.32851919933091 0 217.32851919933091 67.015615962722222 0 0 0 0 -9.2614280255365884 103.05873258435895 0 103.05873258435895 85.286386296589626 0 0 0 0 -2.0442885320935247 8.1572887912750858 0 8.1572887912750858 57.442461561273689 0 0 0 0 329.68144045803092 125.87849292139799 0 125.87849292139799 37.671182185724319 0 0 0 0 -464.57574208528945 240.67316462831354 0 240.67316462831354 62.25013035570737 0 0 0 0 0.4990703757577567 7.513813031146352 0 7.513813031146352 38.37050407120492 0 0 0 0 208.13346630834712 34.09392690448658 0 34.09392690448658 107.63301785910153 0 0 0 0 773.96459329518984 216.97262238326584 0 216.97262238326584 -69.838528798027255 0 0 0 0 -469.20922982294178 -384.4345264759213 0 -384.4345264759213 1148.9040219024464 0 0 0 0 255.32025482620793 265.3326070901694 0 265.3326070901694 288.09055024302506 0 0 0 0 367.13196596707712 64.527823564887512 0 64.527823564887512 284.88930171150753 0 0 0 0 -18.809790576931846 523.30484928275837 0 523.30484928275837 -363.45321179120219 0 0 0 0 218.91122839674426 -486.34024116931323 0 -486.34024116931323 -294.15261721838033 0 0 0 0 -1.0553720627285408 -1.8272756086513926 0 -1.8272756086513926 5.4953211919193166 0 0 0 0 232.70588324201526 136.04218634815334 0 136.04218634815334 70.316595463333215 0 0 0 0 283.51262686866539 -85.46097851930972 0 -85.46097851930972 690.40868069855787 0 0 0 0 -6.731344634832567 -14.24160258541815 0 -14.24160258541815 1.6662755214783829 0 0 0 0 -5.3620776419044827 -2.1764908263092781 0 -2.1764908263092781 5.4957725558990944 0 0 0 0 -58.21008176909163 -54.221235459226591 0 -54.221235459226591 6.7572316642672376 0 0 0 0 407.38153131738363 4.580712714130641 0 4.580712714130641 -246.43898917431943 0 0 0 0 299.43725338547301 274.21009261479048 0 274.21009261479048 -302.64567330281716 0 0 0 0 -304.33962187749785 32.45283981259854 0 32.45283981259854 54.80787144479109 0 0 0 0 -6.1053224740790029 25.950977937227435 0 25.950977937227435 229.32035980057844 0 0 0 0 -3.7591637195923262 -1.4979925386637429 0 -1.4979925386637429 11.576199521721747 0 0 0 0 -183.96883955882913 -220.69869114566973 0 -220.69869114566973 32.362770149455173 0 0 0 0 0.87364349213138581 0.54043926863852221 0 0.54043926863852221 -2.5581178199987846 0 0 0 0 -219.83207733634481 1.1250363056606147 0 1.1250363056606147 -51.907184767194849 0 0 0 0 176.38285100521898 -559.89031660635374 0 -559.89031660635374 1134.8349575625762 0 0 0 0 141.38867617778669 -217.74185680238588 0 -217.74185680238588 254.74956189255863 0 0 0 0 -198.0427343556612 -226.64434661013547 0 -226.64434661013547 989.07106227779877 0 0 0 0 18.951814212352474 -125.65430011734861 0 -125.65430011734861 379.2234529386842 0 0 0 0 -131.91512523998063 -438.83736275552656 0 -438.83736275552656 867.13210777771019 0 0 0 0 -191.85030908030058 -234.06794654812984 0 -234.06794654812984 323.80961489671608 0 0 0 0 -87.865700076426037 -74.654042910398857 0 -74.654042910398857 130.38545693353808 0 0 0 0 -249.52094091053368 -113.12492924166509 0 -113.12492924166509 307.50820358482451 0 0 0 0 -184.87980925214652 -99.073146999238816 0 -99.073146999238816 76.942328306407035 0 0 0 0 -13.597892372741619 8.1695619271257129 0 8.1695619271257129 37.807801472007881 0 0 0 0 64.319962046058436 -115.67580140922837 0 -115.67580140922837 -157.73780836781748 0 0 0 0 -84.461942038877169 -56.50986025745442 0 -56.50986025745442 114.59692903734867 0 0 0 0 -80.919413129541226 -335.09463284166929 0 -335.09463284166929 -207.58959123620662 0 0 0 0 -152.15451450992714 83.204922385648388 0 83.204922385648388 299.61772468123672 0 0 0 0 6.3064540332718995 -5.662399540924703 0 -5.662399540924703 33.781009205296805 0 0 0 0 0.78288887473000734 -26.096462246614799 0 -26.096462246614799 102.09658785497808 0 0 0 0 -81.436094127596789 -47.335751832532878 0 -47.335751832532878 118.40037466421199 0 0 0 0 -121.35903953908382 -88.348800023475633 0 -88.348800023475633 77.46053231087717 0 0 0 0 -96.238361359883584 14.228324156827512 0 14.228324156827512 188.38714037960744 0 0 0 0 -150.37111354216177 80.551832113847922 0 80.551832113847922 177.39704116145731 0 0 0 0 -212.81306938989292 -48.164692721009487 0 -48.164692721009487 164.87880807486363 0 0 0 0 -18.387220072667333 53.316056132367521 0 53.316056132367521 150.58411216875538 0 0 0 0 -28.349518848990556 71.802608515885368 0 71.802608515885368 176.52640396976494 0 0 0 0 124.10435570597656 108.33755503297471 0 108.33755503297471 130.28391789335001 0 0 0 0 -78.020912694424624 108.17807715720846 0 108.17807715720846 155.52991566254786 0 0 0 0 -60.884311478467225 61.923181373134867 0 61.923181373134867 125.61474049380922 0 0 0 0 -420.2933056338079 87.38407597198966 0 87.38407597198966 194.40358029904019 0 0 0 0 -189.68742614575785 -171.66145334540852 0 -171.66145334540852 -138.87297870164912 0 0 0 0 -372.12157599927014 40.570972565816191 0 40.570972565816191 108.36911982121819 0 0 0 0 -156.23694697012616 516.73190231001718 0 516.73190231001718 371.75541664865159 0 0 0 0 -1.6535318111735791 0.34012879456939515 0 0.34012879456939515 0.41283621483484012 0 0 0 0 -512.71920192968901 -363.51926956055104 0 -363.51926956055104 -145.19527977475877 0 0 0 0 -144.50411817500571 325.87097307094882 0 325.87097307094882 122.84658410251723 0 0 0 0 -405.46941765999873 69.551997293288878 0 69.551997293288878 121.92427329384364 0 0 0 0 -660.8649207785711 -107.60008776791074 0 -107.60008776791074 103.30261700374831 0 0 0 0 -650.29306619279487 551.90364336918537 0 551.90364336918537 505.59676063375082 0 0 0 0 248.95198348285896 388.33509763092729 0 388.33509763092729 78.930314137061941 0 0 0 0 375.64593475304719 179.8885261513351 0 179.8885261513351 84.440305360001958 0 0 0 0 12.764632239919402 -49.359206023457261 0 -49.359206023457261 138.45640624675559 0 0 0 0 -1316.7717008628824 -248.95662813067247 0 -248.95662813067247 402.56979038246209 0 0 0 0 -539.93392448289205 -154.61714031175461 0 -154.61714031175461 262.17010831085918 0 0 0 0 13.764917754493297 -158.72611635370868 0 -158.72611635370868 -14.918078444662569 0 0 0 0 11.723616287992936 -45.290532448323226 0 -45.290532448323226 130.42983468377332 0 0 0 0 -381.62247220884149 -413.79151077544839 0 -413.79151077544839 162.46571290683096 0 0 0 0 -111.89353466585681 -202.72568373983995 0 -202.72568373983995 505.51079567670877 0 0 0 0 83.703780851707734 228.82459536509486 0 228.82459536509486 416.25038182418029 0 0 0 0 112.68887071011105 223.05581348513221 0 223.05581348513221 554.38698674108309 0 0 0 0 94.02774191724302 51.451017734424568 0 51.451017734424568 338.6048995170022 0 0 0 0 56.223555699998542 143.59264357730262 0 143.59264357730262 203.83947738952156 0 0 0 0 -120.93300885015015 -215.70647222359685 0 -215.70647222359685 186.54379428956599 0 0 0 0 -206.73036819587651 -440.83024066917642 0 -440.83024066917642 -283.37708209538323 0 0 0 0 14.574777882229004 -49.196769039951548 0 -49.196769039951548 126.19071965909689 0 0 0 0 -1964.0106212233513 -1237.6584663508802 0 -1237.6584663508802 935.6167884444003 0 0 0 0 -369.19270086730194 -70.85122101333036 0 -70.85122101333036 319.03811779015086 0 0 0 0 229.82818354817573 466.02563566304889 0 466.02563566304889 499.77446944245457 0 0 0 0 121.08400524362298 73.715340498368732 0 73.715340498368732 154.11783770757029 0 0 0 0 30.782032220139172 -19.164131807349804 0 -19.164131807349804 303.04410353075218 0 0 0 0 109.88260508765097 346.55888531719938 0 346.55888531719938 788.0378817161909 0 0 0 0 65.390285216510165 559.13915124931191 0 559.13915124931191 971.80341950399816 0 0 0 0 72.829430536865743 407.13683163506636 0 407.13683163506636 956.81070652412018 0 0 0 0 28.21487988279361 352.69160798729422 0 352.69160798729422 649.91533322317991 0 0 0 0 81.668859538799779 284.28830771970843 0 284.28830771970843 704.98115603497536 0 0 0 0 61.555052327921658 -18.189716582783149 0 -18.189716582783149 -14.737332526856335 0 0 0 0 34.95589166643731 43.917256858556357 0 43.917256858556357 26.104021739502059 0 0 0 0 29.112755951386134 -26.148476461778046 0 -26.148476461778046 156.45548228378357 0 0 0 0 3.4062220698531824 0.94285934354172696 0 0.94285934354172696 0.59277202039694288 0 0 0 0 -104.9274787702052 -56.163242308718509 0 -56.163242308718509 1579.3933625864811 0 0 0 0 46.793687345867511 -325.99163785951532 0 -325.99163785951532 893.36568455355155 0 0 0 0 -101.38191646732412 -45.177098246138485 0 -45.177098246138485 1249.6592424323753 0 0 0 0 96.301679405514506 -101.30211961878831 0 -101.30211961878831 1002.9394263231225 0 0 0 0 -53.353328477567629 39.57052647827004 0 39.57052647827004 1383.2062915625575 0 0 0 0 -115.39579020971416 253.42370164456952 0 253.42370164456952 1488.5730625300494 0 0 0 0 18.635406575125117 -6.0723720189201345 0 -6.0723720189201345 6.0201280195091016 0 0 0 0 197.4376875687758 -174.72633268095888 0 -174.72633268095888 151.03465266558487 0 0 0 0 -109.23473558101068 326.22160860228905 0 326.22160860228905 1136.6956192638681 0 0 0 0 8.6308378279844078 -2.0301319898337198 0 -2.0301319898337198 0.34670726166588395 0 0 0 0 32.840203093790478 29.5153535111167 0 29.5153535111167 1825.7887894051819 0 0 0 0 328.34513702379991 232.04037979168061 0 232.04037979168061 153.32254474508136 0 0 0 0 936.58701214095345 317.62920309315814 0 317.62920309315814 129.20037018577568 0 0 0 0 848.82115981140305 -40.413985069388218 0 -40.413985069388218 -638.7783932305756 0 0 0 0 294.00484428084019 -170.22497344284784 0 -170.22497344284784 1497.7091150358378 0 0 0 0 302.03723277281551 -408.96021136586864 0 -408.96021136586864 1718.9521363561507 0 0 0 0 -160.58199305207381 -550.17615449579898 0 -550.17615449579898 1677.3734131479287 0 0 0 0 -298.70356905442986 -5.8787766172226839 0 -5.8787766172226839 1957.0274067285063 0 0 0 0 -45.12784931474016 -344.83125031578675 0 -344.83125031578675 1824.829566967077 0 0 0 0 1859.6502849332701 711.99885061450914 0 711.99885061450914 159.39637252521788 0 0 0 0 934.26251739881627 368.34895901255368 0 368.34895901255368 2219.214221582637 0 0 0 0 -436.78221714614847 357.41981320012565 0 357.41981320012565 2603.3010620122877 0 0 0 0 0.86112026783546713 1.5966132118339651 0 1.5966132118339651 14.457407186323849 0 0 0 0 1480.9472810778389 1001.1448361548246 0 1001.1448361548246 2294.1835880047875 0 0 0 0 -250.06117837352576 -65.946465979610366 0 -65.946465979610366 -705.54484936797962 0 0 0 0 1510.9011566657464 -986.28896650535899 0 -986.28896650535899 425.19234945419157 0 0 0 0 43.863641630694474 -626.38478384657355 0 -626.38478384657355 354.74999159287472 0 0 0 0 65.223871354995936 -924.18599985829496 0 -924.18599985829496 -861.45116132708426 0 0 0 0 -1025.9095442460512 -1045.3729584470202 0 -1045.3729584470202 -373.40732406518146 0 0 0 0 13.66606703714622 -37.895148844860842 0 -37.895148844860842 90.184594945146799 0 0 0 0 -135.1314151088468 -176.5631364550527 0 -176.5631364550527 -308.38898157638323 0 0 0 0 -464.9739837537868 -134.30055978407199 0 -134.30055978407199 -331.00674893114046 0 0 0 0 191.77534085417938 -240.95484027338171 0 -240.95484027338171 -425.55303643682964 0 0 0 0 272.48468119583231 -334.13585203225375 0 -334.13585203225375 -563.93631293684302 0 0 0 0 263.56405516090115 -304.76524797046795 0 -304.76524797046795 120.35706640197895 0 0 0 0 162.46957442706383 9.5474687790865573 0 9.5474687790865573 29.579565758031094 0 0 0 0 173.55058256226312 1.9700435820559505 0 1.9700435820559505 -158.20779268530896 0 0 0 0 -144.03588562196273 -269.18425844921512 0 -269.18425844921512 685.71104455558088 0 0 0 0 -3.5607317956981106 1.7049756544586359 0 1.7049756544586359 2.8907099872702986 0 0 0 0 -129.53565680324482 -129.38650311986567 0 -129.38650311986567 -428.81401015974916 0 0 0 0 134.0678265092979 -135.65951267278797 0 -135.65951267278797 -582.91387165823107 0 0 0 0 106.92265212588177 254.85304994985563 0 254.85304994985563 -179.10193459453149 0 0 0 0 -4.6362407730968584 -2.3887286945639801 0 -2.3887286945639801 11.084787612190141 0 0 0 0 -334.93397114302479 -406.58235174217998 0 -406.58235174217998 598.38049326981127 0 0 0 0 -409.23566901348568 -546.73589331927178 0 -546.73589331927178 2079.1117070577839 0 0 0 0 -431.28327290023844 -491.22781989159739 0 -491.22781989159739 972.0803803474555 0 0 0 0 -506.5719262081484 -654.8801948386008 0 -654.8801948386008 633.36110447254759 0 0 0 0 19.50398595868732 30.508877237063913 0 30.508877237063913 33.900044294296393 0 0 0 0 -1199.7349204988841 1336.434741649693 0 1336.434741649693 591.62237067447359 0 0 0 0 -1403.0017617483827 781.94305429937776 0 781.94305429937776 3394.6369563533717 0 0 0 0 761.73596388191345 -930.05170836680554 0 -930.05170836680554 172.09263229760109 0 0 0 0 68.904490033410184 -1543.1363576806107 0 -1543.1363576806107 1991.3215683412873 0 0 0 0 260.7086113332698 -871.67875192622523 0 -871.67875192622523 465.20488481968641 0 0 0 0 794.78647002794605 1148.7239215675481 0 1148.7239215675481 1963.6279971057083 0 0 0 0 6.8770934789289058 -13.794564724604804 0 -13.794564724604804 33.520847640850675 0 0 0 0 722.84202331061533 339.03870901179107 0 339.03870901179107 2957.4333832493103 0 0 0 0 1130.2432939553801 -368.22688364930946 0 -368.22688364930946 2698.0517108098129 0 0 0 0 811.28030035366146 718.38241598274726 0 718.38241598274726 -279.16830507947452 0 0 0 0 990.35369521857956 780.36298373954196 0 780.36298373954196 -270.61367424995115 0 0 0 0 2917.6781287238227 1837.2673249545624 0 1837.2673249545624 1632.8919441748087 0 0 0 0 271.06950889735344 1552.6254272864353 0 1552.6254272864353 1765.1092988702221 0 0 0 0 70.374853085808766 49.298177951160085 0 49.298177951160085 21.41729740360023 0 0 0 0 1438.5783774894862 1183.233313264187 0 1183.233313264187 91.445354030132876 0 0 0 0 -2052.5921861110564 -348.2350930020184 0 -348.2350930020184 2315.3042235138691 0 0 0 0 12.627420921129168 16.059816140503969 0 16.059816140503969 17.122535676300302 0 0 0 0 -664.7004281747528 -500.39070365101361 0 -500.39070365101361 1713.0051829796803 0 0 0 0 2051.6759724140356 -304.17147949442096 0 -304.17147949442096 -1412.7646231735853 0 0 0 0 1598.2889423096294 1553.9578847961793 0 1553.9578847961793 -1297.341182495642 0 0 0 0 -432.45419915169759 1306.1607910815201 0 1306.1607910815201 409.38285186114808 0 0 0 0 48.20889876983945 32.156654734626429 0 32.156654734626429 15.720100386350808 0 0 0 0 109.83800168670132 379.82255121653725 0 379.82255121653725 -1431.363361716325 0 0 0 0 -777.82543162497018 -722.17208725363798 0 -722.17208725363798 2555.4317381601504 0 0 0 0 -166.17963881213655 -70.937141044036252 0 -70.937141044036252 -539.64307459396514 0 0 0 0 -358.62199915429528 -575.75465089455247 0 -575.75465089455247 2910.574346540292 0 0 0 0 15.055726489574681 210.06138438299968 0 210.06138438299968 1428.8324830145393 0 0 0 0 11.781724376649306 -7.9133839131416153 0 -7.9133839131416153 2.824412664415842 0 0 0 0 -3.0855185771930564 273.49913332219239 0 273.49913332219239 1252.6075041508302 0 0 0 0 44.440976853822249 424.83590816873982 0 424.83590816873982 1052.9747393880589 0 0 0 0 34.299641358937009 361.82535398814457 0 361.82535398814457 1191.3452804710359 0 0 0 0 -66.697308372682528 444.17281860921503 0 444.17281860921503 1276.1851284311906 0 0 0 0 258.68428159565156 761.78787650615595 0 761.78787650615595 1167.2059793180597 0 0 0 0 -74.533369091402619 468.00291524015847 0 468.00291524015847 1937.8919080601408 0 0 0 0 235.6336228286018 650.22326919499938 0 650.22326919499938 1698.4411651786759 0 0 0 0 901.00104675264265 790.18441296274978 0 790.18441296274978 313.07203972837249 0 0 0 0 -51.442285492121755 17.738287525953638 0 17.738287525953638 3151.9769961563943 0 0 0 0 6.6808981587003053 0.13750751745581624 0 0.13750751745581624 9.0110269889901744 0 0 0 0 402.29467969101597 1012.2855999656185 0 1012.2855999656185 2015.9285475024371 0 0 0 0 -8.1271473286087712 29.224441177291737 0 29.224441177291737 1600.6329222879176 0 0 0 0 2.6207443660273384 145.0063849397684 0 145.0063849397684 1322.817989244435 0 0 0 0 17.352944906301488 -12.431432466414336 0 -12.431432466414336 8.0615621446298427 0 0 0 0 27.322849827295613 -12.444696503189334 0 -12.444696503189334 50.435307772411761 0 0 0 0 -6.724477555292566 11.062694254899874 0 11.062694254899874 17.511378219918818 0 0 0 0 -370.91732932947252 -24.600798475759802 0 -24.600798475759802 82.820499263107195 0 0 0 0 612.63099330462137 482.63502821612201 0 482.63502821612201 -384.96066846541362 0 0 0 0 -264.6589445163936 26.413825156727398 0 26.413825156727398 -90.981496553641136 0 0 0 0 -678.47191071280031 165.34962189009821 0 165.34962189009821 -101.05786118117976 0 0 0 0 -239.19454277190403 301.06821953600229 0 301.06821953600229 322.94465591158951 0 0 0 0 -14.951975910140391 969.22853453149582 0 969.22853453149582 714.35234861752542 0 0 0 0 -762.29815844628502 502.99036020060157 0 502.99036020060157 699.21080978692726 0 0 0 0 -843.8771249542915 -124.49929966313357 0 -124.49929966313357 355.49378557436921 0 0 0 0 -484.18453939021902 -265.13266283478515 0 -265.13266283478515 223.52459811895824 0 0 0 0 -19.52830036029809 -360.18071633832733 0 -360.18071633832733 195.58809334201396 0 0 0 0 -75.218402190684174 -63.671283479605336 0 -63.671283479605336 22.183402265734912 0 0 0 0 -149.80620826328754 -70.380736851770052 0 -70.380736851770052 63.447557865431008 0 0 0 0 125.93358430000353 82.831897903328354 0 82.831897903328354 -206.47518453649718 0 0 0 0 -108.59773895152023 211.19151305187188 0 211.19151305187188 -167.54650150069938 0 0 0 0 -6.9401530857596487 16.48964653623743 0 16.48964653623743 22.370763279913454 0 0 0 0 -18.380088636562959 -30.419376052650478 0 -30.419376052650478 66.867392958229175 0 0 0 0 -30.877303051423951 -91.720363296264622 0 -91.720363296264622 2.0141521157202078 0 0 0 0 -15.328159121693716 -19.955009917505322 0 -19.955009917505322 97.22956015838281 0 0 0 0 -3.0462227504679529 20.528823486522285 0 20.528823486522285 25.366376467649182 0 0 0 0 -60.529816841494721 78.822736903270197 0 78.822736903270197 56.153036255489496 0 0 0 0 -109.94773060631451 6.7308717583018733 0 6.7308717583018733 186.38503970467355 0 0 0 0 171.63109625642755 144.09704694091488 0 144.09704694091488 236.41637267943588 0 0 0 0 513.94275046176699 -135.27452931168955 0 -135.27452931168955 35.483174208053697 0 0 0 0 381.08352095214059 -52.141257872603092 0 -52.141257872603092 -160.95602719724047 0 0 0 0 -33.21339591656124 -69.383114027474221 0 -69.383114027474221 252.57632637592553 0 0 0 0 -106.71693053743729 -78.731257479787018 0 -78.731257479787018 126.45732883360324 0 0 0 0 -113.96249551604478 -109.643555787899 0 -109.643555787899 223.40456958341383 0 0 0 0 -90.63348964459874 -106.77515096832576 0 -106.77515096832576 307.88806831614784 0 0 0 0 -100.99480828571541 -56.80270092660794 0 -56.80270092660794 169.35674740103059 0 0 0 0 203.64822322289729 -332.17277145513435 0 -332.17277145513435 372.25394441864773 0 0 0 0 30.76863629249965 -178.55995753388561 0 -178.55995753388561 207.13333215899183 0 0 0 0 32.487439346330575 -163.3330321679714 0 -163.3330321679714 205.730143767134 0 0 0 0 535.94106627362544 -344.36806678463836 0 -344.36806678463836 -297.63749177283898 0 0 0 0 -22.292202925802485 -31.018269451727974 0 -31.018269451727974 444.45522769036052 0 0 0 0 -32.189872313746946 25.267857130977518 0 25.267857130977518 141.56569712796045 0 0 0 0 0.74193206126494715 -2.8042641755751347 0 -2.8042641755751347 4.2992465109259612 0 0 0 0 -36.255174690715648 -40.032412975195257 0 -40.032412975195257 -10.885224801655568 0 0 0 0 -121.54485899043721 -37.138718190411964 0 -37.138718190411964 130.84312335964933 0 0 0 0 -75.000772844716266 -61.829331277976962 0 -61.829331277976962 -13.386477902044817 0 0 0 0 -295.04324205314413 -226.3048842208363 0 -226.3048842208363 320.35325117751927 0 0 0 0 0.71719587099426008 -4.8117154478162689 0 -4.8117154478162689 7.6209300975773928 0 0 0 0 415.6158087037029 387.38324658058627 0 387.38324658058627 293.16992154182299 0 0 0 0 -252.63261163936721 355.82227155812041 0 355.82227155812041 584.26176975837734 0 0 0 0 -41.201435098402726 166.10446870774285 0 166.10446870774285 659.3346436471038 0 0 0 0 96.127402476783573 499.9012269935256 0 499.9012269935256 755.78945314443081 0 0 0 0 126.54142541995725 -22.97007472017367 0 -22.97007472017367 251.61504380701808 0 0 0 0 16.451960036205946 221.1015054409072 0 221.1015054409072 1127.7376411304749 0 0 0 0 4.2838290753163477 -3.5674205222063335 0 -3.5674205222063335 1.6837542940967491 0 0 0 0 226.7884619923434 141.23105024552569 0 141.23105024552569 1034.3436155369927 0 0 0 0 501.27159457630569 151.64832816457965 0 151.64832816457965 934.2811438262288 0 0 0 0 259.14132849865155 294.16568147991711 0 294.16568147991711 850.51616274799926 0 0 0 0 248.85555220341303 291.06345201196928 0 291.06345201196928 1140.261284775594 0 0 0 0 166.3726008525698 350.4510886342523 0 350.4510886342523 989.64912455849117 0 0 0 0 193.9597279878999 109.23255011168021 0 109.23255011168021 1170.620833162217 0 0 0 0 213.93844936300866 130.89727243600555 0 130.89727243600555 629.16898667982787 0 0 0 0 251.56573464389214 486.34176341437615 0 486.34176341437615 1117.4686451168545 0 0 0 0 478.37236738352567 426.03413190174251 0 426.03413190174251 888.07779624544014 0 0 0 0 242.92694879811665 60.435963937185306 0 60.435963937185306 1304.4659949716988 0 0 0 0 -212.75457760224936 547.73179951644943 0 547.73179951644943 2001.9895505500172 0 0 0 0 1.0167131604676829 -4.7708162307134359 0 -4.7708162307134359 8.5891555417752485 0 0 0 0 -150.20225917552671 684.10233279561999 0 684.10233279561999 1998.8990904903667 0 0 0 0 265.20755979098612 -13.719334232797337 0 -13.719334232797337 35.818717554287105 0 0 0 0 5.75776470814764 -11.225260189400711 0 -11.225260189400711 14.547559370608361 0 0 0 0 -1.3557095550149825 -2.0784875024230587 0 -2.0784875024230587 221.72789063943128 0 0 0 0 -24.672751636711951 42.697094185005881 0 42.697094185005881 477.90128593581721 0 0 0 0 282.75613269083101 -142.58388596423458 0 -142.58388596423458 590.10277197686082 0 0 0 0 500.26844650138435 2.1309383258721937 0 2.1309383258721937 338.09366338029668 0 0 0 0 493.03578484565941 111.0006477966499 0 111.0006477966499 336.01644130973182 0 0 0 0 -61.805594507201477 357.28185144807981 0 357.28185144807981 904.67530366559276 0 0 0 0 -36.495801663202656 464.30805955477717 0 464.30805955477717 1007.5484908249327 0 0 0 0 -107.49765561228196 232.62487421038213 0 232.62487421038213 819.64703491117871 0 0 0 0 -77.360480080455545 285.70349522191123 0 285.70349522191123 576.22803508307788 0 0 0 0 270.5973646536313 440.20067700277423 0 440.20067700277423 465.7340019797175 0 0 0 0 6.8680269534524037 -11.171748209586056 0 -11.171748209586056 13.656946115455266 0 0 0 0 211.02014088911892 13.174563631092042 0 13.174563631092042 160.29918502265718 0 0 0 0 277.73993287847043 -354.19128937828009 0 -354.19128937828009 1018.5635537455601 0 0 0 0 -20.624778812925797 620.32958519767226 0 620.32958519767226 2194.4646114412608 0 0 0 0 809.52583136368412 763.98370721583797 0 763.98370721583797 679.9556296891551 0 0 0 0 38.685980339916568 -491.40500657030771 0 -491.40500657030771 2336.5443687794532 0 0 0 0 -91.332885230876855 993.67559921883912 0 993.67559921883912 1283.4270974514075 0 0 0 0 60.803524127787568 912.07113046305949 0 912.07113046305949 757.3115816071404 0 0 0 0 92.860830107655602 500.88386592265215 0 500.88386592265215 194.40209845060963 0 0 0 0 -47.125714869791409 487.63287278330972 0 487.63287278330972 1183.1795530065883 0 0 0 0 1081.6479148229573 -777.01044545086779 0 -777.01044545086779 1099.435253221418 0 0 0 0 1.3920775404904546 3.6179408116519909 0 3.6179408116519909 19.487578434724135 0 0 0 0 30.447977609896043 839.05891165398498 0 839.05891165398498 944.80975860275794 0 0 0 0 399.07127902230786 208.66396216246903 0 208.66396216246903 99.10549246067967 0 0 0 0 364.63899099994887 197.73740793966135 0 197.73740793966135 148.25412905988287 0 0 0 0 566.56797485185325 -125.1080804501521 0 -125.1080804501521 -83.037121127043065 0 0 0 0 -476.92058193235425 -191.07767944706211 0 -191.07767944706211 656.59458474545318 0 0 0 0 4.5137942770352311 -368.91276887309186 0 -368.91276887309186 97.742974637661973 0 0 0 0 429.59667500713368 -816.70913683638241 0 -816.70913683638241 1037.0885400388779 0 0 0 0 -295.85941795614235 -73.626806786629913 0 -73.626806786629913 1511.4437841214258 0 0 0 0 -141.44240961924515 -15.368611468142262 0 -15.368611468142262 1254.6998356066051 0 0 0 0 -220.19341626848836 0.74089598441423732 0 0.74089598441423732 773.48808622459546 0 0 0 0 -172.47174420641568 95.338673240159551 0 95.338673240159551 924.98746517855511 0 0 0 0 -95.222811511129294 -297.72122502131265 0 -297.72122502131265 807.3510501417004 0 0 0 0 -83.196493573972475 -57.491798077764543 0 -57.491798077764543 422.64193147911192 0 0 0 0 -52.772822304599686 -17.661978402189561 0 -17.661978402189561 233.1290345290256 0 0 0 0 -14.407669096888036 -51.840346615948491 0 -51.840346615948491 5.8683973442346922 0 0 0 0 109.23867818934377 -158.68017456588677 0 -158.68017456588677 186.64856506269462 0 0 0 0 -11.637750183446769 -82.573390563159592 0 -82.573390563159592 138.75282765122961 0 0 0 0 -586.96004368450303 -258.65163705323812 0 -258.65163705323812 -31.183902107870381 0 0 0 0 -1.5204224677746403 -20.204246222903205 0 -20.204246222903205 7.4981851216797466 0 0 0 0 46.934161089937334 -40.338484925797729 0 -40.338484925797729 -32.747612756025774 0 0 0 0 -0.33317139742926827 -3.2682916825016814 0 -3.2682916825016814 15.978402010285398 0 0 0 0 -19.990922342916747 -29.506838604527729 0 -29.506838604527729 101.75763835743419 0 0 0 0 -50.801550091595345 -51.584193936982047 0 -51.584193936982047 188.06427432507553 0 0 0 0 -7.1377088552172854 3.012194794129794 0 3.012194794129794 110.69382138657373 0 0 0 0 6.8714045946180704 151.0366849538882 0 151.0366849538882 189.95295889612498 0 0 0 0 -84.493965632272193 103.39272270709944 0 103.39272270709944 177.05006646180664 0 0 0 0 -13.692558159666078 -102.11407477893886 0 -102.11407477893886 214.57773583526702 0 0 0 0 11.313372932061611 67.283504094913951 0 67.283504094913951 65.862844981980743 0 0 0 0 -111.46784930386093 72.378388901146536 0 72.378388901146536 232.35215000945027 0 0 0 0 -31.583654916967134 15.483849854157597 0 15.483849854157597 185.23184807311918 0 0 0 0 -3.1878398736232612 17.056166731656276 0 17.056166731656276 168.13535408170719 0 0 0 0 -8.4641477353143273 39.978868099344254 0 39.978868099344254 189.18593415227224 0 0 0 0 -16.203821485381923 25.71418962914322 0 25.71418962914322 178.35192186118729 0 0 0 0 -11.554241205743892 7.7793345045283786 0 7.7793345045283786 200.99924291734351 0 0 0 0 78.676920748303928 56.834402254728047 0 56.834402254728047 220.17953740329176 0 0 0 0 -1.8715033388572415 -2.1840382466812116 0 -2.1840382466812116 5.2182978436566643 0 0 0 0 -433.23925243875783 -84.282759930409156 0 -84.282759930409156 -107.33092207448499 0 0 0 0 -784.51520441064076 -73.477585943764097 0 -73.477585943764097 44.387409590490279 0 0 0 0 325.42263296414967 -324.39567552163658 0 -324.39567552163658 -213.07011638766107 0 0 0 0 -0.44237073775748037 5.2357995303905795 0 5.2357995303905795 53.718818679014646 0 0 0 0 327.04507193700556 -224.02516409752889 0 -224.02516409752889 -225.85775636559151 0 0 0 0 222.68528343177604 -183.65836073156333 0 -183.65836073156333 320.398935951353 0 0 0 0 -74.848271057097008 -715.68640418223004 0 -715.68640418223004 -1720.4281634628787 0 0 0 0 30.128168744049617 -572.84872102552617 0 -572.84872102552617 -201.79808140521163 0 0 0 0 189.68732608788741 -497.30013370992583 0 -497.30013370992583 -311.7101355438208 0 0 0 0 -307.63206535434074 -597.12254363958891 0 -597.12254363958891 -120.52527273330452 0 0 0 0 -97.594180596264778 -204.32528195710074 0 -204.32528195710074 -70.017145686328149 0 0 0 0 142.94836888847203 129.49626669477175 0 129.49626669477175 86.313527647067531 0 0 0 0 -269.47357894078959 5.0981142314558383 0 5.0981142314558383 57.506239538183763 0 0 0 0 -486.79878082512187 82.752041155925326 0 82.752041155925326 33.144031810959859 0 0 0 0 -73.86611356446474 -71.874225677714207 0 -71.874225677714207 -23.696142553329992 0 0 0 0 -352.17362949046219 -230.27155458830384 0 -230.27155458830384 -67.750124324341414 0 0 0 0 -170.88945159597642 -83.293870212160982 0 -83.293870212160982 122.07888664442362 0 0 0 0 -119.07566226523613 -36.887421783200807 0 -36.887421783200807 73.044606094161281 0 0 0 0 -240.35725088616528 -105.7214141921213 0 -105.7214141921213 34.630858646036359 0 0 0 0 -278.83424353237933 10.431948448718231 0 10.431948448718231 91.105448986607371 0 0 0 0 -305.24883384227178 37.117899290554305 0 37.117899290554305 101.97674003976135 0 0 0 0 78.056788695816067 -84.357252290469319 0 -84.357252290469319 118.21612673482059 0 0 0 0 1.0310470425749916 12.448972373143256 0 12.448972373143256 79.993754036941482 0 0 0 0 -218.70164151688732 -28.881317541749013 0 -28.881317541749013 107.22745346499505 0 0 0 0 -237.29346742508278 60.230248769006721 0 60.230248769006721 84.987170414824504 0 0 0 0 -156.2805672139184 -11.13470804994995 0 -11.13470804994995 162.94904351060904 0 0 0 0 -149.18964152213266 2.6611112866667099 0 2.6611112866667099 90.013338210017537 0 0 0 0 -186.38320840615415 -8.0162139582607779 0 -8.0162139582607779 158.80952919587799 0 0 0 0 -201.14224307007498 -11.162435104186443 0 -11.162435104186443 125.04942279178067 0 0 0 0 -172.99162605509764 -57.538342406686752 0 -57.538342406686752 152.20692551539832 0 0 0 0 -130.95020329425461 -38.655260148065281 0 -38.655260148065281 157.53897433116435 0 0 0 0 -105.43838610544117 -81.303072597290338 0 -81.303072597290338 152.20870093671692 0 0 0 0 -139.33058641769821 -80.490854485618911 0 -80.490854485618911 185.7139211665708 0 0 0 0 -139.25685972473184 -48.266335223408532 0 -48.266335223408532 159.46754518476519 0 0 0 0 0.56148368382400804 27.733033885289842 0 27.733033885289842 62.904215697111795 0 0 0 0 5.7728309827725752 17.252295022288308 0 17.252295022288308 66.019084174526938 0 0 0 0 6.2838632352827517 30.242368525194252 0 30.242368525194252 114.35889697846869 0 0 0 0 -17.623535492970859 28.213731418927637 0 28.213731418927637 114.59989883813978 0 0 0 0 -26.15783659218323 28.696963687631069 0 28.696963687631069 194.31268496801931 0 0 0 0 62.489364186088096 -3.1521850748387124 0 -3.1521850748387124 105.15820022907155 0 0 0 0 -1.8504917254011133 18.051984559992064 0 18.051984559992064 6.5343518046961435 0 0 0 0 -39.872223726539232 -41.908904325104231 0 -41.908904325104231 109.64316952689114 0 0 0 0 -1.9385737345629757 4.1153275116063099 0 4.1153275116063099 114.43046627943112 0 0 0 0 -24.976292342962552 -14.533925493362403 0 -14.533925493362403 132.93787314334986 0 0 0 0 35.818362271333172 -37.852596593098497 0 -37.852596593098497 123.51782483976763 0 0 0 0 -97.992529778517564 -25.048099672028343 0 -25.048099672028343 174.67947231094263 0 0 0 0 -46.593537624174132 -4.1191829182266702 0 -4.1191829182266702 98.565181385506548 0 0 0 0 -2.5819841281574902 2.2346020637179471 0 2.2346020637179471 116.45687681832202 0 0 0 0 -1.8698393138969731 -10.290423320622146 0 -10.290423320622146 23.904169743898052 0 0 0 0 4.402121040827188 -10.694081613274765 0 -10.694081613274765 98.328926324954168 0 0 0 0 19.167321570092554 -166.05796122044558 0 -166.05796122044558 100.130957290894 0 0 0 0 -4.0939164501123742 22.221996677507377 0 22.221996677507377 113.12360569713383 0 0 0 0 -20.193696170626936 20.571763115702197 0 20.571763115702197 65.559406625441625 0 0 0 0 28.570182597960411 -2.4427165451197652 0 -2.4427165451197652 5.8557486387435347 0 0 0 0 -9.6845444309210507 0.78774807664740365 0 0.78774807664740365 40.891809004504466 0 0 0 0 14.275037110037374 29.304537807744055 0 29.304537807744055 66.386883096443171 0 0 0 0 55.146614260524984 17.864286426811304 0 17.864286426811304 20.030537811326212 0 0 0 0 66.483853176523724 76.37864832070818 0 76.37864832070818 58.003102835136815 0 0 0 0 154.9153541790547 28.580687614805356 0 28.580687614805356 -2.1743674528051997 0 0 0 0 134.47840674297453 200.48037168039264 0 200.48037168039264 121.76312929160486 0 0 0 0 359.16664199320985 154.41334695553087 0 154.41334695553087 72.385888487580814 0 0 0 0 -1.3850496345216659 -2.1202065110575932 0 -2.1202065110575932 7.2406779431396728 0 0 0 0 96.40603526492896 280.95635218912503 0 280.95635218912503 440.79677599971183 0 0 0 0 -1.0031282582679655 0.177243967711604 0 0.177243967711604 116.64303920749012 0 0 0 0 195.8374059890275 -344.10040392985411 0 -344.10040392985411 157.28616317779233 0 0 0 0 -270.09554692188249 -4.6104740976916219 0 -4.6104740976916219 174.48639325142449 0 0 0 0 -9.9313055250419104 -14.591636749985383 0 -14.591636749985383 151.15149583671604 0 0 0 0 -96.447913571919798 26.193200437919586 0 26.193200437919586 186.27500976024021 0 0 0 0 -7.0788971019452331 25.128065562088427 0 25.128065562088427 122.69919273451919 0 0 0 0 -172.345321372424 20.232844372509589 0 20.232844372509589 155.29725522277113 0 0 0 0 -56.372480353827086 265.87377184111028 0 265.87377184111028 405.95101360505487 0 0 0 0 275.61551800556026 -136.7116144735428 0 -136.7116144735428 60.155687191072502 0 0 0 0 1.8761563303855837 -185.8904352791651 0 -185.8904352791651 558.83148880103545 0 0 0 0 11.248886187040625 -122.1216000101158 0 -122.1216000101158 45.05644997793388 0 0 0 0 151.63181324795369 -51.727797088227817 0 -51.727797088227817 7.5768187416324508 0 0 0 0 -8.7479523726753357 -2.6245317419409773 0 -2.6245317419409773 138.60097008093948 0 0 0 0 -39.159984454980076 65.88457046170879 0 65.88457046170879 80.698052084875599 0 0 0 0 27.719391236474621 -29.796635904989671 0 -29.796635904989671 163.23548768283217 0 0 0 0 -16.723559801545477 7.0248785580584858 0 7.0248785580584858 150.23559038205315 0 0 0 0 -120.06284336934766 -21.074635263984419 0 -21.074635263984419 224.2416085378336 0 0 0 0 -45.364289174141049 8.3357834371540775 0 8.3357834371540775 177.01705054276863 0 0 0 0 -4.1109852582938622 4.1088030484868909 0 4.1088030484868909 21.519832499980033 0 0 0 0 -88.357923798176103 -22.405763410476538 0 -22.405763410476538 181.94175029291364 0 0 0 0 -99.66077889670305 113.50218033479905 0 113.50218033479905 51.31950852835871 0 0 0 0 -127.64362193731904 177.90042850467216 0 177.90042850467216 110.7504166204053 0 0 0 0 -18.158245682216091 -39.990140413909103 0 -39.990140413909103 162.37551592506134 0 0 0 0 -153.68224674554767 11.845228826498897 0 11.845228826498897 210.86018861692719 0 0 0 0 -186.41163576787585 95.45283273379755 0 95.45283273379755 168.45285233726827 0 0 0 0 -31.235381961309898 14.86711733900249 0 14.86711733900249 80.102846019772414 0 0 0 0 -30.467561613022554 -16.935746567847673 0 -16.935746567847673 213.37381193861074 0 0 0 0 -20.263672866631403 -14.783226155379692 0 -14.783226155379692 142.2594949534386 0 0 0 0 -35.752017386935428 -12.528213173270117 0 -12.528213173270117 35.295567108504187 0 0 0 0 -53.541803451396845 -19.806352163701376 0 -19.806352163701376 191.66611142762849 0 0 0 0 -65.99342815700038 -41.626552281862587 0 -41.626552281862587 153.73061449162196 0 0 0 0 -6.7446801560981839 -14.964286429880303 0 -14.964286429880303 162.45051751394632 0 0 0 0 23.265827480679718 -108.02792999888288 0 -108.02792999888288 212.24281681013599 0 0 0 0 -99.886304729408948 133.87604845346868 0 133.87604845346868 11.93481569380674 0 0 0 0 -7.8875396508123075 -9.661049971543008 0 -9.661049971543008 16.522405920995958 0 0 0 0 -11.295097899099346 -58.664941185686985 0 -58.664941185686985 168.74901436940854 0 0 0 0 -29.27158208846231 -59.083035858629955 0 -59.083035858629955 240.22661578495172 0 0 0 0 -44.304524226974976 24.935413820904756 0 24.935413820904756 38.463313084826908 0 0 0 0 -72.262167356651844 -30.633434912964731 0 -30.633434912964731 186.06969263791689 0 0 0 0 -18.87092296247647 -57.296086373879007 0 -57.296086373879007 170.53514725959758 0 0 0 0 -82.757912382247014 18.874269779404131 0 18.874269779404131 151.32564493160521 0 0 0 0 -57.242780586231675 -15.151764953585371 0 -15.151764953585371 183.98917632736266 0 0 0 0 -158.88704298833545 2.7453699436700845 0 2.7453699436700845 197.29663442755555 0 0 0 0 -109.53398570823992 18.152725485972041 0 18.152725485972041 202.01178596738828 0 0 0 0 -130.14104032987598 -14.96601684484267 0 -14.96601684484267 187.96247549500731 0 0 0 0 -128.56573516223943 -24.127092448816256 0 -24.127092448816256 157.87375667756669 0 0 0 0 -104.61106732819462 -67.467580330485362 0 -67.467580330485362 173.9702203038978 0 0 0 0 -83.773652564867007 -40.516039530775743 0 -40.516039530775743 178.08805903904795 0 0 0 0 -152.63737243944979 -47.709582165118263 0 -47.709582165118263 179.70638929420238 0 0 0 0 -65.867285443226592 -85.470607158998064 0 -85.470607158998064 170.22704789485579 0 0 0 0 -73.770528721283881 -111.31370996090573 0 -111.31370996090573 175.36796437735029 0 0 0 0 -32.83437449475241 -127.80372409733172 0 -127.80372409733172 176.79158637619912 0 0 0 0 -7.3834127066693327 -110.79256437920412 0 -110.79256437920412 161.52384045463987 0 0 0 0 -9.6434090703478432 -124.96460362130529 0 -124.96460362130529 138.95981961047073 0 0 0 0 -34.303961915796663 -140.24285828324787 0 -140.24285828324787 186.41732826297084 0 0 0 0 35.901523942531639 -154.97966540780908 0 -154.97966540780908 158.72639275306938 0 0 0 0 118.33537916330533 -206.02182503939912 0 -206.02182503939912 170.12977420125026 0 0 0 0 28.72111612414119 -112.2162878894851 0 -112.2162878894851 124.20663283814065 0 0 0 0 44.397307639444989 -133.27577119941998 0 -133.27577119941998 98.733259568864014 0 0 0 0 -67.270196485891347 39.132274253362993 0 39.132274253362993 154.94924778580753 0 0 0 0 -11.510677955889506 19.749774597905699 0 19.749774597905699 22.357158180767392 0 0 0 0 23.200140347042179 -115.04504812838422 0 -115.04504812838422 137.49521186037236 0 0 0 0 32.481365092362466 -65.787817982080014 0 -65.787817982080014 163.17082315615153 0 0 0 0 10.374679202985135 -102.17708286170091 0 -102.17708286170091 134.14682154582169 0 0 0 0 -42.928430661679158 -92.414835304923145 0 -92.414835304923145 154.24896414883551 0 0 0 0 8.9380847216425536 -113.19467986250675 0 -113.19467986250675 -17.141731480951421 0 0 0 0 -234.42474146672066 -11.152382063293771 0 -11.152382063293771 122.17587936570635 0 0 0 0 212.74225058946058 -62.026292462387573 0 -62.026292462387573 -5.0164757902093697 0 0 0 0 -253.62012156513811 114.31140157210029 0 114.31140157210029 247.88125593183213 0 0 0 0 255.49168346823899 -41.32889678050924 0 -41.32889678050924 -78.733447975933814 0 0 0 0 -3.2725156967474227 20.222752421428467 0 20.222752421428467 26.253831380584778 0 0 0 0 156.3751208755948 52.645082695253222 0 52.645082695253222 -68.26168198484811 0 0 0 0 -161.98181012987152 153.57233143798658 0 153.57233143798658 112.97976050556463 0 0 0 0 183.74029398218227 -50.518025196954113 0 -50.518025196954113 40.386293328569309 0 0 0 0 236.0309235231116 -96.418328549036232 0 -96.418328549036232 33.862171138680424 0 0 0 0 24.497658278599374 -13.669405832263237 0 -13.669405832263237 45.117336700495798 0 0 0 0 -103.36975809430078 -18.530334158669575 0 -18.530334158669575 237.51329306198022 0 0 0 0 -9.2592730602827835 15.167697027609407 0 15.167697027609407 8.8363940811346851 0 0 0 0 -20.487340302584926 141.50298132994794 0 141.50298132994794 -29.407096294147777 0 0 0 0 166.91882426148004 -92.541250592550568 0 -92.541250592550568 -153.56532223943213 0 0 0 0 26.682944482876337 -73.353577946712903 0 -73.353577946712903 99.621130682848161 0 0 0 0 3.0847086121450502 29.443462622049992 0 29.443462622049992 3.5911914900643751 0 0 0 0 -9.3415478242982317 -3.1864407373577706 0 -3.1864407373577706 -48.955836948869546 0 0 0 0 -96.713319908640187 109.13090691027901 0 109.13090691027901 210.02216377579316 0 0 0 0 -3.1011979306123294 11.495098286532084 0 11.495098286532084 -25.374334488849854 0 0 0 0 24.232435549972706 -60.200181789263297 0 -60.200181789263297 470.25737792486325 0 0 0 0 -2.8030118918389713 4.2255144024189626 0 4.2255144024189626 4.6052694990938505 0 0 0 0 211.70975641676341 -201.27247632475337 0 -201.27247632475337 502.00666966545396 0 0 0 0 73.982007723034258 123.71465761624131 0 123.71465761624131 174.48643458126026 0 0 0 0 -41.863050125275095 -31.100880107092962 0 -31.100880107092962 -4.4817321984555747 0 0 0 0 -33.736956908758657 -13.575797665140271 0 -13.575797665140271 20.164388516612235 0 0 0 0 -3.0624739827015413 -1.5402667295126804 0 -1.5402667295126804 7.1605523048459077 0 0 0 0 -26.662697580990653 -51.791301430050225 0 -51.791301430050225 -42.055661473044893 0 0 0 0 -16.071458482017704 -16.330202499731968 0 -16.330202499731968 -42.199077864464925 0 0 0 0 18.673969530780539 -33.322498691173678 0 -33.322498691173678 -55.458763887254463 0 0 0 0 -0.79277284621053923 14.089800763858875 0 14.089800763858875 -70.659963789352332 0 0 0 0 73.04570116070488 -85.570425160523882 0 -85.570425160523882 -31.020769057926373 0 0 0 0 58.154570118067227 -9.7249952714373649 0 -9.7249952714373649 -69.334072990019195 0 0 0 0 -101.79594878384501 -33.117767299099341 0 -33.117767299099341 32.78251015918795 0 0 0 0 -69.466353019640962 -126.81788817577035 0 -126.81788817577035 21.319826130718866 0 0 0 0 -61.861040437067459 58.54854765635173 0 58.54854765635173 -60.419795414411055 0 0 0 0 12.116230453863864 51.022383079893189 0 51.022383079893189 -103.45267030805917 0 0 0 0 16.052767809444504 70.558029383857502 0 70.558029383857502 -109.18223724999189 0 0 0 0 -23.101033414915399 6.4978837285316331 0 6.4978837285316331 19.1249413593345 0 0 0 0 -56.449744752161905 28.877732809723966 0 28.877732809723966 -55.393276820366737 0 0 0 0 88.152119706971007 74.643839639000362 0 74.643839639000362 -103.86746315070195 0 0 0 0 56.411161561667768 -6.0386506312024721 0 -6.0386506312024721 -63.614943673441303 0 0 0 0 -101.46562763799011 131.89589521988455 0 131.89589521988455 11.551916762095061 0 0 0 0 86.637320838021878 95.003139719672618 0 95.003139719672618 -54.655352015593962 0 0 0 0 5.7299759842189815 98.92526044288752 0 98.92526044288752 -54.844111556718417 0 0 0 0 -129.09154149598999 191.19642693743663 0 191.19642693743663 17.85477755231841 0 0 0 0 -0.053275994472642196 243.34287509462774 0 243.34287509462774 -107.04946297564311 0 0 0 0 173.37233113572074 278.86300685117976 0 278.86300685117976 -101.40083072749258 0 0 0 0 173.70824424324019 272.59401853075178 0 272.59401853075178 -369.33806731654477 0 0 0 0 276.09956595562016 130.17681780847852 0 130.17681780847852 -181.34091870408156 0 0 0 0 251.92669763129933 -133.29604124315074 0 -133.29604124315074 1.9290013326171902 0 0 0 0 895.43198462757675 -388.61897222507287 0 -388.61897222507287 -1628.0796267432452 0 0 0 0 283.93617418379381 332.17928936406497 0 332.17928936406497 -339.45701982094033 0 0 0 0 448.88633856686579 678.37769266266196 0 678.37769266266196 -162.55151906758692 0 0 0 0 400.06992156159049 363.21652130019356 0 363.21652130019356 -429.09921889681937 0 0 0 0 -137.86809349601936 505.49089421569806 0 505.49089421569806 -209.36125940087368 0 0 0 0 68.153260071190971 -1.0875560569766094 0 -1.0875560569766094 -76.830561667205984 0 0 0 0 43.252221839141953 -17.284027985118882 0 -17.284027985118882 307.67352975278845 0 0 0 0 81.171001850915388 349.13537983351125 0 349.13537983351125 -714.72385326922813 0 0 0 0 -1.4952625308015368 -1.0495866993984748 0 -1.0495866993984748 -0.60506185540545232 0 0 0 0 -210.89236387224264 -29.603963957886663 0 -29.603963957886663 228.64301617676028 0 0 0 0 -13.199259011078686 -4.0442548657225217 0 -4.0442548657225217 1.0255665975963417 0 0 0 0 133.15248236289381 -722.76079784341346 0 -722.76079784341346 -1186.7672923492646 0 0 0 0 -452.16583157914897 -601.95174686375321 0 -601.95174686375321 -46.878917186317267 0 0 0 0 -239.65215445081486 -505.27104734961517 0 -505.27104734961517 389.69495559029747 0 0 0 0 -261.21035577710563 -266.07637764840911 0 -266.07637764840911 1058.2511433389809 0 0 0 0 375.47032933721158 -507.0490618522017 0 -507.0490618522017 -91.275361365616845 0 0 0 0 957.69848802682441 -213.6477356707619 0 -213.6477356707619 -491.24783168087379 0 0 0 0 -16.693589852300335 -212.71215330374253 0 -212.71215330374253 669.99567937949905 0 0 0 0 1014.5686668542702 -434.80424478439818 0 -434.80424478439818 716.95762100912179 0 0 0 0 581.49870677339914 33.53748405809165 0 33.53748405809165 1027.5061161757258 0 0 0 0 -240.29905662444435 225.67292558311965 0 225.67292558311965 4282.3137084438677 0 0 0 0 -219.0199567096156 365.28895668058249 0 365.28895668058249 2020.4008621124522 0 0 0 0 -346.88196636913744 282.88679495130782 0 282.88679495130782 2203.4418725596352 0 0 0 0 -34.656004704341285 -832.08278541157051 0 -832.08278541157051 1873.3360856978688 0 0 0 0 -447.8905238243276 11.412089710102009 0 11.412089710102009 1587.2611962726151 0 0 0 0 556.20600885643751 1067.688477779363 0 1067.688477779363 12.208616655741935 0 0 0 0 626.34068524847089 530.17813227021907 0 530.17813227021907 738.76818810395343 0 0 0 0 -618.7241770509645 882.52631518496491 0 882.52631518496491 346.67042399150159 0 0 0 0 989.07798690085906 -591.53089694045048 0 -591.53089694045048 523.63256897201063 0 0 0 0 1747.7560512925998 807.69758699681915 0 807.69758699681915 -292.18598690694125 0 0 0 0 3232.7511808519967 -1694.7776836931225 0 -1694.7776836931225 2041.2414692689199 0 0 0 0 2357.7924346342129 1588.5928842613907 0 1588.5928842613907 1349.8599175922282 0 0 0 0 -876.1680210876093 150.6836127638835 0 150.6836127638835 1646.6127826253687 0 0 0 0 812.82524541641931 -607.27414368234531 0 -607.27414368234531 3500.7130275090312 0 0 0 0 -894.26251236525604 381.15573789758128 0 381.15573789758128 -508.95208618815013 0 0 0 0 -2584.2158516346663 334.89775578200715 0 334.89775578200715 887.51693514657745 0 0 0 0 -634.57949394239495 298.08216212161278 0 298.08216212161278 -61.348573517410841 0 0 0 0 -1.1562937195474543 -19.960382647478244 0 -19.960382647478244 183.6134947527247 0 0 0 0 -83.189300942329282 -42.217475639062286 0 -42.217475639062286 -46.416227387766412 0 0 0 0 -261.0379825491766 -235.99149035806204 0 -235.99149035806204 103.93029332731203 0 0 0 0 73.928578132263283 -87.048061812414744 0 -87.048061812414744 -32.293938814734247 0 0 0 0 6.1906856949199902 -11.359603637017738 0 -11.359603637017738 19.776812361203469 0 0 0 0 118.41091642106039 -26.586286947574081 0 -26.586286947574081 20.547106749945669 0 0 0 0 77.164674016779827 1.1048455958916747 0 1.1048455958916747 29.536405142185686 0 0 0 0 -0.49757227226109535 17.846296173452174 0 17.846296173452174 141.12175872755597 0 0 0 0 -10.428772417641994 -46.675344206963018 0 -46.675344206963018 110.15881310202531 0 0 0 0 12.832390449626473 -8.9404733784276686 0 -8.9404733784276686 213.95719501109852 0 0 0 0 43.634737175600094 -50.549909804236449 0 -50.549909804236449 187.23712939187044 0 0 0 0 -17.291700682126248 -66.922735961666149 0 -66.922735961666149 102.35429068608391 0 0 0 0 -4.4213710119588541 46.581501510579301 0 46.581501510579301 264.79495914863037 0 0 0 0 -12.274961043680632 25.932494815822835 0 25.932494815822835 68.191245441427668 0 0 0 0 76.666050801175516 -66.093995265153353 0 -66.093995265153353 178.19164256836939 0 0 0 0 86.798733118179371 17.521710239341701 0 17.521710239341701 187.08989700302845 0 0 0 0 40.224146313326855 -42.726240774227335 0 -42.726240774227335 116.46720073393044 0 0 0 0 60.699359830468893 -128.09472038411513 0 -128.09472038411513 457.68983447967184 0 0 0 0 2.4503516807056434 9.8305979529102885 0 9.8305979529102885 -4.2409498492291533 0 0 0 0 -24.759322964223337 36.812666403070686 0 36.812666403070686 75.71140129165687 0 0 0 0 -109.27361013681821 -24.833836037032597 0 -24.833836037032597 209.94421426070039 0 0 0 0 -2.2797227466530785 -10.560598182042213 0 -10.560598182042213 99.73930824618219 0 0 0 0 -35.98947550918011 25.295442567394687 0 25.295442567394687 74.433888076741482 0 0 0 0 -56.957598259014048 -69.960789309955544 0 -69.960789309955544 218.48084504880444 0 0 0 0 -1.7710563441185627 -16.11294792414958 0 -16.11294792414958 159.08978072806167 0 0 0 0 -32.450484447184351 -1.1963214991186124 0 -1.1963214991186124 94.68983910667869 0 0 0 0 -10.430698798768834 -14.509002578060372 0 -14.509002578060372 33.938154717622126 0 0 0 0 -18.479583477641427 -37.007614765329436 0 -37.007614765329436 159.88929598990717 0 0 0 0 -68.530397693999021 30.892195803935465 0 30.892195803935465 171.35566765179101 0 0 0 0 -13.406743524659316 -37.470009757521275 0 -37.470009757521275 166.72277156448817 0 0 0 0 -300.31619977115292 52.068672545898607 0 52.068672545898607 255.32910469276248 0 0 0 0 -258.69152815145935 22.444791768532014 0 22.444791768532014 218.99877961668244 0 0 0 0 -288.85292549792206 278.57015721845664 0 278.57015721845664 48.958810803298547 0 0 0 0 -200.17694990086602 297.10447234948515 0 297.10447234948515 49.84260702499887 0 0 0 0 -635.08098792073747 502.77942768491812 0 502.77942768491812 125.92371992534754 0 0 0 0 -871.85224764056875 111.06553857572635 0 111.06553857572635 241.10048469922913 0 0 0 0 -3.5924165455423935 -13.851194538535328 0 -13.851194538535328 200.524457158345 0 0 0 0 -87.17306710041612 -97.964276811443597 0 -97.964276811443597 205.28725481107085 0 0 0 0 70.464260796779854 -20.11657199417823 0 -20.11657199417823 8.4586885826938669 0 0 0 0 28.388440526159684 -144.68074303644971 0 -144.68074303644971 88.142037912119122 0 0 0 0 -161.60382124560329 18.250945190629864 0 18.250945190629864 58.255978238048556 0 0 0 0 -108.444681486224 -99.232100965586142 0 -99.232100965586142 77.188659009632829 0 0 0 0 -329.89885728029321 141.38772378130125 0 141.38772378130125 0.63871803284564521 0 0 0 0 -266.37958077279882 -50.087313223915771 0 -50.087313223915771 -31.673579950249405 0 0 0 0 -294.0672863660493 -4.2215457445636275 0 -4.2215457445636275 194.01875026291236 0 0 0 0 7.4819089925440494 -372.81775371962431 0 -372.81775371962431 628.36117949591426 0 0 0 0 479.69390850308264 418.49973284300359 0 418.49973284300359 550.38563215256727 0 0 0 0 -537.98484587673738 739.10689510813972 0 739.10689510813972 987.72876279026605 0 0 0 0 -154.10985343548782 329.10539526634238 0 329.10539526634238 541.98148448717984 0 0 0 0 -79.764883049755554 305.63434601099107 0 305.63434601099107 97.475783803165541 0 0 0 0 -429.46027051629426 349.68983414788272 0 349.68983414788272 95.442887163459091 0 0 0 0 -122.57694452840224 727.05081942023389 0 727.05081942023389 897.59019939960854 0 0 0 0 -488.0274282641949 382.29008422805782 0 382.29008422805782 1002.3169360248721 0 0 0 0 2.220468981284057 -0.63593051093661757 0 -0.63593051093661757 -2.4122052582440006 0 0 0 0 -420.87543805968744 907.23337701556738 0 907.23337701556738 -291.88244497985761 0 0 0 0 -21.505826136290125 28.818289003254904 0 28.818289003254904 1129.6167370436742 0 0 0 0 -11.089094225760164 47.001153144033196 0 47.001153144033196 80.26057374807715 0 0 0 0 474.83811161871358 -315.81630623049068 0 -315.81630623049068 202.33806767791975 0 0 0 0 0.40973208053070231 0.47163155456686212 0 0.47163155456686212 12.921825481669345 0 0 0 0 559.77828472001056 619.50988512174081 0 619.50988512174081 531.82811268797377 0 0 0 0 -434.52274253237192 -620.27357984502305 0 -620.27357984502305 562.04793300171877 0 0 0 0 -210.96614600786779 -176.49402764456318 0 -176.49402764456318 816.41793277398756 0 0 0 0 472.01646552155307 1698.8301525958195 0 1698.8301525958195 297.753734713624 0 0 0 0 531.4810866123953 915.79441923224658 0 915.79441923224658 -1147.3334137613492 0 0 0 0 -457.81510692389566 -125.74862793576904 0 -125.74862793576904 -30.385814933280926 0 0 0 0 -138.35159324327105 49.273489453058573 0 49.273489453058573 63.787684286195145 0 0 0 0 -25.251096314310871 -70.121379874303784 0 -70.121379874303784 135.12802263822232 0 0 0 0 -29.479003868238578 -86.237076726258238 0 -86.237076726258238 101.53909576500882 0 0 0 0 -326.0363836739416 -54.081265180386254 0 -54.081265180386254 244.17587562196422 0 0 0 0 -15.818095723692068 -31.054846491944318 0 -31.054846491944318 87.040938243386336 0 0 0 0 -20.499722312784797 -49.426508564803953 0 -49.426508564803953 94.171446383599687 0 0 0 0 -8.232943417412109 4.9335141554901227 0 4.9335141554901227 36.742563811357655 0 0 0 0 74.491009823068453 -62.772870355551277 0 -62.772870355551277 86.731933549301175 0 0 0 0 -41.413899462902918 9.5999779460180434 0 9.5999779460180434 125.65631126726657 0 0 0 0 -6.6156860579290964 -0.77413346157476326 0 -0.77413346157476326 8.0893417539623726 0 0 0 0 -70.574115493230238 9.7721116963839449 0 9.7721116963839449 38.853393886776757 0 0 0 0 -177.94531175014345 17.629798565783858 0 17.629798565783858 73.615990479182074 0 0 0 0 -1.2351730006375958 16.994212032464532 0 16.994212032464532 31.566981671159908 0 0 0 0 -35.408522188340314 2.5391443319505811 0 2.5391443319505811 30.049964875782251 0 0 0 0 -35.076053065731912 1.4817390070000585 0 1.4817390070000585 19.360089179392617 0 0 0 0 -47.511082486644227 -23.194737597998028 0 -23.194737597998028 86.918191603042942 0 0 0 0 -43.496498153281209 -3.0308780364830454 0 -3.0308780364830454 51.352077276605996 0 0 0 0 -50.699328552425868 18.184854300354345 0 18.184854300354345 81.083711572071479 0 0 0 0 -47.262676121691129 20.481246649596869 0 20.481246649596869 43.692571808729554 0 0 0 0 -117.99341717750031 -34.134972660402127 0 -34.134972660402127 125.84356958395801 0 0 0 0 -86.63946054958069 31.743754898467159 0 31.743754898467159 77.813783582405449 0 0 0 0 -199.47713674803617 123.50345181284501 0 123.50345181284501 67.727253280259902 0 0 0 0 -181.19587121114091 102.06440317886154 0 102.06440317886154 65.356019239887246 0 0 0 0 60.03514712303577 48.072130357553249 0 48.072130357553249 26.709381137793528 0 0 0 0 -456.46351268460859 167.42462692952384 0 167.42462692952384 101.28433939255774 0 0 0 0 7.5015180543370477 -0.48517769348687523 0 -0.48517769348687523 -12.792405551065315 0 0 0 0 -548.88812936820773 -562.81906498504668 0 -562.81906498504668 -577.01864648883929 0 0 0 0 -191.16146888250569 240.16804932461309 0 240.16804932461309 -103.09213053869462 0 0 0 0 230.42496378363921 -34.494041158261098 0 -34.494041158261098 23.815718020756321 0 0 0 0 52.861841243070558 29.195291447802447 0 29.195291447802447 23.113019473617896 0 0 0 0 -45.756704789027708 59.181379964561529 0 59.181379964561529 23.160948796554294 0 0 0 0 -49.952047492355632 55.707682069929433 0 55.707682069929433 93.039754717108735 0 0 0 0 0.65015831925666134 124.26312356252311 0 124.26312356252311 -44.860319919247559 0 0 0 0 14.37392244118746 20.257958723530464 0 20.257958723530464 -11.669458124248195 0 0 0 0 21.300172817622851 23.674515562844135 0 23.674515562844135 15.268476654960224 0 0 0 0 5.5619741822047217 23.072562841025501 0 23.072562841025501 18.83252946214634 0 0 0 0 12.26851260397672 15.743967255119145 0 15.743967255119145 13.143254901555224 0 0 0 0 -62.893040380415187 -6.9788519168669154 0 -6.9788519168669154 401.04034217477238 0 0 0 0 -35.225372953051476 -108.42721638307557 0 -108.42721638307557 78.907119388284627 0 0 0 0 -74.796158021001702 149.3258679975213 0 149.3258679975213 137.13505576438911 0 0 0 0 89.724800709529518 150.73919456562726 0 150.73919456562726 -203.23467601364973 0 0 0 0 9.2122467300335096 14.717111821425021 0 14.717111821425021 5.5788356895942641 0 0 0 0 0.76963362842070637 -128.19114812400221 0 -128.19114812400221 284.43831842136933 0 0 0 0 -0.58086130109173695 6.6133174253290399 0 6.6133174253290399 6.7075922576705693 0 0 0 0 5.1013708121699892 19.50706958140654 0 19.50706958140654 11.474345433336566 0 0 0 0 3.0413475222258057 15.498739998809469 0 15.498739998809469 18.159611892443991 0 0 0 0 3.0824486932697255 14.888512054843886 0 14.888512054843886 14.016278306233289 0 0 0 0 3.4087446170208135 12.766141093326439 0 12.766141093326439 24.389350596651099 0 0 0 0 0.1103581918048171 -3.9397698977352285 0 -3.9397698977352285 25.966332538445783 0 0 0 0 -11.57201254037227 9.3669128628425824 0 9.3669128628425824 34.309377736906754 0 0 0 0 -4.6294971837360208 28.895473140681133 0 28.895473140681133 44.798732141949586 0 0 0 0 -1.6872911791233491 4.9950720013694081 0 4.9950720013694081 36.156605655494786 0 0 0 0 -19.558849527843449 1.8067441371931636 0 1.8067441371931636 31.352169226585829 0 0 0 0 -8.5553663149780732 -20.168745451870564 0 -20.168745451870564 17.536434740017285 0 0 0 0 -2.2297960270385051 1.723462070804274 0 1.723462070804274 1.9230607665436139 0 0 0 0 -16.496202051539058 -0.19926527700590668 0 -0.19926527700590668 40.32924094264672 0 0 0 0 30.545453614004145 -77.692043772854959 0 -77.692043772854959 -135.56144568674063 0 0 0 0 -4.4313913405217997 -6.2910999990288019 0 -6.2910999990288019 20.701290223298344 0 0 0 0 -49.36439288495967 -20.232080458710698 0 -20.232080458710698 21.673691864300054 0 0 0 0 -43.395979687295949 -10.765127572572965 0 -10.765127572572965 36.655851523113597 0 0 0 0 -29.73073226759346 -11.216113016876903 0 -11.216113016876903 15.10433750413776 0 0 0 0 -35.785355111207835 -6.0666185019900922 0 -6.0666185019900922 3.780623648488934 0 0 0 0 -129.88718158406846 -19.948626542163765 0 -19.948626542163765 -6.1726891229773173 0 0 0 0 -99.571961786168231 -3.6152564710246224 0 -3.6152564710246224 74.042594122307491 0 0 0 0 -128.13452775545852 -17.936333078576354 0 -17.936333078576354 -6.2325902310549282 0 0 0 0 -77.951285676612315 -325.01776527173934 0 -325.01776527173934 -396.92908126336988 0 0 0 0 -13.460152153711253 -15.504390098474399 0 -15.504390098474399 4.9077417663809797 0 0 0 0 -127.34803681629774 -15.926674905478649 0 -15.926674905478649 -4.8017770014703274 0 0 0 0 -13.231797362394531 -17.162776881603349 0 -17.162776881603349 21.412310774903744 0 0 0 0 -27.035295022067594 -31.683719484623268 0 -31.683719484623268 3.714221187610292 0 0 0 0 -130.91720374095712 -17.485728978252155 0 -17.485728978252155 -1.9275339415180497 0 0 0 0 8.2876190161108845 -3.8992937384256265 0 -3.8992937384256265 -5.6996391637582633 0 0 0 0 2.4754037527263595 -23.264643469758845 0 -23.264643469758845 -11.528860646267049 0 0 0 0 36.276588728240313 -7.486586315499153 0 -7.486586315499153 -4.1351252203457989 0 0 0 0 56.372116284525873 -123.44013517293934 0 -123.44013517293934 -90.210809075360885 0 0 0 0 -77.653815729374401 -90.168580486017163 0 -90.168580486017163 62.50675802511978 0 0 0 0 -303.21898975289332 -19.511240360545344 0 -19.511240360545344 -13.733484572199814 0 0 0 0 -399.14891535820493 -368.74808178157582 0 -368.74808178157582 168.19217333539564 0 0 0 0 -250.56719461802277 -85.64668954467561 0 -85.64668954467561 306.11137523816433 0 0 0 0 -474.99267100301699 -310.79461814973729 0 -310.79461814973729 833.14549274675664 0 0 0 0 -436.27054191562092 -139.45437473259517 0 -139.45437473259517 1232.865391423984 0 0 0 0 -336.98649793364257 54.327334625064395 0 54.327334625064395 935.60656202586324 0 0 0 0 -358.2314319417228 162.21239863102892 0 162.21239863102892 1220.6625823656359 0 0 0 0 -373.02990250328457 168.81610536597873 0 168.81610536597873 1266.8728409982368 0 0 0 0 -248.85895657455876 -21.412582586475764 0 -21.412582586475764 724.2815877345929 0 0 0 0 -240.82657682092758 18.303912296280032 0 18.303912296280032 685.73199056339945 0 0 0 0 -300.35023952066513 -241.17561041410227 0 -241.17561041410227 447.59023960553168 0 0 0 0 -132.95392492370456 23.763460556263453 0 23.763460556263453 -17.714795405874611 0 0 0 0 44.049843008034884 -245.60798740003384 0 -245.60798740003384 150.06818172583007 0 0 0 0 -9.3879644756320317 -1.7445941403000091 0 -1.7445941403000091 2.8522009816957734 0 0 0 0 33.890014055392385 -19.909289122300834 0 -19.909289122300834 -5.5871611223883519 0 0 0 0 -218.67969109464593 -35.469750546129944 0 -35.469750546129944 397.06879273146478 0 0 0 0 -31.791348628798005 -89.367646959464764 0 -89.367646959464764 -37.89442650230194 0 0 0 0 -163.50120360684468 -176.20714339511233 0 -176.20714339511233 488.46790246876481 0 0 0 0 12.78213319527481 -48.627044588156537 0 -48.627044588156537 401.53047230653465 0 0 0 0 13.464464654398398 -34.111891627973819 0 -34.111891627973819 597.7528565234461 0 0 0 0 -103.36873423281031 12.289984526782064 0 12.289984526782064 581.19808327758074 0 0 0 0 -169.04637845814796 -29.551105612517858 0 -29.551105612517858 204.54237366441521 0 0 0 0 -158.55754187192542 -78.625601530395215 0 -78.625601530395215 549.14221022172569 0 0 0 0 -166.8675115095084 -25.58890734130182 0 -25.58890734130182 211.5759049567132 0 0 0 0 -135.15956763919166 -88.97322280696244 0 -88.97322280696244 276.7504745379847 0 0 0 0 -2.5057209430087823 -161.34831946443956 0 -161.34831946443956 117.3859731282646 0 0 0 0 -57.457424775292111 -52.553247887464295 0 -52.553247887464295 16.810501259686134 0 0 0 0 -50.980006568659519 -54.3405157292691 0 -54.3405157292691 13.360647214900382 0 0 0 0 -107.79478913454295 -59.643285807287612 0 -59.643285807287612 9.2001056115404936 0 0 0 0 -43.672982605470231 -34.324776665050038 0 -34.324776665050038 11.411963247419074 0 0 0 0 -66.059671544855519 -90.201979071833193 0 -90.201979071833193 -81.703865172345104 0 0 0 0 -4.8076743556473858 -10.358250643191951 0 -10.358250643191951 0.063223432678896074 0 0 0 0 -29.109836267305582 -45.99044396041063 0 -45.99044396041063 -32.536795583844651 0 0 0 0 -67.419851015940367 -36.763288142537931 0 -36.763288142537931 -5.4093753069028025 0 0 0 0 -59.851173229097185 -57.005062145013653 0 -57.005062145013653 -16.203971454022394 0 0 0 0 -52.990089859137811 0.97815950617678027 0 0.97815950617678027 49.695509786470211 0 0 0 0 -44.413989052824135 0.63116998877242736 0 0.63116998877242736 27.823891100804914 0 0 0 0 -46.992923744121072 0.72955434852883627 0 0.72955434852883627 54.187694507258129 0 0 0 0 -31.081572092694444 -23.836850127256184 0 -23.836850127256184 82.844174238773121 0 0 0 0 -41.53778443097417 -13.387022943323245 0 -13.387022943323245 61.044703376675898 0 0 0 0 -42.010508373995862 -3.0079836476240871 0 -3.0079836476240871 42.299616737567703 0 0 0 0 -134.6488020073287 -21.378886642052976 0 -21.378886642052976 76.357550637316308 0 0 0 0 -82.949401786713679 18.156679110834375 0 18.156679110834375 58.366430272697471 0 0 0 0 -17.50762161928219 10.844286454966262 0 10.844286454966262 61.719140230585253 0 0 0 0 -131.71890354327479 -15.892215342668351 0 -15.892215342668351 135.69333051948888 0 0 0 0 -75.399688940160317 -11.019465685803354 0 -11.019465685803354 35.447065707780631 0 0 0 0 -61.548866375490888 -2.0272286440740572 0 -2.0272286440740572 75.070433678272821 0 0 0 0 -61.344134700982067 -67.898229387547417 0 -67.898229387547417 154.2763529883232 0 0 0 0 -199.40419035747618 -21.743026409512822 0 -21.743026409512822 213.19387042304879 0 0 0 0 -201.00464380474352 43.885389074282386 0 43.885389074282386 118.93838785119442 0 0 0 0 -157.81106765564164 -27.659565598843983 0 -27.659565598843983 145.22210788367374 0 0 0 0 -302.59373212775245 87.280125960394798 0 87.280125960394798 269.45631933854384 0 0 0 0 -266.47449641141429 200.72556988502402 0 200.72556988502402 22.56160200850718 0 0 0 0 -48.513882559711234 24.212248875265814 0 24.212248875265814 70.802267020325701 0 0 0 0 -79.244431677251214 33.813101635591011 0 33.813101635591011 166.48340579970682 0 0 0 0 -160.9473818784918 -106.01724018881941 0 -106.01724018881941 223.40471482323483 0 0 0 0 -5.577614025174471 33.226083829174719 0 33.226083829174719 87.754875493805571 0 0 0 0 -167.86892657833596 62.375474849595776 0 62.375474849595776 126.06989898936081 0 0 0 0 -160.53337048270987 -4.2604576461453689 0 -4.2604576461453689 162.43376366679877 0 0 0 0 -106.25716090512128 74.21991948392315 0 74.21991948392315 41.378556766139809 0 0 0 0 -137.47748090430537 100.7031759308702 0 100.7031759308702 47.16682884626789 0 0 0 0 -54.466059188483996 154.1458209160337 0 154.1458209160337 10.918672987776517 0 0 0 0 -29.632302409251182 18.317761364373499 0 18.317761364373499 113.36391193820799 0 0 0 0 -9.4995557734748051 5.3438039996530335 0 5.3438039996530335 12.116261797692061 0 0 0 0 -19.61130637954102 -68.657220328983385 0 -68.657220328983385 205.49125132908375 0 0 0 0 -83.218756747279258 65.042730762344945 0 65.042730762344945 37.753272501169704 0 0 0 0 -297.82824391016402 659.7403313137329 0 659.7403313137329 -2.9685761176951928 0 0 0 0 -833.16184359485123 139.78789027372841 0 139.78789027372841 2105.8528495246137 0 0 0 0 -267.50229344017862 56.151382009986264 0 56.151382009986264 2326.1900159318902 0 0 0 0 1530.4485790033823 -336.68806007460807 0 -336.68806007460807 -643.18627611989359 0 0 0 0 -121.6698416079671 -780.54535098322231 0 -780.54535098322231 1956.5782060629354 0 0 0 0 -8.6164524027053915 -47.377331991136089 0 -47.377331991136089 166.17580485358485 0 0 0 0 -35.551917978043349 29.626684752996738 0 29.626684752996738 50.48100896739345 0 0 0 0 -8.7861017927772167 -26.639997510614819 0 -26.639997510614819 31.15976876030075 0 0 0 0 -72.71451123150473 -30.071731533826096 0 -30.071731533826096 69.800685602582234 0 0 0 0 -27.950963792478547 -9.7944581194096827 0 -9.7944581194096827 67.679325470497133 0 0 0 0 -34.231173905676016 5.5584621914388777 0 5.5584621914388777 22.343459143357279 0 0 0 0 -66.696262112293681 8.6121621347991777 0 8.6121621347991777 27.167300690382021 0 0 0 0 -71.286556248142006 -0.33278729127778206 0 -0.33278729127778206 70.662038379368823 0 0 0 0 -10.523226510198583 -20.62819783723171 0 -20.62819783723171 38.465901276744262 0 0 0 0 -4.7053818134002086 -17.034295172308703 0 -17.034295172308703 39.900285185489338 0 0 0 0 874.19045003692554 402.64484166036709 0 402.64484166036709 326.75919227860504 0 0 0 0 859.31710178566618 450.41646329370269 0 450.41646329370269 1830.9980278631592 0 0 0 0 -249.70361121099995 269.41400359565159 0 269.41400359565159 605.10907081339974 0 0 0 0 492.40820076358614 -12.350276865894557 0 -12.350276865894557 267.18684969601964 0 0 0 0 645.67337911227969 -698.62818648422399 0 -698.62818648422399 944.59378689260848 0 0 0 0 16.928767081790681 16.033366051374259 0 16.033366051374259 11.439199834607194 0 0 0 0 -1496.4462402445242 -468.69777349937067 0 -468.69777349937067 5083.859962548453 0 0 0 0 666.85286728059509 -29.24298142185944 0 -29.24298142185944 -395.25110352090269 0 0 0 0 1189.4716121265205 259.46972514860317 0 259.46972514860317 -906.47377513747779 0 0 0 0 1082.1136010572629 733.57303297411545 0 733.57303297411545 1732.4066672044864 0 0 0 0 13.645974510146985 -9.6988362259049552 0 -9.6988362259049552 5.8064759413199454 0 0 0 0 1067.7075535014264 -1956.6011254863115 0 -1956.6011254863115 -1239.5384285533219 0 0 0 0 411.11702935879293 -1516.802335447901 0 -1516.802335447901 -37.662561786477454 0 0 0 0 36.296444671865174 -558.61885478146723 0 -558.61885478146723 267.32840347015008 0 0 0 0 518.46876095389598 -1158.0013574152399 0 -1158.0013574152399 1012.3760764939652 0 0 0 0 1141.446969156641 -870.72601269681763 0 -870.72601269681763 -435.59133286114957 0 0 0 0 1115.4118169362882 -142.81458083828329 0 -142.81458083828329 426.56611004941078 0 0 0 0 511.23102467388162 -918.6266626942961 0 -918.6266626942961 1596.846093162334 0 0 0 0 -21.368331389228842 395.1684025359973 0 395.1684025359973 4374.7023358478327 0 0 0 0 518.76977615333999 -447.12527430885359 0 -447.12527430885359 183.50981999418582 0 0 0 0 2.2431791056875241 -2.8904276193453171 0 -2.8904276193453171 47.944738179877902 0 0 0 0 2450.0268370237463 -2958.6627054893434 0 -2958.6627054893434 3036.916052836692 0 0 0 0 -13.757263540988021 5.0304789597881481 0 5.0304789597881481 127.03139241254462 0 0 0 0 -394.26575549960398 -161.97570984077174 0 -161.97570984077174 691.62918495490158 0 0 0 0 265.49575970014121 -291.22315495229122 0 -291.22315495229122 154.8523417041506 0 0 0 0 -82.243170600634926 12.936383199491956 0 12.936383199491956 283.89308161409281 0 0 0 0 -12.153605701593023 -7.5790253595747359 0 -7.5790253595747359 30.9504741692312 0 0 0 0 -38.686865753617894 -217.39022197321174 0 -217.39022197321174 637.74625457535149 0 0 0 0 5.4330593184786267 73.582045821681277 0 73.582045821681277 1326.804280717377 0 0 0 0 242.61736367120102 294.80464918678626 0 294.80464918678626 571.95027196801493 0 0 0 0 326.51660661244023 586.77857584850517 0 586.77857584850517 1139.2367579425918 0 0 0 0 1259.3269433649439 2295.0161873984616 0 2295.0161873984616 2770.1159648324319 0 0 0 0 -1303.3680579927604 369.99644411951704 0 369.99644411951704 5577.0716132273665 0 0 0 0 -1043.2618049165649 258.21542779555421 0 258.21542779555421 3469.6063368035539 0 0 0 0 -1392.3492319358706 -1454.3215346753996 0 -1454.3215346753996 3503.4064082374534 0 0 0 0 -1337.1179289848769 -974.56587318676611 0 -974.56587318676611 5163.1381070040134 0 0 0 0 5188.2148649982555 515.30019957797413 0 515.30019957797413 1491.1901441463669 0 0 0 0 31.380602094146568 27.127981294455083 0 27.127981294455083 13.899557902354005 0 0 0 0 -1639.7693959349431 -2223.8005692417091 0 -2223.8005692417091 6115.9127720174874 0 0 0 0 -265.21118049392362 152.00795151847524 0 152.00795151847524 116.75447006821923 0 0 0 0 7.5508349060219189 44.193554974459403 0 44.193554974459403 144.28556466330338 0 0 0 0 -41.272444198913945 -104.19901651376858 0 -104.19901651376858 129.60741258112466 0 0 0 0 54.26284820659815 -39.222514685089493 0 -39.222514685089493 27.231934104204797 0 0 0 0 -69.324554111855832 -475.98939579448052 0 -475.98939579448052 1959.8337716535607 0 0 0 0 8.5580882854131559 14.806834565217713 0 14.806834565217713 19.784130570477615 0 0 0 0 408.3470440750234 190.67577496878221 0 190.67577496878221 -804.51582652554498 0 0 0 0 928.58831802632631 -647.36205305081239 0 -647.36205305081239 497.69006635762344 0 0 0 0 29.11137005495069 -7.748717078194943 0 -7.748717078194943 8.1379987158434375 0 0 0 0 3.817341896376881 -1.7848235239067805 0 -1.7848235239067805 10.88142571776757 0 0 0 0 68.020096019470657 -11.520350445571239 0 -11.520350445571239 3282.5554250895366 0 0 0 0 79.456488750409335 -563.82716403863014 0 -563.82716403863014 2363.872420561529 0 0 0 0 102.37549130727348 -701.68517428711493 0 -701.68517428711493 2718.5204728482713 0 0 0 0 851.71692176538818 -276.85583076896728 0 -276.85583076896728 1776.4800423649285 0 0 0 0 54.094167141907747 106.16569315734159 0 106.16569315734159 1833.3445731939137 0 0 0 0 -669.95408921544731 -1019.7614671723859 0 -1019.7614671723859 2119.9452505035842 0 0 0 0 -384.65962202270384 -240.92826434437302 0 -240.92826434437302 2366.4911841929202 0 0 0 0 -687.46759523546643 -84.37812493549427 0 -84.37812493549427 2461.1276470191588 0 0 0 0 -497.02360721205514 625.09710300004008 0 625.09710300004008 2336.5115807487819 0 0 0 0 -108.86003207122485 371.93266959968605 0 371.93266959968605 866.59240728377699 0 0 0 0 3.9052124264900243 -4.2085318956919409 0 -4.2085318956919409 -5.0910368740780143 0 0 0 0 -282.97790198812072 503.91930282101384 0 503.91930282101384 -218.3905039907404 0 0 0 0 -238.82585301687936 233.22436559849757 0 233.22436559849757 888.47833335355972 0 0 0 0 -6.0215353335206601 207.84568935737479 0 207.84568935737479 464.65403032206905 0 0 0 0 -104.42679337895606 196.875503186282 0 196.875503186282 1041.7572213498388 0 0 0 0 -19.817054827719403 260.18771177199051 0 260.18771177199051 884.91450437600724 0 0 0 0 85.694626090138627 380.70013519253553 0 380.70013519253553 1133.5653950010455 0 0 0 0 -147.33845803161512 252.80312104017867 0 252.80312104017867 1600.4933918435272 0 0 0 0 190.87455290527487 46.932010671233002 0 46.932010671233002 1573.0281526647159 0 0 0 0 3.0429309445135004 256.31421145286731 0 256.31421145286731 1458.0365290799473 0 0 0 0 15.928356382155215 495.02847705976251 0 495.02847705976251 1317.5585903625324 0 0 0 0 -11.920627308264557 268.49652248312486 0 268.49652248312486 934.83305380457023 0 0 0 0 -161.28053534045603 443.23754211425148 0 443.23754211425148 1224.331674234345 0 0 0 0 -154.1172009752845 156.8157702321696 0 156.8157702321696 983.26014996482991 0 0 0 0 -345.77119586936828 511.71708787770331 0 511.71708787770331 1413.8943459251605 0 0 0 0 -211.00967129382479 371.94802199526021 0 371.94802199526021 1123.3319645353258 0 0 0 0 -1.9924103973398815 439.51521957527075 0 439.51521957527075 1215.0742349942739 0 0 0 0 -116.87483104208059 751.94687836139565 0 751.94687836139565 1410.5767275800026 0 0 0 0 -77.641175692213096 652.01081419177353 0 652.01081419177353 1114.41037605975 0 0 0 0 184.78645624777801 355.97685076411017 0 355.97685076411017 887.51658190885792 0 0 0 0 -55.781163457259481 522.69482020603391 0 522.69482020603391 1204.5674034121221 0 0 0 0 10.904128139055501 96.649612067223643 0 96.649612067223643 1070.0561146019754 0 0 0 0 106.22586302364425 246.30120028284909 0 246.30120028284909 1550.3105801972852 0 0 0 0 271.43396840447167 353.22217385915428 0 353.22217385915428 1269.9955695342815 0 0 0 0 299.91413274492697 112.51346458895569 0 112.51346458895569 1406.5964399256482 0 0 0 0 304.39519659245343 -50.54880041393335 0 -50.54880041393335 1308.2077715683627 0 0 0 0 300.22268527842971 66.551071321755444 0 66.551071321755444 2205.189875385593 0 0 0 0 10.384916356693793 -643.48199511136772 0 -643.48199511136772 2287.6530395650434 0 0 0 0 103.05580480841945 -686.55432758606912 0 -686.55432758606912 1646.3761165221513 0 0 0 0 298.97277037985077 -1146.662210136099 0 -1146.662210136099 2059.6574897003957 0 0 0 0 817.61283120034659 -1016.7676590508709 0 -1016.7676590508709 880.09229525177943 0 0 0 0 313.18414427583446 -22.84359246097938 0 -22.84359246097938 698.36606549053977 0 0 0 0 454.44573764934466 -473.19980024111283 0 -473.19980024111283 1775.050021102732 0 0 0 0 249.30144555073002 700.82135538426519 0 700.82135538426519 -1629.3568755775673 0 0 0 0 9.1714503672870933 -1.1655843645265378 0 -1.1655843645265378 -1.2970549915013123 0 0 0 0 447.89381362675527 -300.72948571303868 0 -300.72948571303868 -306.0396779857474 0 0 0 0 -1.6339361794615854 -3.6063387753581324 0 -3.6063387753581324 -10.922629328798507 0 0 0 0 -983.45775954271267 -88.37722120458784 0 -88.37722120458784 -1567.0234317383001 0 0 0 0 530.69532952157897 441.15856482106756 0 441.15856482106756 -2076.5296054304636 0 0 0 0 614.27832533006654 109.23899744376649 0 109.23899744376649 -776.49550404876936 0 0 0 0 371.93415122061867 -919.50944540317141 0 -919.50944540317141 -58.651935690053506 0 0 0 0 449.60910605451681 -167.12058302869264 0 -167.12058302869264 -1009.1130122807517 0 0 0 0 518.92337443313227 -923.11464075186814 0 -923.11464075186814 -1212.2033263108351 0 0 0 0 302.17708955527382 -784.95489195214395 0 -784.95489195214395 268.66461851711938 0 0 0 0 809.05402837489123 -1434.2508268190659 0 -1434.2508268190659 888.33306129081757 0 0 0 0 475.88887976171736 -633.50965057012581 0 -633.50965057012581 368.48556842713151 0 0 0 0 -3.5817526745780608 -25.97462916580271 0 -25.97462916580271 -17.745734097522472 0 0 0 0 1159.5853836349015 -262.0468012117035 0 -262.0468012117035 317.61329683056101 0 0 0 0 4890.4387779927592 -2360.2482950354588 0 -2360.2482950354588 985.39498672329501 0 0 0 0 8.3860278260088013 -13.148595700267279 0 -13.148595700267279 17.196240510000365 0 0 0 0 21.947874561395142 -1944.5904950206095 0 -1944.5904950206095 2960.783923848925 0 0 0 0 1535.2375286619088 -3792.6388813768135 0 -3792.6388813768135 4991.3739913508398 0 0 0 0 1939.8361999541974 -2065.3352466299602 0 -2065.3352466299602 1578.3418486879527 0 0 0 0 -163.9445555572114 -1156.0493755385251 0 -1156.0493755385251 2626.3964903518081 0 0 0 0 56.103949213172434 -2030.8943138017876 0 -2030.8943138017876 2986.5683855887146 0 0 0 0 -700.28039532390278 -1901.7847193922335 0 -1901.7847193922335 5001.0265712121945 0 0 0 0 -662.98915285216003 -1467.8894592565066 0 -1467.8894592565066 3506.7791721475878 0 0 0 0 -514.9692990079725 -1077.8785214813997 0 -1077.8785214813997 3728.9010752997419 0 0 0 0 -11.756764515036366 -363.59091053795419 0 -363.59091053795419 1672.6888577281911 0 0 0 0 -63.320025323683694 -1159.3914361179632 0 -1159.3914361179632 1734.805198840244 0 0 0 0 123.72853147734338 -509.00860210784595 0 -509.00860210784595 603.68665586975476 0 0 0 0 414.34589905155474 -698.74671110580448 0 -698.74671110580448 98.007763100031298 0 0 0 0 412.75887607202117 -405.51627769892252 0 -405.51627769892252 -17.669831275285105 0 0 0 0 392.48594181845897 -330.96584045885538 0 -330.96584045885538 15.112486973608611 0 0 0 0 33.190199342722337 149.24466095531534 0 149.24466095531534 -497.32533711350698 0 0 0 0 -115.43792014284412 -250.65513776874104 0 -250.65513776874104 227.20235056683305 0 0 0 0 126.57709431658168 -116.43505834779899 0 -116.43505834779899 85.112644241591624 0 0 0 0 258.74501146675834 -523.17736697021064 0 -523.17736697021064 -129.43885932968988 0 0 0 0 89.8928085448415 -582.04149984547985 0 -582.04149984547985 1764.1794368083283 0 0 0 0 40.410461023324459 -33.99836508681723 0 -33.99836508681723 23.405446628230706 0 0 0 0 -424.21551054279564 -133.30659375759933 0 -133.30659375759933 2030.8420158620575 0 0 0 0 -307.93234818748533 -344.7680229101461 0 -344.7680229101461 -55.903112703032093 0 0 0 0 -421.83865043146739 185.69606566969196 0 185.69606566969196 327.42551738809561 0 0 0 0 -6.3911184292272765 358.28348848178211 0 358.28348848178211 2366.8044666425922 0 0 0 0 -472.8935554870435 -452.10223995639353 0 -452.10223995639353 4124.7648478323317 0 0 0 0 -175.88009220476033 -586.38514003434102 0 -586.38514003434102 1912.4002519113565 0 0 0 0 -721.86268788201346 -1453.9164684896969 0 -1453.9164684896969 4913.2798197781522 0 0 0 0 -294.15959855844943 -1230.9932236275636 0 -1230.9932236275636 4999.4551848233423 0 0 0 0 195.07934801075223 -1464.0076555781925 0 -1464.0076555781925 4787.6850848815229 0 0 0 0 461.36394559387372 -1071.4910340019851 0 -1071.4910340019851 4708.7693975097791 0 0 0 0 -30.210929056303542 -1567.0127828703844 0 -1567.0127828703844 4209.3083571941388 0 0 0 0 808.259321175011 -1340.5477649775203 0 -1340.5477649775203 4715.7123854490928 0 0 0 0 1717.5231044940456 -569.2497497373115 0 -569.2497497373115 3588.7619149872953 0 0 0 0 2116.0887779942641 -1640.9260482421669 0 -1640.9260482421669 4783.0371423511679 0 0 0 0 830.05708250087787 -1042.7481432442219 0 -1042.7481432442219 4998.7119461913389 0 0 0 0 1582.6522794443713 -1053.0581860907005 0 -1053.0581860907005 4642.3365379184252 0 0 0 0 1311.8492959367659 -280.70748924726649 0 -280.70748924726649 4455.6317705537513 0 0 0 0 135.35381012268334 -434.11452909510444 0 -434.11452909510444 6620.8560866341431 0 0 0 0 16.502488701029275 -13.090865309163647 0 -13.090865309163647 12.033869387072784 0 0 0 0 1253.7051362481525 -733.64195858165476 0 -733.64195858165476 -635.43919630763412 0 0 0 0 2145.606911510904 -2308.7712946607026 0 -2308.7712946607026 1447.978859816365 0 0 0 0 791.91997427789192 -478.02612063572451 0 -478.02612063572451 1249.3486978410729 0 0 0 0 -26.438981696725023 943.55406128033974 0 943.55406128033974 1221.5923564443083 0 0 0 0 -395.11964397241718 -506.27913207120082 0 -506.27913207120082 2283.5885526636303 0 0 0 0 -546.78551154000525 -437.07997615653721 0 -437.07997615653721 3349.7537041903297 0 0 0 0 -240.37607596615271 51.263801038881866 0 51.263801038881866 2735.4165953256525 0 0 0 0 -397.57325628731979 -3078.372178401668 0 -3078.372178401668 2504.3152473397513 0 0 0 0 -196.63785573279529 688.20525585618316 0 688.20525585618316 3037.696803041862 0 0 0 0 465.57948333250272 -1588.541576542736 0 -1588.541576542736 4536.229294285371 0 0 0 0 1.7093822737055353 -14.177572777458998 0 -14.177572777458998 58.672382937848326 0 0 0 0 -136.66516006988604 -1524.4163646787649 0 -1524.4163646787649 5798.4691962635543 0 0 0 0 2134.5159284196889 -758.03510611509773 0 -758.03510611509773 -948.84837501388392 0 0 0 0 716.06423470407026 -2365.4857200895804 0 -2365.4857200895804 2915.2769301890194 0 0 0 0 277.08851130456554 12.550502300971402 0 12.550502300971402 96.362861814079224 0 0 0 0 1627.0973951570923 -5420.5338419779309 0 -5420.5338419779309 6018.1537796428765 0 0 0 0 6619.4449707403401 -7626.9291261621065 0 -7626.9291261621065 734.77880545052176 0 0 0 0 5063.4404760032339 -3763.8417606738967 0 -3763.8417606738967 -2217.9017968825628 0 0 0 0 290.21686545080411 49.373851421324161 0 49.373851421324161 35.799037485332519 0 0 0 0 333.5165808880156 -82.804478717866914 0 -82.804478717866914 494.78236716793799 0 0 0 0 14.098418711018894 -600.28173741670616 0 -600.28173741670616 1393.0543278210098 0 0 0 0 25.356628665161683 47.273136914840904 0 47.273136914840904 83.58712743558138 0 0 0 0 73.093776803871151 -859.34313014900727 0 -859.34313014900727 1313.5081305550261 0 0 0 0 770.16086541075947 -2148.2982279513903 0 -2148.2982279513903 2636.0108201602106 0 0 0 0 -197.18398671305658 -510.72899417542112 0 -510.72899417542112 1701.6813336541018 0 0 0 0 -164.97994355011906 -756.34033497843166 0 -756.34033497843166 2422.6896422206664 0 0 0 0 -0.85037422546702146 -411.54468082130143 0 -411.54468082130143 1193.9331127763521 0 0 0 0 39.499913569540695 -735.17994841819677 0 -735.17994841819677 1476.5566716035009 0 0 0 0 110.44692351025333 -304.61682680454214 0 -304.61682680454214 1478.9681118690123 0 0 0 0 -40.50644277964966 -525.78147565730933 0 -525.78147565730933 1334.9876027417863 0 0 0 0 130.91895141766531 -392.11818371514107 0 -392.11818371514107 1505.6288750806762 0 0 0 0 384.15854762415438 -124.66260355682971 0 -124.66260355682971 1347.4636358260627 0 0 0 0 -171.51652989378908 -455.34398727644157 0 -455.34398727644157 1766.816229914496 0 0 0 0 702.18638781967229 -69.28072923216132 0 -69.28072923216132 1318.0162508840622 0 0 0 0 264.23206574186406 -105.84492560789204 0 -105.84492560789204 1783.7223899110677 0 0 0 0 224.05075055651105 -35.552217630187442 0 -35.552217630187442 2539.3530285017732 0 0 0 0 993.95362112456405 316.81673655579743 0 316.81673655579743 1388.1127818872374 0 0 0 0 265.85038403632461 -522.25253231995885 0 -522.25253231995885 2067.3387449529728 0 0 0 0 1.573815749410187 6.7063417543241375 0 6.7063417543241375 16.0396345935584 0 0 0 0 440.4135797350541 -82.546640755656426 0 -82.546640755656426 -410.60003601049812 0 0 0 0 225.72285330986597 -857.74768576291717 0 -857.74768576291717 2503.4427939864941 0 0 0 0 -12.977767095315357 -391.62053737701444 0 -391.62053737701444 1791.2065907906094 0 0 0 0 -234.95606324755465 108.26893157995113 0 108.26893157995113 1360.9587815778486 0 0 0 0 47.13042538766058 -554.69083555103862 0 -554.69083555103862 2131.8570005280271 0 0 0 0 287.47389605285025 142.09186566625158 0 142.09186566625158 1341.8712653481398 0 0 0 0 370.3274988800631 468.47274687152594 0 468.47274687152594 709.00987315803104 0 0 0 0 1041.506472868663 304.23562767333624 0 304.23562767333624 153.86436976835262 0 0 0 0 301.21185214252409 -184.83959809287899 0 -184.83959809287899 36.648317023764321 0 0 0 0 114.57263015433432 -389.36790601155963 0 -389.36790601155963 326.88946891090291 0 0 0 0 -0.51384314553976118 -1.1161295114563039 0 -1.1161295114563039 9.7121883237642876 0 0 0 0 507.22977381546741 524.59401421982307 0 524.59401421982307 393.1520029761914 0 0 0 0 450.4833824267298 10.752102881714563 0 10.752102881714563 -7.2215768034134271 0 0 0 0 124.49181447887941 -388.01723565514794 0 -388.01723565514794 351.35591284147631 0 0 0 0 -782.3305117607797 -331.74406331871069 0 -331.74406331871069 469.46581757162312 0 0 0 0 -1.0935493672234209 -21.616749737950649 0 -21.616749737950649 146.65327645938703 0 0 0 0 -76.747730130458876 -246.44192962317197 0 -246.44192962317197 -166.2944134434656 0 0 0 0 346.2446472900474 552.24483600947497 0 552.24483600947497 33.014677219307487 0 0 0 0 420.5585124073977 434.86043565431009 0 434.86043565431009 -535.81625560502289 0 0 0 0 -3494.3477029752776 -1122.4660337352543 0 -1122.4660337352543 1857.0830845019009 0 0 0 0 2255.498604121447 -2452.7363328941128 0 -2452.7363328941128 1319.9944313521905 0 0 0 0 494.86819586788334 491.15423190373258 0 491.15423190373258 458.70785897518363 0 0 0 0 382.22214739519359 -1523.2099776440846 0 -1523.2099776440846 2175.3720882997004 0 0 0 0 575.32106753362336 -2744.4702081452215 0 -2744.4702081452215 2939.8371685663442 0 0 0 0 2.2155928609186004 -8.6139503457965105 0 -8.6139503457965105 39.595432808848528 0 0 0 0 298.06231677167216 -1371.1999960704352 0 -1371.1999960704352 -944.15032916914424 0 0 0 0 -4.1558906405751861 1.6125905443026269 0 1.6125905443026269 22.30801425620966 0 0 0 0 1801.4858453417003 -3347.663541352189 0 -3347.663541352189 3229.2646247065259 0 0 0 0 -329.26171935066395 630.52578140555488 0 630.52578140555488 1697.6982386669115 0 0 0 0 -384.27937913112441 608.14495275724403 0 608.14495275724403 2386.7956238676707 0 0 0 0 280.663005994824 1324.7212281352477 0 1324.7212281352477 1564.920618122138 0 0 0 0 1091.7243953263662 1858.2942280129864 0 1858.2942280129864 2417.1364895011648 0 0 0 0 409.11295921099781 430.94318311182724 0 430.94318311182724 240.57972985033848 0 0 0 0 540.66513827506913 857.03987862928261 0 857.03987862928261 602.57343792301253 0 0 0 0 -120.7815198938099 721.18523368116439 0 721.18523368116439 1054.5212417884686 0 0 0 0 -44.628101947144387 800.89450205583125 0 800.89450205583125 985.56121896552213 0 0 0 0 -342.51717109814797 545.44132364488178 0 545.44132364488178 677.21434897855943 0 0 0 0 -97.594365275334894 376.31841334411001 0 376.31841334411001 733.94839277740175 0 0 0 0 0.31065807873165729 -20.168972377062975 0 -20.168972377062975 95.120129342289161 0 0 0 0 -2108.8068066578153 -342.56509259694758 0 -342.56509259694758 368.08516604558099 0 0 0 0 -782.4504449954145 -74.905274121916591 0 -74.905274121916591 542.83539793644195 0 0 0 0 13.31344730945284 149.9544804419711 0 149.9544804419711 -3.7353189964414923 0 0 0 0 -772.51839679746331 -792.67635519647592 0 -792.67635519647592 286.54928087081862 0 0 0 0 656.96016087971032 -363.17493726222528 0 -363.17493726222528 44.099045718310663 0 0 0 0 6.8766569869268412 27.165126787551007 0 27.165126787551007 65.430615640346744 0 0 0 0 592.094204894477 220.15687329433968 0 220.15687329433968 -305.76200563494422 0 0 0 0 -991.10473962110973 624.42493718447622 0 624.42493718447622 148.06195908687641 0 0 0 0 -677.81646917446028 -122.41375221939779 0 -122.41375221939779 -131.7153782182213 0 0 0 0 124.34608446326342 -50.868198974681945 0 -50.868198974681945 31.26158135352307 0 0 0 0 178.060245088908 32.870704010594636 0 32.870704010594636 146.20533038618578 0 0 0 0 -210.07665052269363 425.68034349611298 0 425.68034349611298 -12.068875276478138 0 0 0 0 173.24405165149756 176.01159122780882 0 176.01159122780882 25.518979875116202 0 0 0 0 240.51102569005127 57.754059007882461 0 57.754059007882461 -47.97916864988656 0 0 0 0 -159.39403709573196 -37.676911486392783 0 -37.676911486392783 65.544923244382517 0 0 0 0 -536.5709434033904 186.49053856165847 0 186.49053856165847 80.119069458593913 0 0 0 0 -341.79012026906901 -174.45936789924599 0 -174.45936789924599 178.45814006734508 0 0 0 0 -2.9617972523196823 -13.972630187887809 0 -13.972630187887809 22.372803372166093 0 0 0 0 69.317923776951972 276.53291947745356 0 276.53291947745356 172.06168554362375 0 0 0 0 -261.34277395070058 -58.604665566044787 0 -58.604665566044787 312.47493060963461 0 0 0 0 1.4722675839110433 -24.584439110482641 0 -24.584439110482641 113.80393390172205 0 0 0 0 -1036.8177770594411 -348.82274392937325 0 -348.82274392937325 61.711754232284875 0 0 0 0 -537.59483830355032 -2.3186519391019829 0 -2.3186519391019829 87.048302923891015 0 0 0 0 -130.90030309984286 -334.61094094648797 0 -334.61094094648797 -185.81978912988052 0 0 0 0 1.3367713634774221 -26.23089432901412 0 -26.23089432901412 113.7041015075441 0 0 0 0 -954.58570993544924 -305.71854512190748 0 -305.71854512190748 212.60397514414217 0 0 0 0 -357.93925642838207 -227.01892810319805 0 -227.01892810319805 -11.098335960550685 0 0 0 0 -389.58328840436423 110.04685806604863 0 110.04685806604863 296.03789019012765 0 0 0 0 -564.55587278768974 1658.131036997268 0 1658.131036997268 4992.3606828407901 0 0 0 0 4.4435475209167876 -4.2956740290918596 0 -4.2956740290918596 19.942224495795557 0 0 0 0 13.307318252253129 -66.433602803735084 0 -66.433602803735084 4967.0436942218366 0 0 0 0 265.32550998656649 2297.6266346152697 0 2297.6266346152697 2436.4587840500571 0 0 0 0 -174.06379228241525 491.75242242344757 0 491.75242242344757 3101.6722070905698 0 0 0 0 -2.6478661751884029 -3.6923046444724363 0 -3.6923046444724363 12.651985579582572 0 0 0 0 94.914272115131013 1844.5108212339965 0 1844.5108212339965 5007.3658277245595 0 0 0 0 156.44288580283467 1673.7601847147696 0 1673.7601847147696 5000.3092657048437 0 0 0 0 -409.65192871588175 528.90660036806912 0 528.90660036806912 3119.0877283719965 0 0 0 0 -733.71647273525809 385.93306354578726 0 385.93306354578726 4998.3596054340796 0 0 0 0 -424.44118690630808 12.585109669822941 0 12.585109669822941 3615.8872575029936 0 0 0 0 -316.25446708720955 -255.18357731265951 0 -255.18357731265951 3579.5604278172177 0 0 0 0 33.351875360993404 276.6724842890435 0 276.6724842890435 1113.4516844153368 0 0 0 0 5.488573480118033 -11.812671780713828 0 -11.812671780713828 38.366310197644928 0 0 0 0 -10.4726043143026 300.89843437088814 0 300.89843437088814 898.00319847488754 0 0 0 0 179.99552907126315 -361.80094432443639 0 -361.80094432443639 819.82574470155987 0 0 0 0 130.74950082980649 -631.46106142742178 0 -631.46106142742178 819.37986294140774 0 0 0 0 1.3037457530528727 10.359756255791927 0 10.359756255791927 26.271833841019269 0 0 0 0 248.33683463274804 34.951229920181504 0 34.951229920181504 132.06709764497646 0 0 0 0 196.30923123949685 114.43527192325564 0 114.43527192325564 151.13173305468808 0 0 0 0 217.27337200833699 83.440976514670183 0 83.440976514670183 73.400280123689299 0 0 0 0 993.78524482364719 229.13607175779111 0 229.13607175779111 936.35208551775577 0 0 0 0 563.56144874990605 76.347048344452787 0 76.347048344452787 1067.701799693418 0 0 0 0 1176.7312170243385 -242.13718499981405 0 -242.13718499981405 912.71632611673033 0 0 0 0 647.73637123556182 -211.00637750362944 0 -211.00637750362944 949.15057381726456 0 0 0 0 280.54031599293194 142.18549865090765 0 142.18549865090765 299.29180465017549 0 0 0 0 293.39102168253521 -386.75864648557263 0 -386.75864648557263 788.41354512214366 0 0 0 0 309.65500830912788 -54.488461886106052 0 -54.488461886106052 834.24428985885288 0 0 0 0 291.038683434841 -373.853488826888 0 -373.853488826888 -4.8325322408204556 0 0 0 0 552.87780576186924 -73.556327747645355 0 -73.556327747645355 420.92621174583246 0 0 0 0 226.92323549659477 -68.916753386585839 0 -68.916753386585839 481.59530236924047 0 0 0 0 21.347105323813064 24.218890863680521 0 24.218890863680521 42.507554707381715 0 0 0 0 790.48060704438831 -142.87249069420204 0 -142.87249069420204 53.067187415357296 0 0 0 0 938.68633805959325 15.673126975220725 0 15.673126975220725 196.86555981125684 0 0 0 0 10.669936928148656 10.5720164346045 0 10.5720164346045 15.01483101746242 0 0 0 0 2537.5483203127387 242.17765557230064 0 242.17765557230064 23.912675472759105 0 0 0 0 303.92800145167735 -813.43993934303307 0 -813.43993934303307 1092.1345867540258 0 0 0 0 222.79844181899739 -989.79179392792958 0 -989.79179392792958 4066.0652642840942 0 0 0 0 -262.84194526952689 -472.98553373738696 0 -472.98553373738696 5003.0661487754878 0 0 0 0 1340.3926224667071 -1019.7885918537158 0 -1019.7885918537158 4986.3706928690117 0 0 0 0 1223.1246445643828 -237.55997224060411 0 -237.55997224060411 3989.7216707177704 0 0 0 0 289.25321907849951 -2549.964644113024 0 -2549.964644113024 3234.6757616954987 0 0 0 0 -704.64375662978603 921.66883167349533 0 921.66883167349533 4991.0757106868386 0 0 0 0 -453.74158541424089 1781.3045047660003 0 1781.3045047660003 3194.1873755405013 0 0 0 0 -0.18671528455618072 -1.0731791429455504 0 -1.0731791429455504 20.636039292686956 0 0 0 0 566.09367059163924 -413.59085424070963 0 -413.59085424070963 -235.30299773026445 0 0 0 0 247.98067455432951 -1233.9456080879436 0 -1233.9456080879436 -36.293878912601713 0 0 0 0 1353.3838472151863 1557.3439789051943 0 1557.3439789051943 819.81904986428822 0 0 0 0 1637.0564022946348 523.65605434072404 0 523.65605434072404 5001.7822553839978 0 0 0 0 933.50586961163185 1561.0073871188956 0 1561.0073871188956 4372.6930986066418 0 0 0 0 862.85244809371216 -1187.1028124178474 0 -1187.1028124178474 1164.0939388431234 0 0 0 0 10.107551957116783 -522.80710470480335 0 -522.80710470480335 4434.7588904907661 0 0 0 0 596.58954632637324 -257.4633768810213 0 -257.4633768810213 494.43149222272586 0 0 0 0 6.3658862775387384 -5.3350496914929249 0 -5.3350496914929249 27.536550399037687 0 0 0 0 1003.6437071981592 -389.89834895264084 0 -389.89834895264084 83.921542822792617 0 0 0 0 2658.2379382998674 2052.3849960668922 0 2052.3849960668922 1639.5620511966845 0 0 0 0 587.36573394858988 2037.4676116318969 0 2037.4676116318969 5096.5845336379534 0 0 0 0 -3.5202038079660269 20.186089107233784 0 20.186089107233784 78.185646934831311 0 0 0 0 -27.616749586049806 -15.87385743320409 0 -15.87385743320409 39.564315734092567 0 0 0 0 0.28287175090565153 -4.4947101581894167 0 -4.4947101581894167 5.5977069059789173 0 0 0 0 71.034783794302712 449.15297237969025 0 449.15297237969025 45.600837489983633 0 0 0 0 -10.373997279111528 14.068257166596245 0 14.068257166596245 46.683122073188287 0 0 0 0 -581.46726125890314 -602.45858437598417 0 -602.45858437598417 255.60685047915467 0 0 0 0 21.081362331384341 -279.39625792032126 0 -279.39625792032126 150.14696365258715 0 0 0 0 -176.4764068089936 130.31421396487804 0 130.31421396487804 -530.0576033942707 0 0 0 0 70.461404943282105 -104.98627478348862 0 -104.98627478348862 462.97332605577685 0 0 0 0 574.88074722568501 -659.75650161292515 0 -659.75650161292515 174.25717739993343 0 0 0 0 83.43556656730803 -1307.039699848779 0 -1307.039699848779 807.01571169406816 0 0 0 0 6.6104347561084555 9.3926688944691641 0 9.3926688944691641 16.519693613602612 0 0 0 0 83.918609998412222 926.57561361236367 0 926.57561361236367 -429.52157803576847 0 0 0 0 -782.08656302102531 537.84550369770977 0 537.84550369770977 -325.62337436789448 0 0 0 0 -1128.2109388137924 666.88898060902693 0 666.88898060902693 802.70224316272834 0 0 0 0 -96.162590705254672 -629.05285213003299 0 -629.05285213003299 -184.11242545236473 0 0 0 0 -0.23684747243581716 -3.7167176692142476 0 -3.7167176692142476 7.7425066447137212 0 0 0 0 12.943010461269296 -136.65430452348983 0 -136.65430452348983 -684.3199670083095 0 0 0 0 -163.42128074203228 -135.59471838844911 0 -135.59471838844911 -532.31089489576334 0 0 0 0 -0.17400268731350838 -0.28309536929402451 0 -0.28309536929402451 20.55827074063038 0 0 0 0 -516.21594633586994 1028.0928878811792 0 1028.0928878811792 1058.6819254640852 0 0 0 0 285.41982824566827 -1541.6916115190625 0 -1541.6916115190625 583.27101025542197 0 0 0 0 268.62048904330732 -1085.1097876476351 0 -1085.1097876476351 1015.569267265339 0 0 0 0 -424.19422194845151 -711.91271206484998 0 -711.91271206484998 342.81704409419808 0 0 0 0 -321.01489563488605 -1297.8735366487808 0 -1297.8735366487808 1874.8978726777932 0 0 0 0 1491.3707424923984 -118.95186765446789 0 -118.95186765446789 -901.9264893579184 0 0 0 0 -1092.4907345873403 97.777883944789664 0 97.777883944789664 1643.7907299769513 0 0 0 0 1005.7762978413314 139.52414218144258 0 139.52414218144258 1458.6884711176681 0 0 0 0 1395.4821132003613 -344.09783385820811 0 -344.09783385820811 958.20144538636077 0 0 0 0 1271.0577575822581 -133.43253230870619 0 -133.43253230870619 604.38702949390427 0 0 0 0 877.5367888128967 1663.1399745981453 0 1663.1399745981453 2298.4352562340209 0 0 0 0 967.55088668035182 318.80823465852836 0 318.80823465852836 2993.2477046552012 0 0 0 0 1017.6466476411697 803.66586305344754 0 803.66586305344754 347.39280809531692 0 0 0 0 18.24343910325981 10.415474020971061 0 10.415474020971061 10.023484076703838 0 0 0 0 -1727.8470223792219 887.46761187528318 0 887.46761187528318 3333.9044348491761 0 0 0 0 -779.3816927249236 2546.1457929724711 0 2546.1457929724711 4074.5746048538022 0 0 0 0 1706.0412970401558 1046.5951803370081 0 1046.5951803370081 3359.4363422294073 0 0 0 0 47.104543438283144 211.11721473573198 0 211.11721473573198 -115.30023903958499 0 0 0 0 88.687249096677078 15.488894664871832 0 15.488894664871832 5.602815428214404 0 0 0 0 -467.14414269523513 592.78661878861385 0 592.78661878861385 3549.0967268691929 0 0 0 0 985.02812023977413 1669.8621575201532 0 1669.8621575201532 -154.40954496490849 0 0 0 0 7.8656879772113486 9.8709610839412214 0 9.8709610839412214 9.7587565930237297 0 0 0 0 821.20439030494776 504.60870845387581 0 504.60870845387581 -594.87306747133971 0 0 0 0 -99.796149627656632 -761.23176498755674 0 -761.23176498755674 1545.6099251007618 0 0 0 0 440.42590793061618 -134.47206711006538 0 -134.47206711006538 613.38766413053963 0 0 0 0 769.69731138230782 422.3337408845855 0 422.3337408845855 -208.62144101470767 0 0 0 0 786.93438739339263 1487.8869804479782 0 1487.8869804479782 2081.9095724096023 0 0 0 0 26.069360697538848 -2.0366440008579474 0 -2.0366440008579474 2.8539957824332287 0 0 0 0 -770.99897915677457 380.15489775128572 0 380.15489775128572 4947.7010156228207 0 0 0 0 -124.59530970667038 91.618223247838614 0 91.618223247838614 77.338542763660371 0 0 0 0 525.79272498322462 164.81347263723001 0 164.81347263723001 -791.5249725755225 0 0 0 0 9.8964059976860881 169.1164707134667 0 169.1164707134667 87.949430491597013 0 0 0 0 892.54924392360817 694.16038409500106 0 694.16038409500106 -116.06045637677744 0 0 0 0 69.185599897393331 312.99365367364226 0 312.99365367364226 649.33753564208018 0 0 0 0 14.95170578856596 29.76359226409113 0 29.76359226409113 392.38280723044591 0 0 0 0 16.194276786607588 58.827386794757331 0 58.827386794757331 786.68433011676098 0 0 0 0 137.90631872036141 221.63730596031382 0 221.63730596031382 537.79253362308373 0 0 0 0 -106.60991888787248 201.93927797890137 0 201.93927797890137 302.40236692841427 0 0 0 0 79.013424010285235 312.84253652033203 0 312.84253652033203 363.41388222447131 0 0 0 0 -69.748999583491241 50.107381943962537 0 50.107381943962537 503.69671662890687 0 0 0 0 -97.642818767713834 107.88418038943928 0 107.88418038943928 390.17283545513055 0 0 0 0 -105.33727531511977 77.342335189561709 0 77.342335189561709 292.21721514439059 0 0 0 0 -80.204292665439425 136.09445344574488 0 136.09445344574488 181.9716004076472 0 0 0 0 -123.73611925721343 97.424422551426687 0 97.424422551426687 224.07489158596945 0 0 0 0 -352.59627951302957 50.771280067927364 0 50.771280067927364 331.09905992632957 0 0 0 0 -38.336750232724988 34.016567563341276 0 34.016567563341276 125.99174743014764 0 0 0 0 128.66631336586943 114.53172446725785 0 114.53172446725785 -12.880195335463213 0 0 0 0 -470.0768386707955 -147.81014482325008 0 -147.81014482325008 259.56382308350749 0 0 0 0 -29.572825449596174 48.01160098061856 0 48.01160098061856 88.911308062180993 0 0 0 0 -135.09055482818508 213.29883636303202 0 213.29883636303202 106.74843713385053 0 0 0 0 -89.519291910964967 158.37653324421626 0 158.37653324421626 139.02936731593218 0 0 0 0 291.96436314363382 243.50463282456622 0 243.50463282456622 154.98887833813933 0 0 0 0 121.566253168412 208.95588622732612 0 208.95588622732612 252.96065307810204 0 0 0 0 112.39928490073271 251.68359205332308 0 251.68359205332308 140.06662616660469 0 0 0 0 187.32768973131169 289.79199363037333 0 289.79199363037333 198.12380152142578 0 0 0 0 -105.09537044073394 67.126807032830783 0 67.126807032830783 120.23198531136302 0 0 0 0 -1100.1365870676891 105.90016048713733 0 105.90016048713733 1181.7421390246855 0 0 0 0 1610.1140705274993 794.72612595380997 0 794.72612595380997 173.53791663084849 0 0 0 0 443.55249163977714 978.0740294622301 0 978.0740294622301 550.85818616965116 0 0 0 0 235.61823520421694 564.71920245995898 0 564.71920245995898 1585.469586909865 0 0 0 0 420.67316079199554 1443.8136125396159 0 1443.8136125396159 2437.1554014837998 0 0 0 0 913.52794690566111 1187.5418112568734 0 1187.5418112568734 641.94121907189401 0 0 0 0 281.63615628516891 1246.4538875905973 0 1246.4538875905973 1196.6842974368374 0 0 0 0 -1330.9257088088852 -539.89917968519694 0 -539.89917968519694 330.31382564233968 0 0 0 0 -89.06730131433693 43.50326391746124 0 43.50326391746124 152.4784226017681 0 0 0 0 -702.43468911478158 -1189.1306201425687 0 -1189.1306201425687 464.42692729771647 0 0 0 0 1363.0425491139822 444.8956002376176 0 444.8956002376176 -36.762056743322319 0 0 0 0 298.77356017902775 -830.98577792153014 0 -830.98577792153014 -568.31011195126848 0 0 0 0 -78.146109785204644 27.250683603620047 0 27.250683603620047 170.42522875685688 0 0 0 0 214.75069053465995 173.79662391710917 0 173.79662391710917 220.59394422124024 0 0 0 0 163.73415330971511 67.088729368788336 0 67.088729368788336 134.7699673123534 0 0 0 0 137.74246579369355 188.99511541110769 0 188.99511541110769 227.34441246328061 0 0 0 0 107.28690613714207 67.105329804330722 0 67.105329804330722 50.981454700653558 0 0 0 0 55.524953621450095 19.282987066691931 0 19.282987066691931 28.103001504976419 0 0 0 0 84.894530567991296 98.273509900073805 0 98.273509900073805 152.02373316473677 0 0 0 0 75.466158654369792 12.808469418079767 0 12.808469418079767 134.71298201943318 0 0 0 0 112.83748378007294 48.563515750953229 0 48.563515750953229 126.77777311240789 0 0 0 0 81.996876131265978 60.535582904567221 0 60.535582904567221 23.741485684773028 0 0 0 0 55.818154903312475 49.799575645004467 0 49.799575645004467 21.557795330167931 0 0 0 0 38.894118349966448 47.25447085169435 0 47.25447085169435 133.80014949294855 0 0 0 0 40.244538854214625 44.232704830850707 0 44.232704830850707 136.15968413162773 0 0 0 0 -589.58525608670607 -776.41370563436794 0 -776.41370563436794 -423.00618682592221 0 0 0 0 190.61202776398386 125.41914817697943 0 125.41914817697943 169.29674436651112 0 0 0 0 -64.422740647516264 21.352409401397185 0 21.352409401397185 175.83568426126971 0 0 0 0 158.28687304581399 72.647181372638443 0 72.647181372638443 157.15756423470884 0 0 0 0 89.080506191949098 59.510766521911137 0 59.510766521911137 185.40421392354619 0 0 0 0 131.73607304032703 111.87557324674708 0 111.87557324674708 198.78077108653088 0 0 0 0 98.9424641860424 74.730232079339956 0 74.730232079339956 43.041141440687134 0 0 0 0 493.02714857412712 570.8370742477091 0 570.8370742477091 1195.3080169720324 0 0 0 0 50.464388633197473 1.117657084192615 0 1.117657084192615 25.870250236388529 0 0 0 0 24.666470009019761 17.447197735152411 0 17.447197735152411 32.690510699735938 0 0 0 0 -44.367155774432817 195.5421265753148 0 195.5421265753148 1297.4056208778347 0 0 0 0 453.73801247558163 1313.161673356085 0 1313.161673356085 1519.9261110170191 0 0 0 0 -63.431773133885542 1046.7031860968691 0 1046.7031860968691 4395.4278517273124 0 0 0 0 -356.77796377518996 367.19755216207068 0 367.19755216207068 4125.2458577491707 0 0 0 0 -11.355376976234993 325.68210857220038 0 325.68210857220038 1680.5823063210591 0 0 0 0 -495.42975612317105 806.57142242563441 0 806.57142242563441 4999.3366791099961 0 0 0 0 -379.37288411519933 344.73831067187893 0 344.73831067187893 4130.3806234246567 0 0 0 0 -312.6184723784109 484.38642359025471 0 484.38642359025471 5753.6425158242255 0 0 0 0 -199.42977674539756 409.74308211828975 0 409.74308211828975 4518.6938505194612 0 0 0 0 35.110940274137647 -54.046094253950287 0 -54.046094253950287 5449.5640323159168 0 0 0 0 185.54818179335666 -318.72550401003537 0 -318.72550401003537 4544.3777275220782 0 0 0 0 28.844199064976237 42.861236800934421 0 42.861236800934421 5258.0889150664225 0 0 0 0 -43.39306469306166 195.90328602837326 0 195.90328602837326 2973.2101587665638 0 0 0 0 -75.78098468825435 -279.11136026646636 0 -279.11136026646636 4292.4693919410711 0 0 0 0 -300.37623227286349 634.25537052126765 0 634.25537052126765 5007.6145111299193 0 0 0 0 125.42709707568109 384.45952591116111 0 384.45952591116111 5000.6014591108506 0 0 0 0 980.70166772683922 960.32274054805384 0 960.32274054805384 5329.8903311865397 0 0 0 0 1139.8916989061015 590.89337495105065 0 590.89337495105065 5385.5509493850986 0 0 0 0 14.729604378617603 3.9474878626804752 0 3.9474878626804752 -4.3701093185301616 0 0 0 0 -0.0039097127419154276 -450.26712918748672 0 -450.26712918748672 8889.9706975082299 0 0 0 0 572.18103579901026 427.4084348394681 0 427.4084348394681 5780.0603488305424 0 0 0 0 648.42778590204159 1002.7457612300204 0 1002.7457612300204 8559.7279591261104 0 0 0 0 -79.946500359410038 -1182.6826232084859 0 -1182.6826232084859 6650.8232719049483 0 0 0 0 -346.73668556263601 1716.1416391697057 0 1716.1416391697057 4985.5035398842429 0 0 0 0 1394.544755618032 704.95622852836277 0 704.95622852836277 4655.4602820904547 0 0 0 0 1794.5335222687772 1816.1728595128297 0 1816.1728595128297 6005.3291538529375 0 0 0 0 1242.4330595482647 812.55079901293357 0 812.55079901293357 4999.5439897563956 0 0 0 0 64.019330688808139 888.01521787390084 0 888.01521787390084 4504.5789904111443 0 0 0 0 252.6595148294829 442.64625685360625 0 442.64625685360625 5319.1873923577805 0 0 0 0 -491.63162477630112 723.94072373134986 0 723.94072373134986 5000.2211110975222 0 0 0 0 403.46394655712862 1334.5336204976884 0 1334.5336204976884 3404.8442801638521 0 0 0 0 -381.58004680542666 577.26592058468668 0 577.26592058468668 4291.7592969653961 0 0 0 0 394.9434327355421 1413.1318968444548 0 1413.1318968444548 3017.3961965805938 0 0 0 0 520.58840330115572 1118.247000198653 0 1118.247000198653 2905.3389029190002 0 0 0 0 3.122496387376156 13.250004615147034 0 13.250004615147034 -9.856386098351166 0 0 0 0 85.925453162722533 444.75565965797432 0 444.75565965797432 2521.6267199174326 0 0 0 0 529.65536231968781 1031.1104848734576 0 1031.1104848734576 3274.7144543820395 0 0 0 0 51.4664335962932 66.930071160531952 0 66.930071160531952 48.388640352495713 0 0 0 0 47.751009299916404 54.191626263949729 0 54.191626263949729 118.37380454921185 0 0 0 0 47.359385580536127 100.9144130058703 0 100.9144130058703 129.7164486468173 0 0 0 0 35.702948272747108 109.58816224936163 0 109.58816224936163 197.23392762624644 0 0 0 0 28.167510902826507 55.777861410861078 0 55.777861410861078 181.96073650882136 0 0 0 0 -85.01823233675168 138.95925869588245 0 138.95925869588245 140.66389541800891 0 0 0 0 -92.181395458557745 31.385299476336513 0 31.385299476336513 148.85706133953499 0 0 0 0 22.009759011227288 35.802085713898123 0 35.802085713898123 146.57716207145495 0 0 0 0 33.585711843516037 124.59758156225143 0 124.59758156225143 142.33748846826711 0 0 0 0 14.7828930823514 17.632802217345912 0 17.632802217345912 -4.5292150638698416 0 0 0 0 47.105237193221001 77.232314476386819 0 77.232314476386819 112.53546687721973 0 0 0 0 42.398512791734902 84.656498723816185 0 84.656498723816185 139.33295053234906 0 0 0 0 -25.961032535898994 84.332718474477588 0 84.332718474477588 143.68712634360418 0 0 0 0 48.96018736595579 69.240695849097392 0 69.240695849097392 129.5977786611038 0 0 0 0 1794.9012571428393 1011.2397078220492 0 1011.2397078220492 537.95800225458152 0 0 0 0 41.196262449152528 90.660627379544167 0 90.660627379544167 110.94229294810793 0 0 0 0 89.137857885674748 97.028479398231866 0 97.028479398231866 109.97747228119988 0 0 0 0 -399.9520147794961 -344.30365777914631 0 -344.30365777914631 3437.8349165450927 0 0 0 0 -431.80144879509885 -191.03713045147379 0 -191.03713045147379 2969.8863295035699 0 0 0 0 -687.31496647438098 -674.00196095631327 0 -674.00196095631327 3572.8727633924573 0 0 0 0 -1014.3793674114855 -483.87771679182697 0 -483.87771679182697 4999.3850441167888 0 0 0 0 -506.88661523615838 -272.13214574460289 0 -272.13214574460289 3373.3437918981072 0 0 0 0 -993.80285591440713 19.062579794051999 0 19.062579794051999 3857.2638450809936 0 0 0 0 -991.40135784345159 57.610836015018322 0 57.610836015018322 4444.6272784797839 0 0 0 0 -999.05868105994193 357.23558040518765 0 357.23558040518765 4999.2025532712541 0 0 0 0 -711.59156917930454 364.54854376635922 0 364.54854376635922 4420.2676507329961 0 0 0 0 -498.24573490351645 362.06489124852669 0 362.06489124852669 3465.0176008967283 0 0 0 0 -478.64687368344448 680.01658072443024 0 680.01658072443024 4372.0040230656778 0 0 0 0 49.493130348038676 758.42178251346922 0 758.42178251346922 2736.9111499872524 0 0 0 0 -682.41777170741079 544.93112227908568 0 544.93112227908568 3518.3488289269153 0 0 0 0 -14.530688370618856 13.085509373176833 0 13.085509373176833 -4.8184397837163999 0 0 0 0 -332.15577350482272 1280.1471717759196 0 1280.1471717759196 2737.5816066597854 0 0 0 0 -33.662582750717775 94.99730069551515 0 94.99730069551515 109.94530290486 0 0 0 0 -703.88915036917751 2934.7776020618621 0 2934.7776020618621 -312.77944144140929 0 0 0 0 -627.1497639035324 577.95091921062703 0 577.95091921062703 2733.2421533968954 0 0 0 0 -508.65143111866996 1111.7603194662515 0 1111.7603194662515 2139.3610684669402 0 0 0 0 -140.32182187631861 462.41484846796811 0 462.41484846796811 1132.5904354465092 0 0 0 0 -18.77375738613463 1.021656447177989 0 1.021656447177989 2.5061079168094196 0 0 0 0 1276.7451513187852 -1327.3301918669622 0 -1327.3301918669622 1627.5999872518951 0 0 0 0 -428.71118264733576 430.11225534377445 0 430.11225534377445 2237.1793051492859 0 0 0 0 -481.85902536343019 255.55312479490385 0 255.55312479490385 2772.4174957609648 0 0 0 0 -524.50929370068343 81.98122373114893 0 81.98122373114893 3231.1596064117657 0 0 0 0 -506.04917737690891 210.6069011981067 0 210.6069011981067 2811.1888511234865 0 0 0 0 -26.847532133772575 -17.986758741499216 0 -17.986758741499216 1107.9616568609708 0 0 0 0 -221.52385964050268 280.75748988044688 0 280.75748988044688 2234.4994078482487 0 0 0 0 212.43266682549941 -159.68610744504258 0 -159.68610744504258 357.06332838795061 0 0 0 0 -332.59723583949267 70.844555319730716 0 70.844555319730716 1970.6494219981669 0 0 0 0 -41.509518982895088 -35.06904694790137 0 -35.06904694790137 1998.8747366829684 0 0 0 0 213.0120738234645 154.48279460090163 0 154.48279460090163 -7.8559998585260473 0 0 0 0 215.25562764098868 54.909168407546531 0 54.909168407546531 -111.87691134780471 0 0 0 0 56.900741061472218 -66.253954128434998 0 -66.253954128434998 -169.05657538828382 0 0 0 0 272.32851087886775 338.5520085634289 0 338.5520085634289 215.41113393002888 0 0 0 0 -76.615026404204087 32.004922334213873 0 32.004922334213873 6.6669104322175983 0 0 0 0 431.12788574310252 195.60555066787128 0 195.60555066787128 -150.32920465744974 0 0 0 0 111.0787226262546 -258.61904577279347 0 -258.61904577279347 -217.14902427053312 0 0 0 0 -53.118483925356273 7.5417405986424768 0 7.5417405986424768 1.2800943450245654 0 0 0 0 -904.61320978316144 1122.7526621169818 0 1122.7526621169818 1284.1453248691141 0 0 0 0 -589.93474423747193 547.9177717296443 0 547.9177717296443 -279.28350966534344 0 0 0 0 -84.919801266396462 65.614583875794779 0 65.614583875794779 -88.046871804399416 0 0 0 0 -748.9934314887505 39.072314733668463 0 39.072314733668463 67.151862974467804 0 0 0 0 -92.480931860511191 63.353854621229402 0 63.353854621229402 -18.686040697444696 0 0 0 0 -24.335923618848028 0.44824061082908884 0 0.44824061082908884 -46.291225546425267 0 0 0 0 -231.27062390924402 18.790386294138443 0 18.790386294138443 7.7597834830012289 0 0 0 0 -273.84644624388238 256.30418585674488 0 256.30418585674488 -60.153497759747552 0 0 0 0 -237.13975267438582 266.75071218478115 0 266.75071218478115 -60.265683021629229 0 0 0 0 -178.19286869900861 409.17881579444656 0 409.17881579444656 -285.15482667338802 0 0 0 0 -111.61552038832451 305.45519758129376 0 305.45519758129376 -132.64026541500061 0 0 0 0 -53.597417720042358 265.25509295639495 0 265.25509295639495 -340.13950019038748 0 0 0 0 -182.95581324429986 496.41594170411554 0 496.41594170411554 -685.19362928002374 0 0 0 0 -14.532619885208945 2.9037050390366517 0 2.9037050390366517 1.5875754075651116 0 0 0 0 -108.64146110028742 234.90537367899378 0 234.90537367899378 1727.8399467652653 0 0 0 0 6.4320112211898959 99.766263818586594 0 99.766263818586594 -741.45058243375388 0 0 0 0 87.429931517010118 52.731498670211295 0 52.731498670211295 -367.14393718603242 0 0 0 0 -33.596472677634665 298.52466066405759 0 298.52466066405759 -337.03691218823406 0 0 0 0 24.071928449568077 -39.047175069776131 0 -39.047175069776131 -226.81485315677128 0 0 0 0 30.748674747810583 102.57460105107748 0 102.57460105107748 -223.45558329108462 0 0 0 0 9.9729355783629217 -63.804823725993629 0 -63.804823725993629 -38.712178316141944 0 0 0 0 -40.700183183573245 -13.792557761291391 0 -13.792557761291391 98.047980996279875 0 0 0 0 21.544623668962231 83.620249194413191 0 83.620249194413191 -13.815945283437031 0 0 0 0 -0.85842186985018998 213.88636233121179 0 213.88636233121179 -80.624280674717738 0 0 0 0 21.170900998376055 234.21933997522137 0 234.21933997522137 -262.98579733300721 0 0 0 0 -78.907745165328379 333.37411446496117 0 333.37411446496117 -157.2984373071522 0 0 0 0 -40.563615836518693 312.76741392049007 0 312.76741392049007 -147.38764722185442 0 0 0 0 -81.41168973434651 298.90641552046145 0 298.90641552046145 -107.11811031706748 0 0 0 0 -53.167962144698322 290.54028170282254 0 290.54028170282254 -112.30779441572668 0 0 0 0 -37.46731483233998 277.03010438611818 0 277.03010438611818 -147.99519269424491 0 0 0 0 28.344576545425298 132.74401681296877 0 132.74401681296877 -34.280343561382324 0 0 0 0 -63.791945237888285 235.83827443999326 0 235.83827443999326 -39.883932034426834 0 0 0 0 -31.069612610259355 254.54926968385553 0 254.54926968385553 -77.085522766094073 0 0 0 0 32.378767498841626 113.26305944603519 0 113.26305944603519 -4.9459079422522336 0 0 0 0 -22.706608230968413 193.88073522066406 0 193.88073522066406 -71.365116991983086 0 0 0 0 6.0134597788955944 121.78551062530823 0 121.78551062530823 33.209836660447763 0 0 0 0 -74.376353107400064 203.88848734780913 0 203.88848734780913 14.89011604323241 0 0 0 0 -14.373490415056949 176.00822597464139 0 176.00822597464139 -30.648676211916609 0 0 0 0 -108.6246312929361 257.32784606647328 0 257.32784606647328 -25.063242150950828 0 0 0 0 -36.461452916770213 225.51871498669061 0 225.51871498669061 -42.078105480759405 0 0 0 0 -82.857747678506712 309.72003617811424 0 309.72003617811424 -132.97565242494966 0 0 0 0 -149.66511163547443 302.24159618114845 0 302.24159618114845 -71.119755191873992 0 0 0 0 -136.21018367792317 176.28465680725412 0 176.28465680725412 9.2049964315519901 0 0 0 0 -74.9489459084798 76.468006038987369 0 76.468006038987369 45.655805601651082 0 0 0 0 40.548228055566142 42.868162817496341 0 42.868162817496341 -3.3660228297085268 0 0 0 0 -123.8945242575719 94.576576327410294 0 94.576576327410294 32.686690932634519 0 0 0 0 20.506856320938823 76.439537691250734 0 76.439537691250734 130.7696066267963 0 0 0 0 126.25245607491888 133.24259050545515 0 133.24259050545515 8.3593914488010341 0 0 0 0 -918.77014059679823 444.91552187539492 0 444.91552187539492 227.1753915851732 0 0 0 0 68.997849092351288 73.639918227741703 0 73.639918227741703 32.907664436891253 0 0 0 0 -80.856047247667448 145.73824570230499 0 145.73824570230499 -204.18072839899105 0 0 0 0 136.12957028082451 -45.755209860629748 0 -45.755209860629748 9.5676924412546214 0 0 0 0 12.920047239702399 72.505976063712296 0 72.505976063712296 92.515706462712842 0 0 0 0 -25.894966315396232 -33.462269834217295 0 -33.462269834217295 94.760094808138092 0 0 0 0 -29.178456352987268 95.856015348272194 0 95.856015348272194 127.94653929124615 0 0 0 0 -165.76022635911431 134.18455876209555 0 134.18455876209555 127.04805162873527 0 0 0 0 -42.48024926042126 9.0395509675145149 0 9.0395509675145149 -105.82337484011805 0 0 0 0 -345.66014053854718 29.603109530965639 0 29.603109530965639 168.78423913563893 0 0 0 0 0.16011619282994105 6.0748651286442801 0 6.0748651286442801 0.823849642637839 0 0 0 0 302.30807674525471 159.17890068643419 0 159.17890068643419 46.836546319464105 0 0 0 0 80.548910289010564 171.80713840309181 0 171.80713840309181 -47.008263276293292 0 0 0 0 92.50336756445995 52.979235597587831 0 52.979235597587831 15.001965293915418 0 0 0 0 9.5582275155329626 127.91872011799569 0 127.91872011799569 67.732808597018447 0 0 0 0 34.540708115552661 116.47790025419454 0 116.47790025419454 -139.98221243760781 0 0 0 0 -0.98254785852168425 185.71422027110384 0 185.71422027110384 -33.404574941108876 0 0 0 0 13.174613072541661 237.04242875126511 0 237.04242875126511 -141.19003278411401 0 0 0 0 4.6820807160275422 214.25315209797827 0 214.25315209797827 -86.863457158746314 0 0 0 0 -18.786027911313795 119.69922596612014 0 119.69922596612014 6.6809652328647644 0 0 0 0 -117.42006378154792 127.79836982358938 0 127.79836982358938 -35.903793175704777 0 0 0 0 -58.424466326712263 298.12201144263236 0 298.12201144263236 -115.75833036170661 0 0 0 0 -58.595508166604759 227.08603540533659 0 227.08603540533659 -67.550568515085615 0 0 0 0 -34.675635293099987 279.97189911670102 0 279.97189911670102 -102.32466933876276 0 0 0 0 -35.447885009327365 254.34792959028709 0 254.34792959028709 -268.94840507394838 0 0 0 0 -32.481959906083375 228.75399525589455 0 228.75399525589455 -109.25199918190629 0 0 0 0 -163.00672154626773 309.26507057988056 0 309.26507057988056 -131.90503981965594 0 0 0 0 418.00201946791913 380.22589708315354 0 380.22589708315354 107.18587382516125 0 0 0 0 -375.94434636806636 258.46951980276936 0 258.46951980276936 -100.00770808483503 0 0 0 0 -413.44255124987296 291.50867283555658 0 291.50867283555658 -78.803103534068214 0 0 0 0 0.20995177325471914 6.8771245365574991 0 6.8771245365574991 0.61790795498353646 0 0 0 0 0.15286803572209645 8.1083789407515283 0 8.1083789407515283 1.6124713506011403 0 0 0 0 19.17557337492326 130.40410827407686 0 130.40410827407686 -58.517898601239722 0 0 0 0 33.363869465061043 77.468478547158156 0 77.468478547158156 19.552726263427758 0 0 0 0 302.46671878422057 282.97754101571627 0 282.97754101571627 136.94577828246111 0 0 0 0 112.4211699406078 272.05655370523164 0 272.05655370523164 194.49437989924627 0 0 0 0 66.587155504146722 308.70641023948701 0 308.70641023948701 247.77423596216249 0 0 0 0 241.26475283152593 487.79336408294512 0 487.79336408294512 237.80809471625253 0 0 0 0 246.9964936516335 377.43831597939425 0 377.43831597939425 224.7346000848047 0 0 0 0 105.48676838283495 473.05290283331669 0 473.05290283331669 275.63947656395612 0 0 0 0 80.455383243843244 341.40882032443187 0 341.40882032443187 235.81265901635925 0 0 0 0 -44.594509430909966 497.54728301631985 0 497.54728301631985 334.97320359520381 0 0 0 0 12.588707600772977 256.59377348377893 0 256.59377348377893 224.53687717759749 0 0 0 0 -21.347241636212857 264.19979748936021 0 264.19979748936021 244.15111216799414 0 0 0 0 57.524205222754972 342.21648691897281 0 342.21648691897281 276.4027761152829 0 0 0 0 -71.78037078916077 -105.00688906930009 0 -105.00688906930009 74.470820455935609 0 0 0 0 0.10871318338536184 235.44320973598678 0 235.44320973598678 277.215569149761 0 0 0 0 -7.1802508278815367 300.40184840647271 0 300.40184840647271 336.20716732379515 0 0 0 0 -35.767154832989036 176.60566925577587 0 176.60566925577587 222.37705077938153 0 0 0 0 -40.157095446282256 353.77831897080614 0 353.77831897080614 466.48001683451002 0 0 0 0 -116.14255376715437 231.68652394975652 0 231.68652394975652 475.88451819459442 0 0 0 0 -97.860976177031262 163.51052900819923 0 163.51052900819923 329.86833414401644 0 0 0 0 -11.844479727318685 181.96865105989855 0 181.96865105989855 217.972055920196 0 0 0 0 -1116.688323940476 351.72075350364321 0 351.72075350364321 1256.3732303143152 0 0 0 0 -36.619966625272355 278.11500179409632 0 278.11500179409632 499.73472662626955 0 0 0 0 -498.90504346436865 -249.16085256924271 0 -249.16085256924271 552.5819830374312 0 0 0 0 23.035308754846483 257.05869189214718 0 257.05869189214718 491.06437405062024 0 0 0 0 -49.550792766698578 317.88929500570521 0 317.88929500570521 413.21050679782638 0 0 0 0 -41.768411165736325 278.66351729612506 0 278.66351729612506 610.22262711077929 0 0 0 0 179.44796946659892 988.22987191547145 0 988.22987191547145 1067.2965277739568 0 0 0 0 -108.72539854971546 752.40394649342488 0 752.40394649342488 281.87320796358108 0 0 0 0 -57.979098297208111 520.30910581932403 0 520.30910581932403 683.10750621394254 0 0 0 0 -55.924523171162036 186.49678343667256 0 186.49678343667256 -479.74484271083929 0 0 0 0 -68.769839996080222 469.70376123948517 0 469.70376123948517 -981.78624437341932 0 0 0 0 -58.493048734417755 154.28532638580509 0 154.28532638580509 -194.46633040675079 0 0 0 0 -43.260393961422778 179.86354156908419 0 179.86354156908419 -151.79198380638263 0 0 0 0 17.716917900728586 1.7859429528207897 0 1.7859429528207897 -0.54646958272650181 0 0 0 0 28.780277785103863 100.38569074554835 0 100.38569074554835 -241.40121533368074 0 0 0 0 285.58655807149398 718.79016050677455 0 718.79016050677455 952.32196612880216 0 0 0 0 3.5685344020291261 -0.35947824077905466 0 -0.35947824077905466 1.4262066210605298 0 0 0 0 83.965829901207144 197.61240275944147 0 197.61240275944147 1145.0707520814249 0 0 0 0 -654.28080250853782 1036.528109358318 0 1036.528109358318 2462.4879151445493 0 0 0 0 -53.360136177625463 709.97015533956437 0 709.97015533956437 -165.34419241599971 0 0 0 0 -884.19719791989974 -47.566871127841296 0 -47.566871127841296 379.54273965490574 0 0 0 0 357.86484557612459 795.11109072450563 0 795.11109072450563 519.89371501267306 0 0 0 0 314.31305755620679 830.72536302365916 0 830.72536302365916 810.49716882733628 0 0 0 0 102.21989541473658 430.70567413663957 0 430.70567413663957 383.80538122803773 0 0 0 0 -292.10868184313949 -83.966191789761069 0 -83.966191789761069 19.32729602814652 0 0 0 0 -134.51317506765781 383.18101041809132 0 383.18101041809132 1097.2269528436882 0 0 0 0 684.5803115453632 484.70798637191183 0 484.70798637191183 527.85809982011415 0 0 0 0 -451.68812851671038 72.584456851291179 0 72.584456851291179 108.61213094872073 0 0 0 0 -424.88569270001153 543.98504123634484 0 543.98504123634484 832.17961486088461 0 0 0 0 -1270.3962402294046 277.26799195442436 0 277.26799195442436 358.00940659640764 0 0 0 0 -13.440839791867701 2.2440539947249079 0 2.2440539947249079 16.341081553833021 0 0 0 0 -1345.3069860524324 -333.87090301333228 0 -333.87090301333228 253.69228930205281 0 0 0 0 -38.20488261215155 314.18144727106119 0 314.18144727106119 19.202279421675485 0 0 0 0 46.891454734214449 -149.38813356591709 0 -149.38813356591709 174.08899016385476 0 0 0 0 -5.9172709081587289 -1.5784422462656806 0 -1.5784422462656806 31.608099132872326 0 0 0 0 1237.9674401365362 979.2594139843477 0 979.2594139843477 769.09038928037626 0 0 0 0 1182.3306852529602 796.55773941919688 0 796.55773941919688 431.14162041308009 0 0 0 0 -9.7937151656522587 5.9759725144342895 0 5.9759725144342895 7.0700938073206459 0 0 0 0 440.46778389666088 387.16090027314203 0 387.16090027314203 616.72413392207818 0 0 0 0 11.905927889816562 -0.26638357193463946 0 -0.26638357193463946 42.280088953886604 0 0 0 0 77.149552148290923 65.214329191585421 0 65.214329191585421 80.76185763918329 0 0 0 0 -148.94829890319397 171.63497020473733 0 171.63497020473733 -95.551805212860927 0 0 0 0 -21.051585882783314 7.9753676212977638 0 7.9753676212977638 17.643365983965964 0 0 0 0 15.874329572952774 160.0539252099552 0 160.0539252099552 39.355956406332552 0 0 0 0 827.18474768308079 547.97356774407672 0 547.97356774407672 275.97613917916897 0 0 0 0 649.44981489217025 398.72400008082332 0 398.72400008082332 378.90035794320283 0 0 0 0 -844.28594618147235 -86.643157790822443 0 -86.643157790822443 109.74455971264615 0 0 0 0 -47.63125386266438 4.2316010844733682 0 4.2316010844733682 82.925820107688196 0 0 0 0 -31.240493869344277 -33.71343809554719 0 -33.71343809554719 19.140922759805107 0 0 0 0 -40.760611703210543 23.280370234053407 0 23.280370234053407 -41.024969654681627 0 0 0 0 -24.293280352751875 -9.6692675478794285 0 -9.6692675478794285 -2.8392562342975509 0 0 0 0 -179.0541484732239 -317.57435019850527 0 -317.57435019850527 408.36644805104879 0 0 0 0 49.117750322893698 -213.93920739006717 0 -213.93920739006717 -56.903264577686059 0 0 0 0 106.98365303731225 13.26481127639272 0 13.26481127639272 25.003142651927192 0 0 0 0 -337.42652732446459 145.57466789477257 0 145.57466789477257 212.3840980471432 0 0 0 0 66.809545209919065 70.56210205032059 0 70.56210205032059 32.366326667865565 0 0 0 0 -22.922879117883895 45.099601485606399 0 45.099601485606399 34.230163346022891 0 0 0 0 -17.531774324825896 -0.62592965711982629 0 -0.62592965711982629 8.8843749780638603 0 0 0 0 -43.585345591345579 -5.7428717222859405 0 -5.7428717222859405 4.7044548811715003 0 0 0 0 -34.179664273294293 6.5007029143816908 0 6.5007029143816908 65.274094278196571 0 0 0 0 107.38322689428242 75.498727659869473 0 75.498727659869473 17.698556273011491 0 0 0 0 125.28631611116134 132.3353344520292 0 132.3353344520292 143.0050044529271 0 0 0 0 56.670785874521243 61.554785207446912 0 61.554785207446912 25.426526457638829 0 0 0 0 63.279824916572579 -0.15294973285926972 0 -0.15294973285926972 8.4068648294014565 0 0 0 0 -23.162969124161464 27.994705971388612 0 27.994705971388612 1.2685684758471325 0 0 0 0 19.677061208496159 43.522452545268152 0 43.522452545268152 19.881032823331111 0 0 0 0 2.2290014396723965 35.345831314567306 0 35.345831314567306 19.798303662098661 0 0 0 0 -14.208954077213567 19.25356750305528 0 19.25356750305528 17.989406143025349 0 0 0 0 60.686366126989014 38.790527745950385 0 38.790527745950385 137.08614203438628 0 0 0 0 3.8027432140661404 124.52069925417163 0 124.52069925417163 9.4244260517007206 0 0 0 0 83.297807208768063 45.78949399751582 0 45.78949399751582 -15.862424522580113 0 0 0 0 -14.931437519718202 174.30749312961416 0 174.30749312961416 -52.434729653527029 0 0 0 0 -6.8125392606707464 175.26606632871699 0 175.26606632871699 -174.990821918851 0 0 0 0 43.532420676376205 40.53837188489706 0 40.53837188489706 -79.286608141836041 0 0 0 0 36.102519558646129 5.3756328932219617 0 5.3756328932219617 2.4004776583345802 0 0 0 0 30.213906930567646 75.126766817855241 0 75.126766817855241 37.74477857502643 0 0 0 0 553.51000048714809 62.871870741349994 0 62.871870741349994 -93.384258396021323 0 0 0 0 230.88073007935509 469.80018552074034 0 469.80018552074034 390.87152423767839 0 0 0 0 1205.0066553420322 328.15927139342602 0 328.15927139342602 97.137099815707188 0 0 0 0 805.48394719064754 981.2138500597066 0 981.2138500597066 952.77682276122505 0 0 0 0 712.72186854224765 672.51879613283381 0 672.51879613283381 344.78514661059307 0 0 0 0 674.33596413830026 198.57433061509596 0 198.57433061509596 1495.1093775134359 0 0 0 0 1229.0920985638711 105.00207324965595 0 105.00207324965595 1040.9194101048197 0 0 0 0 620.55308555741658 -120.88076351766358 0 -120.88076351766358 1156.1697899542633 0 0 0 0 879.27562442836552 512.78773062504479 0 512.78773062504479 1568.5131805639758 0 0 0 0 -21.343392394012426 -379.93385101902459 0 -379.93385101902459 1365.1834353404702 0 0 0 0 1.9476640993302263 3.7224625094494144 0 3.7224625094494144 4.3778770641516758 0 0 0 0 -106.26350262676715 -23.14820554832113 0 -23.14820554832113 1345.7119125106183 0 0 0 0 -0.65248017902962996 1.1459586408375628 0 1.1459586408375628 3.4984483137324034 0 0 0 0 0.78353702745534193 9.9399646537777784 0 9.9399646537777784 9.8304739734953159 0 0 0 0 11.684690670366763 11.87229534148355 0 11.87229534148355 20.320299447455909 0 0 0 0 -9.6361751034417011 5.2176878642421798 0 5.2176878642421798 32.651960139948642 0 0 0 0 207.15088644074604 -156.42212075369025 0 -156.42212075369025 469.58502376124397 0 0 0 0 -3.6376457642872335 0.87917586649118107 0 0.87917586649118107 2.9775690084737558 0 0 0 0 -152.42961658753546 -102.09514712774399 0 -102.09514712774399 1182.9194662682712 0 0 0 0 -5.2479253631831853 25.490998616201978 0 25.490998616201978 1157.7616857565445 0 0 0 0 -8.0600757313759495 1.6525782086935408 0 1.6525782086935408 1.9519258361006067 0 0 0 0 -8.6435000891111162 -8.0760327429715062 0 -8.0760327429715062 2.472836210467932 0 0 0 0 -19.748945565799829 -72.085112857213971 0 -72.085112857213971 801.1661966235406 0 0 0 0 -23.465847750811463 -9.7042225591540046 0 -9.7042225591540046 62.265108143779798 0 0 0 0 -120.4796748898126 322.53258453810122 0 322.53258453810122 1408.8640600554209 0 0 0 0 -139.10873393465829 117.52096400968276 0 117.52096400968276 1405.428921107552 0 0 0 0 -69.964135882301662 278.53541753384343 0 278.53541753384343 1277.3461034309439 0 0 0 0 -50.40396207913318 199.79003755685335 0 199.79003755685335 1560.2945699620614 0 0 0 0 -67.844371058808747 590.32346879382385 0 590.32346879382385 1699.9011631929025 0 0 0 0 536.18715910919241 -514.72230175211735 0 -514.72230175211735 2891.3243124475848 0 0 0 0 -67.33018542836453 1383.019279926797 0 1383.019279926797 2269.2047832265816 0 0 0 0 10.575652331063111 -127.40063099665349 0 -127.40063099665349 1719.6553126206127 0 0 0 0 28.613110229886388 297.18583162684445 0 297.18583162684445 1636.7225031585112 0 0 0 0 1795.4382383019893 110.16520931571722 0 110.16520931571722 1218.0855383203161 0 0 0 0 853.638830246221 -81.231073470655247 0 -81.231073470655247 1205.3237311307312 0 0 0 0 417.07081827452021 1410.173359920449 0 1410.173359920449 196.57758519583149 0 0 0 0 4.138897355189652 9.6467718252684023 0 9.6467718252684023 23.135146091378203 0 0 0 0 186.21860523932844 171.87612229984916 0 171.87612229984916 -265.11427817364165 0 0 0 0 -635.72868965962425 173.73141078349727 0 173.73141078349727 227.13238955775159 0 0 0 0 225.67539271608211 300.39743525598897 0 300.39743525598897 161.40414337020047 0 0 0 0 293.42864079653282 774.29842618220573 0 774.29842618220573 592.75872550451459 0 0 0 0 167.94785161737181 653.60995624485872 0 653.60995624485872 853.5558984602103 0 0 0 0 175.23475106526615 796.2865535518456 0 796.2865535518456 1122.1231391971232 0 0 0 0 207.5400124976336 469.09312723886251 0 469.09312723886251 681.29950150568038 0 0 0 0 149.02627156394021 482.53203112371557 0 482.53203112371557 680.35657788463141 0 0 0 0 10.569205384783857 448.87325342563418 0 448.87325342563418 963.096020184792 0 0 0 0 -72.279751311917778 525.22867763780778 0 525.22867763780778 1123.0321463941509 0 0 0 0 53.898186142169529 532.73122371331556 0 532.73122371331556 1113.6263166379067 0 0 0 0 833.55043750126799 241.34364160675614 0 241.34364160675614 1601.6533785682986 0 0 0 0 393.50842828345776 -19.034173043568444 0 -19.034173043568444 3421.2128896305621 0 0 0 0 613.03231909776309 -8.4376426438320777 0 -8.4376426438320777 2235.3999728062317 0 0 0 0 654.6821407281933 130.02071170204727 0 130.02071170204727 1207.8812608346052 0 0 0 0 844.462370556103 1203.463668471748 0 1203.463668471748 2429.5937337050109 0 0 0 0 1694.0875811628657 1070.4166268510744 0 1070.4166268510744 1098.7410225339554 0 0 0 0 811.57398611688336 843.43727391751281 0 843.43727391751281 1240.9111699961941 0 0 0 0 1092.5093404149243 953.00624802147922 0 953.00624802147922 866.51609547311091 0 0 0 0 1117.9019448766289 808.43716317793769 0 808.43716317793769 979.74506163113983 0 0 0 0 -185.3669900653527 -335.78661827400174 0 -335.78661827400174 280.96878066075442 0 0 0 0 -0.81568361714530235 0.66173404670475122 0 0.66173404670475122 12.554659447454014 0 0 0 0 1975.7839852057184 2393.8101724561348 0 2393.8101724561348 3007.877315511003 0 0 0 0 -4.4246376870690964 -0.60490960594549392 0 -0.60490960594549392 8.5092533311656098 0 0 0 0 -501.62269102691334 162.26313523871067 0 162.26313523871067 -263.29440108138078 0 0 0 0 -1702.8064088112196 -1912.3964567363364 0 -1912.3964567363364 231.4273351449956 0 0 0 0 -1392.0274652288622 -873.67616105553316 0 -873.67616105553316 2158.368022621813 0 0 0 0 1083.1040787159827 523.588070684782 0 523.588070684782 920.77625611957046 0 0 0 0 -210.37764469158788 538.54461450668168 0 538.54461450668168 3639.506114696851 0 0 0 0 179.68924388823052 -1330.1571783689651 0 -1330.1571783689651 3422.758392316161 0 0 0 0 730.32381888505302 864.35450474460231 0 864.35450474460231 3462.2087348595414 0 0 0 0 235.33584110206999 1085.7835658041458 0 1085.7835658041458 3396.965987645628 0 0 0 0 18.766106410106033 -394.91672269313676 0 -394.91672269313676 2375.2021160598379 0 0 0 0 176.66160938833764 -394.07958900622907 0 -394.07958900622907 824.94646706129424 0 0 0 0 8.9944666315105906 25.26879966756519 0 25.26879966756519 55.540519738319688 0 0 0 0 -306.63424029485714 184.23894416738767 0 184.23894416738767 1022.1173707554863 0 0 0 0 -787.30626795646867 621.57512812477944 0 621.57512812477944 -145.46095552132465 0 0 0 0 367.92229122909544 -257.84929266467589 0 -257.84929266467589 2.308913432789268 0 0 0 0 415.98643852245726 -14.05498244203045 0 -14.05498244203045 775.98900296948341 0 0 0 0 781.44377257343876 -316.97704221177264 0 -316.97704221177264 134.68681864495738 0 0 0 0 590.37658823018478 -313.2741689172617 0 -313.2741689172617 717.70513453461899 0 0 0 0 934.91400273280522 112.53344011071022 0 112.53344011071022 801.29293530922951 0 0 0 0 800.02154436912235 -484.55388200483321 0 -484.55388200483321 1582.732551576104 0 0 0 0 457.42191247102119 -19.242817968697636 0 -19.242817968697636 1341.6207429104252 0 0 0 0 777.19991001426399 -91.051395549548033 0 -91.051395549548033 772.51723527842842 0 0 0 0 706.12338713218708 -392.74812557963287 0 -392.74812557963287 752.48157389072003 0 0 0 0 471.73436747275491 -268.0465143401525 0 -268.0465143401525 687.50456953066168 0 0 0 0 688.46095460792549 -304.35800172242307 0 -304.35800172242307 266.02722380169143 0 0 0 0 510.38301181422742 -330.85073666935932 0 -330.85073666935932 321.71805921447594 0 0 0 0 164.41591305842897 -300.66820724400691 0 -300.66820724400691 720.32541405175289 0 0 0 0 -71.16189255322081 -324.0169262960917 0 -324.0169262960917 384.81611946805788 0 0 0 0 163.52895231095297 -372.82965428776288 0 -372.82965428776288 236.97019856418774 0 0 0 0 19.005902021674274 62.317735190095846 0 62.317735190095846 468.23526858446712 0 0 0 0 157.98270869784199 -139.14830697415528 0 -139.14830697415528 760.16570900680381 0 0 0 0 368.1853577296805 -222.38078461453551 0 -222.38078461453551 1237.4003871725727 0 0 0 0 323.01034139959768 -0.77268793520488543 0 -0.77268793520488543 597.49516645244512 0 0 0 0 422.27333430465421 385.49133758992684 0 385.49133758992684 993.35343103777632 0 0 0 0 211.3211609380279 196.30221030251414 0 196.30221030251414 1056.7699270790763 0 0 0 0 431.87469078986999 196.39513345034356 0 196.39513345034356 1957.5137200769968 0 0 0 0 84.13162700524154 184.64002076054476 0 184.64002076054476 434.99282958809636 0 0 0 0 87.701567594957055 314.67292821744195 0 314.67292821744195 945.45354297052472 0 0 0 0 363.32210813833694 732.15604001272004 0 732.15604001272004 998.65328152979782 0 0 0 0 148.21528853861264 480.30416044815138 0 480.30416044815138 800.71484091001912 0 0 0 0 596.04147055477597 842.73038686364453 0 842.73038686364453 1327.9830902917456 0 0 0 0 555.66942057025847 661.69111268410052 0 661.69111268410052 887.92941516991414 0 0 0 0 -484.39652773051557 192.39851436928438 0 192.39851436928438 606.10789235246193 0 0 0 0 -192.70277505080048 424.64815285731311 0 424.64815285731311 487.14928082974438 0 0 0 0 -112.67601293215557 315.78740556372213 0 315.78740556372213 632.40369747123623 0 0 0 0 160.99184426683769 509.2839165362966 0 509.2839165362966 607.34148738949079 0 0 0 0 -170.40058793711933 84.567408392998914 0 84.567408392998914 312.67256437255128 0 0 0 0 -186.13784119751472 253.91393567650812 0 253.91393567650812 750.37577395583139 0 0 0 0 -457.79333227487609 -114.74497212676579 0 -114.74497212676579 -255.21048802389123 0 0 0 0 -551.18677388266724 43.194730352232 0 43.194730352232 551.88356532486068 0 0 0 0 -1275.6529152703888 -447.68915386436856 0 -447.68915386436856 261.87362695438787 0 0 0 0 -171.75506243045788 -71.809342178370571 0 -71.809342178370571 673.18259702306386 0 0 0 0 -569.9617268229922 -253.78768032910011 0 -253.78768032910011 332.4377218323134 0 0 0 0 -168.73110521833166 21.362062040199817 0 21.362062040199817 53.227867589259404 0 0 0 0 -96.335213987074894 -465.87127629481984 0 -465.87127629481984 -54.466545628602034 0 0 0 0 -289.38729512092391 -257.26266261858837 0 -257.26266261858837 -233.22881473064263 0 0 0 0 -749.80484574344473 21.288308220311592 0 21.288308220311592 13.566162129092845 0 0 0 0 -99.390758583715979 134.30243144645647 0 134.30243144645647 89.681532178692578 0 0 0 0 -495.71883566942097 -89.491891588717408 0 -89.491891588717408 5.9325747885377496 0 0 0 0 -592.37997108802119 -116.99623125690414 0 -116.99623125690414 193.27061017062806 0 0 0 0 -0.72956655703092999 -28.040534955801967 0 -28.040534955801967 157.31619144097527 0 0 0 0 -837.82046725707369 -112.61644792665902 0 -112.61644792665902 166.82135932056553 0 0 0 0 -0.71901414919751616 -12.347629431114319 0 -12.347629431114319 119.35748818555442 0 0 0 0 213.66125437824576 194.79109430381141 0 194.79109430381141 -119.02450712401333 0 0 0 0 -3.016280875329695 -3.8632540259384385 0 -3.8632540259384385 33.053139144496413 0 0 0 0 -553.7505290447225 -74.655015606909728 0 -74.655015606909728 256.47304329365579 0 0 0 0 -225.52346667667496 -71.944936234605848 0 -71.944936234605848 286.30842799128732 0 0 0 0 -62.992276369280262 84.446138281975436 0 84.446138281975436 199.38929328721861 0 0 0 0 -78.444291402662373 128.03891971264602 0 128.03891971264602 127.74099458760611 0 0 0 0 -230.1195011104187 116.7012451571245 0 116.7012451571245 176.19753433070582 0 0 0 0 -550.12001559428609 -66.701847626893141 0 -66.701847626893141 196.70803271620207 0 0 0 0 -274.20104723458985 -5.6182407091073401 0 -5.6182407091073401 104.46074529500038 0 0 0 0 -331.37258407628178 22.687922663688369 0 22.687922663688369 137.33784014338744 0 0 0 0 -283.33423461383859 -175.20173912376049 0 -175.20173912376049 105.20401452154147 0 0 0 0 -286.20946463484802 63.467776663168479 0 63.467776663168479 -10.725001227932808 0 0 0 0 1.2181762107938994 -218.92674474275555 0 -218.92674474275555 154.4534559474132 0 0 0 0 -70.8130573022558 -3.0705801941658137 0 -3.0705801941658137 114.50936872014427 0 0 0 0 -14.661051689019587 -227.03801188637954 0 -227.03801188637954 -34.668536117249459 0 0 0 0 -170.75929651255274 -47.871422496002197 0 -47.871422496002197 -6.7153745778123266 0 0 0 0 -221.16302017702378 -218.64636816261464 0 -218.64636816261464 285.79452984462841 0 0 0 0 -539.88897684005315 155.83362195546215 0 155.83362195546215 -294.79082448530244 0 0 0 0 -259.06720464293335 -369.47538298010295 0 -369.47538298010295 -313.91345654581528 0 0 0 0 -1411.822503148456 -153.45571814986306 0 -153.45571814986306 2711.1313204480539 0 0 0 0 -916.16295456856733 -541.96329475769016 0 -541.96329475769016 374.6271053190867 0 0 0 0 -0.10070389941460611 -10.158767989076136 0 -10.158767989076136 75.608711096095078 0 0 0 0 385.54192399377553 623.93470538474503 0 623.93470538474503 741.26830950679141 0 0 0 0 -453.26748084930773 63.455018498956633 0 63.455018498956633 1107.4452798696002 0 0 0 0 -121.99488615304381 -185.41824887917755 0 -185.41824887917755 260.05066166147299 0 0 0 0 -95.898863419187819 44.864271903970803 0 44.864271903970803 548.25228335789143 0 0 0 0 -3.3409347351386254 -3.4419546382107598 0 -3.4419546382107598 34.997819356202626 0 0 0 0 -49.270344575845229 -477.13491648610216 0 -477.13491648610216 158.34571054852495 0 0 0 0 -1015.2528024456496 -62.984177791775437 0 -62.984177791775437 230.05302800345817 0 0 0 0 167.75772964262069 -94.548754582836409 0 -94.548754582836409 796.31511841986503 0 0 0 0 414.7785480575194 318.34161957897231 0 318.34161957897231 -511.00654314897838 0 0 0 0 173.46364805716439 -43.261527079943335 0 -43.261527079943335 -743.87992822438537 0 0 0 0 -335.27156736030247 -18.602953706933476 0 -18.602953706933476 226.4592202864078 0 0 0 0 -934.0769852606204 -43.15173223493548 0 -43.15173223493548 448.97749468647089 0 0 0 0 -275.25478745827786 347.83016528282315 0 347.83016528282315 408.65668694938358 0 0 0 0 -1.5499837827403606 -1.0031168599620734 0 -1.0031168599620734 15.73078319169889 0 0 0 0 213.64755649653353 953.87284411344808 0 953.87284411344808 635.08620299550239 0 0 0 0 -947.56107901321684 -730.41863700009708 0 -730.41863700009708 546.73702711828082 0 0 0 0 -700.15205883109593 87.368054913706146 0 87.368054913706146 509.3554071894323 0 0 0 0 884.27097370582851 641.22538364204229 0 641.22538364204229 -406.32640199758498 0 0 0 0 -1376.4845002160473 906.72371292160824 0 906.72371292160824 849.91575399002249 0 0 0 0 -995.85250864787486 1009.0327451877674 0 1009.0327451877674 866.07117273580661 0 0 0 0 -1828.0971690535225 181.46357447869377 0 181.46357447869377 661.95407755589986 0 0 0 0 -590.6888605504264 451.69346002335078 0 451.69346002335078 720.89701246804179 0 0 0 0 -844.10893681292009 114.29108037647893 0 114.29108037647893 803.25102012770367 0 0 0 0 -15.87597724662794 143.30107162809145 0 143.30107162809145 168.3472030253688 0 0 0 0 -31.680958950052357 124.91349764779443 0 124.91349764779443 232.0761434303422 0 0 0 0 51.864245211981142 144.94116204613965 0 144.94116204613965 236.80394060253457 0 0 0 0 -3.9226347700589148 14.539447713392477 0 14.539447713392477 48.295290587741903 0 0 0 0 -1581.1611299710526 -1132.6443181731083 0 -1132.6443181731083 285.08231017332582 0 0 0 0 1.7349079188901069 -7.4236232340502468 0 -7.4236232340502468 25.150437440734578 0 0 0 0 1267.0170747905731 955.42456767040312 0 955.42456767040312 14.567546059231972 0 0 0 0 11.618852411191586 -9.6356181853129428 0 -9.6356181853129428 -4.8236478311075643 0 0 0 0 -1233.5508734277164 473.71127429686476 0 473.71127429686476 -3418.5602660741133 0 0 0 0 1003.8190170722628 -319.33640664866834 0 -319.33640664866834 -213.9696687363612 0 0 0 0 -613.76898336384693 27.09808483782399 0 27.09808483782399 367.06086118484382 0 0 0 0 -1484.9626747969692 -842.12983195913694 0 -842.12983195913694 116.20323517819634 0 0 0 0 -1211.4713469428889 1434.0212952690854 0 1434.0212952690854 2600.9318371870322 0 0 0 0 -9.2848788433783476 13.148131623586778 0 13.148131623586778 8.188432676885725 0 0 0 0 506.27246761490596 1432.2258980380611 0 1432.2258980380611 903.46975669566018 0 0 0 0 -1785.4556937578873 -849.70569346493721 0 -849.70569346493721 79.608458360671648 0 0 0 0 -33.98021917115517 74.479253824677841 0 74.479253824677841 117.10828127836371 0 0 0 0 27.550782520142093 102.11973940372263 0 102.11973940372263 156.44051037313056 0 0 0 0 4088.69776385965 1920.0536513556726 0 1920.0536513556726 -490.53795761050424 0 0 0 0 -21.638582995478956 19.841054480533785 0 19.841054480533785 70.932926239853259 0 0 0 0 -20.716299557161641 39.22079686378035 0 39.22079686378035 83.418150679943082 0 0 0 0 5.4503422696592807 73.197362093031259 0 73.197362093031259 83.371791399676482 0 0 0 0 -2.4926158584712539 -54.801733599725594 0 -54.801733599725594 246.55550791104724 0 0 0 0 -6.8713911074828502 -19.43102997502956 0 -19.43102997502956 209.73078552240622 0 0 0 0 -1678.1679972284837 -342.19054900083574 0 -342.19054900083574 132.29975236399332 0 0 0 0 0.07679069509740799 75.422730533261785 0 75.422730533261785 110.57681308085384 0 0 0 0 18.391706521448668 78.344542961349362 0 78.344542961349362 127.19499617032125 0 0 0 0 35.485507016467182 95.830643990306271 0 95.830643990306271 144.96603007485828 0 0 0 0 -127.21041689581222 209.37404503154903 0 209.37404503154903 276.87255298394257 0 0 0 0 0.59195863822598316 5.6734499081604639 0 5.6734499081604639 65.243603533908015 0 0 0 0 114.07476312112999 281.7894854288952 0 281.7894854288952 231.15193222792732 0 0 0 0 -30.156930440423011 34.368120799721723 0 34.368120799721723 163.86887783974311 0 0 0 0 -176.93298739233728 87.38788282245514 0 87.38788282245514 278.56017781116316 0 0 0 0 -121.65111929486739 -77.521252748159895 0 -77.521252748159895 190.52424111416622 0 0 0 0 28.047228681404249 104.91843494105342 0 104.91843494105342 156.83255416144584 0 0 0 0 -83.003429117154155 -46.745003833260853 0 -46.745003833260853 139.34010108663642 0 0 0 0 -120.13833874814554 105.59290008422431 0 105.59290008422431 242.59147399339417 0 0 0 0 361.41979200750484 354.65651278357791 0 354.65651278357791 195.55818348804132 0 0 0 0 -684.31873811956029 1212.6849658783322 0 1212.6849658783322 -644.71186826349162 0 0 0 0 -898.85629584717935 731.36095296037092 0 731.36095296037092 -637.5316135220346 0 0 0 0 -688.36801351623944 1481.9746260917163 0 1481.9746260917163 316.29012560728006 0 0 0 0 -54.814726354845334 627.01181052946777 0 627.01181052946777 -228.06192160215141 0 0 0 0 -791.69600876259574 -429.90291441077716 0 -429.90291441077716 -539.68894180443021 0 0 0 0 -462.71183651230967 1024.8910020142648 0 1024.8910020142648 -616.168102259835 0 0 0 0 -82.422451289879518 -33.780284525553725 0 -33.780284525553725 144.54866149072768 0 0 0 0 -364.12805373879019 -191.37265631784976 0 -191.37265631784976 199.40335373257403 0 0 0 0 -13.875828793657416 -5.4998714382833214 0 -5.4998714382833214 11.754377492169027 0 0 0 0 79.188420654269976 -27.693729784577954 0 -27.693729784577954 194.29683013519389 0 0 0 0 -3.964142072774294 7.2463990331523433 0 7.2463990331523433 38.272230938035179 0 0 0 0 20.704671746458189 -87.180374108414981 0 -87.180374108414981 164.70080644649715 0 0 0 0 15.889682345788515 -101.99953203462064 0 -101.99953203462064 317.44270491349744 0 0 0 0 -75.835139873808657 -12.155166544980602 0 -12.155166544980602 302.246861396241 0 0 0 0 -33.049952501172811 -19.441038636454323 0 -19.441038636454323 289.47205759461212 0 0 0 0 -31.721955158259334 -3.9660477761945003 0 -3.9660477761945003 464.75348289762042 0 0 0 0 -1290.2076474466194 1952.1322564526054 0 1952.1322564526054 -24.124112051751581 0 0 0 0 136.46430548603257 -46.662945739270071 0 -46.662945739270071 236.46891718600818 0 0 0 0 155.78508445355328 -173.00390278489795 0 -173.00390278489795 455.45590666869248 0 0 0 0 28.847924768512843 20.04052709346162 0 20.04052709346162 9.2641675668421328 0 0 0 0 80.221549360834615 -90.111764747671259 0 -90.111764747671259 304.60856266679184 0 0 0 0 73.219083442386022 -83.285493446632245 0 -83.285493446632245 431.69572208460886 0 0 0 0 286.39453443003003 -119.72201745158236 0 -119.72201745158236 181.91402630697121 0 0 0 0 180.81360544026211 -92.233567233022768 0 -92.233567233022768 253.87523334860452 0 0 0 0 342.2657130180487 -269.51763939796365 0 -269.51763939796365 200.13304293094552 0 0 0 0 240.11936762690675 -221.24739368772134 0 -221.24739368772134 449.47586999658961 0 0 0 0 180.02034774330195 -128.83624210133712 0 -128.83624210133712 522.85952664655633 0 0 0 0 1449.3160822715981 372.2198514577467 0 372.2198514577467 -3607.3574034504709 0 0 0 0 198.06355243037433 -395.93458687629027 0 -395.93458687629027 769.84029293429921 0 0 0 0 59.27370327724293 -230.23555288481293 0 -230.23555288481293 1188.9426098901313 0 0 0 0 27.285699642303129 8.1816318548282538 0 8.1816318548282538 -0.72089361723880074 0 0 0 0 59.665775162699902 -224.89081560698105 0 -224.89081560698105 2416.4437792070926 0 0 0 0 2251.5442433355665 1065.7275489736458 0 1065.7275489736458 6.8975153188221157 0 0 0 0 -3283.5398481493139 596.27772260282654 0 596.27772260282654 2320.4244913137518 0 0 0 0 -2845.1865812950564 -3104.0207496761286 0 -3104.0207496761286 3122.405263227527 0 0 0 0 1116.7109464538826 -1683.0374511698901 0 -1683.0374511698901 791.96773943444714 0 0 0 0 88.925966069593414 1023.8504620219173 0 1023.8504620219173 683.50425604622433 0 0 0 0 -25.236771669278824 721.05101588869002 0 721.05101588869002 765.99015747035446 0 0 0 0 -22.221550150205076 880.82229725620709 0 880.82229725620709 678.42045106899604 0 0 0 0 623.21232927877145 1602.8762448465131 0 1602.8762448465131 525.19950573099777 0 0 0 0 346.33147323185904 859.36784955386975 0 859.36784955386975 1530.0834211134352 0 0 0 0 1247.2334637509557 2174.2702351764237 0 2174.2702351764237 1077.9144266094663 0 0 0 0 -140.37278889957724 175.28677755552053 0 175.28677755552053 648.66139960725195 0 0 0 0 601.43988567363886 924.11441025097156 0 924.11441025097156 207.75028884859057 0 0 0 0 237.35372483507376 1763.7033945631047 0 1763.7033945631047 2676.9511945932754 0 0 0 0 267.78967673712452 483.22665262584633 0 483.22665262584633 2220.299372543901 0 0 0 0 598.07518783940213 1006.8494496585918 0 1006.8494496585918 1106.2788480784748 0 0 0 0 37.358296143476124 -15.964644229901012 0 -15.964644229901012 4.3983039324718476 0 0 0 0 1185.4375115137154 357.39217846183237 0 357.39217846183237 -3487.0621134487228 0 0 0 0 -210.8916254958167 972.33333878967096 0 972.33333878967096 550.9219187054332 0 0 0 0 41.613133849666156 218.74869814710291 0 218.74869814710291 225.46298769224086 0 0 0 0 -100.16883399116341 195.11492012793315 0 195.11492012793315 246.42964661950828 0 0 0 0 -56.986249913701613 293.98187223810964 0 293.98187223810964 225.01868739462225 0 0 0 0 -106.65534306262684 90.281266149973078 0 90.281266149973078 75.115994181664348 0 0 0 0 -127.13934235612396 242.43655074585695 0 242.43655074585695 163.7212429716019 0 0 0 0 475.79271436925319 601.64898783618992 0 601.64898783618992 910.69124915543944 0 0 0 0 -8.7952394888325216 183.83889638249821 0 183.83889638249821 201.69683883857215 0 0 0 0 0.98893011238169493 227.04541467994341 0 227.04541467994341 162.16212767912657 0 0 0 0 -21.048598292334461 -6.1418639056590223 0 -6.1418639056590223 1.8172638257915423 0 0 0 0 105.20942337629094 -18.02291442497517 0 -18.02291442497517 21.17541760543827 0 0 0 0 -4.8106311711856904 90.716931901630971 0 90.716931901630971 63.896369537346828 0 0 0 0 217.6533584775334 451.0623501237842 0 451.0623501237842 -583.99945381245197 0 0 0 0 500.83727357245607 619.56901737699809 0 619.56901737699809 916.43447866774659 0 0 0 0 715.54715915356189 438.88580985273802 0 438.88580985273802 1065.3795077289105 0 0 0 0 130.32329726647421 -13.965521870191111 0 -13.965521870191111 12.44058383811516 0 0 0 0 447.20321721744858 758.41727054811781 0 758.41727054811781 1029.2063105767666 0 0 0 0 563.99382326728119 673.99651052727859 0 673.99651052727859 828.04727664864913 0 0 0 0 442.32298592119497 747.70980899847928 0 747.70980899847928 810.84905837900806 0 0 0 0 427.50881657197681 506.56757576366181 0 506.56757576366181 756.71122702924185 0 0 0 0 608.81053134241029 634.79503192420816 0 634.79503192420816 692.06973033186659 0 0 0 0 584.56220271208895 669.21072482988529 0 669.21072482988529 709.23893871884502 0 0 0 0 556.77490317079605 703.85229989376421 0 703.85229989376421 781.92244605760789 0 0 0 0 627.09372219686156 756.95011258384329 0 756.95011258384329 688.58450232785253 0 0 0 0 851.05029801342425 738.03007071223692 0 738.03007071223692 486.17367002534593 0 0 0 0 576.45176429360436 569.40643482242012 0 569.40643482242012 583.77581310432288 0 0 0 0 769.71456936836285 840.50166073057335 0 840.50166073057335 687.82563205105544 0 0 0 0 668.51409839519465 789.45301764196483 0 789.45301764196483 677.25229155091802 0 0 0 0 567.28502122680197 883.06329284964522 0 883.06329284964522 926.86055228265468 0 0 0 0 791.40396176347258 905.51482874151407 0 905.51482874151407 870.86367677411181 0 0 0 0 437.74187114811662 718.32991519253846 0 718.32991519253846 764.63032833464968 0 0 0 0 585.52532120983471 788.7422575166056 0 788.7422575166056 746.85116295308399 0 0 0 0 405.3039974728631 749.18326766742393 0 749.18326766742393 762.14929093218234 0 0 0 0 188.65774322330049 538.37183621385338 0 538.37183621385338 710.68997617177956 0 0 0 0 -106.05547150615894 347.32254855507199 0 347.32254855507199 669.48807735597074 0 0 0 0 196.69206073600367 547.14201171926106 0 547.14201171926106 639.33018310062471 0 0 0 0 -368.67733874059741 302.67348227222828 0 302.67348227222828 779.13746186908975 0 0 0 0 -87.100500615129022 335.9390866901158 0 335.9390866901158 540.22850346516498 0 0 0 0 -94.126985427371437 153.82622311675368 0 153.82622311675368 642.8287711331941 0 0 0 0 -292.42276816469348 257.3692893194675 0 257.3692893194675 797.20461845303362 0 0 0 0 -177.66068829524738 306.3661878209532 0 306.3661878209532 238.66493610304315 0 0 0 0 376.66735864083694 468.01446931763348 0 468.01446931763348 626.88288550455763 0 0 0 0 271.52093120196423 469.26534488222387 0 469.26534488222387 1073.3099375348174 0 0 0 0 701.66873327452458 646.89082215804228 0 646.89082215804228 762.00711438927101 0 0 0 0 514.45797960815457 685.723977576381 0 685.723977576381 715.61316262102628 0 0 0 0 256.26254482430522 527.95458992075874 0 527.95458992075874 756.82086161260668 0 0 0 0 311.88049672727266 507.34779561584583 0 507.34779561584583 673.77222451750185 0 0 0 0 -3.2043742135058135 0.65662366108153947 0 0.65662366108153947 49.390939047530992 0 0 0 0 -7.1513094053361081 -4.607966579334672 0 -4.607966579334672 41.630670564807758 0 0 0 0 1.2586214919020726 2.920023319475149 0 2.920023319475149 6.9393408217200658 0 0 0 0 -0.32888964410132715 -2.7867070375650655 0 -2.7867070375650655 18.831504702422535 0 0 0 0 0.16089869670665966 0.084652731047555108 0 0.084652731047555108 0.19702559406798059 0 0 0 0 -4.9695921129400347 30.008939788327552 0 30.008939788327552 114.51714907225687 0 0 0 0 -10.917602116747045 42.886498875712277 0 42.886498875712277 105.80783063526906 0 0 0 0 -5.3918209367417456 -4.6627350497797124 0 -4.6627350497797124 8.5423217644226952 0 0 0 0 2.2609442582102375 25.494268976835883 0 25.494268976835883 116.62477881167433 0 0 0 0 0.44851700533953465 7.5429041050144008 0 7.5429041050144008 -0.50024927525004159 0 0 0 0 -7.950287466489069 36.150687396133435 0 36.150687396133435 17.629577661340591 0 0 0 0 -8.9030192347522146 -17.204697761015268 0 -17.204697761015268 26.765391305996673 0 0 0 0 -10.856662300479169 -5.9873115036898525 0 -5.9873115036898525 48.790174198351451 0 0 0 0 3.1305563335726498 19.887425579528028 0 19.887425579528028 51.754883226595211 0 0 0 0 -55.947971394198248 -8.4778687734069536 0 -8.4778687734069536 63.039874158388557 0 0 0 0 21.135381298185621 13.756163191832457 0 13.756163191832457 44.958862650673836 0 0 0 0 -36.204733283006135 47.509087440808798 0 47.509087440808798 31.35056826469372 0 0 0 0 -1.1579971710843893 1.1251053943487932 0 1.1251053943487932 64.721288075030316 0 0 0 0 -14.97550932374179 23.541662640440336 0 23.541662640440336 55.154526460835768 0 0 0 0 -13.629994683729205 -5.5430973467470039 0 -5.5430973467470039 39.135579271388281 0 0 0 0 -6.5853658357331142 12.305787184523069 0 12.305787184523069 108.97996833604702 0 0 0 0 1.8415583641983631 12.953750321874395 0 12.953750321874395 105.51356869377196 0 0 0 0 -0.67482957026609824 10.264639977016486 0 10.264639977016486 100.81088208853907 0 0 0 0 -2.4787784027106508 12.268597057962694 0 12.268597057962694 62.435602774993129 0 0 0 0 -241.8819895801571 61.090375972969923 0 61.090375972969923 133.35546233605419 0 0 0 0 1013.108968924751 -1267.8592699976871 0 -1267.8592699976871 -124.74906826857477 0 0 0 0 -1.1943141804748123 9.6962822514161076 0 9.6962822514161076 18.08326327885888 0 0 0 0 36.411814403714743 -58.857766799221281 0 -58.857766799221281 -0.26897310042113531 0 0 0 0 -54.640804193128133 13.541501224441163 0 13.541501224441163 119.47130225780711 0 0 0 0 -3.3978327809455791 22.018527360308056 0 22.018527360308056 88.440167341388019 0 0 0 0 -8.561269520330228 8.3227156881039264 0 8.3227156881039264 109.81704880693724 0 0 0 0 -0.78543398188779312 -17.896156979750231 0 -17.896156979750231 76.203645504036103 0 0 0 0 -12.430928326845921 2.169210349657078 0 2.169210349657078 101.90229649670073 0 0 0 0 -13.429400027744947 3.7258490324893501 0 3.7258490324893501 105.74633323005401 0 0 0 0 -3.0936320684324983 -12.177595208202547 0 -12.177595208202547 73.553263199864887 0 0 0 0 -8.9443368925488755 -0.5649463476438541 0 -0.5649463476438541 87.331144558440428 0 0 0 0 -14.280066605638449 2.91319594696688 0 2.91319594696688 101.8807238197478 0 0 0 0 4.2719070243595638 -8.3748980640375521 0 -8.3748980640375521 44.543122171191499 0 0 0 0 -21.566923815597335 43.587124000128824 0 43.587124000128824 89.863907808146905 0 0 0 0 1.3713497638865333 -3.3037110732961992 0 -3.3037110732961992 -3.6897564321637333 0 0 0 0 -24.378654584683161 -6.0126831403322285 0 -6.0126831403322285 124.35626112305908 0 0 0 0 1.5774415917059921 6.723948834624025 0 6.723948834624025 339.02432934426906 0 0 0 0 -2.3259291958876389 -15.794065268812119 0 -15.794065268812119 56.164238586643478 0 0 0 0 52.222539437495939 59.499341764807468 0 59.499341764807468 131.2738897115014 0 0 0 0 -10.588719172275503 116.60959698655279 0 116.60959698655279 139.98109036499227 0 0 0 0 -43.033661345354218 25.928697576893683 0 25.928697576893683 697.05805828334996 0 0 0 0 1316.1905747473306 -1953.7445680446035 0 -1953.7445680446035 4984.0735582191701 0 0 0 0 -0.62886995058867146 1.3099281056111352 0 1.3099281056111352 21.406789640928423 0 0 0 0 45.586898280430646 2303.158477498233 0 2303.158477498233 4954.0572852253972 0 0 0 0 126.72998079712518 -2671.9002165700776 0 -2671.9002165700776 4991.0397465086717 0 0 0 0 -421.13754577405211 -610.82268220590777 0 -610.82268220590777 878.87697100559308 0 0 0 0 -5.4391619076776712 1.3856714489141924 0 1.3856714489141924 4.943496843138746 0 0 0 0 263.16270993330124 1193.3573462116597 0 1193.3573462116597 5234.2368277752539 0 0 0 0 -1292.3348957388339 1856.1229155526526 0 1856.1229155526526 -634.00845281522197 0 0 0 0 -3.0040863311047712 1.6617772827875115 0 1.6617772827875115 6.7806614341472482 0 0 0 0 -1976.9963886566488 1959.1432314258709 0 1959.1432314258709 5001.1143047725345 0 0 0 0 620.75186475157102 -322.42196672029968 0 -322.42196672029968 1403.0484726326249 0 0 0 0 -575.37846379649204 -311.5253412999009 0 -311.5253412999009 4281.5953128840774 0 0 0 0 -18.635607691632003 220.51256229817227 0 220.51256229817227 947.42354087575222 0 0 0 0 -332.71396072361449 -143.49674931835034 0 -143.49674931835034 1182.4296842187832 0 0 0 0 -300.94239271396464 -207.92541375874134 0 -207.92541375874134 -512.0300317647052 0 0 0 0 -1183.5562175415789 -136.61724670317199 0 -136.61724670317199 819.02456574419921 0 0 0 0 -16.895946795877066 -3.117325437674026 0 -3.117325437674026 21.515804465278052 0 0 0 0 -4.0698110093584683 -1.9610703125870934 0 -1.9610703125870934 18.896432115983487 0 0 0 0 -3.3980178458815171 4.9073933276453658 0 4.9073933276453658 3.4507176433432107 0 0 0 0 54.383733292923012 -882.38197562177083 0 -882.38197562177083 -993.58981085839332 0 0 0 0 410.22938056549174 -290.01405908953166 0 -290.01405908953166 4.9667980962549336 0 0 0 0 1163.7179234882456 -1246.2121358673612 0 -1246.2121358673612 -636.0513798892498 0 0 0 0 122.57894699474002 -1277.4183503823006 0 -1277.4183503823006 462.98150204878038 0 0 0 0 -1.6907327948098971 9.4954757324173471 0 9.4954757324173471 55.548918365294696 0 0 0 0 248.46888048203868 23.197839503765863 0 23.197839503765863 594.23310933192261 0 0 0 0 -350.69517718279349 128.23328346663766 0 128.23328346663766 1491.6518244791951 0 0 0 0 -3.9720815047912583 -4.4724172700068312 0 -4.4724172700068312 19.030966952576932 0 0 0 0 561.96778354767207 530.21627082666419 0 530.21627082666419 433.14420019110548 0 0 0 0 334.15954741087899 -348.21354066560889 0 -348.21354066560889 442.17778586715576 0 0 0 0 185.78783466608547 -356.96154214076523 0 -356.96154214076523 809.75563211871486 0 0 0 0 -260.52326721808004 -122.59473554270517 0 -122.59473554270517 297.42559836956207 0 0 0 0 -367.13078390992814 469.13354602664185 0 469.13354602664185 1547.138251921162 0 0 0 0 -527.51765063789207 -106.17280413932167 0 -106.17280413932167 617.66354384555598 0 0 0 0 -249.03112187110446 85.531950574659277 0 85.531950574659277 419.8887773064198 0 0 0 0 -89.694982412042009 340.4310966477351 0 340.4310966477351 825.2244568450551 0 0 0 0 -193.28948467091141 -159.36988567876688 0 -159.36988567876688 153.0629803781485 0 0 0 0 -234.20928639769954 -36.371949072738062 0 -36.371949072738062 466.17826024879469 0 0 0 0 -216.6835907945715 22.40976978004619 0 22.40976978004619 415.37811427557608 0 0 0 0 -72.585260322520298 94.728372419980587 0 94.728372419980587 229.52906351684942 0 0 0 0 -174.33859211866366 36.177981839922722 0 36.177981839922722 406.24107305918005 0 0 0 0 -177.81347789094406 -49.40605505309918 0 -49.40605505309918 466.94600616168464 0 0 0 0 261.99344511734034 196.3193613368785 0 196.3193613368785 222.01089694985421 0 0 0 0 8.989389722199121 210.78567034978187 0 210.78567034978187 384.38066473738581 0 0 0 0 52.483181079218411 0.07719924356933916 0 0.07719924356933916 57.210092354085646 0 0 0 0 -13.00393744591752 -2.6839948015701225 0 -2.6839948015701225 14.207474560450436 0 0 0 0 -11.482341220892522 -4.8447051442635711 0 -4.8447051442635711 15.558584752128809 0 0 0 0 -11.529464616893165 -5.6908167805813719 0 -5.6908167805813719 32.585697260787128 0 0 0 0 -14.319837807579166 -7.7799902946010775 0 -7.7799902946010775 8.7155137726432201 0 0 0 0 -12.08841529973688 15.235850166870478 0 15.235850166870478 130.58402262152231 0 0 0 0 -17.769162382442737 0.047524063370445901 0 0.047524063370445901 8.7896959395154681 0 0 0 0 -17.396687157262932 -21.168497905717231 0 -21.168497905717231 114.70843536664324 0 0 0 0 -23.198177784822903 3.1336847472960585 0 3.1336847472960585 17.340654583335493 0 0 0 0 -72.615002393597933 -269.09658169067188 0 -269.09658169067188 -169.46557619454688 0 0 0 0 216.44735951239335 2738.7199143876787 0 2738.7199143876787 4996.7622395715734 0 0 0 0 758.74687718466578 15.257123997653252 0 15.257123997653252 488.40148818631133 0 0 0 0 151.16302283891946 337.61311824966106 0 337.61311824966106 403.73620007073623 0 0 0 0 290.08266871219212 867.17738520167768 0 867.17738520167768 1496.8418928686297 0 0 0 0 -3.1691860818900519 13.55781352002677 0 13.55781352002677 20.664901622069465 0 0 0 0 -304.47244568696431 289.30561341476277 0 289.30561341476277 409.20833261025837 0 0 0 0 -215.97210226683245 112.8170741659269 0 112.8170741659269 664.39466856338549 0 0 0 0 1.3761199066389525 1.7620478694815915 0 1.7620478694815915 2.2070156366404632 0 0 0 0 1397.4112404019754 2593.8555230415077 0 2593.8555230415077 4808.1904526551371 0 0 0 0 -3.8208686308617557 1.0641186638048339 0 1.0641186638048339 2.123252036410463 0 0 0 0 -503.75597372813451 624.04872802449972 0 624.04872802449972 4439.747257993964 0 0 0 0 1070.8665847775903 1712.7055122494639 0 1712.7055122494639 1172.2675219750672 0 0 0 0 1546.0684646513128 743.50661943244631 0 743.50661943244631 -1627.3564538304927 0 0 0 0 -406.68352928305006 -151.63654042968119 0 -151.63654042968119 3120.4629004973322 0 0 0 0 -408.37059488776259 -256.40272618133167 0 -256.40272618133167 2183.2602911586582 0 0 0 0 -10.104726638733773 -1.6062903435812643 0 -1.6062903435812643 8.6049610028977384 0 0 0 0 -25.281684684996435 62.038859105232405 0 62.038859105232405 71.268948189215735 0 0 0 0 2.0041742400394611 -459.02908363053575 0 -459.02908363053575 4965.8218038937775 0 0 0 0 -10.946852191912512 4.5771255374129396 0 4.5771255374129396 33.845507235826517 0 0 0 0 -24.41922510613772 0.57089607437151813 0 0.57089607437151813 12.498138401999171 0 0 0 0 -20.951043397031754 70.598042395591619 0 70.598042395591619 49.294247832149267 0 0 0 0 -4.6453257835037221 57.039195116405608 0 57.039195116405608 32.706010482972488 0 0 0 0 -21.264859321603126 -6.9120715531935275 0 -6.9120715531935275 113.26162219321122 0 0 0 0 -20.047769502985464 16.435176997702399 0 16.435176997702399 7.7236187548198387 0 0 0 0 16.345936997351963 -455.031506463798 0 -455.031506463798 4964.093148906155 0 0 0 0 -17.949545257994941 7.2750290295662126 0 7.2750290295662126 33.924646651934381 0 0 0 0 -13.230928455443182 3.5744188960100018 0 3.5744188960100018 7.9409026918519245 0 0 0 0 25.121069783118024 -463.70825777886785 0 -463.70825777886785 4938.5052477934878 0 0 0 0 69.139924412961605 -828.44598830772884 0 -828.44598830772884 4998.1206433370389 0 0 0 0 -12.489450474937257 4.3529263443051605 0 4.3529263443051605 19.632952208245115 0 0 0 0 -10.100549757496992 15.378619846946094 0 15.378619846946094 64.799032826675102 0 0 0 0 -13.00969203079816 2.795063727427106 0 2.795063727427106 11.830081530394693 0 0 0 0 -4.165952155613077 11.655861102475725 0 11.655861102475725 18.844839198771297 0 0 0 0 2.758718044271518 19.043043384896009 0 19.043043384896009 -6.2357705095564597 0 0 0 0 -7.4801503194048564 45.607727266309666 0 45.607727266309666 -13.909805686213076 0 0 0 0 -8.961135817473405 24.253263290360337 0 24.253263290360337 24.122688779083546 0 0 0 0 -33.857915144638355 63.050050214267685 0 63.050050214267685 -38.436658171354793 0 0 0 0 -32.428434703506355 50.996856251396821 0 50.996856251396821 36.760580664325971 0 0 0 0 155.63857671893675 56.249737154255854 0 56.249737154255854 27.614139168741531 0 0 0 0 -15.612498785111711 54.992965523619205 0 54.992965523619205 -61.386559855774976 0 0 0 0 1.9694769760437509 -0.39310010465837308 0 -0.39310010465837308 -0.58951637563293957 0 0 0 0 1.9175623904125416 1.2238778197202294 0 1.2238778197202294 2.6635150464720994 0 0 0 0 2.0851889654531988 236.33148066834838 0 236.33148066834838 622.67894622081076 0 0 0 0 -211.4881415115342 -6.8470767589824391 0 -6.8470767589824391 486.30735658894992 0 0 0 0 88.246882154008745 -263.93984507808273 0 -263.93984507808273 506.35644797846908 0 0 0 0 1.8240784495155147 3.3767815075963767 0 3.3767815075963767 4.6735095223921235 0 0 0 0 29.676433324219033 -115.59474098942883 0 -115.59474098942883 234.57074783043936 0 0 0 0 -58.708160967878939 33.785741150088143 0 33.785741150088143 340.98074320301384 0 0 0 0 -66.657829146640779 57.19568952991176 0 57.19568952991176 650.74331220772001 0 0 0 0 323.8749714575282 -149.54832883834456 0 -149.54832883834456 -125.25848521426087 0 0 0 0 -539.10274918572759 -19.355015330467722 0 -19.355015330467722 879.77453589092329 0 0 0 0 331.51482431500699 109.53632333863061 0 109.53632333863061 14.911024182045367 0 0 0 0 77.377069273257803 -49.955065298840054 0 -49.955065298840054 54.989503534070536 0 0 0 0 -10.37460873758755 -316.8051405592123 0 -316.8051405592123 -85.538985997918644 0 0 0 0 -7.6992873858935127 -172.86060829995404 0 -172.86060829995404 -176.46473976668494 0 0 0 0 -186.2044708534122 -219.67062958881434 0 -219.67062958881434 -19.11068373118178 0 0 0 0 -1.7772232247130475 -5.8669664552346319 0 -5.8669664552346319 7.7058549266093159 0 0 0 0 379.58885069858661 -230.60527708676818 0 -230.60527708676818 56.475024077342823 0 0 0 0 -79.561981975653907 -177.39716237434914 0 -177.39716237434914 -47.606424916928518 0 0 0 0 -35.350799966607951 35.103448591697088 0 35.103448591697088 -31.967503693100298 0 0 0 0 58.429608079185527 -319.16249728934054 0 -319.16249728934054 -651.61383443587692 0 0 0 0 116.9724583109587 -267.4342765813235 0 -267.4342765813235 149.24262685232679 0 0 0 0 -111.15202792774835 -492.75233154097805 0 -492.75233154097805 260.33163231317212 0 0 0 0 -227.52261254566565 -95.410463282823912 0 -95.410463282823912 184.01646852757403 0 0 0 0 -242.50105511639595 -251.26625389550463 0 -251.26625389550463 943.57284282854562 0 0 0 0 0.25971332612523668 -0.97275001700248254 0 -0.97275001700248254 -0.96992387028289428 0 0 0 0 -19.002492722574061 -237.88887529445856 0 -237.88887529445856 108.96857564599486 0 0 0 0 -576.95012834498539 259.59126492047653 0 259.59126492047653 273.72779359355263 0 0 0 0 0.76236252075287858 16.829200143289469 0 16.829200143289469 60.675508591494122 0 0 0 0 -232.49488781164109 -24.153796430229704 0 -24.153796430229704 24.470791041632765 0 0 0 0 -236.38297050814253 82.522459344014351 0 82.522459344014351 692.38532971694076 0 0 0 0 139.95798427171712 168.40021009421253 0 168.40021009421253 41.560142069589347 0 0 0 0 663.16090221113154 176.54921166884014 0 176.54921166884014 420.64670338816359 0 0 0 0 89.1578616430088 86.554521928344911 0 86.554521928344911 484.12040561700269 0 0 0 0 -27.511177617053704 -222.83607263558451 0 -222.83607263558451 1074.3725649596599 0 0 0 0 -25.422720210027364 -207.59119240623113 0 -207.59119240623113 484.32978808191547 0 0 0 0 -82.895172214495688 36.026658122806111 0 36.026658122806111 845.65687092195003 0 0 0 0 -176.56129166305618 29.315424990636529 0 29.315424990636529 933.23068943884573 0 0 0 0 -183.04830238282375 -1.5619252327887807 0 -1.5619252327887807 798.22535280317243 0 0 0 0 -202.23459577653557 23.085867741887341 0 23.085867741887341 830.44290726608597 0 0 0 0 -143.70996330825255 28.911125658472884 0 28.911125658472884 625.35714415961411 0 0 0 0 -132.83498922485887 103.21297711312218 0 103.21297711312218 758.91720299411099 0 0 0 0 -112.05809019950175 94.591308226910769 0 94.591308226910769 678.10399047538522 0 0 0 0 -85.530204042959667 187.82280352030648 0 187.82280352030648 908.60434667346999 0 0 0 0 -69.627635904696945 153.45535084520816 0 153.45535084520816 685.53614323876536 0 0 0 0 171.21878419892892 640.40240174360224 0 640.40240174360224 746.45475271141186 0 0 0 0 24.805314758854365 120.61437351998757 0 120.61437351998757 807.24193752794963 0 0 0 0 1.2683435724852847 -2.9300642459213719 0 -2.9300642459213719 -0.55533495490669793 0 0 0 0 378.13972618756088 705.47465178332641 0 705.47465178332641 1358.8029906467709 0 0 0 0 2.5574502941259496 -3.8007665871291181 0 -3.8007665871291181 5.4681776466791803 0 0 0 0 54.755207428570429 311.09324780546012 0 311.09324780546012 1865.9122004879609 0 0 0 0 164.60670952158034 254.61799295803939 0 254.61799295803939 933.14735467248829 0 0 0 0 -53.968752420732926 131.07574262766866 0 131.07574262766866 1156.9473203570524 0 0 0 0 3.1758567599699745 -188.84236018186493 0 -188.84236018186493 1009.168929155072 0 0 0 0 426.05018540184028 -439.03358053073134 0 -439.03358053073134 1331.4877369948081 0 0 0 0 303.9668779619451 -63.373648211378168 0 -63.373648211378168 473.51474221568787 0 0 0 0 -70.931557302876172 -8.907200354107772 0 -8.907200354107772 544.93756513867993 0 0 0 0 -6.8318785074156949 -134.51298806719569 0 -134.51298806719569 728.03121717035538 0 0 0 0 -150.79601136065503 -41.136623721249634 0 -41.136623721249634 787.56127970427042 0 0 0 0 -194.59013628764296 12.009135531407082 0 12.009135531407082 782.27279649089905 0 0 0 0 -157.29563874280211 110.87987683806568 0 110.87987683806568 603.58615622531943 0 0 0 0 -168.27928622535546 4.6154597594722873 0 4.6154597594722873 673.33384373597801 0 0 0 0 -155.12455280204995 85.219856844152673 0 85.219856844152673 657.40406214859104 0 0 0 0 -176.58792950531279 134.62899614300113 0 134.62899614300113 714.01838087796932 0 0 0 0 -219.74831720522707 41.119813084835187 0 41.119813084835187 835.11862977669807 0 0 0 0 -228.73887093428493 36.692667227849597 0 36.692667227849597 833.84843461235869 0 0 0 0 -217.49897607786852 38.808315623075032 0 38.808315623075032 796.29752315580845 0 0 0 0 -220.80782662766433 3.7710780878842343 0 3.7710780878842343 819.17600790873985 0 0 0 0 -15.670234839197292 326.74687235579768 0 326.74687235579768 911.09685212965996 0 0 0 0 66.729673623900453 280.43732316799287 0 280.43732316799287 610.85008920295513 0 0 0 0 -60.560652599104287 216.42243493063143 0 216.42243493063143 645.71706694751629 0 0 0 0 -175.75637385734012 147.09578131323178 0 147.09578131323178 891.83700338384369 0 0 0 0 -180.35840412485413 116.21891512014554 0 116.21891512014554 862.00151758070569 0 0 0 0 -230.05918293496143 42.688788314728299 0 42.688788314728299 972.09861746313982 0 0 0 0 -182.09304823141758 133.87103407586619 0 133.87103407586619 1071.3055824571638 0 0 0 0 -183.97067306415556 71.44772484380519 0 71.44772484380519 999.2687659416697 0 0 0 0 -171.41521398343343 170.43809398399753 0 170.43809398399753 1556.2054229178466 0 0 0 0 -141.00168523403022 -182.61787341507488 0 -182.61787341507488 1117.323068247526 0 0 0 0 -126.22356890870469 -251.5643923911266 0 -251.5643923911266 1190.8624066353659 0 0 0 0 -141.84200106179196 -235.21788557330729 0 -235.21788557330729 898.83753135261941 0 0 0 0 -226.07280569637032 -39.982258585902855 0 -39.982258585902855 896.41210685891565 0 0 0 0 -214.55380989605874 -24.21765988804691 0 -24.21765988804691 850.7636936668714 0 0 0 0 -224.97438141648854 -15.774165651673684 0 -15.774165651673684 1157.7214711384731 0 0 0 0 -185.48752010093085 -134.6184718755685 0 -134.6184718755685 856.87898045071051 0 0 0 0 -117.67449083061729 -126.48345492055523 0 -126.48345492055523 643.73884857416851 0 0 0 0 -136.37471112122148 -168.21217734279344 0 -168.21217734279344 688.99746708478779 0 0 0 0 -143.7097385038428 -161.22815019348491 0 -161.22815019348491 804.13221478270134 0 0 0 0 20.507865556946854 -262.40832118372782 0 -262.40832118372782 571.54657627866254 0 0 0 0 -13.93673231936009 -160.33581463567316 0 -160.33581463567316 440.93652580014896 0 0 0 0 90.78683825839471 -444.20311998359102 0 -444.20311998359102 730.81444974031183 0 0 0 0 -198.68880241304032 -12.851449542256887 0 -12.851449542256887 713.10344559128862 0 0 0 0 -199.88438624346236 20.361142002162524 0 20.361142002162524 784.81600601245009 0 0 0 0 -213.98477391717643 -0.56417756338487379 0 -0.56417756338487379 796.64336020447081 0 0 0 0 -221.42463460913314 -10.270823055834626 0 -10.270823055834626 789.51095558368252 0 0 0 0 -222.12360636687299 -23.762080976855941 0 -23.762080976855941 873.75345495151123 0 0 0 0 -201.83003835337877 -16.762677686230745 0 -16.762677686230745 791.65221832295356 0 0 0 0 -173.04265871127518 -62.201609034364083 0 -62.201609034364083 714.8043509889394 0 0 0 0 -174.35007165942625 -68.755801241728477 0 -68.755801241728477 699.04403469836689 0 0 0 0 -114.54303205923861 -146.97413816585322 0 -146.97413816585322 626.50556564850558 0 0 0 0 -141.59138287765018 6.9069168067071587 0 6.9069168067071587 581.70568756258581 0 0 0 0 -148.5010875671469 26.786908400608809 0 26.786908400608809 698.89380147942575 0 0 0 0 -4.3507911770532885 1.2932462194552272 0 1.2932462194552272 -1.8323867700787275 0 0 0 0 -4.3680424949125154 93.060616891270911 0 93.060616891270911 272.46240596025746 0 0 0 0 25.239350719207323 -54.870126503279607 0 -54.870126503279607 181.47435688295081 0 0 0 0 -87.036192245115672 -70.311465030215913 0 -70.311465030215913 482.44046982482541 0 0 0 0 -77.881816340544901 -101.23475627365406 0 -101.23475627365406 487.20825847418018 0 0 0 0 -76.29172365980412 -110.16684493581124 0 -110.16684493581124 516.95398428145563 0 0 0 0 -85.755831869366375 -79.058213105017785 0 -79.058213105017785 540.71968041284708 0 0 0 0 45.616968063830882 38.985972616201252 0 38.985972616201252 36.445889156922931 0 0 0 0 -70.698129458076437 -108.90629182328121 0 -108.90629182328121 406.87986123352312 0 0 0 0 13.353339648398105 -154.16745468499721 0 -154.16745468499721 358.37225407951337 0 0 0 0 -46.62246941672538 -29.216890553347184 0 -29.216890553347184 185.50372105039423 0 0 0 0 -43.976376562946825 -89.771861328015802 0 -89.771861328015802 374.02466265231487 0 0 0 0 -64.001189691894979 -167.68579737225082 0 -167.68579737225082 307.0738184027432 0 0 0 0 -51.279486234032902 -207.43893888690218 0 -207.43893888690218 519.49917810061015 0 0 0 0 -144.21215606434635 -69.805215460248291 0 -69.805215460248291 283.51607035359484 0 0 0 0 -240.94405106748218 79.160940931171353 0 79.160940931171353 195.22021552349906 0 0 0 0 -21.809684999668207 197.0775734999188 0 197.0775734999188 -151.53950637491653 0 0 0 0 -25.909969252218559 -10.758927778864745 0 -10.758927778864745 24.055786915210774 0 0 0 0 -157.56214118858543 103.26669517895425 0 103.26669517895425 68.839186563753174 0 0 0 0 -19.085032427267311 16.239253846054339 0 16.239253846054339 2.0631251957244388 0 0 0 0 -4.7656800284182168 -12.317910616748122 0 -12.317910616748122 23.767772990788217 0 0 0 0 74.45989177431602 -99.123799476816203 0 -99.123799476816203 -269.51553920345032 0 0 0 0 -16.23114740945843 15.43531122470813 0 15.43531122470813 42.922256954800105 0 0 0 0 0.39491491597923156 2.2101822402083826 0 2.2101822402083826 -3.1431400603732698 0 0 0 0 2.8604489028884927 32.574720643715409 0 32.574720643715409 -80.103225583741732 0 0 0 0 -18.967434105638848 19.938648166690967 0 19.938648166690967 -8.3785760471368178 0 0 0 0 -84.605419961687858 63.12715476831363 0 63.12715476831363 333.94744421407813 0 0 0 0 -12.069034313538168 41.46384585522901 0 41.46384585522901 -26.740322288300376 0 0 0 0 -181.71607746597783 97.535512306159944 0 97.535512306159944 243.42375286534661 0 0 0 0 -76.221375648389767 7.0011341860954417 0 7.0011341860954417 -14.655965822486905 0 0 0 0 -1.9817957913039663 82.611373955282033 0 82.611373955282033 57.649314610622241 0 0 0 0 -8.9497928877937376 -1.1825327114700883 0 -1.1825327114700883 9.6666610198465719 0 0 0 0 -17.50729171176954 73.46665727096115 0 73.46665727096115 434.17659053526586 0 0 0 0 -21.754830765318367 11.459603382503872 0 11.459603382503872 9.839369211366872 0 0 0 0 111.56463098242966 200.5241943091969 0 200.5241943091969 399.27547898504417 0 0 0 0 -49.600669353176272 147.91321911700652 0 147.91321911700652 518.54530138056725 0 0 0 0 -73.046712732149899 102.19499310087122 0 102.19499310087122 508.24008464071085 0 0 0 0 14.574344900960568 -75.669873005419504 0 -75.669873005419504 233.82589999169431 0 0 0 0 -5.7700699560682551 -5.134195958104101 0 -5.134195958104101 14.767512792212074 0 0 0 0 -1.7410455985160702 -3.9048310905184493 0 -3.9048310905184493 14.771928618536606 0 0 0 0 -2.2397302426672407 -16.391851921632249 0 -16.391851921632249 71.641198603810153 0 0 0 0 -123.44341144639839 -114.2269735835871 0 -114.2269735835871 -60.348537636440597 0 0 0 0 -221.0597928117736 31.083535764839326 0 31.083535764839326 167.51659334613942 0 0 0 0 -136.7374609655817 -104.92602235137747 0 -104.92602235137747 26.343956587894354 0 0 0 0 -89.285165453318768 122.41262352887861 0 122.41262352887861 228.45192981235869 0 0 0 0 -185.31472616828705 -176.61764135878184 0 -176.61764135878184 175.46274646246457 0 0 0 0 -635.46738362936094 -295.21578256701105 0 -295.21578256701105 653.4623706866405 0 0 0 0 37.147739744536466 43.219601234231959 0 43.219601234231959 40.18531492369948 0 0 0 0 -192.62820679657307 -85.069656919295085 0 -85.069656919295085 80.027105239540106 0 0 0 0 -55.227369685337862 42.478121357242344 0 42.478121357242344 136.70914362379699 0 0 0 0 -248.01273747994514 -76.371382799217827 0 -76.371382799217827 132.63237254912383 0 0 0 0 -262.6557220226594 -17.32023736433257 0 -17.32023736433257 152.11270341614727 0 0 0 0 -224.97531505503594 -78.810111300590506 0 -78.810111300590506 72.396253294020426 0 0 0 0 -370.44730688677714 -185.82029688318289 0 -185.82029688318289 41.327089910693758 0 0 0 0 -254.84417527086453 -44.513528077484807 0 -44.513528077484807 86.437538618672988 0 0 0 0 -7.3259293276929824 5.3479047821393237 0 5.3479047821393237 5.80608168388585 0 0 0 0 5.3427372122256322 -24.554562603626426 0 -24.554562603626426 77.280609688264121 0 0 0 0 -393.79704326927094 -485.32799838474602 0 -485.32799838474602 345.92380787507864 0 0 0 0 -105.33806044313678 12.974626482769963 0 12.974626482769963 -471.92371127924707 0 0 0 0 -95.211389695490652 22.612547790427925 0 22.612547790427925 -37.410405413786066 0 0 0 0 -115.62469502615386 -2.4188923138790415 0 -2.4188923138790415 -44.254117543401662 0 0 0 0 -73.346244934629794 50.072583962712088 0 50.072583962712088 -16.031686730711954 0 0 0 0 -72.851039063433745 58.412121373716218 0 58.412121373716218 -172.51231337536592 0 0 0 0 -260.34262086256149 100.98708313558018 0 100.98708313558018 43.957610348574235 0 0 0 0 -212.37385581362832 122.61519695259631 0 122.61519695259631 29.661539977852954 0 0 0 0 -123.65604030425675 74.936507093982073 0 74.936507093982073 48.718822045862908 0 0 0 0 -122.67654258363837 20.37222776132694 0 20.37222776132694 143.16707149374997 0 0 0 0 -207.94110225448776 23.353853933344453 0 23.353853933344453 157.82277352549136 0 0 0 0 1.7210997567659985 -4.2736160013363929 0 -4.2736160013363929 1.1044386016277485 0 0 0 0 132.60335626272899 -86.032317397628503 0 -86.032317397628503 -52.033040554437321 0 0 0 0 7.7437971250226543 -27.774080097391987 0 -27.774080097391987 66.187256006521125 0 0 0 0 -373.99041782976758 -58.412704300023506 0 -58.412704300023506 159.83174637521734 0 0 0 0 -26.527213367028335 10.540849431363711 0 10.540849431363711 14.268396650481975 0 0 0 0 -54.516313306375672 -100.65199264469993 0 -100.65199264469993 3998.4980116532388 0 0 0 0 -102.63782182081832 -135.31799157721252 0 -135.31799157721252 197.13463685216266 0 0 0 0 104.75459584346754 15.348371203530405 0 15.348371203530405 127.96333228138974 0 0 0 0 9.8176057423314766 -30.533258337369304 0 -30.533258337369304 55.751275090864283 0 0 0 0 -60.835895125985367 -407.94017660527606 0 -407.94017660527606 5001.3505576695588 0 0 0 0 -34.882609829065416 2.6871083636716548 0 2.6871083636716548 10.470533842205271 0 0 0 0 -115.23599763146558 -25.979742639319738 0 -25.979742639319738 183.44400884887 0 0 0 0 -165.27108397839947 13.997010629514989 0 13.997010629514989 151.5053670713678 0 0 0 0 -137.62028403225486 -52.387548608196084 0 -52.387548608196084 214.95126728033938 0 0 0 0 -1110.5738150443151 -860.44026948843384 0 -860.44026948843384 4993.0766939517707 0 0 0 0 -158.31244625387319 -344.35603457588877 0 -344.35603457588877 2225.1850887139553 0 0 0 0 -10.217608744891436 -248.32843096970464 0 -248.32843096970464 205.80644151606248 0 0 0 0 183.46546512477698 -50.641057725340943 0 -50.641057725340943 1236.7314761771122 0 0 0 0 -13.252309947217697 -83.800913829705678 0 -83.800913829705678 2973.46936926333 0 0 0 0 -223.36436097378075 -2655.6005308412423 0 -2655.6005308412423 2535.082510260987 0 0 0 0 -36.740635625540421 1014.7240747384349 0 1014.7240747384349 4994.4424641595251 0 0 0 0 -384.47824756128261 -95.220679316757014 0 -95.220679316757014 41.602343222126365 0 0 0 0 511.45004831777618 -2675.6682808164842 0 -2675.6682808164842 -46.455040076514706 0 0 0 0 -0.50759542065042274 -1.3968033132592126 0 -1.3968033132592126 17.244110957934481 0 0 0 0 -3.6720901454285912 -4.3326882726005351 0 -4.3326882726005351 12.097120572976902 0 0 0 0 -1212.538605229224 99.532403590666945 0 99.532403590666945 558.27323120311485 0 0 0 0 -1348.9249877990828 -1177.3829685579549 0 -1177.3829685579549 -860.22876761670341 0 0 0 0 -520.51685061105172 174.56221809278941 0 174.56221809278941 6.7646782007604997 0 0 0 0 -716.50343871822247 -246.13466856855666 0 -246.13466856855666 685.33249286952196 0 0 0 0 -577.33247325542857 38.981169839214033 0 38.981169839214033 457.57716931958566 0 0 0 0 -578.77895306214259 -223.12677813429036 0 -223.12677813429036 64.673785225517349 0 0 0 0 -724.58342429761592 -559.22869977002847 0 -559.22869977002847 -20.25472432654351 0 0 0 0 -738.44888569567433 -339.75058850859932 0 -339.75058850859932 275.86388411873486 0 0 0 0 -500.35359963913777 -1.253665622054541 0 -1.253665622054541 339.69318925321568 0 0 0 0 -394.30497340418583 -165.07115139072994 0 -165.07115139072994 -99.944228534921422 0 0 0 0 -195.27139111058125 354.82967983555864 0 354.82967983555864 430.19916667557936 0 0 0 0 -325.75055738765536 34.726770408466109 0 34.726770408466109 182.52339325216599 0 0 0 0 104.3247134588421 435.85229466285091 0 435.85229466285091 565.78551054114814 0 0 0 0 -39.550333657051397 386.55633450149617 0 386.55633450149617 630.6481533201295 0 0 0 0 -41.169412235956152 93.662849004314126 0 93.662849004314126 545.32432159638847 0 0 0 0 145.32194835772304 503.10678712766094 0 503.10678712766094 1179.277817652106 0 0 0 0 297.21486234090463 216.36245179395337 0 216.36245179395337 916.47060459834756 0 0 0 0 450.15333144962159 327.57763449976483 0 327.57763449976483 139.00094541240833 0 0 0 0 189.89565656549962 185.62941242463421 0 185.62941242463421 62.547157685825368 0 0 0 0 116.1668204182063 174.00908586216246 0 174.00908586216246 82.029086395537888 0 0 0 0 126.55104463554869 325.742497934516 0 325.742497934516 194.92087971972069 0 0 0 0 -11.722458320072576 233.02489719522055 0 233.02489719522055 266.38699212876963 0 0 0 0 -57.733932851211534 230.19923156873847 0 230.19923156873847 154.36337472414016 0 0 0 0 -232.96635522504312 151.76653997928224 0 151.76653997928224 248.37473818262515 0 0 0 0 -72.425465010705011 131.02426835986262 0 131.02426835986262 138.32700641806878 0 0 0 0 25.93346131634873 134.74782379693988 0 134.74782379693988 127.69692263309844 0 0 0 0 -110.28384068804871 92.754993555085093 0 92.754993555085093 166.26095232611988 0 0 0 0 -7.1213773547115125 164.54460258749896 0 164.54460258749896 148.16217598241201 0 0 0 0 40.007314741426171 78.719898511102656 0 78.719898511102656 165.04350440812414 0 0 0 0 -3.0556095607419507 -0.17024560842796177 0 -0.17024560842796177 4.3948307631110879 0 0 0 0 12.330755414755849 148.63560999658148 0 148.63560999658148 125.94559074725839 0 0 0 0 107.18317546151718 168.15341397668089 0 168.15341397668089 111.62571765317989 0 0 0 0 -14.38425883569613 8.4767870758951176 0 8.4767870758951176 16.114721212768927 0 0 0 0 -0.41247104787437761 -0.1204136790291841 0 -0.1204136790291841 0.34265037670706988 0 0 0 0 -27.269600565012524 -14.243398732272908 0 -14.243398732272908 -10.055788812289393 0 0 0 0 -142.40598216009471 -4.7911842836329015 0 -4.7911842836329015 -10.669413525072741 0 0 0 0 -715.38782835463701 -268.09600763508934 0 -268.09600763508934 -452.31453266851895 0 0 0 0 -1377.2953643966773 1284.8561935252801 0 1284.8561935252801 450.13785575535076 0 0 0 0 -335.52518015641101 -235.87307166793471 0 -235.87307166793471 128.42706907136017 0 0 0 0 -3080.0095719910737 -367.84151708640275 0 -367.84151708640275 1459.2089319766455 0 0 0 0 -2.8278002051309201 -1.9016932038032195 0 -1.9016932038032195 69.973625986912793 0 0 0 0 76.224924406762057 277.64515557589766 0 277.64515557589766 -582.78494357956515 0 0 0 0 211.85319664984667 15.432723671068743 0 15.432723671068743 -38.645059863265487 0 0 0 0 -46.331798930980767 -459.3326118312325 0 -459.3326118312325 -280.26780912769027 0 0 0 0 396.17686819199974 122.68111932472675 0 122.68111932472675 11.873376797077071 0 0 0 0 349.32641942467257 147.60906274842273 0 147.60906274842273 28.159543434274383 0 0 0 0 930.28359710834877 1112.4852867360751 0 1112.4852867360751 959.60874994266487 0 0 0 0 754.84906406554376 626.24833497789223 0 626.24833497789223 230.83042546655633 0 0 0 0 688.0363703678704 828.4958522956731 0 828.4958522956731 926.38819581197458 0 0 0 0 258.48598490930118 493.55538110372436 0 493.55538110372436 1688.5182805633813 0 0 0 0 817.24138514199569 324.09164363257969 0 324.09164363257969 -375.11730814128532 0 0 0 0 776.14654149872558 -1362.8458604399275 0 -1362.8458604399275 -543.09683346973725 0 0 0 0 4390.9368205461769 -1628.058091779938 0 -1628.058091779938 5004.0367361116951 0 0 0 0 -303.20295208369566 -2619.8162829137727 0 -2619.8162829137727 5269.3551872577646 0 0 0 0 888.0959621609486 1383.6850222184094 0 1383.6850222184094 2621.3412689168181 0 0 0 0 1269.4646604240743 -3103.655624602934 0 -3103.655624602934 2049.034646259388 0 0 0 0 1.1906127959573412 -3.5853356035377555 0 -3.5853356035377555 33.599911681694266 0 0 0 0 -277.0354918349733 504.58657808853604 0 504.58657808853604 5826.3462735725334 0 0 0 0 -246.84827266111432 236.70750335692719 0 236.70750335692719 3256.4855293451983 0 0 0 0 -305.01772963880325 323.12986981149879 0 323.12986981149879 3159.0728510928311 0 0 0 0 75.692483044719665 588.1672903533763 0 588.1672903533763 1704.2751493947362 0 0 0 0 27.263005637283463 908.56771440273587 0 908.56771440273587 3294.9715964593343 0 0 0 0 -663.60517274662675 -1824.8285743344677 0 -1824.8285743344677 4997.768335294124 0 0 0 0 -529.33719974952078 -1011.7811066881695 0 -1011.7811066881695 3834.4865964921773 0 0 0 0 -291.10125752655512 -2276.4746006754649 0 -2276.4746006754649 3282.6807571215177 0 0 0 0 305.46807344668252 -1792.3504870916804 0 -1792.3504870916804 3088.1371141529016 0 0 0 0 977.05030699240808 -2319.082239208351 0 -2319.082239208351 1315.5744929897046 0 0 0 0 91.779609271120876 -519.87103421299105 0 -519.87103421299105 846.8474579758913 0 0 0 0 250.94806236910694 -1608.978008615677 0 -1608.978008615677 2538.9643175632518 0 0 0 0 677.46680971244655 -630.16795402105345 0 -630.16795402105345 2156.2265366390493 0 0 0 0 145.79130159664095 -277.99998412345667 0 -277.99998412345667 2430.6552169357019 0 0 0 0 -196.45998552366004 64.285219377208705 0 64.285219377208705 2360.7256306686468 0 0 0 0 641.39646206361351 451.81211077841363 0 451.81211077841363 2075.7866430524882 0 0 0 0 684.21586102577965 -1023.9583037801567 0 -1023.9583037801567 1171.0312617934178 0 0 0 0 2098.6414251828655 -200.91849904833362 0 -200.91849904833362 915.40808681094677 0 0 0 0 1914.1383525824565 486.62819640993257 0 486.62819640993257 0.6221150513010798 0 0 0 0 -796.27970917622486 -177.22019688166165 0 -177.22019688166165 2576.172077638359 0 0 0 0 837.53767686861238 1531.1395662951909 0 1531.1395662951909 678.91543011937028 0 0 0 0 -477.62551633738002 1004.1630408140772 0 1004.1630408140772 665.22566744075448 0 0 0 0 -1.1851112270842608 16.17483451200593 0 16.17483451200593 14.355977606382964 0 0 0 0 -16.341129335919618 -241.81693063337298 0 -241.81693063337298 1976.0572936060171 0 0 0 0 -322.89959885138524 1138.9393693663733 0 1138.9393693663733 208.78503885050304 0 0 0 0 -122.94750511254688 508.17389353734325 0 508.17389353734325 -2610.6661736236565 0 0 0 0 62.826995932272872 75.43114956354728 0 75.43114956354728 20.16400512763019 0 0 0 0 7.5850400977517083 -0.15317756997228571 0 -0.15317756997228571 -2.2630663041068431 0 0 0 0 -383.91454640641723 719.23841052841817 0 719.23841052841817 -2180.5623125592538 0 0 0 0 -250.87780458198904 281.5614902228408 0 281.5614902228408 2096.1729473245941 0 0 0 0 72.828146578942139 -62.646787802266772 0 -62.646787802266772 525.13979987922357 0 0 0 0 -12.225993831631513 87.71840786240864 0 87.71840786240864 1243.5008570899081 0 0 0 0 -310.42013567279469 -201.75745226624713 0 -201.75745226624713 -2020.8363035558432 0 0 0 0 -550.2852346779996 498.8887851281761 0 498.8887851281761 -1519.5310330353241 0 0 0 0 696.54610165486019 647.46008499516029 0 647.46008499516029 395.9939663730147 0 0 0 0 9.1393284059508595 7.7676179233092455 0 7.7676179233092455 6.119497858178363 0 0 0 0 548.57166404284681 1578.0387295951659 0 1578.0387295951659 -585.57684351399075 0 0 0 0 425.77893547977067 1348.6101603098759 0 1348.6101603098759 -330.79755416256376 0 0 0 0 -547.91091032903921 720.91868849881939 0 720.91868849881939 -111.07796324230731 0 0 0 0 -2057.8467305997001 581.07975112487838 0 581.07975112487838 335.29264489380876 0 0 0 0 -529.05520285376224 1113.3989328491007 0 1113.3989328491007 67.615823735184676 0 0 0 0 -1088.4710395601585 323.07461860045441 0 323.07461860045441 -731.23830057759187 0 0 0 0 25.086829927204917 828.03364221812808 0 828.03364221812808 -799.15120209052111 0 0 0 0 -51.676063416796524 -13.310554479023267 0 -13.310554479023267 32.668185789050767 0 0 0 0 -5.3073561281916248 11.027564419168675 0 11.027564419168675 62.032437589626682 0 0 0 0 -49.0401644549097 -0.90626659773988649 0 -0.90626659773988649 61.848686079247273 0 0 0 0 30.785098678876238 -20.320298685139278 0 -20.320298685139278 35.011066939681768 0 0 0 0 -20.411982855626682 13.35105942580492 0 13.35105942580492 23.394130464346262 0 0 0 0 -32.302434970896797 -6.7997721307328902 0 -6.7997721307328902 16.738334075187595 0 0 0 0 -50.38308092174907 -6.6683895418318571 0 -6.6683895418318571 54.121003252570517 0 0 0 0 -4.196620536951289 7.9148687322762576 0 7.9148687322762576 46.032141803340892 0 0 0 0 -174.42095911143315 128.18863501677697 0 128.18863501677697 55.678207859557006 0 0 0 0 34.114361295904018 67.216127798848902 0 67.216127798848902 0.87864347110007657 0 0 0 0 28.325779278869959 74.845714529772522 0 74.845714529772522 55.288468595041195 0 0 0 0 152.12190978790704 128.23057479190538 0 128.23057479190538 -135.60133648835472 0 0 0 0 257.58533413305122 -200.60266531418893 0 -200.60266531418893 264.36056223994819 0 0 0 0 258.53175739601227 189.36155265010893 0 189.36155265010893 201.09030092378089 0 0 0 0 -41.438095417893237 986.55874229159235 0 986.55874229159235 -1174.5816675398964 0 0 0 0 8.2317474746198602 8.6016832529616352 0 8.6016832529616352 12.720852664135819 0 0 0 0 -188.47026447342887 10.017707163933665 0 10.017707163933665 412.49226724622713 0 0 0 0 245.50560041990889 642.56956916075433 0 642.56956916075433 1351.9109974750318 0 0 0 0 187.15918262182822 434.31233594368678 0 434.31233594368678 825.48918074072571 0 0 0 0 -189.49717517955014 117.61133925899776 0 117.61133925899776 2610.3409604942717 0 0 0 0 62.263597722207578 -108.55946669609693 0 -108.55946669609693 1572.7272951016766 0 0 0 0 479.63662705694355 285.20908459652128 0 285.20908459652128 140.51746831499622 0 0 0 0 740.54210007223264 1129.2123247097916 0 1129.2123247097916 1273.0357408186246 0 0 0 0 440.30560687568232 -669.59693532292295 0 -669.59693532292295 961.70068907956011 0 0 0 0 0.10239175937972389 1.1647403151867373 0 1.1647403151867373 17.289058062414597 0 0 0 0 754.67592601873093 521.62520187558039 0 521.62520187558039 -38.646661166101694 0 0 0 0 561.39259853042677 -455.91258725315856 0 -455.91258725315856 25.924901520673302 0 0 0 0 76.7455044420185 -334.39218067757611 0 -334.39218067757611 894.35523230955005 0 0 0 0 182.88250543933646 -682.03929597254319 0 -682.03929597254319 2279.1177557224291 0 0 0 0 241.01748899356244 -554.23458937772375 0 -554.23458937772375 1001.5823670365498 0 0 0 0 -126.22993968093215 -259.51246700767661 0 -259.51246700767661 1881.2543854856049 0 0 0 0 1.6112165712656861 303.43798150107614 0 303.43798150107614 1087.6271592316334 0 0 0 0 120.38735698467099 677.30250332591822 0 677.30250332591822 2118.544642373221 0 0 0 0 -104.05646706814514 -80.433745385147631 0 -80.433745385147631 1660.4389032471809 0 0 0 0 262.09176734952234 513.36483539557958 0 513.36483539557958 1455.2358468884486 0 0 0 0 1454.4624003162025 1176.9322693599242 0 1176.9322693599242 1059.0703628708143 0 0 0 0 1394.6473413528729 852.35125804039126 0 852.35125804039126 590.43752572976518 0 0 0 0 -4.8368820448386032 335.52226289533428 0 335.52226289533428 3401.2466842736467 0 0 0 0 862.67862812724525 1445.5699916566373 0 1445.5699916566373 2768.7615478180232 0 0 0 0 499.77244698196228 204.35178469015227 0 204.35178469015227 390.47682806253579 0 0 0 0 797.69149903000562 81.908584110053198 0 81.908584110053198 55.314275539800292 0 0 0 0 658.30394287275976 366.5818036503988 0 366.5818036503988 359.88320362000377 0 0 0 0 215.26742543795262 564.67510579783993 0 564.67510579783993 1152.9775730167348 0 0 0 0 187.23883379889048 -356.59335713453765 0 -356.59335713453765 -47.971888685264275 0 0 0 0 773.3412935330548 141.82664853027745 0 141.82664853027745 -160.96205691579962 0 0 0 0 -421.71818916421245 2439.416762173827 0 2439.416762173827 1287.3408094051847 0 0 0 0 -0.68337848148820157 -2.0323506725947311 0 -2.0323506725947311 -1.1835826788152417 0 0 0 0 170.11055766406207 -152.14620953872509 0 -152.14620953872509 539.33599243961362 0 0 0 0 -13.27340218412262 -3.4884395598105868 0 -3.4884395598105868 0.64330312707261328 0 0 0 0 207.08334000968898 -14.851554129971191 0 -14.851554129971191 466.67788686553831 0 0 0 0 168.51125066945679 -216.60144223846146 0 -216.60144223846146 180.63749280118282 0 0 0 0 -296.90828327361851 41.548296539956937 0 41.548296539956937 334.43606307501614 0 0 0 0 89.629041895583214 148.06180973151641 0 148.06180973151641 298.48881487496692 0 0 0 0 -510.17936647864917 -324.83448024413156 0 -324.83448024413156 139.86104672212969 0 0 0 0 126.32847189956146 25.912056833869428 0 25.912056833869428 668.68115660639887 0 0 0 0 520.25567221481288 948.1471234200435 0 948.1471234200435 -747.28575917657872 0 0 0 0 127.44881966511184 985.23784137194161 0 985.23784137194161 1537.1264472581679 0 0 0 0 26.201222314375627 457.95500905426161 0 457.95500905426161 1277.4346396228757 0 0 0 0 108.56464663282486 -55.730126575523173 0 -55.730126575523173 1033.3821452696284 0 0 0 0 215.64038240823538 452.86884570631082 0 452.86884570631082 600.46488997781125 0 0 0 0 -40.982097895887819 410.23025864426745 0 410.23025864426745 1289.6552734066208 0 0 0 0 -41.64367641820138 -66.219351173225732 0 -66.219351173225732 23.467753889352025 0 0 0 0 -31.708782581768901 -58.149434165039565 0 -58.149434165039565 0.31345224438700825 0 0 0 0 -6.0568430106354754 -29.208132502797525 0 -29.208132502797525 21.359671837295537 0 0 0 0 -82.184905585700562 -20.00567657652573 0 -20.00567657652573 21.068062934110912 0 0 0 0 -61.488250868149464 -49.569273802142561 0 -49.569273802142561 45.821901474220795 0 0 0 0 -329.29379680381004 61.558471897122217 0 61.558471897122217 -0.22644380424026167 0 0 0 0 -214.13096516517851 -311.17699172035464 0 -311.17699172035464 175.05343124599312 0 0 0 0 199.74346458475975 -114.20763822444133 0 -114.20763822444133 -9.3023203096090583 0 0 0 0 281.36546474253191 124.49580241675721 0 124.49580241675721 266.96825122123118 0 0 0 0 274.56715582750257 -183.34406899978785 0 -183.34406899978785 42.375689297186909 0 0 0 0 298.36154240213455 170.50607586801198 0 170.50607586801198 134.53937577232136 0 0 0 0 285.72297939023701 62.962977485767624 0 62.962977485767624 -77.333045749313897 0 0 0 0 14.878168127152094 100.63215700801629 0 100.63215700801629 -80.409528271266026 0 0 0 0 99.284247941624017 -147.37006135177216 0 -147.37006135177216 -143.78226813467336 0 0 0 0 -13.368286732609704 -123.2793563407613 0 -123.2793563407613 2.0504846710464335 0 0 0 0 -41.682712515331161 -69.120501025972771 0 -69.120501025972771 -87.44464823443559 0 0 0 0 -64.700920827009895 67.810143651789986 0 67.810143651789986 665.73575926334888 0 0 0 0 -18.636273218614861 157.24073746162321 0 157.24073746162321 456.3404684131965 0 0 0 0 -2.9383334139096267 -2.8177548335064841 0 -2.8177548335064841 -0.12685669040904735 0 0 0 0 68.007587158260321 -91.572191421102616 0 -91.572191421102616 -209.15125674425508 0 0 0 0 -110.27344054815148 203.65671077274601 0 203.65671077274601 639.58448999060784 0 0 0 0 -117.78938542670247 -5.6701220294773975 0 -5.6701220294773975 275.84801188154961 0 0 0 0 62.183911056835314 292.33245667812298 0 292.33245667812298 534.84515806959826 0 0 0 0 -124.27208493199578 204.83458070676716 0 204.83458070676716 639.49267847746887 0 0 0 0 -158.05328875701798 262.1624122073481 0 262.1624122073481 925.04572829627432 0 0 0 0 -148.55922407757771 188.29340157781553 0 188.29340157781553 910.93841061259445 0 0 0 0 -66.131046040128908 65.448184724900784 0 65.448184724900784 876.42030271305703 0 0 0 0 -92.972031985608282 66.580002285503724 0 66.580002285503724 881.90094970834616 0 0 0 0 -9.3852178931623946 -5.3315118677673183 0 -5.3315118677673183 2.0842091986605613 0 0 0 0 -36.40261567294624 8.870827142483904 0 8.870827142483904 749.82684445410268 0 0 0 0 -48.919678957572273 -40.671997626661323 0 -40.671997626661323 963.91981256655708 0 0 0 0 -88.434736255117173 93.055502994102426 0 93.055502994102426 1036.1325075634086 0 0 0 0 -133.48375310203679 77.792988611672627 0 77.792988611672627 1071.2515604677465 0 0 0 0 -161.96847740201224 177.48893104989111 0 177.48893104989111 1206.8330786695151 0 0 0 0 -151.06247644777602 170.52080888439741 0 170.52080888439741 1007.5359289418848 0 0 0 0 -133.82652670227594 197.60254474292742 0 197.60254474292742 1020.5420851195449 0 0 0 0 -90.622060200257238 269.15600983243894 0 269.15600983243894 1020.8493909090903 0 0 0 0 -111.01469125537278 318.37027056027728 0 318.37027056027728 1126.8234342092073 0 0 0 0 -109.25287584224111 303.96963257341122 0 303.96963257341122 1106.9890937802993 0 0 0 0 5.1606785919816502 437.3239502864817 0 437.3239502864817 1030.1846118553403 0 0 0 0 13.372860585511486 429.32275900510422 0 429.32275900510422 1012.9178259992623 0 0 0 0 17.539886352407393 320.84950208602095 0 320.84950208602095 1109.4829915883165 0 0 0 0 17.808799661634794 316.9920370118125 0 316.9920370118125 872.16527666909678 0 0 0 0 2.4677695672996869 2.1945160900507972 0 2.1945160900507972 2.7305480805180906 0 0 0 0 20.045790752743869 424.56591217940149 0 424.56591217940149 138.27194249226886 0 0 0 0 30.206109435131111 533.84747614250227 0 533.84747614250227 1180.3614731813286 0 0 0 0 9.3600098014469353 348.0856438629271 0 348.0856438629271 896.68062939199444 0 0 0 0 -141.3913897356606 208.43517743855045 0 208.43517743855045 949.5369955737624 0 0 0 0 -135.59046662533319 65.142204482508532 0 65.142204482508532 677.12315018064692 0 0 0 0 -143.0625996465692 214.35236582038488 0 214.35236582038488 961.15660928172292 0 0 0 0 -167.34336072484621 185.42138221676578 0 185.42138221676578 1001.9218682943028 0 0 0 0 -156.27885738104351 200.56393779403879 0 200.56393779403879 907.91081487278279 0 0 0 0 -170.78470861169944 190.09862291728132 0 190.09862291728132 1008.4496217451233 0 0 0 0 -125.62632369674293 188.30690337505075 0 188.30690337505075 906.47354351961985 0 0 0 0 -80.432217373352614 261.51621088542015 0 261.51621088542015 1009.4172520499378 0 0 0 0 9.6765473127534278 435.59252472956723 0 435.59252472956723 1006.0965524811691 0 0 0 0 39.189769516636261 388.4458243704139 0 388.4458243704139 1069.1166064082799 0 0 0 0 -150.05042250629776 234.94510847553465 0 234.94510847553465 1050.4899461821287 0 0 0 0 -124.2839119317623 324.86985446937979 0 324.86985446937979 1330.819510414527 0 0 0 0 -117.45018210528406 230.87244300538805 0 230.87244300538805 966.44635969727824 0 0 0 0 -175.86090189662968 202.27818912066869 0 202.27818912066869 1023.3344470154843 0 0 0 0 -166.23659767562913 102.72802415073238 0 102.72802415073238 984.92980712679491 0 0 0 0 -59.072882241897332 -24.339280259311636 0 -24.339280259311636 1214.3149159547029 0 0 0 0 6.7353172237716628 7.749170792757468 0 7.749170792757468 5.4392400526480316 0 0 0 0 37.804802880331408 -144.5678036738318 0 -144.5678036738318 1773.177582825323 0 0 0 0 -79.619995984172647 101.01524758025334 0 101.01524758025334 715.17551350116264 0 0 0 0 -19.268377938145022 -104.51721567241475 0 -104.51721567241475 1182.9827672170577 0 0 0 0 11.905791527305528 10.91935178909705 0 10.91935178909705 6.4117442897398433 0 0 0 0 -25.029695244913455 -181.35376492497744 0 -181.35376492497744 1417.3288614044832 0 0 0 0 -38.016465889073515 -50.420688391313888 0 -50.420688391313888 1065.4757066637649 0 0 0 0 -171.21413741234596 63.626427430972399 0 63.626427430972399 2063.6316670593806 0 0 0 0 -132.71987944333523 -151.90553445653495 0 -151.90553445653495 1276.4311629434815 0 0 0 0 230.0887199028366 -205.82072016478924 0 -205.82072016478924 2214.658955885061 0 0 0 0 62.347011562851549 880.5283550262684 0 880.5283550262684 2031.0126045804936 0 0 0 0 23.623947020387277 713.42537995719613 0 713.42537995719613 1367.1525018799293 0 0 0 0 113.26696666571661 894.36966498145193 0 894.36966498145193 2026.6189768001204 0 0 0 0 -176.75873799434794 143.10226174956915 0 143.10226174956915 1874.4445125217608 0 0 0 0 -174.90985914357407 152.3356138823292 0 152.3356138823292 1113.0247441221291 0 0 0 0 -22.062560298871176 462.18471025708277 0 462.18471025708277 1088.2242343560065 0 0 0 0 -18.308876530598354 489.73078060856642 0 489.73078060856642 1101.901305723979 0 0 0 0 541.96942932460661 802.28800614547072 0 802.28800614547072 805.85430499399081 0 0 0 0 229.95177574072363 635.54513757710265 0 635.54513757710265 833.71563917637104 0 0 0 0 50.411958548447274 76.911226301112038 0 76.911226301112038 196.05353034776635 0 0 0 0 -25.828948416436106 93.403165239917143 0 93.403165239917143 -212.35949123179307 0 0 0 0 112.79745040438047 62.495862480929645 0 62.495862480929645 -623.29015940264799 0 0 0 0 0.17176411856313933 6.8538683815011723 0 6.8538683815011723 -2.7143192584683931 0 0 0 0 163.31679774114309 336.68097082647728 0 336.68097082647728 455.62313868139245 0 0 0 0 61.4391170705685 322.91499889523402 0 322.91499889523402 1073.2335936009476 0 0 0 0 -27.822720481442047 483.3031866047022 0 483.3031866047022 1321.9129709282206 0 0 0 0 -49.867688976723912 248.84434257407338 0 248.84434257407338 943.95618672057753 0 0 0 0 143.04179760609259 520.0548891237122 0 520.0548891237122 1023.1785572618901 0 0 0 0 257.75837322103325 225.28728137070721 0 225.28728137070721 -1126.5592345836521 0 0 0 0 124.6931540928872 315.36783227972046 0 315.36783227972046 -193.07883312854392 0 0 0 0 119.44933883876183 -74.211607829114655 0 -74.211607829114655 -723.94329205756367 0 0 0 0 0.82073913503031193 1.7314508498984935 0 1.7314508498984935 -0.08330205899331844 0 0 0 0 -66.207085288223425 -87.161407000858162 0 -87.161407000858162 -309.73008531368396 0 0 0 0 -7.2657107350096339 246.15425287251128 0 246.15425287251128 -74.384849940950517 0 0 0 0 145.32352965472819 117.19369517431187 0 117.19369517431187 -258.27762131203053 0 0 0 0 23.071556451761353 243.28772827201465 0 243.28772827201465 -194.63392884863424 0 0 0 0 41.436437460572051 61.975832027135766 0 61.975832027135766 -53.639151171868434 0 0 0 0 82.980126866525097 123.2573309057334 0 123.2573309057334 193.72344673555926 0 0 0 0 121.08046143716615 238.88859428338401 0 238.88859428338401 111.26400577329332 0 0 0 0 -5.7990989849804464 101.30626016251335 0 101.30626016251335 273.02724410541123 0 0 0 0 -72.913996066577056 187.80945184032316 0 187.80945184032316 632.06590655972832 0 0 0 0 81.539827806793255 247.92090486967936 0 247.92090486967936 371.26139230560511 0 0 0 0 349.28692456406498 265.83138983073513 0 265.83138983073513 218.10879438970005 0 0 0 0 90.101523742274367 294.48149862725404 0 294.48149862725404 609.06708928549779 0 0 0 0 -25.931744595516648 70.88649632819579 0 70.88649632819579 132.36131064026267 0 0 0 0 -84.852947339599268 132.90209322558803 0 132.90209322558803 282.55704851195333 0 0 0 0 -78.576759403516007 181.79152385400812 0 181.79152385400812 435.79269836802268 0 0 0 0 -60.955952112222803 170.87517844966351 0 170.87517844966351 434.41003966258722 0 0 0 0 -46.565760543058786 1.0366739116070676 0 1.0366739116070676 362.01288202057185 0 0 0 0 -74.739388084073653 -17.542110907073948 0 -17.542110907073948 546.14609753329569 0 0 0 0 152.79920617680364 28.896031975920778 0 28.896031975920778 146.79342373064719 0 0 0 0 131.3532796681211 -86.917791168409167 0 -86.917791168409167 471.73177739156381 0 0 0 0 -19.952396726490406 78.60332289525104 0 78.60332289525104 140.79919045485985 0 0 0 0 195.39482028989278 124.26695353007381 0 124.26695353007381 -220.80724015702435 0 0 0 0 -104.0698941885006 129.20577804958612 0 129.20577804958612 -183.02220869761368 0 0 0 0 81.901078565908392 25.754193963162834 0 25.754193963162834 -136.26548887809622 0 0 0 0 64.542378868448395 202.19568358382458 0 202.19568358382458 -175.69610623559856 0 0 0 0 23.841337825604569 142.42501713848833 0 142.42501713848833 50.224006536212983 0 0 0 0 379.958442149441 138.3535752882417 0 138.3535752882417 31.515828322590096 0 0 0 0 -278.14397146959982 186.23966829396522 0 186.23966829396522 123.18289872044261 0 0 0 0 -396.87443313830863 506.85301311707735 0 506.85301311707735 -49.980916435509243 0 0 0 0 1.1047996684777903 15.580331554931405 0 15.580331554931405 56.311657547548407 0 0 0 0 -88.031401461308633 -24.792970210077328 0 -24.792970210077328 209.10451537916379 0 0 0 0 29.350817976903272 4.082983267668169 0 4.082983267668169 16.876154094257799 0 0 0 0 57.496505243284901 -122.16469451251578 0 -122.16469451251578 148.74579863838153 0 0 0 0 0.13981399309455789 0.99047796696530099 0 0.99047796696530099 3.1261942341739086 0 0 0 0 -127.1576559337384 84.288577222911044 0 84.288577222911044 125.16595591584337 0 0 0 0 -21.311929667481081 14.38460254538677 0 14.38460254538677 43.878745205962332 0 0 0 0 1.2543233903942106 4.8326295268634141 0 4.8326295268634141 6.6336374687113562 0 0 0 0 -14.932765211886363 -31.832997315788816 0 -31.832997315788816 55.658208968408871 0 0 0 0 -115.86474787822954 -7.0570648459543008 0 -7.0570648459543008 44.061348147697572 0 0 0 0 6.3772806854515238 18.618142457486101 0 18.618142457486101 6.6885361839085817 0 0 0 0 -3.1617708535588811 9.299496522798421 0 9.299496522798421 9.827318698486124 0 0 0 0 93.103107036402434 -51.620740456957719 0 -51.620740456957719 -112.16110666151508 0 0 0 0 4.3746789859126665 11.066520712406387 0 11.066520712406387 11.477116488336719 0 0 0 0 -27.117371667647603 34.801737999645411 0 34.801737999645411 21.640808038879186 0 0 0 0 -6.8504050503238929 4.831285260794715 0 4.831285260794715 15.683939486868383 0 0 0 0 -1.5803275432002692 13.530432063596095 0 13.530432063596095 44.529502856015142 0 0 0 0 -128.49546056840336 224.48697056493256 0 224.48697056493256 -170.84287168884475 0 0 0 0 40.666520571604451 126.68031723251988 0 126.68031723251988 -275.94135122746229 0 0 0 0 253.11593298513617 14.647678235109197 0 14.647678235109197 -35.598932866138057 0 0 0 0 -304.96873545280323 -34.625450353953056 0 -34.625450353953056 71.136346798550221 0 0 0 0 -7.9650448980802651 10.345263799719021 0 10.345263799719021 3.9903048962730665 0 0 0 0 3.971378910724173 4.8602507236127082 0 4.8602507236127082 4.2347920631306124 0 0 0 0 1325.7077752575387 973.6765432779066 0 973.6765432779066 541.55509283374704 0 0 0 0 764.70033094109385 773.26114046230214 0 773.26114046230214 807.15727513781167 0 0 0 0 489.85108055077217 -119.20628465070331 0 -119.20628465070331 -194.76079709426267 0 0 0 0 44.029944288828119 75.687499435865902 0 75.687499435865902 -18.766041613071138 0 0 0 0 -19.6248523724189 -26.278485983290011 0 -26.278485983290011 29.736304269928951 0 0 0 0 7.6088633201603564 14.697237765969376 0 14.697237765969376 15.597514536994595 0 0 0 0 -191.22514611804627 -718.92443054268733 0 -718.92443054268733 771.88512880040798 0 0 0 0 -336.48358030623695 -316.06024096528563 0 -316.06024096528563 1505.9531842890428 0 0 0 0 -110.71940091276429 248.24663224921096 0 248.24663224921096 2774.6474684514978 0 0 0 0 3.3484377506592118 5.2295113169988525 0 5.2295113169988525 9.310839337162065 0 0 0 0 -71.406478242949333 200.22746503398412 0 200.22746503398412 1283.343117674347 0 0 0 0 77.460946780121958 751.04552475975652 0 751.04552475975652 2445.5124811373994 0 0 0 0 -12.718487240290415 795.84014484364889 0 795.84014484364889 2866.598226158123 0 0 0 0 -188.88075617058166 721.33853557365364 0 721.33853557365364 3107.8833836228587 0 0 0 0 18.900513717711874 1045.4731783481402 0 1045.4731783481402 3544.4413326241774 0 0 0 0 11.683564569670125 1161.0011664906633 0 1161.0011664906633 3388.3173756401666 0 0 0 0 114.52665727176645 946.9199902836408 0 946.9199902836408 3224.9431873455178 0 0 0 0 23.076534892557902 1059.0170235537371 0 1059.0170235537371 2440.9963912636449 0 0 0 0 -242.23364547795973 1163.7794052265817 0 1163.7794052265817 3969.2025739182718 0 0 0 0 454.12587811709818 1308.2147966799239 0 1308.2147966799239 2767.3285432186676 0 0 0 0 800.89975401654738 1539.0563205143844 0 1539.0563205143844 2333.7554644457414 0 0 0 0 206.38539495587975 519.04833925352432 0 519.04833925352432 3391.4148548437515 0 0 0 0 1095.7756678290025 501.48827384202741 0 501.48827384202741 3459.8609814093506 0 0 0 0 827.23831757900189 1384.4455921206682 0 1384.4455921206682 3399.6454151537982 0 0 0 0 1258.9537613988578 52.461932714999421 0 52.461932714999421 2712.5579058223229 0 0 0 0 167.01316072306872 -37.86722103691136 0 -37.86722103691136 2955.6814994070737 0 0 0 0 992.66099324452125 -83.16830550719169 0 -83.16830550719169 2815.3219270386035 0 0 0 0 816.46113967546808 386.73085974420246 0 386.73085974420246 2464.3147143126116 0 0 0 0 14.79837105137014 12.628474249237058 0 12.628474249237058 7.0746322228683027 0 0 0 0 652.82256675302324 76.433785746812646 0 76.433785746812646 1078.7306992611702 0 0 0 0 427.20876248411696 -533.71309140787343 0 -533.71309140787343 1743.1620240969933 0 0 0 0 -221.90141403953567 192.18012044305215 0 192.18012044305215 3356.8164523122068 0 0 0 0 7.2520746068640491 6.8023905377009157 0 6.8023905377009157 5.6861850707253865 0 0 0 0 -204.06393177276732 325.05680091727118 0 325.05680091727118 3994.6825006163722 0 0 0 0 521.64865596161781 335.69421824737219 0 335.69421824737219 297.41085554803431 0 0 0 0 -136.26837806597723 717.9978406480077 0 717.9978406480077 4602.7665310485318 0 0 0 0 -154.12966755567948 -189.96054645786757 0 -189.96054645786757 879.22808498176164 0 0 0 0 86.500816580548417 117.55956614199386 0 117.55956614199386 1173.6004191534303 0 0 0 0 -154.21847037762473 20.410713184450287 0 20.410713184450287 1098.2202628495252 0 0 0 0 328.95914161013025 419.90370084121241 0 419.90370084121241 1613.101910245372 0 0 0 0 85.1412688809869 433.53533564085228 0 433.53533564085228 1749.8051154973364 0 0 0 0 92.804226419674364 453.32662998906198 0 453.32662998906198 1655.7275548155303 0 0 0 0 272.00559345184593 79.248271157543059 0 79.248271157543059 1220.8931101467751 0 0 0 0 88.20436780023897 101.54898780865005 0 101.54898780865005 1319.3790299858374 0 0 0 0 772.53706165110816 789.2273372697673 0 789.2273372697673 1019.8418515416197 0 0 0 0 1737.2926852645614 670.03337639590609 0 670.03337639590609 4243.20017188977 0 0 0 0 1123.3311575161251 1320.3438003183765 0 1320.3438003183765 3598.1777153454605 0 0 0 0 -154.01190960107488 532.76350423290569 0 532.76350423290569 3186.9543573496776 0 0 0 0 441.65762456549533 1239.6929915476794 0 1239.6929915476794 2519.422815167025 0 0 0 0 -240.11415443499936 863.5037815137548 0 863.5037815137548 2253.5214024116867 0 0 0 0 422.72074229598184 95.865401396804373 0 95.865401396804373 95.930530143865326 0 0 0 0 106.13316518606905 -668.45252662024268 0 -668.45252662024268 1647.7161966824497 0 0 0 0 517.72086581140979 130.6500252490805 0 130.6500252490805 -27.088610976730706 0 0 0 0 1.451571642117953 4.0787600386909872 0 4.0787600386909872 11.414829951607715 0 0 0 0 77.76848037245145 -364.97791562219209 0 -364.97791562219209 2978.6037103305789 0 0 0 0 474.5603777755166 1046.003082021587 0 1046.003082021587 1198.8869571230607 0 0 0 0 23.729540851623824 1618.3651682897034 0 1618.3651682897034 4173.5795700653016 0 0 0 0 98.401319765543121 -404.7435205451693 0 -404.7435205451693 -79.836550468317 0 0 0 0 70.704550263821147 202.856395669005 0 202.856395669005 -562.34523167085717 0 0 0 0 712.50616569549129 -183.09093662264058 0 -183.09093662264058 -722.43962563993409 0 0 0 0 -126.55250674302988 -221.74351237114752 0 -221.74351237114752 -228.20528308581561 0 0 0 0 99.079277198008185 -97.703328822201001 0 -97.703328822201001 48.540533371677157 0 0 0 0 3.9055640090157393 10.640108966696005 0 10.640108966696005 21.892519398836384 0 0 0 0 -185.8954682695603 -87.022638937312877 0 -87.022638937312877 -13.858283631154336 0 0 0 0 122.13049375047149 -177.95952650074469 0 -177.95952650074469 309.10495584979071 0 0 0 0 -76.639357615908921 -441.86076473546564 0 -441.86076473546564 -40.960245651513105 0 0 0 0 -586.60611933321297 183.25378879334676 0 183.25378879334676 382.07148476177827 0 0 0 0 -0.36993291079915602 5.0407784893733236 0 5.0407784893733236 21.011432049958898 0 0 0 0 -0.39597435630342259 2.7126659754059261 0 2.7126659754059261 12.487439384881668 0 0 0 0 324.62989147923145 -191.87303106870968 0 -191.87303106870968 -250.31111712665734 0 0 0 0 -124.46442619488107 1017.4144910343239 0 1017.4144910343239 1059.7310764351423 0 0 0 0 -438.84160862610929 686.70830941331224 0 686.70830941331224 2608.2132859922422 0 0 0 0 -605.11418643050206 -327.21905401275581 0 -327.21905401275581 2029.7050389200012 0 0 0 0 -238.9702831480995 670.03655237273779 0 670.03655237273779 2461.5069269652085 0 0 0 0 40.092093834553907 218.48475369568041 0 218.48475369568041 2530.5553455765967 0 0 0 0 156.87599639809832 385.19013931833251 0 385.19013931833251 1873.0096119716763 0 0 0 0 0.84511433592000851 581.57629896865546 0 581.57629896865546 2547.0744729225989 0 0 0 0 -205.59207969090335 90.864895318853087 0 90.864895318853087 1787.4557555439678 0 0 0 0 -409.72704180226447 496.75860163662037 0 496.75860163662037 2409.1700721386005 0 0 0 0 -0.74752917134403218 446.32729727361584 0 446.32729727361584 1499.847909236767 0 0 0 0 -142.02673446215044 -111.42577477762097 0 -111.42577477762097 665.93066580504819 0 0 0 0 -33.692187164194934 152.75782505533061 0 152.75782505533061 -91.297716829547426 0 0 0 0 -649.05495972184269 319.76497640490561 0 319.76497640490561 257.08687239389837 0 0 0 0 0.71196264586565972 339.71867421402567 0 339.71867421402567 3.7548361783265136 0 0 0 0 -18.774517645200547 332.97712286093883 0 332.97712286093883 7.0806476878788089 0 0 0 0 -35.238314732358731 417.71580503034056 0 417.71580503034056 299.5273643869441 0 0 0 0 -0.65268862092278757 326.68506911826262 0 326.68506911826262 8.7312927837556344 0 0 0 0 26.758578698154338 386.29445111234963 0 386.29445111234963 -34.663694985865732 0 0 0 0 -0.29851596675951342 1.4993595353667217 0 1.4993595353667217 9.1415913044972967 0 0 0 0 -48.452941512555611 178.22294098235943 0 178.22294098235943 -268.58772337215487 0 0 0 0 21.716867149444624 -196.83949927789945 0 -196.83949927789945 -8.1719790914285113 0 0 0 0 -1.1417583027969158 7.1975864566629753 0 7.1975864566629753 47.417108837997148 0 0 0 0 3.4401579290364062 2.0692088851931771 0 2.0692088851931771 9.8227608375700939 0 0 0 0 -13.16746140261489 52.979197814756844 0 52.979197814756844 -24.738915352238109 0 0 0 0 -0.3697503385124552 13.859895701942861 0 13.859895701942861 41.170158126370438 0 0 0 0 -33.464632256233926 -243.86666729210265 0 -243.86666729210265 155.13438107530237 0 0 0 0 -89.722385024606865 172.33878037568138 0 172.33878037568138 164.19180689999484 0 0 0 0 2.6405368434067409 18.414436149273072 0 18.414436149273072 48.901389878576026 0 0 0 0 -333.9778279645268 283.89257900097437 0 283.89257900097437 461.98962843979825 0 0 0 0 77.129401258207508 -22.77399678465008 0 -22.77399678465008 -27.826829202541376 0 0 0 0 142.04609303938651 53.576391856200644 0 53.576391856200644 19.70795684796758 0 0 0 0 28.7151982399198 -71.0437229823292 0 -71.0437229823292 71.474863501935033 0 0 0 0 0.038681474703542308 -1.3067576833273051 0 -1.3067576833273051 0.99696903309086338 0 0 0 0 -16.242235151973802 112.48560207549599 0 112.48560207549599 -159.4738551756891 0 0 0 0 408.42597575734726 31.654163794926717 0 31.654163794926717 -216.04085201919588 0 0 0 0 0.44906168457435269 -0.30395164273159025 0 -0.30395164273159025 -2.9187263495275602 0 0 0 0 -49.939389257609179 -272.1479790996782 0 -272.1479790996782 78.574382748731296 0 0 0 0 38.908062947723323 60.151257766759954 0 60.151257766759954 16.679988330375636 0 0 0 0 -32.754249045199899 43.695828702977451 0 43.695828702977451 38.298910605357378 0 0 0 0 0.81571359058964465 7.0936264122584873 0 7.0936264122584873 37.162136489029479 0 0 0 0 -0.088390845771878973 -0.28573755981051363 0 -0.28573755981051363 6.8782736720168032 0 0 0 0 27.547440011320447 33.287458773098479 0 33.287458773098479 61.061359933461063 0 0 0 0 0.72199433218406228 -0.020130971726189273 0 -0.020130971726189273 -0.61869488152223084 0 0 0 0 -0.012708769194656624 -8.1472710255766287 0 -8.1472710255766287 229.90857286806568 0 0 0 0 24.46248279843914 49.169863595729112 0 49.169863595729112 168.70923640896217 0 0 0 0 86.269821208574243 23.054222285849391 0 23.054222285849391 53.678336963806942 0 0 0 0 47.214888119075511 50.814672107517254 0 50.814672107517254 130.56917357826023 0 0 0 0 41.770533247633331 -106.76668467317359 0 -106.76668467317359 176.31148232345004 0 0 0 0 0.31733949838744741 -6.123971433798431 0 -6.123971433798431 5.3534198076260964 0 0 0 0 0.37585498621763369 5.5268982519229581 0 5.5268982519229581 42.789779144388206 0 0 0 0 -66.699699107012492 -14.066200710447447 0 -14.066200710447447 115.62861310214794 0 0 0 0 -15.49701132798242 -25.203329529889743 0 -25.203329529889743 35.743082027267519 0 0 0 0 77.602004667848632 -45.829371585947229 0 -45.829371585947229 54.580091606258065 0 0 0 0 92.671872656378582 -30.863739194523077 0 -30.863739194523077 17.490057275455911 0 0 0 0 109.45211884206492 -35.590379748158739 0 -35.590379748158739 42.077795799676096 0 0 0 0 134.29347062599572 -70.050248628831469 0 -70.050248628831469 29.043093732987472 0 0 0 0 83.056484954407324 -45.678069073048391 0 -45.678069073048391 1.3191716677538352 0 0 0 0 100.11611400224501 -47.377365466709307 0 -47.377365466709307 44.015433120155649 0 0 0 0 127.74459287470199 -17.821756778525014 0 -17.821756778525014 7.6912408674324979 0 0 0 0 88.491212057422672 -21.592619349750748 0 -21.592619349750748 33.466871189404628 0 0 0 0 84.079916204323922 7.3063102087699008 0 7.3063102087699008 -39.501074753992725 0 0 0 0 2.535301594115829 3.5469383047904444 0 3.5469383047904444 4.5201045224977747 0 0 0 0 210.18637787718782 -471.99581852667325 0 -471.99581852667325 552.88824219997332 0 0 0 0 166.65789966953707 5.8389066384770558 0 5.8389066384770558 712.41343969815352 0 0 0 0 477.55544755863775 -250.46030464107753 0 -250.46030464107753 -167.75546220733668 0 0 0 0 0.62581257975084714 1.6408282989872589 0 1.6408282989872589 2.9742371963502592 0 0 0 0 140.40388551782303 -32.858769910570118 0 -32.858769910570118 24.276799274870427 0 0 0 0 -94.198627096175159 189.18009321541831 0 189.18009321541831 162.39862316934159 0 0 0 0 -8.6196292109780188 405.40978959974018 0 405.40978959974018 460.80881522162235 0 0 0 0 -1.2820921830881113 3.7682726208104214 0 3.7682726208104214 33.66200649324901 0 0 0 0 -2.9411832320689086 -35.824979513527069 0 -35.824979513527069 -253.46486497654405 0 0 0 0 -0.36413005508837326 6.0773610506761884 0 6.0773610506761884 5.1778279954646109 0 0 0 0 121.82570910312984 -11.969497649093682 0 -11.969497649093682 20.492068028805079 0 0 0 0 177.93422467032167 22.179431360207673 0 22.179431360207673 36.486956971290056 0 0 0 0 -4.2624872311872428 4.6997991047101095 0 4.6997991047101095 22.669155444396893 0 0 0 0 -47.93148899593421 -15.027352580262232 0 -15.027352580262232 28.386618836815614 0 0 0 0 -0.10800634247565831 5.2767388156110542 0 5.2767388156110542 7.3776424851795923 0 0 0 0 -77.708317925550375 -33.181341454866924 0 -33.181341454866924 19.492874983276124 0 0 0 0 0.14255919387094382 -34.149964878684841 0 -34.149964878684841 -12.058102259295993 0 0 0 0 -45.240076689694938 -74.960246268346964 0 -74.960246268346964 -39.505495437013451 0 0 0 0 -0.69913095204539766 -65.90823995203391 0 -65.90823995203391 -43.753643563199148 0 0 0 0 380.69841845203518 -287.8809190117754 0 -287.8809190117754 718.43504697061871 0 0 0 0 165.61567458193804 182.18178091313166 0 182.18178091313166 66.962883801927092 0 0 0 0 399.23666264189796 -572.32803604229412 0 -572.32803604229412 491.01988822681597 0 0 0 0 738.6649857850515 -1162.278280392231 0 -1162.278280392231 1500.2160637152847 0 0 0 0 207.19660436855611 -802.59508483207537 0 -802.59508483207537 1631.2504643347056 0 0 0 0 290.12252119985305 -250.1864193786605 0 -250.1864193786605 958.69212630047696 0 0 0 0 128.23385679155035 -660.14722446502128 0 -660.14722446502128 1735.6891785777116 0 0 0 0 -49.302605098853292 -582.70630720922782 0 -582.70630720922782 1737.7726138547587 0 0 0 0 -51.431763704361856 -600.37870529365318 0 -600.37870529365318 1671.6150689194328 0 0 0 0 -0.62927886294381619 -0.56545366675270259 0 -0.56545366675270259 14.696053848175325 0 0 0 0 -631.63108989160196 -26.902434024465038 0 -26.902434024465038 1814.4087669702712 0 0 0 0 783.96431067721414 -1350.6057420016696 0 -1350.6057420016696 1711.8249338385358 0 0 0 0 222.06186744606572 -1146.9360729608597 0 -1146.9360729608597 2587.5013059061021 0 0 0 0 0.513516153047338 3.4543273099490079 0 3.4543273099490079 8.2113534545406139 0 0 0 0 0.49128228171202909 -682.05888524356851 0 -682.05888524356851 2136.0654668525167 0 0 0 0 634.02694973938708 119.35432309261523 0 119.35432309261523 383.58198341255775 0 0 0 0 -254.11353534293255 -378.83801685013168 0 -378.83801685013168 2517.9511322098479 0 0 0 0 0.50609500550848452 7.3696274643098718 0 7.3696274643098718 11.398747685162704 0 0 0 0 -224.24637894480685 -12.988208596332697 0 -12.988208596332697 1624.8708209047618 0 0 0 0 -148.38462366792965 146.77312848095607 0 146.77312848095607 1599.0058067550272 0 0 0 0 -309.18254957789441 169.05946200534527 0 169.05946200534527 2349.3909854227531 0 0 0 0 -192.85297574179589 -46.004521468356188 0 -46.004521468356188 1746.5931348171143 0 0 0 0 -176.79734471825387 -454.30175901967959 0 -454.30175901967959 3867.8423183724226 0 0 0 0 -78.281721549054055 86.790563735979958 0 86.790563735979958 1893.3109570084489 0 0 0 0 -55.274961389605778 347.04000227189681 0 347.04000227189681 1872.9067629784579 0 0 0 0 -51.3903829049666 123.39790872508092 0 123.39790872508092 1438.5379604091868 0 0 0 0 -279.7773231479091 -208.37008801971388 0 -208.37008801971388 1372.7084826800328 0 0 0 0 9.8405889809639575 444.90963390636625 0 444.90963390636625 419.07886563816282 0 0 0 0 73.267571264860919 105.39524368540151 0 105.39524368540151 1226.2726925849274 0 0 0 0 -0.48243955794903215 3.4491568974950439 0 3.4491568974950439 6.4350785167246158 0 0 0 0 96.716766625835135 -958.78517304806155 0 -958.78517304806155 2532.3594061635085 0 0 0 0 458.85282288901954 -476.00896376455421 0 -476.00896376455421 872.41458817651437 0 0 0 0 207.14601556578782 92.971778276463738 0 92.971778276463738 1769.3108325365829 0 0 0 0 301.63213547216958 -289.84608242316608 0 -289.84608242316608 979.55519020746578 0 0 0 0 33.664506983321189 -302.0880150396988 0 -302.0880150396988 875.00469955187509 0 0 0 0 124.70547899023404 -136.69135597509739 0 -136.69135597509739 882.2883895693376 0 0 0 0 35.573767582085566 -193.24723377916962 0 -193.24723377916962 733.83997292863478 0 0 0 0 -11.405034691537367 4.7197995613969397 0 4.7197995613969397 723.53137370088371 0 0 0 0 89.87015405636248 -180.13514841007054 0 -180.13514841007054 554.5613072799315 0 0 0 0 -33.645226668821124 -62.957564897413249 0 -62.957564897413249 1055.2196000427211 0 0 0 0 8.2039531269138024 78.326907592134376 0 78.326907592134376 1069.7269333332224 0 0 0 0 16.995973519197833 -110.90237822694326 0 -110.90237822694326 1343.8799635378527 0 0 0 0 48.660976512839625 -38.773566855365061 0 -38.773566855365061 924.86197781797273 0 0 0 0 58.198308996603373 123.33494599685218 0 123.33494599685218 1268.5926605712884 0 0 0 0 51.293057788486806 17.590032141959455 0 17.590032141959455 1148.1582201342972 0 0 0 0 137.81032133319877 131.58866997994483 0 131.58866997994483 1210.9083444694188 0 0 0 0 68.608363069541156 109.42066968728614 0 109.42066968728614 1301.8205808939529 0 0 0 0 15.921983501422801 -27.932831606714899 0 -27.932831606714899 1238.988876069634 0 0 0 0 135.07473988453876 167.20354301203042 0 167.20354301203042 1260.5916404376621 0 0 0 0 107.27379928736718 109.76284694566493 0 109.76284694566493 1334.4112028664385 0 0 0 0 -187.91117735412854 4.1313792806322454 0 4.1313792806322454 1257.9713729341456 0 0 0 0 -188.21514440950068 -1.3276511305266467 0 -1.3276511305266467 1240.6203538002737 0 0 0 0 -76.57836705903992 -52.122770686706644 0 -52.122770686706644 1185.2864004761559 0 0 0 0 -75.859103084409071 49.201967316897935 0 49.201967316897935 1177.9698904629186 0 0 0 0 -82.102094185159331 -30.356520440021995 0 -30.356520440021995 1161.3105166127134 0 0 0 0 -136.95118702171021 -21.490974198837648 0 -21.490974198837648 1240.8656629974575 0 0 0 0 -175.15148237915037 42.650291206875409 0 42.650291206875409 1180.0286988920998 0 0 0 0 -142.27688227242493 -14.69398727598491 0 -14.69398727598491 1017.3581148441444 0 0 0 0 -190.06779208968817 -4.9309370434175435 0 -4.9309370434175435 1015.6974219631811 0 0 0 0 -77.90395037104372 43.291554893374268 0 43.291554893374268 987.62092575425049 0 0 0 0 -110.57112405434691 -42.382731994337519 0 -42.382731994337519 978.84325575327875 0 0 0 0 28.717407376971096 -136.43422923580511 0 -136.43422923580511 490.69616912589845 0 0 0 0 47.872760199376671 -96.655238232255215 0 -96.655238232255215 439.49599002453033 0 0 0 0 -165.18205414200838 149.14042126187996 0 149.14042126187996 647.36354739098169 0 0 0 0 43.17538116129731 -511.6215333486125 0 -511.6215333486125 -64.559564465249423 0 0 0 0 0.50606493180604417 -2.0376862930526443 0 -2.0376862930526443 3.4089110134785869 0 0 0 0 92.584587611710504 -22.385143111827347 0 -22.385143111827347 -148.12160167182446 0 0 0 0 40.629134309452638 -84.877639659505803 0 -84.877639659505803 419.85630636144197 0 0 0 0 44.753666766921924 198.60368701912375 0 198.60368701912375 1038.9282320361272 0 0 0 0 60.733531468778892 255.35727628252062 0 255.35727628252062 749.27528393377361 0 0 0 0 383.60738679355381 -300.90133551506733 0 -300.90133551506733 941.30473444095696 0 0 0 0 185.17016396810868 -45.545365174883045 0 -45.545365174883045 673.90780718805036 0 0 0 0 118.15123225270236 -152.8069898272297 0 -152.8069898272297 633.36249592134845 0 0 0 0 455.15268920720519 -230.1919184292492 0 -230.1919184292492 496.92630181669301 0 0 0 0 -18.541531959441272 -301.13519921108673 0 -301.13519921108673 702.76067179263919 0 0 0 0 101.32591095507269 -234.9215012525674 0 -234.9215012525674 140.09195384020859 0 0 0 0 -6.0467268095108011 -452.60009306300344 0 -452.60009306300344 396.47910495183896 0 0 0 0 81.874707256694819 -280.99157317400386 0 -280.99157317400386 470.82883500345633 0 0 0 0 43.536558265253916 -252.12043048857595 0 -252.12043048857595 566.41824162915873 0 0 0 0 101.42718850650726 -273.60823124563467 0 -273.60823124563467 448.39914014088572 0 0 0 0 109.06126108318495 -121.25195128650375 0 -121.25195128650375 302.4715550133551 0 0 0 0 149.48887717179798 -315.02749761362065 0 -315.02749761362065 397.57250258937711 0 0 0 0 123.12395168443345 -217.33279408043018 0 -217.33279408043018 268.51616552999076 0 0 0 0 -29.208831031762429 -248.16221088752718 0 -248.16221088752718 444.50266387144802 0 0 0 0 -57.707187459218403 -42.175983974928386 0 -42.175983974928386 295.11421879264344 0 0 0 0 1.7321558999600128 3.8721486526683861 0 3.8721486526683861 4.7549201404055452 0 0 0 0 19.96730969015357 14.442380075404799 0 14.442380075404799 4.07391433432349 0 0 0 0 36.159258064182268 42.540508083962777 0 42.540508083962777 -59.910290036379592 0 0 0 0 132.00073629672261 -35.872006974954274 0 -35.872006974954274 8.2580417165772815 0 0 0 0 33.497708103643163 11.256739060714608 0 11.256739060714608 5.0677684705005959 0 0 0 0 -43.63583559766812 26.65688790412969 0 26.65688790412969 19.175504456929048 0 0 0 0 -48.632373292231932 8.1428237929940224 0 8.1428237929940224 -17.871593831472637 0 0 0 0 0.1216543380609032 1.6065893709491093 0 1.6065893709491093 4.7257098195751155 0 0 0 0 -31.650275432227318 59.902145453785124 0 59.902145453785124 -24.116043312620604 0 0 0 0 328.74868349118879 -21.688424009320443 0 -21.688424009320443 5.8110923023632495 0 0 0 0 331.32105504775518 -27.418262581239105 0 -27.418262581239105 11.536498992092675 0 0 0 0 133.55805494028937 105.78788699317374 0 105.78788699317374 -36.671167840599082 0 0 0 0 -229.03938205788836 -132.9893458292936 0 -132.9893458292936 196.29819333471823 0 0 0 0 0.85035361398897713 -0.41286583118997555 0 -0.41286583118997555 2.2088054676689239 0 0 0 0 46.62755417407061 -382.36621947673848 0 -382.36621947673848 -192.68244683319062 0 0 0 0 91.073303603429849 -192.88271847747092 0 -192.88271847747092 1.2766379407548811 0 0 0 0 257.63192558195806 -84.487111689697485 0 -84.487111689697485 40.257829589070752 0 0 0 0 422.06574813112411 -267.64631425400876 0 -267.64631425400876 236.14412261074176 0 0 0 0 538.71565063263211 -112.4675031204988 0 -112.4675031204988 32.317397635139059 0 0 0 0 183.00192874636241 -229.78431689269655 0 -229.78431689269655 368.77489478950156 0 0 0 0 182.86651889850327 -231.49678082896571 0 -231.49678082896571 618.08002879787819 0 0 0 0 -9.1225168183937058 -131.07362195593305 0 -131.07362195593305 515.52693045296837 0 0 0 0 77.887814531917684 111.87174644015613 0 111.87174644015613 -12.929302841541357 0 0 0 0 -21.915545344458224 43.627469239379934 0 43.627469239379934 201.56577246182133 0 0 0 0 0.53465595000173138 -0.87171103960771745 0 -0.87171103960771745 2.2056702636435261 0 0 0 0 104.24758348547221 -118.33054543872277 0 -118.33054543872277 75.434527096309466 0 0 0 0 -158.96537570877695 -261.38438257716007 0 -261.38438257716007 79.372827058541588 0 0 0 0 -43.960505646483398 -74.735450228115951 0 -74.735450228115951 279.37480923072144 0 0 0 0 -35.681675103369344 -189.38148488604929 0 -189.38148488604929 384.13339424219157 0 0 0 0 0.9598371634765499 -98.780681521733641 0 -98.780681521733641 347.25936123472638 0 0 0 0 34.0168798245777 -74.699569329532096 0 -74.699569329532096 212.3307391415874 0 0 0 0 -93.193329720623296 -24.036083316081204 0 -24.036083316081204 39.865855162963271 0 0 0 0 -17.598116739576938 -299.77554048925595 0 -299.77554048925595 18.174200477049453 0 0 0 0 -8.2064851794366405 -144.78788751318643 0 -144.78788751318643 1.7950507740606554 0 0 0 0 121.07530189111185 -243.35237693549425 0 -243.35237693549425 75.830383402877487 0 0 0 0 152.57554448429528 -171.69744402210927 0 -171.69744402210927 -150.84041115856962 0 0 0 0 116.53950535166587 -110.59586120068707 0 -110.59586120068707 25.115230269038875 0 0 0 0 -0.15569087879547894 -0.56210725380913118 0 -0.56210725380913118 -1.5238461803372161 0 0 0 0 -269.99176467404232 -150.69500117318239 0 -150.69500117318239 -40.824852728488622 0 0 0 0 48.195409254997685 -80.483359570425819 0 -80.483359570425819 62.3306585905666 0 0 0 0 73.83961440102712 -61.958401234471239 0 -61.958401234471239 44.522878139905515 0 0 0 0 35.304768118860011 -88.265043717910885 0 -88.265043717910885 35.488435179286171 0 0 0 0 38.686520053276695 -68.836015400103861 0 -68.836015400103861 48.110509852616815 0 0 0 0 29.612367392976921 -67.851050975412363 0 -67.851050975412363 111.01112058575382 0 0 0 0 38.716032709612136 -68.130111787959322 0 -68.130111787959322 70.274213343363954 0 0 0 0 -41.376612538359041 -71.452666758254054 0 -71.452666758254054 169.78206620145647 0 0 0 0 20.169516452973539 30.07415391970062 0 30.07415391970062 259.31352205466828 0 0 0 0 7.7101347406332934 -10.510338442865759 0 -10.510338442865759 223.78560813726767 0 0 0 0 50.151560970592982 -22.267364381947118 0 -22.267364381947118 113.94589521207672 0 0 0 0 170.27487341829919 6.7200179797473538 0 6.7200179797473538 224.218979259138 0 0 0 0 5.7692651919983291 58.196697622188367 0 58.196697622188367 431.71644338521583 0 0 0 0 21.109865798686769 37.304783903222415 0 37.304783903222415 268.17485390631919 0 0 0 0 -71.116196228483204 37.611828408029396 0 37.611828408029396 280.14582144469023 0 0 0 0 -102.79563569286984 39.389520963042742 0 39.389520963042742 267.07284854750787 0 0 0 0 -72.53320092505146 40.537098671506101 0 40.537098671506101 372.44664679501147 0 0 0 0 -152.91040731809238 -63.846812100312945 0 -63.846812100312945 305.81650542654097 0 0 0 0 44.911616492816393 163.17861188606912 0 163.17861188606912 377.37859082101204 0 0 0 0 -0.14932959230463894 -72.517113835856435 0 -72.517113835856435 582.44731885650253 0 0 0 0 -151.06354039220577 12.16124148249105 0 12.16124148249105 564.88798940257402 0 0 0 0 -31.709738083410684 68.025583235408703 0 68.025583235408703 268.00953956725425 0 0 0 0 -281.46725948717676 6.0019725243691937 0 6.0019725243691937 489.70490409809281 0 0 0 0 26.153504204523415 125.59208786476665 0 125.59208786476665 457.15596079078205 0 0 0 0 0.54731656074715218 -4.0928544526948656 0 -4.0928544526948656 7.1187208820046521 0 0 0 0 -46.690863054712963 100.66726273061067 0 100.66726273061067 209.29782513834652 0 0 0 0 -33.278087238678381 373.33149193138888 0 373.33149193138888 1379.7426472780353 0 0 0 0 -172.09963382294154 71.34002339347353 0 71.34002339347353 1304.5859633870859 0 0 0 0 -12.194881538888467 -83.024588350242993 0 -83.024588350242993 1343.7226037897926 0 0 0 0 -8.7605908958630607 -82.330771603192261 0 -82.330771603192261 1314.8678530438483 0 0 0 0 -23.85053059544407 -102.2313484713668 0 -102.2313484713668 1288.9346987996005 0 0 0 0 158.4604144074209 -112.61364653982037 0 -112.61364653982037 1523.7331108289945 0 0 0 0 127.22901001311766 8.9459184191509848 0 8.9459184191509848 1485.8270393580751 0 0 0 0 51.338764956583873 -176.02005288581859 0 -176.02005288581859 1443.0912162079185 0 0 0 0 137.10694853576206 -18.384795387981285 0 -18.384795387981285 1318.3639387618896 0 0 0 0 132.83687207608546 -54.154557757472503 0 -54.154557757472503 1412.3591322600114 0 0 0 0 204.45376546344528 36.252925467022578 0 36.252925467022578 1053.5066111154592 0 0 0 0 15.290841369947884 -23.705049211079313 0 -23.705049211079313 1052.7403337424912 0 0 0 0 0.094511076018649831 -1.8335306469377599 0 -1.8335306469377599 4.169115218262391 0 0 0 0 91.018196471623924 -203.13081271120609 0 -203.13081271120609 16.26537328545237 0 0 0 0 94.313999228811355 -275.43168036878046 0 -275.43168036878046 440.95481138111791 0 0 0 0 173.52596268559955 -130.041753101832 0 -130.041753101832 509.7449827452092 0 0 0 0 53.102453870377985 -204.7389297721129 0 -204.7389297721129 712.70045764400857 0 0 0 0 11.490516371917693 -77.038190402206965 0 -77.038190402206965 567.54399917121918 0 0 0 0 98.715384819728229 -65.214123731137079 0 -65.214123731137079 791.62569905104465 0 0 0 0 19.095596629290071 -130.12120800780031 0 -130.12120800780031 891.00977951954701 0 0 0 0 43.460263854903133 -4.9395689957455033 0 -4.9395689957455033 973.22541287000786 0 0 0 0 90.403789978877739 139.52420356311632 0 139.52420356311632 1495.4151566216024 0 0 0 0 206.46504497723163 -103.23486416737251 0 -103.23486416737251 1027.3452043612197 0 0 0 0 3.5842544657375583 30.283715298173774 0 30.283715298173774 1326.1212581315049 0 0 0 0 -1.1831035201730629 148.58688804440317 0 148.58688804440317 1340.5658055417916 0 0 0 0 225.56215238579421 227.90806407756827 0 227.90806407756827 1241.2235391369613 0 0 0 0 -36.838033690380144 118.64932469881751 0 118.64932469881751 2563.3437278272031 0 0 0 0 -31.876994558760089 247.5119324477273 0 247.5119324477273 1022.5026179398847 0 0 0 0 52.51991390802425 24.306448643037584 0 24.306448643037584 945.36646777999704 0 0 0 0 -0.2625205483523132 58.577658538291871 0 58.577658538291871 1098.1023121294493 0 0 0 0 84.20083666074629 116.9134790188109 0 116.9134790188109 802.22169478857541 0 0 0 0 40.410920312429241 79.814899693279585 0 79.814899693279585 805.09904293387081 0 0 0 0 33.650367194028149 -90.004156155700912 0 -90.004156155700912 851.72395641494586 0 0 0 0 1.5729974169016714 -107.53224323431641 0 -107.53224323431641 962.67786903494289 0 0 0 0 52.413337709976304 -116.76709323906107 0 -116.76709323906107 710.25541883202095 0 0 0 0 8.6589013987161252 -134.04499084927374 0 -134.04499084927374 723.35615026669984 0 0 0 0 15.346475178996116 -225.7129838475812 0 -225.7129838475812 597.28850830622832 0 0 0 0 30.015011313002212 -222.36192517114978 0 -222.36192517114978 624.47743630170589 0 0 0 0 26.227975995515635 -184.44384389312472 0 -184.44384389312472 591.21682939222956 0 0 0 0 4.0319256293585113 -234.15369014015596 0 -234.15369014015596 527.04796760118916 0 0 0 0 -28.732174453126618 -187.17433198721847 0 -187.17433198721847 380.19749842493911 0 0 0 0 -4.6671582556775206 -139.11816238827305 0 -139.11816238827305 434.73889780719765 0 0 0 0 -70.439886313612845 60.7950983527262 0 60.7950983527262 31.706317998468876 0 0 0 0 -6.8563043583428556 -2.540505337722692 0 -2.540505337722692 3.2763708272939454 0 0 0 0 1.9547296779061973 -1.031457726202774 0 -1.031457726202774 0.88808180236503631 0 0 0 0 8.9619566713581662 -105.08301486229175 0 -105.08301486229175 -84.630491313975654 0 0 0 0 -106.2425834785422 3.2725114599597873 0 3.2725114599597873 245.81890691886656 0 0 0 0 -83.067644886570633 10.679588945378782 0 10.679588945378782 14.74765050062706 0 0 0 0 -53.800069616191649 -150.25509174159379 0 -150.25509174159379 38.069732540272526 0 0 0 0 -132.62665612217143 -49.720279815664981 0 -49.720279815664981 110.19226378084568 0 0 0 0 -56.144646122579616 -152.97580461054167 0 -152.97580461054167 173.68216300377389 0 0 0 0 -35.301254000356835 -75.138255759804451 0 -75.138255759804451 38.77913660032209 0 0 0 0 -91.822907880924845 -60.536258958592953 0 -60.536258958592953 317.1794615391118 0 0 0 0 -56.197567031095787 -193.8647405939555 0 -193.8647405939555 431.07184775847418 0 0 0 0 -27.20364785600168 -119.94299455787586 0 -119.94299455787586 513.32055037360988 0 0 0 0 -34.457367466572521 -53.703193088325861 0 -53.703193088325861 337.49190195067786 0 0 0 0 -29.28678773536285 -151.25900341047964 0 -151.25900341047964 520.0799768146826 0 0 0 0 85.957901128004323 -72.025394267446245 0 -72.025394267446245 294.04550300627307 0 0 0 0 -83.321300712009361 -148.05821452870441 0 -148.05821452870441 269.9132499846819 0 0 0 0 15.753029841369425 -31.602161452210566 0 -31.602161452210566 495.81277279363894 0 0 0 0 33.954082449030011 18.494208979682298 0 18.494208979682298 57.480925545838545 0 0 0 0 -116.06149621301256 -150.78550893531792 0 -150.78550893531792 103.82572159643314 0 0 0 0 -43.254403268134865 11.001735744328471 0 11.001735744328471 250.78048358953674 0 0 0 0 22.79105587615777 -180.84978978212166 0 -180.84978978212166 -278.94735804916127 0 0 0 0 41.83436203700262 -66.177711153766722 0 -66.177711153766722 49.692001375471591 0 0 0 0 3.0711641284865436 -120.6356651923561 0 -120.6356651923561 -7.6933986811636714 0 0 0 0 -12.475408928916295 -95.921209971143981 0 -95.921209971143981 50.419549392201588 0 0 0 0 11.534566060339785 -98.431235816591652 0 -98.431235816591652 40.727005897242634 0 0 0 0 -24.968341098887322 -71.664186113484902 0 -71.664186113484902 81.662617774229147 0 0 0 0 -43.526306375442346 -45.298238306480926 0 -45.298238306480926 134.68822731031105 0 0 0 0 -73.721361179801761 -92.246002142273937 0 -92.246002142273937 74.643272528395755 0 0 0 0 -14.121782140427968 -51.348946616781177 0 -51.348946616781177 56.774029050808167 0 0 0 0 -11.829063650548051 -66.150288045872003 0 -66.150288045872003 67.85282626003027 0 0 0 0 5.2117387434384526 -38.903623785771345 0 -38.903623785771345 50.470641793595803 0 0 0 0 -9.5224455000823127 -38.157521375978831 0 -38.157521375978831 69.841480872069951 0 0 0 0 -8.6749928988219835 -40.690385041874833 0 -40.690385041874833 77.32557418535589 0 0 0 0 -40.776864310842029 -50.055772169027478 0 -50.055772169027478 77.876483934639509 0 0 0 0 1.2676334753372114 -4.5498320440574673 0 -4.5498320440574673 4.5484438899036945 0 0 0 0 -16.126403355665957 -8.4281812443186936 0 -8.4281812443186936 71.776798907361808 0 0 0 0 -53.276407045283122 -70.71489484081394 0 -70.71489484081394 31.356767362565733 0 0 0 0 -21.620939178370008 -34.169773892310332 0 -34.169773892310332 87.750549831573153 0 0 0 0 12.713646844533741 -18.568095199050731 0 -18.568095199050731 5.1887986170477234 0 0 0 0 -20.247218676155171 33.005372154395445 0 33.005372154395445 197.38290080940351 0 0 0 0 -1.7405208743248046 -0.45569380888693445 0 -0.45569380888693445 0.1716113189322499 0 0 0 0 -32.844836381804271 -69.625056217439123 0 -69.625056217439123 86.496309881127672 0 0 0 0 32.6478006943521 4.6700633604850736 0 4.6700633604850736 30.37760277785128 0 0 0 0 -39.896045921607268 -124.31218863600952 0 -124.31218863600952 18.477592280749377 0 0 0 0 -13.113798504795085 -13.427134137706162 0 -13.427134137706162 37.313946327049052 0 0 0 0 -99.537271960140856 -100.83313495521725 0 -100.83313495521725 45.229409146559192 0 0 0 0 -40.143608872687722 -97.934656551295916 0 -97.934656551295916 5.8527945660171099 0 0 0 0 89.113847348823384 -124.85567220221128 0 -124.85567220221128 -0.66742368854465894 0 0 0 0 -19.283109513515413 -65.060493434317777 0 -65.060493434317777 44.639023789277417 0 0 0 0 7.8323425957570514 -39.034175222581126 0 -39.034175222581126 52.091411482998865 0 0 0 0 -18.790440685142585 -59.913672564982335 0 -59.913672564982335 43.897426147945225 0 0 0 0 -21.431171303151586 -78.145133666534093 0 -78.145133666534093 49.343323025270365 0 0 0 0 -8.1522806718494394 -74.888561385436333 0 -74.888561385436333 49.066367216670187 0 0 0 0 1.337732507673536 -78.82893468849943 0 -78.82893468849943 28.521326537069399 0 0 0 0 -5.6648528953755886 -80.970488984006806 0 -80.970488984006806 29.323077202083368 0 0 0 0 7.8757599261993345 -44.606238904718339 0 -44.606238904718339 41.859410874724659 0 0 0 0 -7.4897156534684655 -66.668885756022064 0 -66.668885756022064 17.373518738604616 0 0 0 0 -3.3322022195989121 -85.772333948829328 0 -85.772333948829328 14.085394799551068 0 0 0 0 4.2735401751591979 -46.793601215489616 0 -46.793601215489616 46.955158451091847 0 0 0 0 -6.2078587660489042 -8.4123422204665133 0 -8.4123422204665133 10.570845105509761 0 0 0 0 55.605777043980652 -154.23355168779381 0 -154.23355168779381 66.798744639934739 0 0 0 0 11.986499869371073 -80.824902653781464 0 -80.824902653781464 2.3473465190108982 0 0 0 0 49.912326482292407 -70.898040114962441 0 -70.898040114962441 -271.38308704308292 0 0 0 0 142.58987924950088 -167.68720750987995 0 -167.68720750987995 78.109899812392541 0 0 0 0 2.1055433212005923 -4.0312999340370084 0 -4.0312999340370084 -13.426475059374013 0 0 0 0 -4.2762211536175982 -102.46327159594148 0 -102.46327159594148 250.83403573703254 0 0 0 0 109.90809409573376 -147.8789763044806 0 -147.8789763044806 30.916718188265804 0 0 0 0 75.923215026972684 -203.74582665598427 0 -203.74582665598427 98.882352497021202 0 0 0 0 55.771713713426379 -103.93721652140084 0 -103.93721652140084 14.498318210884463 0 0 0 0 15.340198766345566 -155.24850879726 0 -155.24850879726 74.681514036543376 0 0 0 0 24.410328544110484 -164.40386707510697 0 -164.40386707510697 66.883710529349628 0 0 0 0 -8.660356107609914 -175.27134384858073 0 -175.27134384858073 74.419127907305665 0 0 0 0 -86.151580936168102 -353.4671281552728 0 -353.4671281552728 88.450311930246244 0 0 0 0 -37.070121652093292 198.67250287447678 0 198.67250287447678 175.50486269329849 0 0 0 0 -225.19663735264794 -131.29648266416189 0 -131.29648266416189 81.711007110483479 0 0 0 0 -166.12565087907393 -13.083570644201245 0 -13.083570644201245 98.682272067875601 0 0 0 0 -2.0419012186799708 -2.1408889668868767 0 -2.1408889668868767 -0.84520829168673117 0 0 0 0 105.15654700923211 -56.988895368245721 0 -56.988895368245721 43.496017909201328 0 0 0 0 -8.1193106450036652 -253.13364234058827 0 -253.13364234058827 -123.21185661533673 0 0 0 0 166.3787246956463 -9.2782388577688835 0 -9.2782388577688835 129.90404436649987 0 0 0 0 -41.577019374554368 118.64762321218586 0 118.64762321218586 397.96021172462497 0 0 0 0 145.05941877553781 116.71183808226488 0 116.71183808226488 -142.60834488151613 0 0 0 0 631.2094154076417 94.451092017858173 0 94.451092017858173 370.05202454676692 0 0 0 0 232.90858320048915 478.81062837451464 0 478.81062837451464 840.48671863232448 0 0 0 0 -8.8856472926411243 -5.0151083917662618 0 -5.0151083917662618 408.78684786728991 0 0 0 0 63.374555607484353 -252.01006857242101 0 -252.01006857242101 1159.0637738233199 0 0 0 0 -181.68412759054354 443.07194132657605 0 443.07194132657605 1154.258842492824 0 0 0 0 -106.9187174270985 431.676607773672 0 431.676607773672 604.3282986797858 0 0 0 0 -19.438511351102932 -85.642644407060288 0 -85.642644407060288 1393.5678771755047 0 0 0 0 256.41424059428994 -443.82483288981894 0 -443.82483288981894 445.82529923004768 0 0 0 0 406.57089708742694 -418.00869524583868 0 -418.00869524583868 -75.502132456458639 0 0 0 0 -0.020056646317012553 0.43826732606408303 0 0.43826732606408303 12.440882361228603 0 0 0 0 548.63907503237078 93.512370143303997 0 93.512370143303997 -544.05853058754292 0 0 0 0 28.378057209925686 577.79500146088276 0 577.79500146088276 542.91441745936754 0 0 0 0 -97.668354224751852 463.07889607547986 0 463.07889607547986 596.07118698477279 0 0 0 0 42.830336069436498 355.07163458743162 0 355.07163458743162 -18.588567490776768 0 0 0 0 -560.26952202133555 -207.21347284017247 0 -207.21347284017247 114.48471193296427 0 0 0 0 -276.29595266903743 -136.6783607705438 0 -136.6783607705438 -82.860734003625112 0 0 0 0 -40.401838428166911 103.88825412176084 0 103.88825412176084 37.04680616557016 0 0 0 0 -388.63255610515114 58.675893413212179 0 58.675893413212179 266.44411045155721 0 0 0 0 -1.2568675378565217 0.30176610198940335 0 0.30176610198940335 26.50996683655012 0 0 0 0 115.15107015590615 350.27888502347923 0 350.27888502347923 86.320666124782292 0 0 0 0 -772.45544362720466 -52.344039807197987 0 -52.344039807197987 273.61512769863475 0 0 0 0 -741.120559839762 -536.79036370852918 0 -536.79036370852918 182.66612150793662 0 0 0 0 89.864468469894064 -215.51647086848971 0 -215.51647086848971 -149.69475522116409 0 0 0 0 582.21120450991225 -147.87283973185185 0 -147.87283973185185 61.954726422991371 0 0 0 0 357.25924554617586 467.69032446663186 0 467.69032446663186 591.31893264115934 0 0 0 0 -11.521458299469032 132.65385985336616 0 132.65385985336616 1021.3901077866758 0 0 0 0 5.7337681563381011 72.320908581546973 0 72.320908581546973 281.04628654968838 0 0 0 0 -113.79090776867997 129.81257925101454 0 129.81257925101454 510.04559677166981 0 0 0 0 90.463441392122832 308.92006816411231 0 308.92006816411231 576.55778725285199 0 0 0 0 28.339575184732439 431.01416856517608 0 431.01416856517608 347.10676042089472 0 0 0 0 543.80254898009593 87.150910842730809 0 87.150910842730809 516.65330817950598 0 0 0 0 21.378870384685797 146.09094670126433 0 146.09094670126433 610.5435137329041 0 0 0 0 170.11869962136529 281.08519261346373 0 281.08519261346373 415.87483114287897 0 0 0 0 1.869500135088856 191.98690353197162 0 191.98690353197162 442.52707465958883 0 0 0 0 34.296569181092309 66.363497527110667 0 66.363497527110667 101.6046321093163 0 0 0 0 1.2373556396223648 398.92205252600252 0 398.92205252600252 547.78980519849938 0 0 0 0 -61.534103734304836 376.7459351733778 0 376.7459351733778 645.47050722927088 0 0 0 0 -62.821385566098343 109.37368349226017 0 109.37368349226017 734.39702507240145 0 0 0 0 -57.739115093493183 -79.230627150274813 0 -79.230627150274813 447.32527472007496 0 0 0 0 -13.144554569569664 75.031327798418715 0 75.031327798418715 223.36807025545568 0 0 0 0 -17.516259408719634 -55.830272879320546 0 -55.830272879320546 269.81819523239392 0 0 0 0 11.46306021003852 -122.16181572299138 0 -122.16181572299138 -90.999260906144627 0 0 0 0 -116.30680518733607 -182.94261731293955 0 -182.94261731293955 -8.9742115310218651 0 0 0 0 -178.71885580979961 -129.77646696727606 0 -129.77646696727606 -50.057928559312131 0 0 0 0 -62.022425903131079 124.47378477461461 0 124.47378477461461 66.964478331996361 0 0 0 0 245.61253906338698 -128.67835714941612 0 -128.67835714941612 13.586960176849971 0 0 0 0 1.1173725850850165 -3.2495151610436643 0 -3.2495151610436643 18.929914279237494 0 0 0 0 1113.1050091923016 -267.22172729722161 0 -267.22172729722161 9.605132076976588 0 0 0 0 619.96101438249116 -664.35713388263684 0 -664.35713388263684 424.98612317751395 0 0 0 0 -21.318715780253115 108.3939289355767 0 108.3939289355767 86.405717726665898 0 0 0 0 -255.06081885284493 143.46970367918402 0 143.46970367918402 643.5497730406787 0 0 0 0 -24.966942069590004 266.96597997236677 0 266.96597997236677 432.82851356206811 0 0 0 0 93.688999485034401 -288.53190111382355 0 -288.53190111382355 1039.0020623538876 0 0 0 0 592.18776496957616 821.64864096832025 0 821.64864096832025 -955.90912973073137 0 0 0 0 102.64904742791896 -141.71848495567974 0 -141.71848495567974 1191.1248451570427 0 0 0 0 171.93319921828333 -729.36756622661778 0 -729.36756622661778 -593.10952419528621 0 0 0 0 4.7832653403020231 -4.5702549005218316 0 -4.5702549005218316 96.709270492901851 0 0 0 0 -199.86443894349759 639.05257395534136 0 639.05257395534136 -459.47264811147033 0 0 0 0 -4.4816222038316695 9.4013186692543513 0 9.4013186692543513 5.8010402512996109 0 0 0 0 -583.80778668705989 413.32698415658524 0 413.32698415658524 890.67297181833419 0 0 0 0 -125.13375250900754 -463.30314622263541 0 -463.30314622263541 986.49271955665608 0 0 0 0 -375.47322771547897 66.563558613364876 0 66.563558613364876 371.7747412501194 0 0 0 0 -268.23792855453894 58.001636929417145 0 58.001636929417145 103.56806883819809 0 0 0 0 -278.63193820200922 84.017270927863137 0 84.017270927863137 115.15953544779768 0 0 0 0 -212.03767666699105 -119.51371383844162 0 -119.51371383844162 13.559463228666573 0 0 0 0 -145.20830963661228 -273.0940802412224 0 -273.0940802412224 363.5890651082409 0 0 0 0 69.794655448234153 -174.57418532759766 0 -174.57418532759766 121.31743402504071 0 0 0 0 240.0383208313674 -352.75951691914815 0 -352.75951691914815 73.788972706825007 0 0 0 0 334.60255690628674 -285.52359611866268 0 -285.52359611866268 -22.008945181471063 0 0 0 0 -29.261172540656844 -108.63356439166819 0 -108.63356439166819 -122.5766104643435 0 0 0 0 -388.91275155358881 -280.60378138568922 0 -280.60378138568922 81.94338554762362 0 0 0 0 217.87400043759681 -461.98036853368103 0 -461.98036853368103 -143.54663410718285 0 0 0 0 210.96034325799155 407.15260516418493 0 407.15260516418493 600.61018337131827 0 0 0 0 2.8333122904735433 -3.2097982774534159 0 -3.2097982774534159 3.9981417366646497 0 0 0 0 428.45156187908469 -252.80376851793699 0 -252.80376851793699 44.42638247369905 0 0 0 0 5.85262403910383 -219.72343800565432 0 -219.72343800565432 672.54275067032722 0 0 0 0 369.19692621300146 161.38829813131451 0 161.38829813131451 170.59914510653471 0 0 0 0 55.979950977946942 -21.28011858161517 0 -21.28011858161517 651.16518082446419 0 0 0 0 153.06124149801781 -443.76409064159088 0 -443.76409064159088 386.00329713828978 0 0 0 0 123.37871491543228 -307.56683772541874 0 -307.56683772541874 -8.8063898075270117 0 0 0 0 102.87275966192828 -284.86174486941673 0 -284.86174486941673 228.7210058481287 0 0 0 0 44.209054835108873 -204.10507042762765 0 -204.10507042762765 122.31191391385801 0 0 0 0 -1.0261006591181052 -5.3477683002062797 0 -5.3477683002062797 54.096624987315238 0 0 0 0 -334.99957631306643 70.002122951227648 0 70.002122951227648 102.19039419584442 0 0 0 0 -232.6535277769417 -162.92656881018047 0 -162.92656881018047 53.092556554300245 0 0 0 0 1.5913489534419565 -6.2049955691845042 0 -6.2049955691845042 2.6563934663311102 0 0 0 0 -38.623815244798607 -80.826540066198504 0 -80.826540066198504 55.916601382366935 0 0 0 0 -88.450124072797735 -97.038810792168078 0 -97.038810792168078 115.99174974301422 0 0 0 0 -109.90571840968369 -17.569081140456547 0 -17.569081140456547 189.4784550734912 0 0 0 0 -100.24920160114198 -21.670405718297843 0 -21.670405718297843 -0.63872184901265427 0 0 0 0 -5.0089615030249819 -11.313856181066985 0 -11.313856181066985 46.88333976167587 0 0 0 0 59.749024856238975 -18.749887273460445 0 -18.749887273460445 -12.193236896622693 0 0 0 0 -111.63598826027192 181.30156243095553 0 181.30156243095553 186.71350553563389 0 0 0 0 -8.8066084104378408 -10.553527824817834 0 -10.553527824817834 30.183544394771559 0 0 0 0 -0.50454385838708049 -18.734528651036271 0 -18.734528651036271 21.069516038434813 0 0 0 0 -1.9853123085989424 -17.542397511862191 0 -17.542397511862191 9.6018325885556806 0 0 0 0 -2.1132647737235288 -54.28717608306215 0 -54.28717608306215 44.703695571341086 0 0 0 0 1.5264541138626946 -22.138374202690294 0 -22.138374202690294 -2.2752284176723947 0 0 0 0 26.308130777249971 -82.476417229510844 0 -82.476417229510844 22.322598544902576 0 0 0 0 7.6212313882224407 -75.486536992139008 0 -75.486536992139008 20.672679371127742 0 0 0 0 -2.3587390981086571 -47.627715329734997 0 -47.627715329734997 -24.667144379038831 0 0 0 0 32.710935411352978 -85.906100391684049 0 -85.906100391684049 23.805336638877634 0 0 0 0 18.047326319980129 -86.794892449834151 0 -86.794892449834151 36.954658017115435 0 0 0 0 0.17808564621736878 -77.980245705126435 0 -77.980245705126435 32.751818198041292 0 0 0 0 24.157235748814855 -85.883535370929167 0 -85.883535370929167 24.328019135762588 0 0 0 0 17.721372691833494 -79.641159519451321 0 -79.641159519451321 40.964062633109279 0 0 0 0 29.66009832115742 -84.411803785784286 0 -84.411803785784286 40.749663493508706 0 0 0 0 1.8810370484729901 -81.607126264869294 0 -81.607126264869294 43.603687931987224 0 0 0 0 48.087325453995163 -66.118273911761207 0 -66.118273911761207 44.819210170477163 0 0 0 0 58.06529546001866 -68.416233404634113 0 -68.416233404634113 38.026019777360489 0 0 0 0 20.494793872213904 -76.045830100123567 0 -76.045830100123567 40.391325813077856 0 0 0 0 42.190805515880129 -61.562080953182885 0 -61.562080953182885 43.958636289862625 0 0 0 0 48.737974486266467 -65.949641086481279 0 -65.949641086481279 39.936741684306071 0 0 0 0 -1.6811692206810598 -3.8253018712521225 0 -3.8253018712521225 -1.84069639132872 0 0 0 0 -6.3311280106986594 -4.906152945880109 0 -4.906152945880109 -1.4737329043255443 0 0 0 0 -20.740185081556319 -33.220702173377504 0 -33.220702173377504 -31.933264642953873 0 0 0 0 -12.228015120279451 -55.536231081976439 0 -55.536231081976439 -6.376648017023399 0 0 0 0 -2.9413519799109373 -0.59328153737220646 0 -0.59328153737220646 -0.15906130328022527 0 0 0 0 35.106712950953352 -83.623403196044819 0 -83.623403196044819 -454.09025446965825 0 0 0 0 52.939983806611053 -254.45550090071629 0 -254.45550090071629 160.43347600652487 0 0 0 0 83.764403286190827 -133.86375501728617 0 -133.86375501728617 58.676486323354766 0 0 0 0 100.81680614370543 -141.23179394823819 0 -141.23179394823819 11.385538991657086 0 0 0 0 82.284377480689727 -126.56422062522324 0 -126.56422062522324 34.804845211649081 0 0 0 0 102.75416807163401 -150.18036771791958 0 -150.18036771791958 33.177607045276091 0 0 0 0 175.9742736487824 -5.1914327696431428 0 -5.1914327696431428 -157.9930766248508 0 0 0 0 9.534233093948842 -103.49573519574551 0 -103.49573519574551 11.211340413428843 0 0 0 0 95.362524629675136 -181.70431755301252 0 -181.70431755301252 -25.048037771513918 0 0 0 0 -3.6519598322011007 -254.72255440866866 0 -254.72255440866866 7.4816537347433041 0 0 0 0 58.111284155367684 -317.08121020039835 0 -317.08121020039835 -126.73757029196713 0 0 0 0 122.29737311401368 -241.1554226209264 0 -241.1554226209264 -442.40249607613077 0 0 0 0 0.70798878747217442 -5.0061935495052161 0 -5.0061935495052161 8.3919141320869244 0 0 0 0 -78.451858801543949 15.967470534400491 0 15.967470534400491 74.296307329874253 0 0 0 0 -90.244975668680695 -2.9801249641805043 0 -2.9801249641805043 46.006277507345658 0 0 0 0 -88.921812141891451 -166.42029509710483 0 -166.42029509710483 -71.98684719891753 0 0 0 0 -18.893683079576931 50.219211233306851 0 50.219211233306851 41.541111537604593 0 0 0 0 159.64142834559607 29.312015167924983 0 29.312015167924983 58.440635649436445 0 0 0 0 25.118692722696551 14.310493877383124 0 14.310493877383124 64.2997230074252 0 0 0 0 32.839086226021713 -70.498267594362687 0 -70.498267594362687 190.54777590704907 0 0 0 0 153.98568887991814 -121.90649683047377 0 -121.90649683047377 57.180678682572761 0 0 0 0 31.195220914626589 -27.26742160210415 0 -27.26742160210415 3.9991312830461538 0 0 0 0 81.040016057492267 -122.26549802298541 0 -122.26549802298541 61.513293706451805 0 0 0 0 113.9271191131553 -75.545147121221817 0 -75.545147121221817 83.099739494093228 0 0 0 0 124.7981515333978 -80.915224209209555 0 -80.915224209209555 -4.1300570899184095 0 0 0 0 100.50445045821743 -153.73492303129387 0 -153.73492303129387 112.34161479813338 0 0 0 0 282.15173888512163 -235.06000847317046 0 -235.06000847317046 146.70115771306155 0 0 0 0 0.16135271748102875 -2.2296769010839625 0 -2.2296769010839625 4.5302792134212382 0 0 0 0 -488.89692478574352 127.98484774070675 0 127.98484774070675 393.92042678593134 0 0 0 0 0.33774684483899664 -4.7635070262370647 0 -4.7635070262370647 9.4525449305052121 0 0 0 0 -46.317348885784668 -60.103434672957519 0 -60.103434672957519 79.401589681154292 0 0 0 0 14.297641552606365 -192.97242736150656 0 -192.97242736150656 8.120479649893241 0 0 0 0 -415.15653620864259 -159.90568491438898 0 -159.90568491438898 143.7390519397668 0 0 0 0 -229.87242584768046 301.42618833792949 0 301.42618833792949 205.97848089631225 0 0 0 0 17.374272242378083 102.94248157953916 0 102.94248157953916 245.43065647128969 0 0 0 0 -148.43880526976272 20.561024085356621 0 20.561024085356621 181.72587361710612 0 0 0 0 5.078615538133338 -8.3411313825033346 0 -8.3411313825033346 12.490505836794341 0 0 0 0 -98.44184165466686 133.7930188909304 0 133.7930188909304 248.30077679060832 0 0 0 0 -107.58973197129671 -102.82711528961954 0 -102.82711528961954 533.58429720961431 0 0 0 0 381.70441877423309 -52.509176366438624 0 -52.509176366438624 52.255813919909997 0 0 0 0 -45.480756906586976 -84.674829751544166 0 -84.674829751544166 -80.029201920027845 0 0 0 0 -42.378339075361509 -2.7921830204468279 0 -2.7921830204468279 46.671795467293123 0 0 0 0 44.39930265304497 -226.49005952401785 0 -226.49005952401785 69.24551448362763 0 0 0 0 1.1885984421014579 -3.9657862727515854 0 -3.9657862727515854 -0.050616894180564032 0 0 0 0 -70.469831425827579 -54.487913765129633 0 -54.487913765129633 -73.219345150340814 0 0 0 0 103.39729312442432 -36.54561701817147 0 -36.54561701817147 -125.14097148280416 0 0 0 0 -248.1482457898797 1.1100206448863901 0 1.1100206448863901 48.666347239515744 0 0 0 0 -249.649351688764 2.8113663292606361 0 2.8113663292606361 174.15352795559738 0 0 0 0 5.0843973482474976 -10.574073795954206 0 -10.574073795954206 21.066934277192559 0 0 0 0 -213.5800107320847 103.94862298363296 0 103.94862298363296 1.9271790922794025 0 0 0 0 -20.621578285904903 1.9103140914359074 0 1.9103140914359074 18.432287471651648 0 0 0 0 -12.207065427855014 7.2753471467585769 0 7.2753471467585769 42.079058560084377 0 0 0 0 -90.7791882903432 -50.836508431040784 0 -50.836508431040784 -22.07306274533039 0 0 0 0 -70.741096394016495 11.116210799984401 0 11.116210799984401 7.9609431279095588 0 0 0 0 -9.697885582747281 14.40281068364402 0 14.40281068364402 15.753691219971586 0 0 0 0 -12.511825992181203 3.0981723327986286 0 3.0981723327986286 34.510328130780067 0 0 0 0 -72.279573267822343 -10.668766200571554 0 -10.668766200571554 -38.499642894006683 0 0 0 0 10.583165038302468 52.547675271198386 0 52.547675271198386 24.68417624560243 0 0 0 0 -8.1980742679706289 6.7343832281340212 0 6.7343832281340212 14.847132231582009 0 0 0 0 -18.175385677048325 10.007466802693671 0 10.007466802693671 21.525219368631952 0 0 0 0 -8.3195622380027245 10.723941965363821 0 10.723941965363821 39.200277364665794 0 0 0 0 -40.045348635147775 36.325405619865705 0 36.325405619865705 12.485113030968932 0 0 0 0 -77.671622565594589 -18.066879559468362 0 -18.066879559468362 73.771247410826618 0 0 0 0 -2.9118173504213165 9.2098756674706728 0 9.2098756674706728 53.92276389368817 0 0 0 0 -69.278233967158485 25.479332131006231 0 25.479332131006231 84.682049722672673 0 0 0 0 -47.869952572289549 -2.3168079308816232 0 -2.3168079308816232 56.827879549746285 0 0 0 0 8.3385029484979896 -12.603647146373987 0 -12.603647146373987 47.196697512583341 0 0 0 0 -28.573699979951925 82.209882565774024 0 82.209882565774024 65.993829290149733 0 0 0 0 -36.181604004192195 69.827433743543224 0 69.827433743543224 46.275628660077928 0 0 0 0 23.860756373283039 57.203674738426344 0 57.203674738426344 29.563397518155398 0 0 0 0 34.693446754034085 65.953559023386333 0 65.953559023386333 24.141932008496951 0 0 0 0 -20.390895619164439 65.617905556166079 0 65.617905556166079 59.943168348065228 0 0 0 0 -42.63263505930081 75.704895092814695 0 75.704895092814695 56.105905258955318 0 0 0 0 -55.608829084163517 67.37444106375915 0 67.37444106375915 75.326188574574189 0 0 0 0 -47.508605736191384 54.619631934867357 0 54.619631934867357 90.576224084798014 0 0 0 0 -33.666704156385094 63.123061075297301 0 63.123061075297301 63.814769050673931 0 0 0 0 -11.908024025251059 19.046405612430618 0 19.046405612430618 17.733057205110413 0 0 0 0 -10.022702167989337 16.893781487306114 0 16.893781487306114 56.18586681560555 0 0 0 0 -22.930154488772132 -1.2881040239954018 0 -1.2881040239954018 68.49800205961219 0 0 0 0 40.740152367041446 35.682437536925136 0 35.682437536925136 -133.08958199789049 0 0 0 0 -60.02158621565377 19.073078303852526 0 19.073078303852526 28.45895293171634 0 0 0 0 -2.135560333605099 33.805642421662924 0 33.805642421662924 -2.3914136219536886 0 0 0 0 -27.47548373195059 75.963381431589369 0 75.963381431589369 42.599990382201213 0 0 0 0 -53.63395746761762 29.050518200681836 0 29.050518200681836 19.528039506607456 0 0 0 0 -15.979192870960404 18.039248320392375 0 18.039248320392375 15.435910525515283 0 0 0 0 -16.142383207116154 82.130416387293735 0 82.130416387293735 -28.177782963510253 0 0 0 0 -49.685979167550158 19.533678823681839 0 19.533678823681839 107.3764247597428 0 0 0 0 -43.251475911750276 72.408365275121469 0 72.408365275121469 207.6122332089144 0 0 0 0 118.62411614515895 108.10925523372134 0 108.10925523372134 20.162145233160118 0 0 0 0 68.910648564000439 5.3520958192384569 0 5.3520958192384569 -127.96401303319362 0 0 0 0 -4.3912681190240619 -17.874904320386122 0 -17.874904320386122 646.09565937478328 0 0 0 0 30.392436360868714 -67.239172783967661 0 -67.239172783967661 149.33210332790622 0 0 0 0 -15.678815132518139 -56.991211081869551 0 -56.991211081869551 226.33114419116464 0 0 0 0 15.502240949958264 -22.27387233416448 0 -22.27387233416448 73.406160634709522 0 0 0 0 -50.510969367961479 -1.6250568932373426 0 -1.6250568932373426 100.018397021704 0 0 0 0 -58.146782597928933 32.272335231296893 0 32.272335231296893 63.488180266540439 0 0 0 0 -116.92762603270194 -27.859536734125868 0 -27.859536734125868 91.51878800560371 0 0 0 0 -6.1417965364165639 0.95870231503795367 0 0.95870231503795367 31.813200532720657 0 0 0 0 -6.5124361713948407 11.046819618931522 0 11.046819618931522 55.670059546572645 0 0 0 0 8.3335214503675843 9.8378122484882624 0 9.8378122484882624 4.2606596519763116 0 0 0 0 -1.9134020503681395 6.0267850470245037 0 6.0267850470245037 9.1954153155348877 0 0 0 0 -5.3463476288661695 6.6981711438493221 0 6.6981711438493221 10.400276413100073 0 0 0 0 -17.030328794728096 -5.5765280656547418 0 -5.5765280656547418 24.32595406951495 0 0 0 0 -22.150441111134569 17.642198577945237 0 17.642198577945237 7.3863669123966247 0 0 0 0 -2.1473009600812443 9.6893275475920149 0 9.6893275475920149 3.2207680659565767 0 0 0 0 -22.062168130305508 18.212175886554178 0 18.212175886554178 5.2932931379182264 0 0 0 0 -18.782083707259801 5.6912787341888702 0 5.6912787341888702 18.3110265180851 0 0 0 0 -0.82035425898565251 5.633828940353709 0 5.633828940353709 10.439481201069185 0 0 0 0 -20.898603268297421 14.89490150358094 0 14.89490150358094 23.624530220692947 0 0 0 0 -5.6976740440732101 50.854488675948232 0 50.854488675948232 -31.091610799077898 0 0 0 0 -24.257413103766339 47.600003548548557 0 47.600003548548557 25.117861122751492 0 0 0 0 -29.275722545273766 11.860548024036689 0 11.860548024036689 -9.0462777489447035 0 0 0 0 -0.98757446534617976 1.470574189840562 0 1.470574189840562 3.559689663952895 0 0 0 0 -20.000479103315229 -7.0311246598867001 0 -7.0311246598867001 8.5068116101319902 0 0 0 0 -3.0117277408462542 6.8065394781151554 0 6.8065394781151554 18.960580591330654 0 0 0 0 -83.530205127706722 70.642321128485491 0 70.642321128485491 101.94361983146518 0 0 0 0 -1.5058072210327502 0.60150325484488576 0 0.60150325484488576 1.45690533824461 0 0 0 0 6.0098773098899017 16.312976158777019 0 16.312976158777019 30.913928200228838 0 0 0 0 -81.10190664462425 40.214104950762703 0 40.214104950762703 -16.916085143282544 0 0 0 0 2.2348784716977623 4.1631723485549799 0 4.1631723485549799 5.4133951221029974 0 0 0 0 8.0036941147945324 14.492918354566882 0 14.492918354566882 17.364053500008936 0 0 0 0 9.1761209535335269 -38.521319692692487 0 -38.521319692692487 -71.606608837115346 0 0 0 0 -4.9775171506680067 220.49876997105457 0 220.49876997105457 129.20191334158881 0 0 0 0 -87.354871566462037 -29.929810412621009 0 -29.929810412621009 102.31775586309959 0 0 0 0 1.3218440896484722 2.4600684328896563 0 2.4600684328896563 4.2721342778295366 0 0 0 0 115.63049774418792 150.63860941362509 0 150.63860941362509 165.30306230670249 0 0 0 0 -16.97575263166636 74.62764402576704 0 74.62764402576704 218.36412746467977 0 0 0 0 -26.816460505427585 -118.93070635892218 0 -118.93070635892218 -66.953284864270245 0 0 0 0 48.60462189334612 -73.098280103615252 0 -73.098280103615252 -195.67202566482592 0 0 0 0 -73.573417580168666 -44.065825120597765 0 -44.065825120597765 -215.90430955006741 0 0 0 0 112.63235164716752 36.953317819876247 0 36.953317819876247 8.8158034390944522 0 0 0 0 0.28151695743863669 0.46534088768487436 0 0.46534088768487436 1.0487132994483659 0 0 0 0 113.63933218759485 85.298005594813731 0 85.298005594813731 28.851464624749497 0 0 0 0 48.784190830676835 2.5451325173180521 0 2.5451325173180521 -5.2503285906859674 0 0 0 0 -9.9151990720183587 -0.93442993003191077 0 -0.93442993003191077 73.814792126329849 0 0 0 0 -0.0050511969387947841 11.992268986054114 0 11.992268986054114 28.508583298971644 0 0 0 0 -6.4806480418624588 10.091100002071471 0 10.091100002071471 61.919031230019755 0 0 0 0 -8.7575765608922573 -5.4411536941697705 0 -5.4411536941697705 104.81099402997643 0 0 0 0 -0.44188545962055059 27.579265159933129 0 27.579265159933129 142.1420416336623 0 0 0 0 -0.23436406599547865 -2.2482835908158449 0 -2.2482835908158449 50.336833839101018 0 0 0 0 -8.8685969296450917 -22.689408525780891 0 -22.689408525780891 65.437403244897723 0 0 0 0 5.3487322232947179 -24.161743482574821 0 -24.161743482574821 20.21142765172408 0 0 0 0 -8.1519643391540768 14.594898113246018 0 14.594898113246018 -16.040767883707304 0 0 0 0 4.1802868767202384 13.687303795944899 0 13.687303795944899 -26.182642092288006 0 0 0 0 -17.830836798919215 52.713421485867002 0 52.713421485867002 -65.190681400162248 0 0 0 0 9.9701654813920637 -5.8407498110027518 0 -5.8407498110027518 -4.0454425444477238 0 0 0 0 -5.0308056750213197 12.777217812210438 0 12.777217812210438 -13.157966721249977 0 0 0 0 0.0094600078528482845 14.062426102464087 0 14.062426102464087 -28.363614015834173 0 0 0 0 -2.8181236128791287 19.763182156999392 0 19.763182156999392 -29.597368086338975 0 0 0 0 -14.181614073506594 0.67622930923243985 0 0.67622930923243985 25.821566692189663 0 0 0 0 -0.73434902240181876 0.35034250111093002 0 0.35034250111093002 2.8068565451635834 0 0 0 0 0.17358835260969618 3.4209264628753715 0 3.4209264628753715 7.7262261950112929 0 0 0 0 -1.6736628270576261 5.8098973175074207 0 5.8098973175074207 9.7081708600890124 0 0 0 0 -17.300324716045679 8.4820718873525038 0 8.4820718873525038 67.64972432939976 0 0 0 0 -9.3605481809131419 13.401145428455493 0 13.401145428455493 1.1930825819581514 0 0 0 0 -3.2367873580758979 -0.067002086317387466 0 -0.067002086317387466 7.412776349302618 0 0 0 0 0.14587911475799581 0.78289410398333814 0 0.78289410398333814 4.5322043920076567 0 0 0 0 41.111389035665525 -121.43333191577403 0 -121.43333191577403 27.337755589862354 0 0 0 0 -11.23036994941908 -9.1741357883729506 0 -9.1741357883729506 23.944488922577875 0 0 0 0 0.093691705627565819 -0.09443122014954497 0 -0.09443122014954497 -0.0076986938101413216 0 0 0 0 -0.0063916685384544031 -3.18789624494093 0 -3.18789624494093 1.0799115252739284 0 0 0 0 -0.018864340033742773 0.24621737770016239 0 0.24621737770016239 1.514685731595705 0 0 0 0 142.44267724075377 -187.35306092409883 0 -187.35306092409883 239.46436519184499 0 0 0 0 -48.520471158718124 78.213813921873225 0 78.213813921873225 167.88739753409754 0 0 0 0 0.060202216512737564 -34.08062406146928 0 -34.08062406146928 256.13067652279278 0 0 0 0 70.499583642625126 80.233400719494966 0 80.233400719494966 50.37985704356106 0 0 0 0 -118.08388131241438 65.043388476580731 0 65.043388476580731 333.63881232592394 0 0 0 0 -146.73426094347826 -2.9451157973817317 0 -2.9451157973817317 172.71346855259617 0 0 0 0 -188.87800052209951 148.30175237651565 0 148.30175237651565 177.09809907818271 0 0 0 0 -70.423534042639403 39.717626788147754 0 39.717626788147754 86.463703557339613 0 0 0 0 -1.7258753125572914 7.6228135585008232 0 7.6228135585008232 52.291395176362869 0 0 0 0 27.932457108079689 -10.389231620902137 0 -10.389231620902137 95.459266977908555 0 0 0 0 29.894848698950909 -40.908979471743805 0 -40.908979471743805 -67.599312016638578 0 0 0 0 7.5223527401763022 27.350176454339817 0 27.350176454339817 37.453322072484298 0 0 0 0 -12.266168281476894 -26.885848363308469 0 -26.885848363308469 113.47690337391396 0 0 0 0 27.292230281787056 -20.570869254879653 0 -20.570869254879653 64.897114550854894 0 0 0 0 23.67103878983994 -25.937229132454377 0 -25.937229132454377 56.951708196353138 0 0 0 0 22.177529470340971 -7.3210624316343456 0 -7.3210624316343456 166.90123286351445 0 0 0 0 26.769297164834597 -20.98072572361707 0 -20.98072572361707 45.921038051499636 0 0 0 0 183.41758677397729 -11.337234050952247 0 -11.337234050952247 63.905255056204624 0 0 0 0 122.45828834388294 -119.97689369739237 0 -119.97689369739237 140.41912157193292 0 0 0 0 210.79981281668449 -81.710668785024609 0 -81.710668785024609 48.515560380910756 0 0 0 0 1.7182783629239262 0.53361282788881681 0 0.53361282788881681 6.9799317698590073 0 0 0 0 9.8530768793611969 -37.034046185901389 0 -37.034046185901389 156.83783624248463 0 0 0 0 87.255986305052602 -67.012201390585687 0 -67.012201390585687 100.81634314368421 0 0 0 0 -1.1863444365739855 -6.5578823119341791 0 -6.5578823119341791 3.7632551768156191 0 0 0 0 2.9023007251585389 -18.988867940743546 0 -18.988867940743546 -5.4439295532076528 0 0 0 0 -32.244809071608415 -19.564291357935872 0 -19.564291357935872 93.407078681691928 0 0 0 0 -24.811923253212825 -16.073870463034837 0 -16.073870463034837 66.802858518931316 0 0 0 0 -0.03909296391196411 24.450953098232276 0 24.450953098232276 -16.821654670930002 0 0 0 0 1.1424222328827278 -3.8622135022598627 0 -3.8622135022598627 12.150385118588105 0 0 0 0 -48.760709478544015 76.747795567116555 0 76.747795567116555 -26.691027836597641 0 0 0 0 24.488832859684749 0.053071610993356444 0 0.053071610993356444 -65.64314105687663 0 0 0 0 -3.4572338379853567 3.6187399317967959 0 3.6187399317967959 45.906505162883207 0 0 0 0 2.7752867616508183 -55.630229169462837 0 -55.630229169462837 128.9071259854245 0 0 0 0 -25.54039198656119 -48.085701348983548 0 -48.085701348983548 347.82399036753986 0 0 0 0 8.0172346630906759 -19.287159857875736 0 -19.287159857875736 320.57707601062384 0 0 0 0 -43.10837083781189 -8.5559875820831621 0 -8.5559875820831621 393.37977474569755 0 0 0 0 -75.966856560211454 -93.615711097560052 0 -93.615711097560052 314.18403012141516 0 0 0 0 -70.145480120197817 -229.77599258490955 0 -229.77599258490955 -5.0989273786108242 0 0 0 0 141.05226976930351 -137.74889874130167 0 -137.74889874130167 122.96572183295211 0 0 0 0 -15.623032214083594 -305.05444591206106 0 -305.05444591206106 54.112155798706226 0 0 0 0 -49.094099002969415 -60.270659284637077 0 -60.270659284637077 158.40318719802508 0 0 0 0 35.407733678048658 -300.87464595139681 0 -300.87464595139681 88.628322553660837 0 0 0 0 -35.297805602816481 -83.748192986917445 0 -83.748192986917445 -13.428136659799339 0 0 0 0 -74.723885566051422 -162.30122864086661 0 -162.30122864086661 94.93133962911088 0 0 0 0 -34.973141369016624 -48.025024080922734 0 -48.025024080922734 13.025311470439078 0 0 0 0 -35.664400200416495 -93.528746399552006 0 -93.528746399552006 258.30243892428643 0 0 0 0 -188.06742795449986 -370.57390545270027 0 -370.57390545270027 75.924088341511379 0 0 0 0 -82.995456592712799 -166.88155545768564 0 -166.88155545768564 49.078025639210864 0 0 0 0 -2.9189866313574697 -65.771857161046327 0 -65.771857161046327 70.499532452550298 0 0 0 0 -4.9863046940954519 -237.00127321949731 0 -237.00127321949731 183.73149502659726 0 0 0 0 -49.910006160876748 -93.904267740874261 0 -93.904267740874261 72.567951770631922 0 0 0 0 -51.041290278357337 -147.66846651865126 0 -147.66846651865126 34.160643218452606 0 0 0 0 -33.007835813412385 -66.028164667786768 0 -66.028164667786768 118.5178094565963 0 0 0 0 -54.198996675206168 -96.020168492676746 0 -96.020168492676746 95.411926707566309 0 0 0 0 28.97328931489951 -45.205578533338858 0 -45.205578533338858 47.504474119666185 0 0 0 0 163.28506543822004 -166.53057632930359 0 -166.53057632930359 35.649107451424698 0 0 0 0 92.264475978809969 -231.74108215822321 0 -231.74108215822321 524.28364536211143 0 0 0 0 95.57601095391874 591.01936165513598 0 591.01936165513598 985.12477565700317 0 0 0 0 115.79358324972782 -296.50746066874581 0 -296.50746066874581 -260.60133152017806 0 0 0 0 -22.35262157897705 256.01990427789644 0 256.01990427789644 1872.2681425343496 0 0 0 0 275.66430270867022 187.7667242083794 0 187.7667242083794 240.16336603191553 0 0 0 0 5.5003646499624388 -11.283757897133434 0 -11.283757897133434 17.720856882399588 0 0 0 0 185.04485646236844 398.72860288461885 0 398.72860288461885 802.06118781975374 0 0 0 0 3.2440283179693097 1.494199018482063 0 1.494199018482063 44.742176174215402 0 0 0 0 38.147195694324182 62.085031430063964 0 62.085031430063964 346.92613892106169 0 0 0 0 209.0503834955498 102.24345522939723 0 102.24345522939723 231.03956880378882 0 0 0 0 1.7538110881649587 2.4231736556187329 0 2.4231736556187329 -4.039305490575769 0 0 0 0 -31.019230775148571 143.79459121244054 0 143.79459121244054 702.57065423089853 0 0 0 0 -47.2634227520075 149.82556656497684 0 149.82556656497684 823.48401887547607 0 0 0 0 -2.624128449512682 101.30859516175542 0 101.30859516175542 765.93785949252424 0 0 0 0 4.6247670310963258 126.64109862087639 0 126.64109862087639 697.46331611404685 0 0 0 0 -16.146206679621173 46.423371608251955 0 46.423371608251955 835.03548210269537 0 0 0 0 -99.789470353609431 150.26278413583987 0 150.26278413583987 1070.0603335878886 0 0 0 0 0.2773040724001774 0.97871721747564067 0 0.97871721747564067 1.8950791788717396 0 0 0 0 -109.22039621920521 219.12534868377952 0 219.12534868377952 734.45723552617051 0 0 0 0 -16.926074829498248 83.468397651757641 0 83.468397651757641 662.46932449268365 0 0 0 0 -73.67969596574585 184.16487160221982 0 184.16487160221982 760.33473108736325 0 0 0 0 -170.35502317102146 60.206337375829207 0 60.206337375829207 722.18551332154311 0 0 0 0 -91.926287159293679 97.568391335477145 0 97.568391335477145 535.24906723172626 0 0 0 0 -82.153632204419409 -65.664102910925521 0 -65.664102910925521 520.17456760022515 0 0 0 0 -19.622537567557629 14.343948964569336 0 14.343948964569336 388.36543255298693 0 0 0 0 -59.698191118075556 73.416253651122133 0 73.416253651122133 301.2961852960467 0 0 0 0 -76.777991332695819 -39.823515247717296 0 -39.823515247717296 384.05472120594146 0 0 0 0 -89.365122227937803 -56.458074205090711 0 -56.458074205090711 48.405554830721314 0 0 0 0 -43.208001866662926 -51.978376090040001 0 -51.978376090040001 341.66142529290209 0 0 0 0 -65.943486354114498 -54.290083748302294 0 -54.290083748302294 -6.5043200918070347 0 0 0 0 -80.570853514186638 -36.341297756216363 0 -36.341297756216363 411.77464004680769 0 0 0 0 -62.560490934205518 -34.126710871518299 0 -34.126710871518299 195.81479139938165 0 0 0 0 -150.70363944963196 -73.077822671471949 0 -73.077822671471949 450.08765534399208 0 0 0 0 -114.87111712251135 -152.67104171964456 0 -152.67104171964456 219.09580269410162 0 0 0 0 -157.87276145931537 -161.64757883220955 0 -161.64757883220955 273.65642827186821 0 0 0 0 -52.939569372165124 -92.628918714894098 0 -92.628918714894098 128.61334156222438 0 0 0 0 -40.566720046728811 -54.17296646435657 0 -54.17296646435657 -1.5772760394126926 0 0 0 0 -62.942742674146302 -91.210296403510938 0 -91.210296403510938 416.5945389135004 0 0 0 0 -40.149147339872798 -74.885068276531456 0 -74.885068276531456 246.74779251736618 0 0 0 0 -42.481713582774155 22.774028133085807 0 22.774028133085807 223.13743627721851 0 0 0 0 -184.66896839916262 -49.078933932636573 0 -49.078933932636573 245.90646437994747 0 0 0 0 -71.929250055761372 -6.7900802073654631 0 -6.7900802073654631 358.69560821105006 0 0 0 0 0.60422088870282664 -14.557291223450193 0 -14.557291223450193 188.77454020008736 0 0 0 0 -35.826767275470047 24.490342003082333 0 24.490342003082333 195.1580306400042 0 0 0 0 -25.589250557897685 47.153663022854744 0 47.153663022854744 113.91227891732342 0 0 0 0 -10.220810375855763 61.923787110004923 0 61.923787110004923 60.936216573856655 0 0 0 0 -46.531239715975971 58.976495580838673 0 58.976495580838673 125.32014617968525 0 0 0 0 -48.517383048128721 26.633119491898697 0 26.633119491898697 137.67134308093227 0 0 0 0 -60.878404075628623 85.354194424307934 0 85.354194424307934 91.621210171782877 0 0 0 0 -113.84176989698631 34.887685673893429 0 34.887685673893429 137.50495254009365 0 0 0 0 -143.61965479657647 65.712638104823782 0 65.712638104823782 113.41616314952262 0 0 0 0 -173.33721736011285 -9.0506313366822724 0 -9.0506313366822724 123.44281864480945 0 0 0 0 -114.48605620547187 14.468649878810538 0 14.468649878810538 223.36125289312236 0 0 0 0 -97.657325862412563 -4.7625789611265645 0 -4.7625789611265645 167.49200064004981 0 0 0 0 -216.38781211175933 -67.467797782654998 0 -67.467797782654998 164.08406418505183 0 0 0 0 -194.42825077907582 26.494994240019878 0 26.494994240019878 159.28373931767419 0 0 0 0 -279.77037246980899 -73.061061021129717 0 -73.061061021129717 82.280982548152679 0 0 0 0 -291.19689526338152 -34.561238622081873 0 -34.561238622081873 104.80030032769719 0 0 0 0 -261.90436119182482 28.645073112241789 0 28.645073112241789 127.83936125913169 0 0 0 0 -477.59993054986217 -29.190595321182627 0 -29.190595321182627 149.28068377275486 0 0 0 0 -329.95892648511699 0.27838335003252723 0 0.27838335003252723 105.83919003208575 0 0 0 0 -229.67402936444 61.08740145680531 0 61.08740145680531 141.93137833180663 0 0 0 0 -135.63051117197585 34.840283210563939 0 34.840283210563939 92.812375117475312 0 0 0 0 -124.82299948429545 81.140714418270363 0 81.140714418270363 100.04781625549367 0 0 0 0 -31.822046602764658 105.43412295261805 0 105.43412295261805 79.602805922899279 0 0 0 0 -31.854030511228302 104.67829140306276 0 104.67829140306276 71.310750661563361 0 0 0 0 -823.23526615450351 -216.51167220166826 0 -216.51167220166826 440.48627246779506 0 0 0 0 -724.02303070490871 -390.54689614380186 0 -390.54689614380186 336.17178241512738 0 0 0 0 -123.48723302391409 -317.32111438906577 0 -317.32111438906577 131.19621776814893 0 0 0 0 11.637976726601817 -60.448577005453892 0 -60.448577005453892 173.64058472617441 0 0 0 0 -111.43953590032288 -227.7252818953275 0 -227.7252818953275 15.220629623487184 0 0 0 0 -191.74770929895931 -24.710795799855987 0 -24.710795799855987 202.54855774055613 0 0 0 0 -193.74630448408789 -200.78127214571214 0 -200.78127214571214 205.54417066444876 0 0 0 0 -313.50698878538788 -27.900510257277347 0 -27.900510257277347 151.4006870144367 0 0 0 0 -306.66799471988088 -144.56155438540736 0 -144.56155438540736 134.28142591638607 0 0 0 0 9.3460750593549093 -31.357306013384594 0 -31.357306013384594 -14.418833455783414 0 0 0 0 -467.5656250545544 -178.51445958662225 0 -178.51445958662225 203.79816070466495 0 0 0 0 -506.02362858713423 -148.39426306805399 0 -148.39426306805399 183.77643004177662 0 0 0 0 -585.64274852099697 -134.30157636976583 0 -134.30157636976583 145.85726900526788 0 0 0 0 -46.792806586409142 74.351533893559463 0 74.351533893559463 157.77282738222857 0 0 0 0 -463.62706797181454 -113.08038049879542 0 -113.08038049879542 15.357924940384692 0 0 0 0 -675.13524707802935 -310.78832399807288 0 -310.78832399807288 -55.329353714885656 0 0 0 0 -19.984475739951364 13.660802362174291 0 13.660802362174291 30.497583657415646 0 0 0 0 -485.65216675748616 -93.812278543980938 0 -93.812278543980938 131.93813242923352 0 0 0 0 -377.42692000833449 -131.78901769317599 0 -131.78901769317599 9.2374784847925184 0 0 0 0 -495.17187493405982 -108.29505424732633 0 -108.29505424732633 91.033667034178507 0 0 0 0 -375.65450250731374 -60.143990240474523 0 -60.143990240474523 111.91922686896578 0 0 0 0 -486.19746243178088 -159.31813424092252 0 -159.31813424092252 96.645995458311518 0 0 0 0 -511.59377335441241 -107.01828492642744 0 -107.01828492642744 145.53015725701698 0 0 0 0 -373.98769049974999 -101.43993930700708 0 -101.43993930700708 70.140862920117797 0 0 0 0 -99.134249030606952 218.22172130659601 0 218.22172130659601 213.48527540225768 0 0 0 0 -330.22315901353795 -83.916443781839916 0 -83.916443781839916 90.661175945482682 0 0 0 0 -369.17840117396531 220.38292258798083 0 220.38292258798083 663.59014555931208 0 0 0 0 -611.30052568762414 -754.41338301762153 0 -754.41338301762153 202.0195962659709 0 0 0 0 0.95241721224829234 458.506848602643 0 458.506848602643 378.64046899304958 0 0 0 0 -1.431546571624323 -1.2322309603532844 0 -1.2322309603532844 13.933746832117947 0 0 0 0 -324.06493302753609 -419.22156560023723 0 -419.22156560023723 593.15752342321503 0 0 0 0 -150.21041823326027 52.579008567408891 0 52.579008567408891 379.30590963210852 0 0 0 0 -200.62004476351285 -247.71084763149702 0 -247.71084763149702 667.01963040811097 0 0 0 0 416.48509441227543 -628.06926936881791 0 -628.06926936881791 -216.83454274392716 0 0 0 0 -734.06364318273199 219.18438483192222 0 219.18438483192222 1168.0301835800492 0 0 0 0 16.020722393398007 -100.66105033080909 0 -100.66105033080909 164.0621235046618 0 0 0 0 -686.74024752812966 -827.38336204355437 0 -827.38336204355437 -17.701721697583707 0 0 0 0 -172.48763745580334 -186.60118934520142 0 -186.60118934520142 -101.96282535443606 0 0 0 0 -135.3422734295782 -299.69669236953632 0 -299.69669236953632 110.95341502140218 0 0 0 0 -318.15813528924303 -251.40235312657023 0 -251.40235312657023 105.70087581669941 0 0 0 0 -359.69951926276997 -535.88616778204323 0 -535.88616778204323 -130.17329288955079 0 0 0 0 -36.896676420574231 -82.689746640554432 0 -82.689746640554432 283.44068258766333 0 0 0 0 177.56932049170928 -230.56889943211718 0 -230.56889943211718 57.101893847982865 0 0 0 0 -64.585894641160621 -334.67943011150055 0 -334.67943011150055 10.812609999382403 0 0 0 0 48.426795157084257 -158.2111153292135 0 -158.2111153292135 79.91506872822174 0 0 0 0 -89.748712005340622 -140.61947955419964 0 -140.61947955419964 73.739571440135478 0 0 0 0 26.155211437619073 -261.64626462090382 0 -261.64626462090382 198.449657745281 0 0 0 0 295.16262470271317 -239.09988195230835 0 -239.09988195230835 138.21380666547338 0 0 0 0 143.21527388990353 -133.6920288040892 0 -133.6920288040892 82.738679579881136 0 0 0 0 144.38352126995892 -212.79242195239749 0 -212.79242195239749 170.27962362710969 0 0 0 0 392.51548960646545 -298.4014210380119 0 -298.4014210380119 177.17217677201188 0 0 0 0 154.42240578615281 -268.42113229571987 0 -268.42113229571987 198.50968703702529 0 0 0 0 -216.69944933953775 -333.03437420427508 0 -333.03437420427508 316.71863377602131 0 0 0 0 148.51962365333662 -334.29463667347045 0 -334.29463667347045 316.70811373605102 0 0 0 0 -80.33983362782169 -586.56204033001995 0 -586.56204033001995 173.3742982007243 0 0 0 0 192.01704777922492 -410.5807447827392 0 -410.5807447827392 345.19004699594552 0 0 0 0 486.94616647962556 -268.48126010395936 0 -268.48126010395936 185.9539183928573 0 0 0 0 468.41984524041669 -266.60497984124959 0 -266.60497984124959 262.27390273874425 0 0 0 0 653.78516540116129 -192.70416386592115 0 -192.70416386592115 141.45106290683907 0 0 0 0 520.27922417054242 -144.81623115271941 0 -144.81623115271941 72.471235788150807 0 0 0 0 433.00489501579165 -146.70165877604813 0 -146.70165877604813 139.01350772060687 0 0 0 0 116.86990591065114 127.55754616142076 0 127.55754616142076 -126.70168673647277 0 0 0 0 13.195722443321419 33.227595444990271 0 33.227595444990271 76.962861705319483 0 0 0 0 5.3179661599136363 9.2062590912530666 0 9.2062590912530666 3.2109108136947953 0 0 0 0 217.88734955906867 -219.01610515962966 0 -219.01610515962966 222.37246626979322 0 0 0 0 533.88707565954837 -46.923074225458549 0 -46.923074225458549 122.3345863736613 0 0 0 0 -61.839690691380838 400.79707222116122 0 400.79707222116122 11.728033196911611 0 0 0 0 12.759463756136011 32.747154668952632 0 32.747154668952632 68.563693557453405 0 0 0 0 -687.99023932255659 370.01004461868797 0 370.01004461868797 44.73555735933769 0 0 0 0 -402.59747972727973 114.44926177405432 0 114.44926177405432 2.3739850872079842 0 0 0 0 -352.92781103122979 178.07308423514769 0 178.07308423514769 125.59583561617183 0 0 0 0 -518.49041021957237 154.74782137802686 0 154.74782137802686 130.7218426465115 0 0 0 0 -340.76684297877728 125.19676176480425 0 125.19676176480425 39.168584276712863 0 0 0 0 -352.22218269576115 -3.3605198313234723 0 -3.3605198313234723 141.70088464849687 0 0 0 0 -391.27416062363386 157.24022424429631 0 157.24022424429631 102.82304124641814 0 0 0 0 -252.94222062154768 58.065017816988984 0 58.065017816988984 225.10704461405112 0 0 0 0 -382.4608043255256 44.865021204035656 0 44.865021204035656 246.47687315021176 0 0 0 0 -214.91866237910062 12.847795137440698 0 12.847795137440698 305.99829862621846 0 0 0 0 -372.22856591383515 -15.866639575579029 0 -15.866639575579029 354.56980454365112 0 0 0 0 -372.62272295572529 13.566883727653476 0 13.566883727653476 188.58141582182725 0 0 0 0 -382.28124637851033 -8.2083409485348966 0 -8.2083409485348966 234.00954605943116 0 0 0 0 4.3794011790897631 6.8024616831533944 0 6.8024616831533944 59.511590971104567 0 0 0 0 44.943124424599773 56.3308835937205 0 56.3308835937205 -6.9528073136752937 0 0 0 0 -364.23466224368167 -16.772799270707765 0 -16.772799270707765 183.93881062835862 0 0 0 0 -4.0907372361571133 9.2754276640680189 0 9.2754276640680189 48.538860896311519 0 0 0 0 313.32906127104422 -143.00049066952852 0 -143.00049066952852 72.038535575098649 0 0 0 0 256.76810600544479 -128.62175375071092 0 -128.62175375071092 110.25669103098335 0 0 0 0 358.27849951045994 -100.56133335930463 0 -100.56133335930463 87.309239259688184 0 0 0 0 132.66255276014408 -56.20765582191234 0 -56.20765582191234 620.98771432587091 0 0 0 0 155.01162009188818 97.877918014226452 0 97.877918014226452 538.12851710610266 0 0 0 0 93.707084330959219 288.32270652757143 0 288.32270652757143 878.96603394948761 0 0 0 0 150.39291660971662 240.6069600885894 0 240.6069600885894 690.0017834786122 0 0 0 0 151.66478993797318 199.58243646483606 0 199.58243646483606 456.86964310622716 0 0 0 0 154.21916944707164 -51.469619216804858 0 -51.469619216804858 389.08790753140784 0 0 0 0 183.62341930809043 196.63725746504497 0 196.63725746504497 422.27249350857346 0 0 0 0 -80.345551640045414 44.518513041519327 0 44.518513041519327 329.09387483177125 0 0 0 0 125.49482606914717 24.916068777754845 0 24.916068777754845 245.58390273601981 0 0 0 0 38.988987035248101 239.92241206342442 0 239.92241206342442 319.59538317205443 0 0 0 0 138.40525549161293 87.246735491098661 0 87.246735491098661 179.10537298078998 0 0 0 0 31.511989734045869 138.02541531825727 0 138.02541531825727 -36.246420402138028 0 0 0 0 -423.10394139518121 118.36333160116919 0 118.36333160116919 217.09552585225174 0 0 0 0 -72.77450514008342 79.142282839660766 0 79.142282839660766 129.87899496514729 0 0 0 0 -306.5864113894329 -3.5855350911970163 0 -3.5855350911970163 250.65906983840978 0 0 0 0 -249.5000590347581 -22.438025036222143 0 -22.438025036222143 342.4222376915277 0 0 0 0 -22.857707548909275 27.486051405052422 0 27.486051405052422 212.54519045467896 0 0 0 0 -105.25023097672693 -68.019789736033999 0 -68.019789736033999 472.82690777685275 0 0 0 0 -122.33812583692816 -109.33123982444522 0 -109.33123982444522 374.01068517401291 0 0 0 0 -50.456654314901243 -2.0246629378671059 0 -2.0246629378671059 301.65209207995213 0 0 0 0 -40.514645934223267 37.732851828108323 0 37.732851828108323 433.59954296026262 0 0 0 0 240.3122078651968 -72.88474402976135 0 -72.88474402976135 291.38921281148214 0 0 0 0 166.54106965047026 -137.21355826830404 0 -137.21355826830404 435.9919061595574 0 0 0 0 -36.41989494214522 -32.359276039787801 0 -32.359276039787801 349.13499781083374 0 0 0 0 209.46320684393561 -195.06650518000242 0 -195.06650518000242 444.59054328272759 0 0 0 0 152.80472283446181 -36.698137341685651 0 -36.698137341685651 432.52497764409054 0 0 0 0 290.79350684407018 -180.1676566805254 0 -180.1676566805254 372.07258055931015 0 0 0 0 167.66499949444233 -209.57917608907883 0 -209.57917608907883 449.50447237418848 0 0 0 0 341.12700709025194 -326.77258368869661 0 -326.77258368869661 512.05730734416284 0 0 0 0 157.88004090565687 -234.44099794765498 0 -234.44099794765498 589.75448813766707 0 0 0 0 50.740141257612663 -260.27790777140763 0 -260.27790777140763 598.01708206468902 0 0 0 0 97.972213112365353 -83.069685857764853 0 -83.069685857764853 607.15236462999019 0 0 0 0 69.198408769499792 -197.38235942416213 0 -197.38235942416213 639.83514155822922 0 0 0 0 -19.480065358234242 -58.404029293655185 0 -58.404029293655185 -19.069215391005855 0 0 0 0 76.824965641654444 -134.30640488163044 0 -134.30640488163044 385.9349970042822 0 0 0 0 13.848205047280629 -9.3624127727625535 0 -9.3624127727625535 3.9411580095843988 0 0 0 0 38.523872137011438 -121.3276977075293 0 -121.3276977075293 463.23049540058128 0 0 0 0 87.089389403739688 -327.6572442713732 0 -327.6572442713732 760.92930278772837 0 0 0 0 32.717306103203327 -201.21707990954746 0 -201.21707990954746 542.0575744202506 0 0 0 0 27.432656398353174 -215.89684738459982 0 -215.89684738459982 517.35697900372907 0 0 0 0 7.3832239883772672 -89.653500981803518 0 -89.653500981803518 587.45064599139732 0 0 0 0 94.797495645714207 -345.40073356901121 0 -345.40073356901121 1325.146873582562 0 0 0 0 282.65698177748345 75.236520022546756 0 75.236520022546756 -77.972677543999453 0 0 0 0 5.6400761315813384 -2.4446077641282216 0 -2.4446077641282216 1.5526508138279667 0 0 0 0 -30.46999746324218 -39.560712650898495 0 -39.560712650898495 117.98398714498035 0 0 0 0 451.1939494747985 -603.88919657432416 0 -603.88919657432416 336.30089845653129 0 0 0 0 650.03075956381804 -236.30844541949773 0 -236.30844541949773 -33.243581648392137 0 0 0 0 600.91673581218947 -436.28285241329286 0 -436.28285241329286 563.27058146909985 0 0 0 0 363.17420719076608 40.461238561785649 0 40.461238561785649 445.08132120838854 0 0 0 0 -67.077073894271962 -233.39670121346717 0 -233.39670121346717 778.98921368204901 0 0 0 0 -134.83525956122344 -28.325113223456356 0 -28.325113223456356 167.49565222398087 0 0 0 0 114.60549075134213 -369.98845059193991 0 -369.98845059193991 173.83967933355598 0 0 0 0 45.622893839783274 -502.19591574393417 0 -502.19591574393417 27.910733774129767 0 0 0 0 -7.8245547823414014 -23.633985930128659 0 -23.633985930128659 -13.447751284728142 0 0 0 0 -67.605470641848115 -317.98984287580242 0 -317.98984287580242 396.51933869533241 0 0 0 0 -21.655017993022739 -39.620996776662651 0 -39.620996776662651 73.308511281182291 0 0 0 0 162.81944932926399 -292.66323240313068 0 -292.66323240313068 221.15649996945285 0 0 0 0 197.21258141116778 -106.02178227564127 0 -106.02178227564127 -0.6032115353300469 0 0 0 0 111.41009821389343 -119.19745711539872 0 -119.19745711539872 48.35385745124222 0 0 0 0 61.238533105734632 25.539095705149521 0 25.539095705149521 35.744976509478875 0 0 0 0 -8.6879815553575099 -22.085222894806066 0 -22.085222894806066 6.2615499369712779 0 0 0 0 -5.2145211784573462 -24.321084792356373 0 -24.321084792356373 -6.1440697548136001 0 0 0 0 29.579539074557033 -80.34814145261771 0 -80.34814145261771 82.884513609635178 0 0 0 0 -6.6445156007466721 -38.98403248746763 0 -38.98403248746763 44.317683198671148 0 0 0 0 0.44613211105746942 -2.1758459784431636 0 -2.1758459784431636 -7.973427552947868 0 0 0 0 -7.4516405718491114 -26.011212172757951 0 -26.011212172757951 13.994572072726442 0 0 0 0 -11.45678884616102 -13.873416776248717 0 -13.873416776248717 14.179395840359803 0 0 0 0 -0.084017031691629995 -27.846971007007426 0 -27.846971007007426 9.8671911647130628 0 0 0 0 0.25338657222096117 -23.762593817267771 0 -23.762593817267771 29.184417273616418 0 0 0 0 14.279119160242772 -28.397282074292889 0 -28.397282074292889 72.093984067701967 0 0 0 0 -7.1196459577556608 -19.601051545243131 0 -19.601051545243131 36.848047957833273 0 0 0 0 -4.030026854875473 -20.813667406990135 0 -20.813667406990135 12.818601832841523 0 0 0 0 -19.613480201451694 -19.015977907936758 0 -19.015977907936758 37.517227321135579 0 0 0 0 -7.6467224004784971 -11.998006133760747 0 -11.998006133760747 13.232472792144051 0 0 0 0 -3.3146967978809698 -10.103531845074031 0 -10.103531845074031 -1.3380603254918242 0 0 0 0 -22.459716995197802 -67.539654560165914 0 -67.539654560165914 62.626190523804141 0 0 0 0 56.24126911766507 -40.707371353193594 0 -40.707371353193594 73.679644838222885 0 0 0 0 0.95324476838973604 -18.882597709429678 0 -18.882597709429678 116.91767690714795 0 0 0 0 -110.03934972418381 -174.54084622344726 0 -174.54084622344726 21.964843328896677 0 0 0 0 -10.438079788784535 -48.968233869956748 0 -48.968233869956748 176.00926813511342 0 0 0 0 -13.426375130457018 -80.901819687660463 0 -80.901819687660463 54.682430665387074 0 0 0 0 284.27121738357846 -260.43281728363218 0 -260.43281728363218 73.994028096749389 0 0 0 0 -78.28028042548658 44.332529483937833 0 44.332529483937833 73.457035619241651 0 0 0 0 -11.064991976077428 -5.1423547268458094 0 -5.1423547268458094 10.360911474636112 0 0 0 0 -6.72775304646549 5.0454559389618225 0 5.0454559389618225 14.051653318943863 0 0 0 0 -67.393411078176086 -14.617334977508108 0 -14.617334977508108 129.34306911122985 0 0 0 0 15.407321183749673 -62.745808333693276 0 -62.745808333693276 88.658516623050673 0 0 0 0 -309.40429839390254 -171.0139812669222 0 -171.0139812669222 184.83428410883062 0 0 0 0 -388.8752802373956 -276.43447737817405 0 -276.43447737817405 104.60067554126726 0 0 0 0 -452.87662039989209 -173.15926222931739 0 -173.15926222931739 414.45177359578884 0 0 0 0 -6.5485061381954743 -4.2410834111689724 0 -4.2410834111689724 51.758136508505658 0 0 0 0 -229.46778833258759 -260.88490027675289 0 -260.88490027675289 -29.74958633258575 0 0 0 0 76.317471324786311 39.026472105499124 0 39.026472105499124 122.08885771572568 0 0 0 0 383.91065422143856 -601.0716869951284 0 -601.0716869951284 728.14190700248582 0 0 0 0 -261.80621391075056 20.389337874075864 0 20.389337874075864 234.81687573067029 0 0 0 0 -494.74956321902482 -494.95829573558876 0 -494.95829573558876 412.74659600736049 0 0 0 0 -238.55902126159253 -155.5842106536511 0 -155.5842106536511 642.02728234173264 0 0 0 0 -16.900615287309847 -225.7068209510835 0 -225.7068209510835 502.46711923229668 0 0 0 0 138.63534185352364 216.63187014668074 0 216.63187014668074 666.76840611497755 0 0 0 0 -88.566031088550517 95.655009109599632 0 95.655009109599632 1062.6758068535783 0 0 0 0 91.969898675447894 -66.800506442334154 0 -66.800506442334154 -225.28691147087375 0 0 0 0 52.064584273024593 79.543829561691382 0 79.543829561691382 549.07422670358937 0 0 0 0 0.53062514164079833 -43.497141376092088 0 -43.497141376092088 0.42562112520425899 0 0 0 0 -873.93988112842135 -1357.3525695828794 0 -1357.3525695828794 1997.2853434394783 0 0 0 0 -57.682668681574796 40.28038679311976 0 40.28038679311976 429.90551300895504 0 0 0 0 -6.7978307403247111 -38.150641570374916 0 -38.150641570374916 370.44152588760028 0 0 0 0 -1655.6585718592346 -780.61604558395538 0 -780.61604558395538 -190.61702569448789 0 0 0 0 -8.2659617922730604 19.866997778866228 0 19.866997778866228 83.864305499752291 0 0 0 0 -320.98194978287938 123.72295227429299 0 123.72295227429299 689.26321451383137 0 0 0 0 -639.72603729730008 356.20688016415806 0 356.20688016415806 142.59008258749964 0 0 0 0 -59.361729096375015 -83.610238064539317 0 -83.610238064539317 343.24864920237451 0 0 0 0 -8.0146969643126553 -37.939516112464759 0 -37.939516112464759 332.85150486534616 0 0 0 0 1378.1890588328051 630.42684910649405 0 630.42684910649405 -947.9836673552054 0 0 0 0 -294.67267527549666 -197.15250878722691 0 -197.15250878722691 370.3111781761545 0 0 0 0 -219.14223488939786 -54.702305554750637 0 -54.702305554750637 374.6547899586476 0 0 0 0 -120.05670216693852 -158.62243542180477 0 -158.62243542180477 375.92613748006988 0 0 0 0 -137.54255948184436 -136.07412215319528 0 -136.07412215319528 440.18438336900545 0 0 0 0 -27.977325454993661 -244.60142478814487 0 -244.60142478814487 195.88757448388424 0 0 0 0 16.001809412256989 -444.79746839445215 0 -444.79746839445215 243.19239309671775 0 0 0 0 1445.5052371835682 254.48881860618826 0 254.48881860618826 -33.997028919432751 0 0 0 0 1508.8281201972968 -1331.6924719906151 0 -1331.6924719906151 -703.25277601491075 0 0 0 0 -658.95626252157308 -720.98130959857281 0 -720.98130959857281 236.61439487984899 0 0 0 0 -646.4443215618503 -87.984476014093161 0 -87.984476014093161 587.60290456051007 0 0 0 0 -1493.672226556032 -1489.5071921200474 0 -1489.5071921200474 1261.5197546008621 0 0 0 0 17.758375768485536 -15.815844449128297 0 -15.815844449128297 12.716951896522779 0 0 0 0 1288.836909610236 -1139.703789833465 0 -1139.703789833465 2220.8757402933034 0 0 0 0 -2771.9036537795473 -1218.1078598950289 0 -1218.1078598950289 3149.262187870158 0 0 0 0 -1383.2100677045473 -2502.9881223723155 0 -2502.9881223723155 2190.1195832071189 0 0 0 0 -3284.9984059297317 170.39585028711485 0 170.39585028711485 1323.5772721650956 0 0 0 0 -924.56771815391039 1388.9358165354558 0 1388.9358165354558 237.289326026857 0 0 0 0 3094.1093950910108 1006.2222971994156 0 1006.2222971994156 -429.77443181773469 0 0 0 0 1081.0096107460395 464.91428043973008 0 464.91428043973008 221.68413335099308 0 0 0 0 576.67341886868599 -54.666975157793047 0 -54.666975157793047 158.68637198252736 0 0 0 0 382.30406805235361 954.73663509821699 0 954.73663509821699 485.73397377815343 0 0 0 0 -4.3183643195001036 23.798592084409918 0 23.798592084409918 261.84669729554304 0 0 0 0 -849.74474326571271 -463.1629738295124 0 -463.1629738295124 265.69832198169524 0 0 0 0 -652.07032214291985 -667.09969348721847 0 -667.09969348721847 444.41402736572797 0 0 0 0 -448.29711935075466 153.24945373049593 0 153.24945373049593 650.99951238043855 0 0 0 0 -1359.1769431178354 -335.03849473469194 0 -335.03849473469194 412.83282518564465 0 0 0 0 -786.96449077986199 -547.25018451008464 0 -547.25018451008464 -269.73879998739312 0 0 0 0 -23.841921998814556 -1.0641269602532302 0 -1.0641269602532302 82.665181302186681 0 0 0 0 -2031.9023454319672 606.78101128878268 0 606.78101128878268 4.3398377403868835 0 0 0 0 605.97937206676124 17.091997135428755 0 17.091997135428755 57.832060231244213 0 0 0 0 -21.957264556138281 -2.347029961591943 0 -2.347029961591943 200.47505866803112 0 0 0 0 -13.352370153337127 -36.207070880017376 0 -36.207070880017376 204.8922439163531 0 0 0 0 -16.118354310659925 -127.40058160352055 0 -127.40058160352055 -50.336568056838587 0 0 0 0 -0.54209232887933911 -11.333365054856845 0 -11.333365054856845 101.46166091583996 0 0 0 0 108.31337903568942 37.881282472961175 0 37.881282472961175 159.27157469133272 0 0 0 0 -34.160160394705827 -13.896273891834426 0 -13.896273891834426 91.049736578665033 0 0 0 0 -42.644964250459452 39.078822119903634 0 39.078822119903634 91.353018674351915 0 0 0 0 -0.29843233425450322 -33.2901795807702 0 -33.2901795807702 227.7107520671714 0 0 0 0 9.3552620699401672 -15.641473217330827 0 -15.641473217330827 240.8758401235138 0 0 0 0 -12.240403697105004 -53.375985887527918 0 -53.375985887527918 167.22089513446804 0 0 0 0 -9.6750331846813182 -26.262774323249545 0 -26.262774323249545 15.254724274448222 0 0 0 0 -11.028378373422584 -40.326783626776887 0 -40.326783626776887 87.133224945115217 0 0 0 0 -2.8315147033745509 -12.50203374052245 0 -12.50203374052245 18.817971740003571 0 0 0 0 4.687979851365526 26.678756744971906 0 26.678756744971906 59.944518541778962 0 0 0 0 6.1501319460756747 36.103971831498711 0 36.103971831498711 120.58571121176647 0 0 0 0 -50.016966730660897 150.74364197347677 0 150.74364197347677 277.03079084597994 0 0 0 0 -205.2878220637744 62.982524952558379 0 62.982524952558379 118.51539164729184 0 0 0 0 571.78165550018252 148.55948494675795 0 148.55948494675795 -173.89703418788849 0 0 0 0 -1.5534803595677171 1.2419867799495634 0 1.2419867799495634 59.95225362691707 0 0 0 0 -686.60032108148425 329.21139846878214 0 329.21139846878214 917.12681384292227 0 0 0 0 78.868003440368511 11.151473352314497 0 11.151473352314497 -47.230063034308841 0 0 0 0 67.639812834784834 -387.22670502676192 0 -387.22670502676192 422.88402657897677 0 0 0 0 -138.58056372219085 -279.00675198491444 0 -279.00675198491444 1152.86098714736 0 0 0 0 63.706907003748938 -149.09577723024222 0 -149.09577723024222 428.69724850851344 0 0 0 0 -85.11893938757521 -85.093628393784456 0 -85.093628393784456 455.73137403900182 0 0 0 0 1723.8755959773248 1128.5755340361138 0 1128.5755340361138 -800.15459684412053 0 0 0 0 -0.049955087435758716 2.0221113095773262 0 2.0221113095773262 19.300114904228963 0 0 0 0 369.43262535064378 785.11952768889853 0 785.11952768889853 454.42238408220737 0 0 0 0 -117.73407186071381 236.51175609043025 0 236.51175609043025 -38.839096578362657 0 0 0 0 444.73784327536578 427.36297736361064 0 427.36297736361064 -234.76535889661179 0 0 0 0 309.48718177980982 212.39045265048446 0 212.39045265048446 -574.73701984737545 0 0 0 0 283.58942753827705 432.5786541642442 0 432.5786541642442 1526.9873446794986 0 0 0 0 12.990017717033815 6.9543813814126612 0 6.9543813814126612 3.9048052270436351 0 0 0 0 -6.7500594501437341 29.529347462404118 0 29.529347462404118 309.84036303280772 0 0 0 0 30.628561266108591 -462.21416729453347 0 -462.21416729453347 255.24972070030219 0 0 0 0 -595.02828096094163 819.28797711576431 0 819.28797711576431 1302.1518314304833 0 0 0 0 -912.43603709495346 406.62809748451195 0 406.62809748451195 956.08146721995331 0 0 0 0 75.317542867033453 -46.148243078096129 0 -46.148243078096129 -32.750114175752969 0 0 0 0 197.87503182640336 -7.3684267647913657 0 -7.3684267647913657 -25.993614009537851 0 0 0 0 -1.1184704193301513 -30.513864392618416 0 -30.513864392618416 21.320640506324708 0 0 0 0 22.13010269205013 -89.970024423309951 0 -89.970024423309951 -33.776767027164169 0 0 0 0 72.410298649755688 -52.355309109712834 0 -52.355309109712834 -21.209718533136765 0 0 0 0 -1.5894153894395138 -19.742561960866908 0 -19.742561960866908 -13.491193426853727 0 0 0 0 -12.75845860260506 -19.001161950232927 0 -19.001161950232927 31.659813139631297 0 0 0 0 5.129354935190122 -31.538492394964123 0 -31.538492394964123 -6.4458314090588829 0 0 0 0 -13.953764071708065 -15.548909768982412 0 -15.548909768982412 -8.6108655501302565 0 0 0 0 -4.8710329594309911 -9.9474764499746442 0 -9.9474764499746442 -16.10396497592069 0 0 0 0 -10.618890720584805 -9.507553431178593 0 -9.507553431178593 7.7573696369908873 0 0 0 0 64.933508613350796 -41.674449743593868 0 -41.674449743593868 -31.348911564418813 0 0 0 0 0.13450323078905058 -22.447943942192069 0 -22.447943942192069 -29.521823469964147 0 0 0 0 8.0265260918456534 -35.248997421633248 0 -35.248997421633248 19.153184558090288 0 0 0 0 -25.272053365952161 -13.51051788249606 0 -13.51051788249606 11.539650726830587 0 0 0 0 2.057201840036214 -38.396836579326191 0 -38.396836579326191 -6.583593074043165 0 0 0 0 -4.8974345929404421 -1.1765437732028659 0 -1.1765437732028659 24.654987092522788 0 0 0 0 -4.863388350600907 -10.508791944603786 0 -10.508791944603786 8.1539650367173238 0 0 0 0 47.24743807502955 31.166006027975527 0 31.166006027975527 0.51744025467633037 0 0 0 0 13.67363010105322 -42.12037680508729 0 -42.12037680508729 291.72053368056368 0 0 0 0 30.80849631830597 18.24553658664081 0 18.24553658664081 105.64063821918535 0 0 0 0 -114.43291084979069 -91.562554953350627 0 -91.562554953350627 686.79594685914344 0 0 0 0 -75.139599724243482 62.204465079350484 0 62.204465079350484 677.65471289936977 0 0 0 0 -63.276029592881514 63.966044215747388 0 63.966044215747388 438.75168939382274 0 0 0 0 -4.9527008136639097 91.432276973340777 0 91.432276973340777 164.30478489454254 0 0 0 0 75.741995923637262 153.49867495575018 0 153.49867495575018 186.71137100007763 0 0 0 0 -2.1090489402323458 -0.32256025766049845 0 -0.32256025766049845 3.8942232336733582 0 0 0 0 97.599480467420022 -135.22404062826899 0 -135.22404062826899 373.16448463605775 0 0 0 0 70.317419694082787 160.63578962267638 0 160.63578962267638 617.96609951232676 0 0 0 0 54.19591031186792 106.7225453050487 0 106.7225453050487 455.86888678065498 0 0 0 0 214.09452762444198 158.75645983372488 0 158.75645983372488 208.58499578872579 0 0 0 0 182.4061656243527 -98.227531822740275 0 -98.227531822740275 -16.31868238345487 0 0 0 0 169.62084474841106 -135.42324453315814 0 -135.42324453315814 124.28853529827393 0 0 0 0 -1.3598100262002144 -2.3162779459965464 0 -2.3162779459965464 -1.1867042434993209 0 0 0 0 9.0704787149375079 89.05236756009981 0 89.05236756009981 591.89748810505262 0 0 0 0 -13.703101877092308 -19.69744384700607 0 -19.69744384700607 689.55804797605379 0 0 0 0 -1.0376921593241377 -33.621219536478748 0 -33.621219536478748 409.36857295768277 0 0 0 0 108.68404724551101 261.62919403740671 0 261.62919403740671 472.99285639020763 0 0 0 0 -39.447204684540935 34.23703642721739 0 34.23703642721739 668.28132360137533 0 0 0 0 47.414914957781775 247.84873030583549 0 247.84873030583549 685.31897927197861 0 0 0 0 33.868232012064254 198.04025648850075 0 198.04025648850075 590.11407407114893 0 0 0 0 -16.474484231455165 50.747038703724684 0 50.747038703724684 385.69978263562371 0 0 0 0 -77.383382379122281 101.76312513221637 0 101.76312513221637 590.25036219668982 0 0 0 0 -95.3920628384422 16.868338219461293 0 16.868338219461293 556.00465262320358 0 0 0 0 -4.0828486984119081 72.107034041982843 0 72.107034041982843 310.88268508898909 0 0 0 0 -81.826586298176494 66.764622864582634 0 66.764622864582634 568.20140237036685 0 0 0 0 87.16247011105861 -11.123297837817518 0 -11.123297837817518 587.20779057963955 0 0 0 0 -108.4637001172506 36.471646609012168 0 36.471646609012168 752.02616221539211 0 0 0 0 -82.365162890629563 168.3102314113421 0 168.3102314113421 523.4233214341948 0 0 0 0 -7.3523901523226414 114.52191947325991 0 114.52191947325991 499.17844576991047 0 0 0 0 5.0689139351110626 -2.3630226235350733 0 -2.3630226235350733 -4.4373780342593605 0 0 0 0 150.56567844659412 9.1510672477743356 0 9.1510672477743356 25.534193949744804 0 0 0 0 9.3141801299211693 -23.743371688760817 0 -23.743371688760817 84.356140244633934 0 0 0 0 22.349233972205184 -18.998761080132681 0 -18.998761080132681 66.591445707410458 0 0 0 0 4.6182434459870132 0.83016705619226627 0 0.83016705619226627 0.20808683309869025 0 0 0 0 4.5997718829338545 -0.46231615084278133 0 -0.46231615084278133 0.46202986190318995 0 0 0 0 9.4555865930542211 7.1233429558706121 0 7.1233429558706121 89.318027402186999 0 0 0 0 -69.068484370822262 -8.5830634272570023 0 -8.5830634272570023 290.61766183689542 0 0 0 0 -112.17819634308125 -77.342998209183861 0 -77.342998209183861 365.67943104475489 0 0 0 0 -109.51639728867841 61.151793535880188 0 61.151793535880188 343.54447221985902 0 0 0 0 -87.612047265036836 -25.700456577644218 0 -25.700456577644218 129.23022777027836 0 0 0 0 -56.827258011425215 20.551813037400279 0 20.551813037400279 157.68389407155337 0 0 0 0 2.894154625276629 -0.00076066228842819328 0 -0.00076066228842819328 -0.12393147344702982 0 0 0 0 331.83557956351433 -54.935483578781714 0 -54.935483578781714 -61.246661846198549 0 0 0 0 261.43665769293693 -14.860260135290446 0 -14.860260135290446 7.9913476958899992 0 0 0 0 250.80667865556188 -102.93052515061572 0 -102.93052515061572 206.26280039410631 0 0 0 0 2.1241649658071937 -0.32980291434833475 0 -0.32980291434833475 0.014543816187160274 0 0 0 0 250.45303361386084 -33.267924680956639 0 -33.267924680956639 -93.636004855448846 0 0 0 0 397.61220912166061 -362.49210972123274 0 -362.49210972123274 279.53084328689147 0 0 0 0 137.91407338695353 74.580869764095951 0 74.580869764095951 286.88980521443773 0 0 0 0 134.10083931127883 -36.168541413060666 0 -36.168541413060666 352.38731134921727 0 0 0 0 115.50271045670593 -53.100134280063742 0 -53.100134280063742 339.55294436767326 0 0 0 0 78.548338229265937 -86.225998154720401 0 -86.225998154720401 375.14301774256091 0 0 0 0 106.23542813321637 6.191737078927531 0 6.191737078927531 241.98685639802352 0 0 0 0 65.030789159744359 40.457493081179337 0 40.457493081179337 97.358362466335166 0 0 0 0 94.019000593993042 -49.740982356137465 0 -49.740982356137465 189.76575358885839 0 0 0 0 160.71739109122973 49.828224269389466 0 49.828224269389466 4.4523130250727263 0 0 0 0 139.57452135831954 33.904952103683172 0 33.904952103683172 -200.4280793581143 0 0 0 0 165.69466820416437 126.31309209645451 0 126.31309209645451 21.885550535769653 0 0 0 0 176.91758672686956 134.61838197171983 0 134.61838197171983 97.705151348551226 0 0 0 0 198.19414105647411 98.410838731745571 0 98.410838731745571 -29.506375829347633 0 0 0 0 -1369.2091447265193 -617.40294644477399 0 -617.40294644477399 1974.8275987363231 0 0 0 0 736.9193646690843 342.60909323443047 0 342.60909323443047 70.091866582413786 0 0 0 0 -5.628501582265784 18.84555943097984 0 18.84555943097984 325.06528184113967 0 0 0 0 -5.7773659016343117 402.09870314715226 0 402.09870314715226 1216.8559852547241 0 0 0 0 349.24204763389866 101.4048615604479 0 101.4048615604479 94.434748139654403 0 0 0 0 46.253895584241491 -213.87603744812805 0 -213.87603744812805 -91.448324510565726 0 0 0 0 -304.22570504291161 -226.97803708256833 0 -226.97803708256833 141.44108416625386 0 0 0 0 -1.3488965256993868 32.134345162160642 0 32.134345162160642 318.71865584882744 0 0 0 0 -47.9360857511424 -75.760379033239587 0 -75.760379033239587 153.54438176720578 0 0 0 0 11.458349121586707 -75.636709643637005 0 -75.636709643637005 65.286776074430236 0 0 0 0 2.9603278878592718 2.6710500153031091 0 2.6710500153031091 43.774332123275791 0 0 0 0 -14.31705085909698 -3.1560715511222952 0 -3.1560715511222952 73.294001567795931 0 0 0 0 73.41249590055304 -17.865421799106116 0 -17.865421799106116 23.901561764942016 0 0 0 0 75.19145908243172 -8.3545765155213303 0 -8.3545765155213303 9.014325047712191 0 0 0 0 17.546053615844386 54.227282884774247 0 54.227282884774247 127.06875897727008 0 0 0 0 31.226262693847143 71.288233078333562 0 71.288233078333562 99.020830727657767 0 0 0 0 13.949898594546767 51.199574803082214 0 51.199574803082214 198.97586190425318 0 0 0 0 31.30718110058433 24.90324560983936 0 24.90324560983936 134.919097453414 0 0 0 0 77.981439445240539 -7.9619734811731178 0 -7.9619734811731178 521.36414479675682 0 0 0 0 159.10815040539478 8.1288426702716379 0 8.1288426702716379 430.79139649464923 0 0 0 0 75.240898360155825 -17.543046210687862 0 -17.543046210687862 491.45595838530789 0 0 0 0 66.805563558058566 -25.636399220843487 0 -25.636399220843487 492.21383064939073 0 0 0 0 9.7912984324539138 -110.72370032143408 0 -110.72370032143408 496.00305717235824 0 0 0 0 65.273925380102014 -13.348848002140357 0 -13.348848002140357 368.4057998376411 0 0 0 0 93.566019180955664 -42.587479793016428 0 -42.587479793016428 530.2737659791419 0 0 0 0 9.0249515636699016 26.569255227579561 0 26.569255227579561 211.60081226585407 0 0 0 0 20.272351091407472 -68.293574312820965 0 -68.293574312820965 709.9544567040175 0 0 0 0 31.947010799090872 64.314739504507472 0 64.314739504507472 21.680165416903513 0 0 0 0 -116.78989715009084 -15.686295327739572 0 -15.686295327739572 140.59316490613753 0 0 0 0 -82.042132295026022 -30.33805576891973 0 -30.33805576891973 910.97693143590641 0 0 0 0 -1.8105277130185122 5.9989022312330498 0 5.9989022312330498 36.4075350583039 0 0 0 0 10.388468353408825 -164.49481891813593 0 -164.49481891813593 401.07034497992026 0 0 0 0 69.806080347138959 -108.20809416366137 0 -108.20809416366137 429.33503570305766 0 0 0 0 -48.331539044095734 -144.72004270915386 0 -144.72004270915386 483.81780068137869 0 0 0 0 -96.418748991900429 -193.89107432227684 0 -193.89107432227684 465.10459341044043 0 0 0 0 136.8171963006007 -213.92716081759863 0 -213.92716081759863 392.35202181715886 0 0 0 0 -110.47328644497702 -178.02505124793652 0 -178.02505124793652 587.25624589567087 0 0 0 0 38.885424673862872 -18.648463888179322 0 -18.648463888179322 417.46173504192666 0 0 0 0 -29.572163385664226 -489.4914268810071 0 -489.4914268810071 1129.6001137061141 0 0 0 0 31.245389332903642 446.33785214371528 0 446.33785214371528 1063.9018519935307 0 0 0 0 71.026600905572025 -171.88061467651994 0 -171.88061467651994 1130.9336677848678 0 0 0 0 568.85360158496451 -489.58464868878582 0 -489.58464868878582 495.86541159825902 0 0 0 0 129.97138212775121 -55.516862878008396 0 -55.516862878008396 286.55704417807738 0 0 0 0 339.73571367196899 -116.35743221110533 0 -116.35743221110533 131.92045252710159 0 0 0 0 455.74821215526777 72.61025084551693 0 72.61025084551693 -286.99647189469579 0 0 0 0 977.1009057095016 130.41429610985278 0 130.41429610985278 82.453731693738519 0 0 0 0 84.792787565872459 211.19858611057316 0 211.19858611057316 106.60419678007997 0 0 0 0 -156.92676481436948 -31.676130286100943 0 -31.676130286100943 -111.00695603589702 0 0 0 0 274.33452449523588 63.724150409834692 0 63.724150409834692 -559.38818620305938 0 0 0 0 266.74693744441612 298.8386253509525 0 298.8386253509525 -390.41009492791272 0 0 0 0 299.8282370194479 167.84894564489423 0 167.84894564489423 -183.33852919039782 0 0 0 0 73.434109756781027 151.1565334293573 0 151.1565334293573 -84.951365263927983 0 0 0 0 266.14032183184338 241.37269225481532 0 241.37269225481532 -83.300209995717523 0 0 0 0 -285.98127429109832 285.53321980797136 0 285.53321980797136 -86.791889456739227 0 0 0 0 -834.15532380706895 482.5074110513433 0 482.5074110513433 284.00293299892928 0 0 0 0 -529.21177762386242 -232.90828246656383 0 -232.90828246656383 -336.92331807773235 0 0 0 0 277.94782088102528 689.43644574816608 0 689.43644574816608 22.271178335221521 0 0 0 0 440.53719106351519 464.0970727986487 0 464.0970727986487 -249.52462673444825 0 0 0 0 390.62788664709365 340.90611840421207 0 340.90611840421207 -464.98709368405821 0 0 0 0 509.38439132130401 801.70363200446536 0 801.70363200446536 -223.52772187034316 0 0 0 0 40.298475297340119 27.144553155485298 0 27.144553155485298 15.472995656461688 0 0 0 0 44.273690720716331 63.972172182272061 0 63.972172182272061 93.722866069297993 0 0 0 0 4.0608500996155206 3.3602767905678625 0 3.3602767905678625 1.4088554142479452 0 0 0 0 -118.50717609516192 51.133450840214209 0 51.133450840214209 -610.24383150677204 0 0 0 0 12.007074170014903 -56.796407654744598 0 -56.796407654744598 146.14044196893155 0 0 0 0 -40.32327912143046 -72.715490946467071 0 -72.715490946467071 388.18725799968524 0 0 0 0 60.441481147709055 -123.97091813713541 0 -123.97091813713541 189.8644587517274 0 0 0 0 -48.723726820345632 -6.2395491827201113 0 -6.2395491827201113 255.43249420661414 0 0 0 0 -26.778031524512471 71.11556860027008 0 71.11556860027008 -47.094901816599304 0 0 0 0 77.566676629676522 -61.368582851193423 0 -61.368582851193423 98.68146856554722 0 0 0 0 -90.389442050885918 -92.505360726358958 0 -92.505360726358958 133.77350041987938 0 0 0 0 -27.855721623743648 -39.009054207137069 0 -39.009054207137069 -300.88942273128851 0 0 0 0 -224.15163872083303 46.917310252860261 0 46.917310252860261 -49.954031278713728 0 0 0 0 -80.711241015010728 142.09954190585677 0 142.09954190585677 -161.13554183074302 0 0 0 0 94.968251993610238 132.85067871883189 0 132.85067871883189 -162.57022117475935 0 0 0 0 22.109044728022127 -80.133384991837829 0 -80.133384991837829 -34.522904507610292 0 0 0 0 -52.978784288915449 74.718255005577703 0 74.718255005577703 -44.772380293966307 0 0 0 0 -155.22754965900185 5.2458565230253953 0 5.2458565230253953 -209.32934615202612 0 0 0 0 47.383147546162945 4.2459464450188307 0 4.2459464450188307 768.10367658879386 0 0 0 0 59.630881193112145 -78.078634178905418 0 -78.078634178905418 683.29355833286854 0 0 0 0 188.20706305665408 -75.378592046359472 0 -75.378592046359472 386.00841725631608 0 0 0 0 112.93829222584827 31.793762847374182 0 31.793762847374182 327.38013604338403 0 0 0 0 -166.71304969709809 287.56252819912424 0 287.56252819912424 -359.60098664101179 0 0 0 0 -15.358781151952609 207.22625051382602 0 207.22625051382602 -847.25330966739148 0 0 0 0 32.831729160652316 20.039549203658297 0 20.039549203658297 10.817605119502872 0 0 0 0 -13.326972380395091 -87.431413410322875 0 -87.431413410322875 392.0204508132274 0 0 0 0 66.182456465441646 -83.532256975852988 0 -83.532256975852988 153.19356147686358 0 0 0 0 -19.715383627879419 -2.5116866566504541 0 -2.5116866566504541 379.48637896967011 0 0 0 0 14.234329391024403 -17.869000264233819 0 -17.869000264233819 240.70204707650919 0 0 0 0 -60.135844567269487 9.971078661973138 0 9.971078661973138 623.8068197609864 0 0 0 0 -8.3237546976724843 -20.27117124315464 0 -20.27117124315464 382.50112461423782 0 0 0 0 74.702626334194065 -11.740621415584428 0 -11.740621415584428 425.33598944903065 0 0 0 0 -29.859167108378642 -49.48488532976387 0 -49.48488532976387 629.48257103392598 0 0 0 0 35.335153394007648 -75.18590456143454 0 -75.18590456143454 808.78143628700604 0 0 0 0 -24.51109748390445 30.258337584338733 0 30.258337584338733 642.97114850482581 0 0 0 0 -45.053197434234789 -39.574214446280791 0 -39.574214446280791 681.24292225819772 0 0 0 0 -60.633398278557252 94.161145287005183 0 94.161145287005183 776.56915910643147 0 0 0 0 -51.240726518915835 82.706427063243154 0 82.706427063243154 781.48503404699443 0 0 0 0 -26.31688504873955 144.26488424448718 0 144.26488424448718 907.9173379778058 0 0 0 0 86.01366060653163 -23.885153959917716 0 -23.885153959917716 1117.7419975179591 0 0 0 0 224.24253720643173 237.13889627347061 0 237.13889627347061 975.20953270165433 0 0 0 0 277.24115000718666 77.384808211727659 0 77.384808211727659 1272.5019972685689 0 0 0 0 342.68780628851346 18.553926999461055 0 18.553926999461055 816.41985112713792 0 0 0 0 387.44025186511681 250.12142754792308 0 250.12142754792308 866.63034394581814 0 0 0 0 906.99183697705394 34.938718561574774 0 34.938718561574774 816.32314542238055 0 0 0 0 118.27803915799859 59.770824079423562 0 59.770824079423562 726.3108393585203 0 0 0 0 109.48916620959426 -15.899751873266496 0 -15.899751873266496 971.74066352828515 0 0 0 0 45.45753196457008 -145.3222462390554 0 -145.3222462390554 659.17325194631803 0 0 0 0 13.34693116505332 3.9771922290249222 0 3.9771922290249222 505.46288725342856 0 0 0 0 49.830000082793049 -145.07045574081303 0 -145.07045574081303 163.54664823963185 0 0 0 0 22.721068998087958 121.6393404474527 0 121.6393404474527 613.21715896259684 0 0 0 0 -16.483887950507778 29.00874986771737 0 29.00874986771737 655.2065644191963 0 0 0 0 -74.8095892554702 67.822322045326246 0 67.822322045326246 753.03351253913661 0 0 0 0 -16.040336176720302 31.395457521498315 0 31.395457521498315 662.12771767646018 0 0 0 0 -50.313605575935071 73.991265267168274 0 73.991265267168274 497.69180224604452 0 0 0 0 -92.421799014935459 -18.09662549533823 0 -18.09662549533823 647.13537778559805 0 0 0 0 -34.731725289742826 -4.0697500614386399 0 -4.0697500614386399 474.69758279148118 0 0 0 0 -20.827716579512526 5.8377050500735095 0 5.8377050500735095 331.32539069011182 0 0 0 0 -59.255372255071052 51.968283179239734 0 51.968283179239734 434.63030991472897 0 0 0 0 -32.483200721206231 96.599409367585395 0 96.599409367585395 308.0725861963308 0 0 0 0 114.32499766919136 206.91700385218519 0 206.91700385218519 331.33500849917345 0 0 0 0 -33.353942535271926 12.644212631354151 0 12.644212631354151 477.08358818219222 0 0 0 0 -4.5568395376421904 143.49329362391427 0 143.49329362391427 796.87133764125974 0 0 0 0 321.72372648628152 134.23817438843162 0 134.23817438843162 346.26153996764879 0 0 0 0 94.878623396116382 3.6023744084322971 0 3.6023744084322971 274.60484797994468 0 0 0 0 101.89689933827958 164.97619228363601 0 164.97619228363601 141.85704507961782 0 0 0 0 106.06955638201543 105.85860913329293 0 105.85860913329293 -123.21992345492617 0 0 0 0 68.991617711573781 37.816779939011212 0 37.816779939011212 65.735246604906479 0 0 0 0 7.5132063633427606 35.040188732143179 0 35.040188732143179 153.53931166303892 0 0 0 0 85.345217275404138 136.99176950711205 0 136.99176950711205 81.528223420005816 0 0 0 0 141.15651231285938 71.830381779219579 0 71.830381779219579 -81.653360782089294 0 0 0 0 35.665293441004621 25.341196407112768 0 25.341196407112768 12.586949392437486 0 0 0 0 103.02998621322695 108.9366011020893 0 108.9366011020893 -165.07814683962556 0 0 0 0 16.476523531100611 5.0971576395145348 0 5.0971576395145348 -89.399195419835905 0 0 0 0 55.032953394795641 -13.102659427300296 0 -13.102659427300296 -146.2138736431657 0 0 0 0 39.172616096124329 -6.2933222356637089 0 -6.2933222356637089 -142.84952761999921 0 0 0 0 40.134608975558876 87.614772765002499 0 87.614772765002499 -81.346707839625367 0 0 0 0 19.912519973473536 -7.6929094645863643 0 -7.6929094645863643 44.334412304579928 0 0 0 0 36.589720711503105 143.40454616808302 0 143.40454616808302 -41.782045139107368 0 0 0 0 -44.232304578961703 17.536851178580491 0 17.536851178580491 238.97813043180116 0 0 0 0 -58.317192258680734 76.170158575713231 0 76.170158575713231 89.685732396553249 0 0 0 0 46.930953077111553 104.16988006415545 0 104.16988006415545 97.130684581501555 0 0 0 0 -121.96141832543458 143.1842390691927 0 143.1842390691927 -124.52075978511709 0 0 0 0 -138.67957089790298 239.77303181433308 0 239.77303181433308 -141.8876009887872 0 0 0 0 7.0814824445659514 8.4991185082720175 0 8.4991185082720175 7.7157773478014242 0 0 0 0 38.391926974738034 28.13426355213554 0 28.13426355213554 17.4121711775893 0 0 0 0 -145.09507396055938 123.16748943611856 0 123.16748943611856 -40.176641519693476 0 0 0 0 -202.04850542834888 258.93117783791968 0 258.93117783791968 4.9191546218844451 0 0 0 0 -210.33776540153056 669.59347008961424 0 669.59347008961424 -264.97250879605599 0 0 0 0 -173.59130745636321 -31.190583099456489 0 -31.190583099456489 -24.486289150172524 0 0 0 0 -481.73935384652242 10.69982399107937 0 10.69982399107937 336.52085019239894 0 0 0 0 -131.04434014212256 195.57230309172701 0 195.57230309172701 -109.36929085184693 0 0 0 0 -9.2195154855455712 66.486093235221688 0 66.486093235221688 -157.71129090028626 0 0 0 0 6.9678856727926544 9.7547332946778873 0 9.7547332946778873 11.064048581254685 0 0 0 0 19.561523165121798 212.21912719539796 0 212.21912719539796 -127.54367738460178 0 0 0 0 -216.13963650093547 -363.96200158252032 0 -363.96200158252032 -93.428011106279882 0 0 0 0 -437.53116266140796 288.27000571814455 0 288.27000571814455 -8.4064036437994218 0 0 0 0 -488.6961759376486 -987.97991338995598 0 -987.97991338995598 1275.2399999654026 0 0 0 0 -447.19847673285994 -146.22818271555025 0 -146.22818271555025 715.7564797495379 0 0 0 0 -337.79669565679569 222.68757975083736 0 222.68757975083736 574.16642718526964 0 0 0 0 -387.24314586303308 -253.58783707766906 0 -253.58783707766906 720.78759112788885 0 0 0 0 -65.591084960078661 147.90851629050121 0 147.90851629050121 145.51999072995022 0 0 0 0 27.51331492045481 15.733985106429731 0 15.733985106429731 -0.4373575354719299 0 0 0 0 9.359975786138353 1.8682893064331489 0 1.8682893064331489 -2.7697076753864653 0 0 0 0 20.685719252564468 63.352807293583282 0 63.352807293583282 47.31740740913483 0 0 0 0 28.141943105219752 47.174893971105348 0 47.174893971105348 -35.270404928522112 0 0 0 0 38.772328059349547 23.783027874484105 0 23.783027874484105 -130.57643689519136 0 0 0 0 2.1062433522811288 4.2810220003814603 0 4.2810220003814603 4.230496196560714 0 0 0 0 -2.7587146344640132 57.203857356161279 0 57.203857356161279 -157.38319605579682 0 0 0 0 -9.0822335781664165 71.779946224652349 0 71.779946224652349 34.256721801979438 0 0 0 0 -179.8151539338578 85.674660354509797 0 85.674660354509797 -119.21391313645472 0 0 0 0 24.30369972249332 94.76203383743632 0 94.76203383743632 -66.707699504806442 0 0 0 0 160.47373390679695 116.53373998870211 0 116.53373998870211 -111.44252417963185 0 0 0 0 7.680370105235852 59.913777563034273 0 59.913777563034273 -116.41994036514507 0 0 0 0 -196.20569245364186 15.661722628554344 0 15.661722628554344 -81.783503195005324 0 0 0 0 274.07823963972805 281.0766570698147 0 281.0766570698147 -6.0570088601780299 0 0 0 0 61.619083587183013 103.87842299310887 0 103.87842299310887 -112.80418338448726 0 0 0 0 116.16585835614683 186.33591721450784 0 186.33591721450784 -4.7056062378451315 0 0 0 0 -13.154689892910937 250.92602998854181 0 250.92602998854181 97.652409447696073 0 0 0 0 -157.39779119306422 196.0755690079277 0 196.0755690079277 91.69469992714528 0 0 0 0 701.96003417814063 -166.22381338103492 0 -166.22381338103492 -389.72524101500312 0 0 0 0 93.025480927612307 490.35223077274486 0 490.35223077274486 428.23983534228864 0 0 0 0 -550.26225624040489 87.934125880455667 0 87.934125880455667 836.68560865917743 0 0 0 0 189.34023296171904 -297.84437610965915 0 -297.84437610965915 92.863982588308772 0 0 0 0 2.232703345674599 4.3950517033890399 0 4.3950517033890399 7.0406008838238847 0 0 0 0 35.679266666181434 -289.85279503947731 0 -289.85279503947731 998.47297941901434 0 0 0 0 417.20051353315603 191.3433809412636 0 191.3433809412636 1441.7552683262402 0 0 0 0 -0.27512518811204245 6.329835962824518 0 6.329835962824518 -90.830655365927214 0 0 0 0 25.160071330104508 -24.141978706923815 0 -24.141978706923815 21.496709745286164 0 0 0 0 128.94077306161259 -634.04573101612232 0 -634.04573101612232 -454.15494707140385 0 0 0 0 -289.11301986876606 -243.86086337674988 0 -243.86086337674988 528.89028500228233 0 0 0 0 -150.2974370639422 -210.90529263262579 0 -210.90529263262579 570.27611818027799 0 0 0 0 -270.52183063691353 -83.919958540997982 0 -83.919958540997982 483.3537494510656 0 0 0 0 -115.73560335926481 348.62625773774107 0 348.62625773774107 822.50410921432285 0 0 0 0 2.6301976555174758 -4.6906048129262636 0 -4.6906048129262636 7.7143723898099275 0 0 0 0 -272.46179193065313 -68.549214273105463 0 -68.549214273105463 680.30545388796418 0 0 0 0 -466.03792739210076 -111.19678265543371 0 -111.19678265543371 693.05468223234402 0 0 0 0 -569.48537902792441 72.876089767345547 0 72.876089767345547 1363.7940426209632 0 0 0 0 -123.8505020123348 -199.99171149376343 0 -199.99171149376343 -93.462434759023381 0 0 0 0 -169.61866617959095 162.18346383010908 0 162.18346383010908 180.1812529613253 0 0 0 0 35.689743941841243 -222.4456279532742 0 -222.4456279532742 287.93190340135789 0 0 0 0 -143.70264248517418 -40.927223909013151 0 -40.927223909013151 109.10540191722612 0 0 0 0 -218.04136612117111 -29.130572226978074 0 -29.130572226978074 -49.282161811090191 0 0 0 0 18.210928682690337 -148.6910845413322 0 -148.6910845413322 -35.943105142574495 0 0 0 0 459.78639051644768 52.60752813771478 0 52.60752813771478 -1608.4250919372791 0 0 0 0 9.2166865767496926 -7.9788119367150827 0 -7.9788119367150827 7.7790986858161482 0 0 0 0 -287.21653664436053 -381.22020611167659 0 -381.22020611167659 -410.04595739039587 0 0 0 0 59.125964276408652 236.55405614089216 0 236.55405614089216 -333.19640423071814 0 0 0 0 -380.61358175949545 -258.57428972266916 0 -258.57428972266916 51.275906284587109 0 0 0 0 4.3846341894232079 -11.114989399728561 0 -11.114989399728561 21.888786206030129 0 0 0 0 245.07356914022523 -330.8369836668179 0 -330.8369836668179 445.65642881009899 0 0 0 0 287.8641733202694 -116.12066769775912 0 -116.12066769775912 -44.989194818997618 0 0 0 0 -142.49569351820719 -164.7311868079114 0 -164.7311868079114 -115.12974508455045 0 0 0 0 2.9526871155858818 -9.9200097733742236 0 -9.9200097733742236 24.369831686071763 0 0 0 0 -894.58431310758988 -305.71678723771146 0 -305.71678723771146 1920.6753828378266 0 0 0 0 -285.75264299896094 -202.29343190657983 0 -202.29343190657983 -10.981682515877765 0 0 0 0 -256.1111890348601 -106.16038397896261 0 -106.16038397896261 19.255987235994326 0 0 0 0 123.23761399776549 288.85004343866785 0 288.85004343866785 393.98954245555615 0 0 0 0 335.63355218624565 155.45866682160977 0 155.45866682160977 433.75162833279808 0 0 0 0 -259.65375720766298 -205.56485204029622 0 -205.56485204029622 -263.58304916280304 0 0 0 0 25.632146369580369 253.67427023640667 0 253.67427023640667 494.39884451616831 0 0 0 0 68.060290604641068 250.15808726362673 0 250.15808726362673 480.13999889834577 0 0 0 0 14.447641606590878 258.10109450349148 0 258.10109450349148 988.73893155777762 0 0 0 0 -322.00152228121806 -282.73498780645696 0 -282.73498780645696 -32.822164638666436 0 0 0 0 10.366829264250473 -18.749144127551773 0 -18.749144127551773 29.7407681723449 0 0 0 0 27.909896361193006 204.464498237089 0 204.464498237089 426.17085964072157 0 0 0 0 -91.871797940061242 41.388179487939851 0 41.388179487939851 16.156415316436323 0 0 0 0 2.5111767160960881 -105.7328653184868 0 -105.7328653184868 179.71005158186836 0 0 0 0 -10.643890911437325 -1.2321555822272146 0 -1.2321555822272146 0.22330786509857248 0 0 0 0 -170.65554748344948 108.16409741200914 0 108.16409741200914 403.3795050505596 0 0 0 0 149.56404771016605 -2.5115902258621645 0 -2.5115902258621645 -28.478315452133756 0 0 0 0 -252.08921927490974 -226.22032024887085 0 -226.22032024887085 88.406907633425362 0 0 0 0 43.870168042332807 -15.280574685200975 0 -15.280574685200975 118.78067987772528 0 0 0 0 17.392870443204387 -28.871814374308364 0 -28.871814374308364 43.62663797137224 0 0 0 0 281.89784278265961 -37.441199789060533 0 -37.441199789060533 120.02895703692465 0 0 0 0 290.9843575407242 75.931420190445309 0 75.931420190445309 -205.43212588212253 0 0 0 0 144.25932078600999 -62.152025182777521 0 -62.152025182777521 305.2782697140243 0 0 0 0 169.16657421234049 260.60785888841531 0 260.60785888841531 -182.65315405577445 0 0 0 0 231.80166166093568 120.30655344661989 0 120.30655344661989 35.358394945540113 0 0 0 0 75.252978471542974 374.14445837975973 0 374.14445837975973 53.287091345868703 0 0 0 0 122.61924321374704 521.78693490111743 0 521.78693490111743 507.36361389498188 0 0 0 0 1.1535269153503864 -3.3516171306341649 0 -3.3516171306341649 10.326602651941128 0 0 0 0 -144.12501827180904 -21.635099752560564 0 -21.635099752560564 237.59141556373606 0 0 0 0 -244.07281226351074 -18.859374147507992 0 -18.859374147507992 1031.8516686074149 0 0 0 0 23.243408006215962 -37.805838856339385 0 -37.805838856339385 51.034978006841158 0 0 0 0 -138.71662999933415 -135.31333132393684 0 -135.31333132393684 146.94559222423277 0 0 0 0 -159.44209015522028 -43.111561491151406 0 -43.111561491151406 225.27725997517882 0 0 0 0 16.252009125798395 28.110525587540224 0 28.110525587540224 -3.9493293086784433 0 0 0 0 -63.991327477286177 135.59817893414265 0 135.59817893414265 406.83335623045878 0 0 0 0 46.215562325380233 6.0496436447774613 0 6.0496436447774613 98.942581915594928 0 0 0 0 -17.653986698147619 -2.6836525473619304 0 -2.6836525473619304 17.822613832288503 0 0 0 0 -62.946654574455351 -23.241220890396107 0 -23.241220890396107 186.06912616717455 0 0 0 0 396.64290657417814 -636.68706294160165 0 -636.68706294160165 324.37502990712665 0 0 0 0 -77.898048790253824 -130.51561815379387 0 -130.51561815379387 -84.52513650131641 0 0 0 0 -166.97352057361672 -31.907388403315508 0 -31.907388403315508 260.5169938345125 0 0 0 0 78.950022547158369 -425.77975425309251 0 -425.77975425309251 -372.09890194944592 0 0 0 0 -140.68109532490871 -44.02110634037399 0 -44.02110634037399 226.85076268758348 0 0 0 0 3.593791679559363 -35.986950620427017 0 -35.986950620427017 74.115239877692346 0 0 0 0 -8.0815387608865539 -8.4486643245662876 0 -8.4486643245662876 28.562123519581 0 0 0 0 129.89750292620693 -76.323331125023287 0 -76.323331125023287 -426.12451316053284 0 0 0 0 -4.6066185488682603 -6.6710625898817213 0 -6.6710625898817213 34.91682786262912 0 0 0 0 -0.099106375837043625 -2.4613450861706934 0 -2.4613450861706934 9.8966101328623939 0 0 0 0 54.824151205141675 49.632063533948894 0 49.632063533948894 77.811216986359341 0 0 0 0 -2.8705454006558284 4.8616889490635913 0 4.8616889490635913 23.813920286145731 0 0 0 0 -2.6113905268484814 -20.080939918006607 0 -20.080939918006607 111.67360836304033 0 0 0 0 -6.4900304984665809 -7.2589502937962607 0 -7.2589502937962607 59.610162531665992 0 0 0 0 -7.121956718854042 6.4359961981794509 0 6.4359961981794509 27.372871258920654 0 0 0 0 -2.7094047897909022 2.9945634002454362 0 2.9945634002454362 30.37041077218263 0 0 0 0 -6.4691249501868739 14.778217443505412 0 14.778217443505412 8.982962127740862 0 0 0 0 -1.1241689126500205 -2.4457622167026329 0 -2.4457622167026329 76.248873915293643 0 0 0 0 -18.17838182817826 4.291508061146164 0 4.291508061146164 71.785354940173448 0 0 0 0 12.899590936227469 -11.47774396940622 0 -11.47774396940622 18.137490471557612 0 0 0 0 -1.5566250384157607 -9.2297793782173585 0 -9.2297793782173585 15.219100610107017 0 0 0 0 -7.8723020403667761 13.052530457415742 0 13.052530457415742 103.94419888872017 0 0 0 0 -16.909717742190367 21.563241788591576 0 21.563241788591576 27.479431141152304 0 0 0 0 -11.703201698281191 1.6052431149441873 0 1.6052431149441873 122.9834542312019 0 0 0 0 -47.057305049099341 238.00303587911731 0 238.00303587911731 312.15458831842898 0 0 0 0 1.0949606828042704 0.21017215162517999 0 0.21017215162517999 -5.6653850584501413 0 0 0 0 47.281047641666191 109.92853428059789 0 109.92853428059789 80.900226183990526 0 0 0 0 -11.347420795370269 29.921103196830565 0 29.921103196830565 5.5304146095194202 0 0 0 0 -8.9302060377384151 19.429195632478834 0 19.429195632478834 20.864610004443929 0 0 0 0 -37.346168941970973 -66.737574778173439 0 -66.737574778173439 289.80770990996825 0 0 0 0 -49.541354128548846 33.613328243385695 0 33.613328243385695 218.79397728643198 0 0 0 0 -8.7355306119450837 1.7657278989711358 0 1.7657278989711358 16.37612245739054 0 0 0 0 -31.776061268322337 39.061556091629882 0 39.061556091629882 195.56138375524824 0 0 0 0 -111.896128877308 -5.9809821085582371 0 -5.9809821085582371 399.68124301798889 0 0 0 0 -16.442351611822232 16.076663060466672 0 16.076663060466672 296.30245526300132 0 0 0 0 -1.6826102357452832 52.973054837082429 0 52.973054837082429 11.489554292035418 0 0 0 0 29.798325955785913 66.63553161845266 0 66.63553161845266 143.18610959972284 0 0 0 0 -85.876717499832012 38.611139860720868 0 38.611139860720868 350.35600440058624 0 0 0 0 23.97046045121715 -91.948240204772446 0 -91.948240204772446 -123.22926492999068 0 0 0 0 -9.1199034035080331 7.8894370004381926 0 7.8894370004381926 102.69480031532657 0 0 0 0 -76.371238756702951 92.621764262330544 0 92.621764262330544 137.08367549586546 0 0 0 0 -120.60899140480069 -29.927677608628073 0 -29.927677608628073 170.69541604325786 0 0 0 0 8.228383928842959 -97.411235978968762 0 -97.411235978968762 55.482996397975512 0 0 0 0 45.949407970836546 -60.082809576206273 0 -60.082809576206273 175.66050832231122 0 0 0 0 -8.632457906549476 -47.381409903789972 0 -47.381409903789972 120.60785034541368 0 0 0 0 4.9646875347007153 -1.9197083917861164 0 -1.9197083917861164 76.935897103216121 0 0 0 0 20.511291922376586 -36.622056910345236 0 -36.622056910345236 122.45460922995699 0 0 0 0 -37.943307907931 16.297979726676203 0 16.297979726676203 78.427776924584123 0 0 0 0 -2.4131611822786567 -67.319569821574987 0 -67.319569821574987 53.371871470531005 0 0 0 0 4.3340417349848508 -17.193528586865341 0 -17.193528586865341 126.08740308193956 0 0 0 0 -3.2932110314204612 -9.4137445825246822 0 -9.4137445825246822 100.62207215003772 0 0 0 0 -2.7935634174518782 -9.4454758891679376 0 -9.4454758891679376 87.302723946366314 0 0 0 0 -19.786065262291686 -10.716057460560478 0 -10.716057460560478 101.59246529682423 0 0 0 0 -15.478522310879743 -22.803944154778542 0 -22.803944154778542 27.586465014929079 0 0 0 0 -1.5181885793617766 -3.8493606167667167 0 -3.8493606167667167 99.022498053116578 0 0 0 0 10.515861066564867 -28.062119592737872 0 -28.062119592737872 99.599927603259857 0 0 0 0 8.4760618364081726 -27.620774184472999 0 -27.620774184472999 6.169249454141557 0 0 0 0 40.783961607567107 -95.740943141921889 0 -95.740943141921889 214.98654036994117 0 0 0 0 12.1339664882953 -23.87400873200022 0 -23.87400873200022 90.44097154195515 0 0 0 0 1.3114920926491322 2.2445180931263167 0 2.2445180931263167 -12.034964777900313 0 0 0 0 -5.9811344704103249 -9.4486543415550841 0 -9.4486543415550841 18.171293513923956 0 0 0 0 -5.9825896104783656 -1.7691765565456308 0 -1.7691765565456308 36.687723828842671 0 0 0 0 14.064794873494604 -23.417586210529123 0 -23.417586210529123 15.657763722866456 0 0 0 0 0.78947715128560958 -6.1107669919056207 0 -6.1107669919056207 37.391670117450303 0 0 0 0 -10.964677775115266 4.2396248335946094 0 4.2396248335946094 45.430583439908887 0 0 0 0 -0.080567544823168191 -5.7646102886228618 0 -5.7646102886228618 51.988471734184714 0 0 0 0 -101.24283362818187 358.91118205320936 0 358.91118205320936 -526.99317146926614 0 0 0 0 439.38943849704538 -220.02160607492806 0 -220.02160607492806 -371.14167033089825 0 0 0 0 -9.1740174461472019 5.6339666566354154 0 5.6339666566354154 44.410514310857742 0 0 0 0 7.0642590309689695 -18.612360466286191 0 -18.612360466286191 61.274809707694658 0 0 0 0 4.4659008292017068 -14.434959603029334 0 -14.434959603029334 42.235969741051271 0 0 0 0 -6.4221881472639328 8.4681200620584764 0 8.4681200620584764 30.22124820858599 0 0 0 0 588.75356790618162 25.279798135390138 0 25.279798135390138 -383.48874037284736 0 0 0 0 2.7795049870278081 -2.1687678703094804 0 -2.1687678703094804 16.429739676062262 0 0 0 0 -21.628572477231828 15.110182582636318 0 15.110182582636318 67.785631922848694 0 0 0 0 17.309763351040601 -33.016737398698751 0 -33.016737398698751 131.27922303415107 0 0 0 0 -7.5752293850928254 -27.180823874714406 0 -27.180823874714406 140.19984180297251 0 0 0 0 9.596568690044478 -34.982529901200905 0 -34.982529901200905 131.33303911651456 0 0 0 0 0.83873133881684758 -3.8127688488747182 0 -3.8127688488747182 17.778233993623047 0 0 0 0 -23.088572468827806 -192.03571512821463 0 -192.03571512821463 335.65245438499824 0 0 0 0 -168.3337453098402 112.88157922331311 0 112.88157922331311 104.56802326007801 0 0 0 0 -168.24714155746233 45.932508723674118 0 45.932508723674118 928.31960436323016 0 0 0 0 61.461098612904607 -271.90591796615627 0 -271.90591796615627 61.130558156305597 0 0 0 0 22.184888995982419 -175.55863909795835 0 -175.55863909795835 -45.475862553753359 0 0 0 0 -82.111226654212714 -43.116157489326724 0 -43.116157489326724 -16.223815034377822 0 0 0 0 -32.378039752612267 -155.85526568986847 0 -155.85526568986847 200.9335672821835 0 0 0 0 27.591043414373416 -240.06084846647821 0 -240.06084846647821 141.31136464771953 0 0 0 0 60.046460227964417 -93.159864641500462 0 -93.159864641500462 54.120798625413954 0 0 0 0 97.563714622807311 -37.714640810090714 0 -37.714640810090714 256.54579155887041 0 0 0 0 -18.981076668718462 10.904079559824378 0 10.904079559824378 80.362908588589406 0 0 0 0 64.434160985394556 -105.0377943571948 0 -105.0377943571948 300.25190639619404 0 0 0 0 57.608873730650885 -26.081688517164821 0 -26.081688517164821 129.53334719485611 0 0 0 0 -6.4189204575364798 -7.6185266214750538 0 -7.6185266214750538 35.508982678575371 0 0 0 0 -19.554059513580313 -25.38438771302981 0 -25.38438771302981 105.26287586537364 0 0 0 0 -1.0166957103911081 2.3058741102402038 0 2.3058741102402038 0.88128886088473024 0 0 0 0 -28.641191872167838 33.088277578637644 0 33.088277578637644 112.21429308214283 0 0 0 0 -15.85589547242455 -62.858777257837573 0 -62.858777257837573 237.41750688902175 0 0 0 0 53.834346211408729 -38.197544856280729 0 -38.197544856280729 71.652522540753125 0 0 0 0 -2.3646693051682632 -18.941423126215341 0 -18.941423126215341 92.882559889258118 0 0 0 0 -26.093202202710359 -14.606357077810571 0 -14.606357077810571 251.29604844596179 0 0 0 0 -2.0850128522659217 -8.9751968551100312 0 -8.9751968551100312 102.20175592161246 0 0 0 0 -15.083037142790999 33.528888568063849 0 33.528888568063849 177.85519848855984 0 0 0 0 21.659469803351726 37.862246460539609 0 37.862246460539609 84.823738104794757 0 0 0 0 -1.1881894414389924 -17.422373187057985 0 -17.422373187057985 58.711342504278491 0 0 0 0 -3.9300609210549737 -2.8934978701363434 0 -2.8934978701363434 144.89613344250756 0 0 0 0 -25.710959154159326 -36.234224769981665 0 -36.234224769981665 72.299580453400267 0 0 0 0 25.925123728355629 -18.611106553253194 0 -18.611106553253194 36.235554546758067 0 0 0 0 -2.4312288237056987 -31.099850010179217 0 -31.099850010179217 95.569687946277469 0 0 0 0 -57.455520817642537 21.775842552448012 0 21.775842552448012 130.49020209691662 0 0 0 0 -0.45384370518765094 22.461831805975162 0 22.461831805975162 159.23447032832917 0 0 0 0 -7.4867537782773947 34.31343805894678 0 34.31343805894678 113.81789200849073 0 0 0 0 -17.963257034986327 14.416791100225964 0 14.416791100225964 153.27747237843323 0 0 0 0 44.99388497302607 -35.158005118392794 0 -35.158005118392794 155.1480964202965 0 0 0 0 99.084660172029544 -48.234328038191961 0 -48.234328038191961 126.46315672748369 0 0 0 0 -9.7865916245061886 23.082611537866633 0 23.082611537866633 104.48838927821085 0 0 0 0 100.49451333157867 -49.878140577765635 0 -49.878140577765635 113.78313516381968 0 0 0 0 156.98415765195114 -99.513585747676188 0 -99.513585747676188 116.15551231713289 0 0 0 0 95.434776963162221 0.20488593191112159 0 0.20488593191112159 111.09447701425302 0 0 0 0 13.327738410460645 -18.068216743304195 0 -18.068216743304195 57.943481870618214 0 0 0 0 103.33216532379515 15.135170164202691 0 15.135170164202691 46.278992556291996 0 0 0 0 55.968007004850278 108.65864296157815 0 108.65864296157815 159.2911219600428 0 0 0 0 10.376687622889957 13.775264809105611 0 13.775264809105611 130.27904428870977 0 0 0 0 -39.664228925026237 -72.396741017904333 0 -72.396741017904333 3.839999383477334 0 0 0 0 -60.746664514964095 -39.541297385987036 0 -39.541297385987036 -35.824276423012634 0 0 0 0 21.420304587255487 -133.98639615112825 0 -133.98639615112825 11.499481449962332 0 0 0 0 59.215458816683167 -22.962156203505401 0 -22.962156203505401 -0.10904892201665461 0 0 0 0 67.095699561895799 -43.092751660339673 0 -43.092751660339673 51.237837221091468 0 0 0 0 64.004658857916183 -109.81234595298133 0 -109.81234595298133 118.33608804879623 0 0 0 0 102.67309250086691 -9.0759678764534328 0 -9.0759678764534328 83.15680204926457 0 0 0 0 106.01284099319673 -4.6809163607958908 0 -4.6809163607958908 77.003619335710027 0 0 0 0 130.08571454095636 -38.729057256395208 0 -38.729057256395208 67.360253306364029 0 0 0 0 95.087052077110457 17.940601390228949 0 17.940601390228949 55.403977541688619 0 0 0 0 85.10080388672759 32.145876192551441 0 32.145876192551441 36.762955027143107 0 0 0 0 106.12573207089915 2.4913316059000365 0 2.4913316059000365 8.5336017502904724 0 0 0 0 -22.386506018527768 -5.488374027354098 0 -5.488374027354098 39.860655492009755 0 0 0 0 88.579330516295613 -12.672037054584507 0 -12.672037054584507 -35.941035642801126 0 0 0 0 103.02038815334777 32.159537933600404 0 32.159537933600404 102.43990484848382 0 0 0 0 198.84606833509724 -23.787460214665771 0 -23.787460214665771 37.801786284335776 0 0 0 0 138.59116990273014 44.090981773976637 0 44.090981773976637 50.058059934288735 0 0 0 0 337.28081426107354 477.11076562625931 0 477.11076562625931 986.52890472216723 0 0 0 0 2.6323446950819509 -4.7360120316318133 0 -4.7360120316318133 11.474183300980449 0 0 0 0 662.67027798885101 -210.51427316800164 0 -210.51427316800164 146.75203325797702 0 0 0 0 7.9915905987425955 42.560684626351808 0 42.560684626351808 138.3686059993268 0 0 0 0 -78.432399477612307 180.41287078631649 0 180.41287078631649 239.26974611096921 0 0 0 0 101.93761676004078 83.100992262883665 0 83.100992262883665 168.36932594691507 0 0 0 0 10.606035002994938 -17.163877550937258 0 -17.163877550937258 26.971081632635801 0 0 0 0 191.35273919467113 224.81593276304011 0 224.81593276304011 233.35002892040575 0 0 0 0 -4.7655184803643351 146.27589146175796 0 146.27589146175796 624.78666948681803 0 0 0 0 147.90118216054748 103.08779975376365 0 103.08779975376365 250.84033890169303 0 0 0 0 -87.653083215168635 -62.053455827750895 0 -62.053455827750895 212.22621308454472 0 0 0 0 -3.5346128360672537 27.145823053240747 0 27.145823053240747 144.56220925069647 0 0 0 0 -0.70593807072624259 25.05091988079737 0 25.05091988079737 142.7979787096661 0 0 0 0 18.766633351337845 38.302098628774729 0 38.302098628774729 142.63184605295828 0 0 0 0 -4.6452090894171327 69.370818867234334 0 69.370818867234334 126.17914756003302 0 0 0 0 0.48362744764610888 32.982762668972597 0 32.982762668972597 139.42240352783233 0 0 0 0 -32.254048345536901 66.11058729600154 0 66.11058729600154 103.04470213055902 0 0 0 0 -55.996025148067019 -25.422855423283181 0 -25.422855423283181 339.53116265717836 0 0 0 0 -66.413634835738776 33.858425748025184 0 33.858425748025184 97.604513961709017 0 0 0 0 12.60891117994113 53.64492047583483 0 53.64492047583483 119.99327743473435 0 0 0 0 -252.62992366580511 213.1146858301563 0 213.1146858301563 524.62020405975636 0 0 0 0 -290.07428770495699 406.66842185516725 0 406.66842185516725 198.1710438370319 0 0 0 0 -20.680667571713002 82.447667280357564 0 82.447667280357564 425.22383777040523 0 0 0 0 9.0759996824184714 23.009044433071981 0 23.009044433071981 7.5634558616842469 0 0 0 0 340.41190727723233 294.7410867712606 0 294.7410867712606 -118.42147544166073 0 0 0 0 76.471899589862005 171.2326388467045 0 171.2326388467045 283.97988877083117 0 0 0 0 38.242255650933885 -46.800725516488455 0 -46.800725516488455 92.651767861680128 0 0 0 0 1.9004532699684571 0.38794698262606175 0 0.38794698262606175 0.37966190068452477 0 0 0 0 79.95185918943389 135.49340992128782 0 135.49340992128782 346.52055054152152 0 0 0 0 150.99148917118691 138.08119885367341 0 138.08119885367341 287.31882064490492 0 0 0 0 111.39125891964318 129.90422857654266 0 129.90422857654266 284.0320237789565 0 0 0 0 103.50411973052951 134.11740369472682 0 134.11740369472682 292.24990729501587 0 0 0 0 254.31484559553246 -161.98345007843454 0 -161.98345007843454 384.31198320208205 0 0 0 0 379.50900257878493 95.90615457308013 0 95.90615457308013 243.57059351811768 0 0 0 0 199.26083428192396 172.5831381247117 0 172.5831381247117 283.6719309553373 0 0 0 0 133.87685756903466 73.212948564687395 0 73.212948564687395 241.72384914758368 0 0 0 0 -3.2118549349461318 -15.003135184117127 0 -15.003135184117127 276.9131464499078 0 0 0 0 216.37699823263392 14.416265600193583 0 14.416265600193583 250.34351202475955 0 0 0 0 51.930256830788494 75.632203878252767 0 75.632203878252767 355.44449296251696 0 0 0 0 130.14008874446426 138.1365587622422 0 138.1365587622422 292.73154146815796 0 0 0 0 70.865608767827325 -186.61087694245361 0 -186.61087694245361 489.87442612733776 0 0 0 0 91.222389583383574 153.68606390585774 0 153.68606390585774 484.58326716299052 0 0 0 0 77.916338742099242 21.861248299490398 0 21.861248299490398 272.61782586583286 0 0 0 0 -24.122966641717539 -22.912402473724796 0 -22.912402473724796 341.72418257499521 0 0 0 0 -16.473108307588518 -41.659483701259887 0 -41.659483701259887 224.42738791138981 0 0 0 0 -62.889244573444103 -25.758688602865732 0 -25.758688602865732 276.7891364080715 0 0 0 0 -38.810192327906179 15.595326069884322 0 15.595326069884322 237.76174096108298 0 0 0 0 -65.521733327776019 4.2786551076787873 0 4.2786551076787873 246.65655966408667 0 0 0 0 -42.508811632355901 5.6614885490125744 0 5.6614885490125744 217.8292859293615 0 0 0 0 -184.45276776553692 78.104863331893284 0 78.104863331893284 248.5096550975868 0 0 0 0 -55.157517901153824 21.658365343704645 0 21.658365343704645 271.81110796891153 0 0 0 0 -147.40285406739497 -49.621646142088139 0 -49.621646142088139 272.95404693996534 0 0 0 0 -7.6641297703190503 -2.949163660807244 0 -2.949163660807244 251.92612487546285 0 0 0 0 86.011179297984654 -376.51826185768732 0 -376.51826185768732 44.158975745987846 0 0 0 0 130.11162131378057 -271.45318846388 0 -271.45318846388 146.17281803087099 0 0 0 0 -75.615194333782711 -344.82972164338571 0 -344.82972164338571 634.34016603554483 0 0 0 0 112.17822293257427 -250.00085288823539 0 -250.00085288823539 376.27908520499477 0 0 0 0 167.23426243575705 150.96247868210048 0 150.96247868210048 924.88845542827039 0 0 0 0 572.40929755055822 -7.7633930687406973 0 -7.7633930687406973 -175.87094384105876 0 0 0 0 429.35840378767443 255.91041751211014 0 255.91041751211014 369.62542609299999 0 0 0 0 -15.133403498124153 -144.3027239809162 0 -144.3027239809162 453.90832345958916 0 0 0 0 -4.4069931722669935 -105.2458793677506 0 -105.2458793677506 311.59598203154746 0 0 0 0 71.927071857633564 -111.57007335081289 0 -111.57007335081289 1.0996626538108103 0 0 0 0 16.876181784734399 -117.60203611600446 0 -117.60203611600446 257.20961652838741 0 0 0 0 -160.02475454909199 -19.864142869395437 0 -19.864142869395437 264.60263552441029 0 0 0 0 -105.57244329933792 107.9288501081337 0 107.9288501081337 120.8699235546519 0 0 0 0 -62.327825563971146 -32.5756671377967 0 -32.5756671377967 251.63910111811128 0 0 0 0 79.229872171598799 -74.085118580704147 0 -74.085118580704147 247.53117106834543 0 0 0 0 91.238184357265709 -211.58062238882121 0 -211.58062238882121 326.39527905392424 0 0 0 0 39.357079439227618 -116.82894863712136 0 -116.82894863712136 206.92174754629377 0 0 0 0 199.46016335297645 -93.395129026903305 0 -93.395129026903305 199.07604647946937 0 0 0 0 123.75446621024912 2.0138561639323598 0 2.0138561639323598 237.04612345454734 0 0 0 0 76.287469662298463 31.452232412171725 0 31.452232412171725 227.12323710005148 0 0 0 0 15.022024867173059 -5.5289661701099249 0 -5.5289661701099249 239.64090536126605 0 0 0 0 41.112498177046746 90.408953874495637 0 90.408953874495637 -22.06306266746833 0 0 0 0 18.119150512259694 -28.799058595483075 0 -28.799058595483075 170.39168098167283 0 0 0 0 -12.425070870728291 29.991000158386669 0 29.991000158386669 227.49344606559316 0 0 0 0 -25.791283939674031 56.745959189931455 0 56.745959189931455 290.56440056784777 0 0 0 0 20.030982160310487 -43.629697335018136 0 -43.629697335018136 69.586557705428277 0 0 0 0 39.037918128593446 27.444224668317474 0 27.444224668317474 255.69370597536908 0 0 0 0 44.275973388198508 120.51282719025039 0 120.51282719025039 301.19167149699933 0 0 0 0 94.220820228699722 126.34195830779936 0 126.34195830779936 346.88260120789346 0 0 0 0 131.23148668057425 105.23110744454016 0 105.23110744454016 301.32571288751205 0 0 0 0 40.499396098835859 134.56631817966991 0 134.56631817966991 495.21738237362297 0 0 0 0 165.385839121863 79.387613712766324 0 79.387613712766324 370.62742410163628 0 0 0 0 191.90624519610628 155.30522792401462 0 155.30522792401462 352.48356193456857 0 0 0 0 56.942177184372213 208.85213832057343 0 208.85213832057343 381.60538679464662 0 0 0 0 204.3713831990035 54.436106534732971 0 54.436106534732971 224.54530650831293 0 0 0 0 119.35985905486609 79.335312022925791 0 79.335312022925791 292.14914567035157 0 0 0 0 137.39620344797004 113.13185062185221 0 113.13185062185221 350.55712143446544 0 0 0 0 80.873372529581502 71.475293199822772 0 71.475293199822772 299.17343977010751 0 0 0 0 129.95595436851272 4.2755932258369285 0 4.2755932258369285 232.6199110057496 0 0 0 0 196.75419511327755 -129.96199570527097 0 -129.96199570527097 108.90516540233511 0 0 0 0 357.72269504213773 -33.399257332570414 0 -33.399257332570414 30.51899320416851 0 0 0 0 237.19692585780604 83.032530426338781 0 83.032530426338781 229.53840015115566 0 0 0 0 363.90186175320468 200.07808433807804 0 200.07808433807804 277.57216623724526 0 0 0 0 194.12126447296896 167.2413044987079 0 167.2413044987079 383.92253868162516 0 0 0 0 455.5150739192004 77.156204814720695 0 77.156204814720695 107.13021422238671 0 0 0 0 317.17031719474198 -81.28566180159396 0 -81.28566180159396 72.696800584446464 0 0 0 0 286.08106352176515 -7.7256715993244143 0 -7.7256715993244143 -95.408061741749407 0 0 0 0 122.8435990488797 -208.32081996754277 0 -208.32081996754277 -2.3711750400179881 0 0 0 0 89.131843574367394 -122.27824573458929 0 -122.27824573458929 -218.00565927312709 0 0 0 0 239.79594482979473 -180.73444606411795 0 -180.73444606411795 118.38189760706518 0 0 0 0 204.00923640838982 -266.44370386093942 0 -266.44370386093942 -84.560737580351997 0 0 0 0 111.63755343347248 -231.5892350092181 0 -231.5892350092181 17.210476763633778 0 0 0 0 372.65602962727053 508.23236106746799 0 508.23236106746799 273.43327519163722 0 0 0 0 -167.55373475996043 126.35111818376754 0 126.35111818376754 775.71869378808333 0 0 0 0 742.24500860551598 124.38985696619056 0 124.38985696619056 97.517422649249056 0 0 0 0 348.82174966967659 -315.79985895695791 0 -315.79985895695791 361.28804595831025 0 0 0 0 268.10472056900107 126.2892505961936 0 126.2892505961936 351.53897955188586 0 0 0 0 398.94765085252948 419.14102601196646 0 419.14102601196646 958.21529557231406 0 0 0 0 265.63777275751818 -326.68022137654043 0 -326.68022137654043 808.9915118853678 0 0 0 0 5.2070493021900752 4.6105867149878463 0 4.6105867149878463 5.0640033952228123 0 0 0 0 437.13079192750229 133.42269255828069 0 133.42269255828069 -190.6160902184638 0 0 0 0 167.74364721010033 -104.02916076638212 0 -104.02916076638212 234.62807835938293 0 0 0 0 242.94149760746461 -226.72057243285599 0 -226.72057243285599 368.8960874411423 0 0 0 0 60.872725603948311 119.72585109286592 0 119.72585109286592 510.18742835342709 0 0 0 0 239.82671278362704 208.68569958421722 0 208.68569958421722 352.84432214239496 0 0 0 0 62.607620447472527 147.3986926233847 0 147.3986926233847 210.28106922726147 0 0 0 0 -116.76523722573484 354.65623054387106 0 354.65623054387106 217.49640739330789 0 0 0 0 -38.574040014703314 7.7491244497505249 0 7.7491244497505249 19.202551984257298 0 0 0 0 146.71396667940007 -157.35075311155379 0 -157.35075311155379 159.56812696693851 0 0 0 0 -30.447356222579401 37.351897279761033 0 37.351897279761033 16.82099112830474 0 0 0 0 -35.009808042756958 -223.48705828048696 0 -223.48705828048696 134.27730114213045 0 0 0 0 137.76032681997617 -90.034753260151774 0 -90.034753260151774 218.58822022257664 0 0 0 0 -101.60974844957309 228.52194082464666 0 228.52194082464666 126.35059333778918 0 0 0 0 16.122039098373481 21.39586852908036 0 21.39586852908036 22.819337529862423 0 0 0 0 167.55658784395655 -252.51351715117198 0 -252.51351715117198 239.18383130920301 0 0 0 0 35.66941016562123 -62.33508812879154 0 -62.33508812879154 107.97968894878431 0 0 0 0 10.310367831517965 12.906429019003639 0 12.906429019003639 17.080422007790105 0 0 0 0 -21.091239504527039 195.11812905846455 0 195.11812905846455 -167.9923211937421 0 0 0 0 290.76349414960441 -282.8267087388449 0 -282.8267087388449 192.55531135273304 0 0 0 0 -42.802264385933199 36.826937229577652 0 36.826937229577652 111.56296579788614 0 0 0 0 -34.232560756936437 -57.223899391305167 0 -57.223899391305167 166.17226951356315 0 0 0 0 91.38374683827351 96.956549542133871 0 96.956549542133871 128.76877108973895 0 0 0 0 87.838783470720045 198.66998730112391 0 198.66998730112391 166.24827542735147 0 0 0 0 118.71661887802202 154.06470266082033 0 154.06470266082033 215.8782148410246 0 0 0 0 -13.695546660379478 40.581756012150436 0 40.581756012150436 253.78061901000547 0 0 0 0 -1.7523757787348586 -11.306797328368702 0 -11.306797328368702 101.65047550332019 0 0 0 0 13.896162562650716 -2.3846234093653038 0 -2.3846234093653038 80.89144907440641 0 0 0 0 -1.343164813180362 -22.699621764021458 0 -22.699621764021458 41.520346728176605 0 0 0 0 -0.31016752370064182 -17.808069105112736 0 -17.808069105112736 88.643887278252805 0 0 0 0 -4.8103774937414361 -25.040277298991761 0 -25.040277298991761 67.681879122137843 0 0 0 0 -20.099863555476077 -35.045344635571382 0 -35.045344635571382 171.84597278849105 0 0 0 0 -12.767443894311327 -17.420530828851042 0 -17.420530828851042 208.3556488005961 0 0 0 0 -13.445739811828727 2.4238028978795114 0 2.4238028978795114 111.71044831951312 0 0 0 0 -6.0490239929528338 -24.96605104217609 0 -24.96605104217609 104.11830743135158 0 0 0 0 -25.025880555986078 -44.876502033876022 0 -44.876502033876022 226.52091183965968 0 0 0 0 24.819582886384524 -103.50576951664698 0 -103.50576951664698 243.18399616844545 0 0 0 0 8.0641946873329289 -19.728369861037208 0 -19.728369861037208 108.18596545042237 0 0 0 0 57.422056442242138 -63.11927964611823 0 -63.11927964611823 109.91508176512434 0 0 0 0 0.82272420249173273 1.0546608779879847 0 1.0546608779879847 0.87263365113176405 0 0 0 0 7.0183705704666863 -32.113356454960012 0 -32.113356454960012 115.29246172786588 0 0 0 0 -244.25954691421884 -39.009942871743988 0 -39.009942871743988 226.68726492011047 0 0 0 0 -238.86078949041439 -43.292958506237483 0 -43.292958506237483 37.147234641102841 0 0 0 0 1.1861377766405532 -6.064447248273936 0 -6.064447248273936 10.473203921938648 0 0 0 0 -3.2660548446342528 -1.5796282847672387 0 -1.5796282847672387 15.333796086794962 0 0 0 0 -33.744481326728419 41.068545649453881 0 41.068545649453881 12.26331344711798 0 0 0 0 5.9465125441397255 -31.004716122841359 0 -31.004716122841359 21.063383548469915 0 0 0 0 38.878642319395112 -62.32803078469442 0 -62.32803078469442 56.479889482936414 0 0 0 0 4.8053038485677462 3.7339728051592829 0 3.7339728051592829 113.3392101533027 0 0 0 0 -8.6500997118919258 -1.986758527746133 0 -1.986758527746133 79.251830966328271 0 0 0 0 10.715903635320046 -20.030684788016515 0 -20.030684788016515 96.056130071578082 0 0 0 0 -6.496754678047191 8.6609168741438793 0 8.6609168741438793 66.898717550763649 0 0 0 0 -32.754530526728558 28.249402439047117 0 28.249402439047117 86.274162949121092 0 0 0 0 -126.38223428420361 28.521569911441475 0 28.521569911441475 138.45782371978567 0 0 0 0 -47.774471234719385 -63.513414524000837 0 -63.513414524000837 230.3316473626619 0 0 0 0 -18.939373239363704 13.024695837753825 0 13.024695837753825 79.764933862134058 0 0 0 0 117.37851540565362 -53.473426580756495 0 -53.473426580756495 186.90286071255105 0 0 0 0 72.718294359116953 -95.867264846907347 0 -95.867264846907347 186.34518585825572 0 0 0 0 -4.3264583632310405 -57.696438330942328 0 -57.696438330942328 224.19648247968871 0 0 0 0 -25.698556638310777 -19.014450776849117 0 -19.014450776849117 161.87610296148341 0 0 0 0 -22.797597672453321 -36.389816040384176 0 -36.389816040384176 184.29196601061267 0 0 0 0 -7.4774216674985894 -2.0913967835549983 0 -2.0913967835549983 83.285067412948194 0 0 0 0 -14.435154257035265 -29.87179984604154 0 -29.87179984604154 162.62733079842292 0 0 0 0 2.7708511805648186 -35.057968362205429 0 -35.057968362205429 165.53145586102619 0 0 0 0 -1.0202990864800086 -49.439336636045482 0 -49.439336636045482 184.45218979567289 0 0 0 0 11.486973916080476 -38.32148502753801 0 -38.32148502753801 92.550917632208751 0 0 0 0 -8.3107405594155352 -19.49759770822493 0 -19.49759770822493 67.028130453327321 0 0 0 0 -20.412039753735371 -40.192670145435841 0 -40.192670145435841 173.11876985081472 0 0 0 0 -1.9047193927125932 -8.5981818968793959 0 -8.5981818968793959 133.64104261397551 0 0 0 0 5.463899770972148 -12.474544012678962 0 -12.474544012678962 134.49474697699043 0 0 0 0 -0.70232743336055137 -11.437812022511935 0 -11.437812022511935 143.11770247293316 0 0 0 0 -2.3932477367981622 -12.474240200853416 0 -12.474240200853416 83.867078608872418 0 0 0 0 -5.9989483893309625 -26.459577051457018 0 -26.459577051457018 70.921770052751526 0 0 0 0 -4.8823808960488257 -13.87306877864161 0 -13.87306877864161 86.263297766679131 0 0 0 0 -1.6135582317465307 -0.14443869128592723 0 -0.14443869128592723 122.54218945001776 0 0 0 0 13.62977018114907 -6.5824060849045054 0 -6.5824060849045054 90.583473363096346 0 0 0 0 -1.3900287198296155 -5.2083852345822379 0 -5.2083852345822379 154.94435657417489 0 0 0 0 5.6659470251775019 -13.403946484962944 0 -13.403946484962944 130.28845847074263 0 0 0 0 3.5421598699191623 -8.5885458918909876 0 -8.5885458918909876 33.798372282562298 0 0 0 0 32.191048196045358 15.871020649708953 0 15.871020649708953 38.820913420539 0 0 0 0 18.594440425651101 -12.483035606783233 0 -12.483035606783233 35.483368047469412 0 0 0 0 -0.66211756966208668 -58.894916586043109 0 -58.894916586043109 14.474681237828918 0 0 0 0 65.207531227846175 -10.679416955470515 0 -10.679416955470515 35.368511548520473 0 0 0 0 50.1018254562116 18.190954158657405 0 18.190954158657405 24.656701841435279 0 0 0 0 48.951910738796869 22.547336862022348 0 22.547336862022348 40.131007984280586 0 0 0 0 235.86055647537739 114.64854678958363 0 114.64854678958363 103.18552815692965 0 0 0 0 -1.2685091493308724 0.23082871137369665 0 0.23082871137369665 7.6383014945180321 0 0 0 0 90.172699992532216 -1256.4522980613656 0 -1256.4522980613656 289.59928165367455 0 0 0 0 173.60160374501356 117.67351404802321 0 117.67351404802321 90.145417788662598 0 0 0 0 98.816369659519296 138.74284000114494 0 138.74284000114494 131.35032014263561 0 0 0 0 74.119376960349939 140.15572706982221 0 140.15572706982221 131.39194614507142 0 0 0 0 65.274483222830582 30.176529631380163 0 30.176529631380163 19.487510337319691 0 0 0 0 125.61371855948423 -14.807068683659963 0 -14.807068683659963 -11.257307803476579 0 0 0 0 178.37750854503042 242.28971089819242 0 242.28971089819242 359.23296605407086 0 0 0 0 12.925543411092804 122.96384486489114 0 122.96384486489114 439.3224528292194 0 0 0 0 79.248173730257804 113.43954087074599 0 113.43954087074599 151.50161157984985 0 0 0 0 158.86205903435211 171.07856108801207 0 171.07856108801207 174.25838479652884 0 0 0 0 -5.9981040232453626 -2.6860104844394925 0 -2.6860104844394925 13.908426256647218 0 0 0 0 146.38193674126251 -69.847118228688487 0 -69.847118228688487 91.9059901104647 0 0 0 0 -42.811094270788544 -23.641642016737023 0 -23.641642016737023 121.90068519112538 0 0 0 0 206.63490626743214 9.8898249505909916 0 9.8898249505909916 197.02140514173516 0 0 0 0 70.494461156178659 -99.060051396380004 0 -99.060051396380004 367.84618509721986 0 0 0 0 -25.04898940684302 -16.816765442724318 0 -16.816765442724318 62.237805080287217 0 0 0 0 120.93264545094189 -29.559805270488141 0 -29.559805270488141 400.15957567935766 0 0 0 0 -7.0524022812323892 -8.4610439807474904 0 -8.4610439807474904 65.914755501100444 0 0 0 0 0.79446139407516547 -2.4080792210142334 0 -2.4080792210142334 25.888785288416017 0 0 0 0 4.7295966372509284 -8.3156793683845507 0 -8.3156793683845507 13.158750988029059 0 0 0 0 101.23421734608689 -223.70681526966791 0 -223.70681526966791 279.63692132089636 0 0 0 0 8.1464007341944491 -18.802950542248865 0 -18.802950542248865 58.563521370676938 0 0 0 0 116.86218296773768 -108.89480559962249 0 -108.89480559962249 -52.832547572856129 0 0 0 0 47.699003921934491 -85.490900271048304 0 -85.490900271048304 139.85366070090095 0 0 0 0 24.580710348536741 -49.094851440720959 0 -49.094851440720959 131.84859246757696 0 0 0 0 46.122615323085483 -71.209699783328688 0 -71.209699783328688 153.35551679212949 0 0 0 0 68.553200276887765 -110.18228353177255 0 -110.18228353177255 162.81309409090318 0 0 0 0 -69.189296108985218 -101.05637009236671 0 -101.05637009236671 306.59685467364034 0 0 0 0 21.98832922284253 -47.646194236299181 0 -47.646194236299181 166.52930408348624 0 0 0 0 -34.129784904012922 -85.944353764745756 0 -85.944353764745756 333.01223229404422 0 0 0 0 -70.306697280306253 -125.55256662710599 0 -125.55256662710599 594.99241955527395 0 0 0 0 -61.162035049870838 -36.92878103964722 0 -36.92878103964722 293.78029488524771 0 0 0 0 -170.63606280628846 70.080445621322724 0 70.080445621322724 336.18762374497601 0 0 0 0 65.781070250972789 -135.94877822154376 0 -135.94877822154376 205.01283035895904 0 0 0 0 21.587112676908205 10.997478860119202 0 10.997478860119202 59.600510967287903 0 0 0 0 49.488426685521745 -84.224200441396533 0 -84.224200441396533 252.84543747731368 0 0 0 0 51.165119384151694 -90.846346521007945 0 -90.846346521007945 172.5541235897399 0 0 0 0 39.222933744876173 -83.546054565682425 0 -83.546054565682425 177.22720590053359 0 0 0 0 58.963142112306741 -120.53791192499921 0 -120.53791192499921 194.82012002482952 0 0 0 0 72.67382674849523 -129.9840776805795 0 -129.9840776805795 177.83232634417072 0 0 0 0 13.826409190692175 -127.47442146537287 0 -127.47442146537287 222.63437949071522 0 0 0 0 3.7176950273875207 -4.2919216181526281 0 -4.2919216181526281 41.742113292167829 0 0 0 0 21.420398655336612 -29.575236688397126 0 -29.575236688397126 209.48172159733804 0 0 0 0 7.6438853538750564 2.9407096044808796 0 2.9407096044808796 137.95234177216852 0 0 0 0 -19.87221908580068 -17.474232270789798 0 -17.474232270789798 117.42901412412175 0 0 0 0 -12.598203445120937 -37.017904340052283 0 -37.017904340052283 119.6232267216418 0 0 0 0 3.5891131498571376 -39.121402660476548 0 -39.121402660476548 97.812346589567412 0 0 0 0 -7.177369328259374 -24.859003131219652 0 -24.859003131219652 102.39920269197319 0 0 0 0 -11.70391854832121 -57.683171093179773 0 -57.683171093179773 109.66818545148993 0 0 0 0 -5.0343214167533006 -29.10652239335468 0 -29.10652239335468 107.05625465139747 0 0 0 0 48.93707059510416 -29.937967341291369 0 -29.937967341291369 209.00261776550542 0 0 0 0 -69.641465129869175 91.042543645373371 0 91.042543645373371 599.65091262756687 0 0 0 0 64.366124190646929 -178.42159834887934 0 -178.42159834887934 106.47154373758531 0 0 0 0 0.5028155606445246 1.3751591700806358 0 1.3751591700806358 11.411558004378506 0 0 0 0 -58.486870749289665 -35.110382962302538 0 -35.110382962302538 489.43837723282923 0 0 0 0 -2.4683019406002131 -32.530887328553945 0 -32.530887328553945 230.37773026332434 0 0 0 0 123.53856789663405 43.217307643280947 0 43.217307643280947 140.42526750569232 0 0 0 0 -14.693683087214097 8.5082814430796105 0 8.5082814430796105 164.74060906278152 0 0 0 0 -23.079602355872339 80.04553293142817 0 80.04553293142817 250.44770841610443 0 0 0 0 51.788396092510084 137.286008477211 0 137.286008477211 340.92199141944729 0 0 0 0 -16.035840803085016 -47.680405109458675 0 -47.680405109458675 221.69332508813864 0 0 0 0 27.372773713832089 -110.58357730013449 0 -110.58357730013449 116.0399890903318 0 0 0 0 1.2810478074697755 -9.4134736238441334 0 -9.4134736238441334 7.4954739875295218 0 0 0 0 50.092430996230746 -124.92054022150387 0 -124.92054022150387 107.35463802159211 0 0 0 0 -42.811094270791727 -23.641642016729747 0 -23.641642016729747 121.9006851911472 0 0 0 0 22.30219008835229 -93.967019269472075 0 -93.967019269472075 103.88097518623545 0 0 0 0 -31.52233330653371 -156.92523739012631 0 -156.92523739012631 89.627991917823238 0 0 0 0 43.73095496348833 -103.43304613352302 0 -103.43304613352302 83.359425643819122 0 0 0 0 3.1636918803296794 -83.811138017543271 0 -83.811138017543271 92.510263982432434 0 0 0 0 103.90956098678998 -100.42267290230666 0 -100.42267290230666 94.498039903128301 0 0 0 0 5.8167752812589288 3.453628809913198 0 3.453628809913198 -2.7179180823835196 0 0 0 0 116.70135045773895 -126.30090852168541 0 -126.30090852168541 128.90364560794114 0 0 0 0 -40.640779506422859 19.570732215243424 0 19.570732215243424 92.416074291308178 0 0 0 0 -18.465684653884978 74.496141306044592 0 74.496141306044592 7.8370468683351646 0 0 0 0 -3.9516078477249721 -58.80490757915868 0 -58.80490757915868 119.99356578122388 0 0 0 0 -2.0093420563108104 2.4747719709465059 0 2.4747719709465059 0.77063083316058822 0 0 0 0 857.44313817272086 149.75535573661909 0 149.75535573661909 722.510308931076 0 0 0 0 -128.12212237079893 -117.6746416586102 0 -117.6746416586102 716.59038493511434 0 0 0 0 49.921459948275697 233.33496747945173 0 233.33496747945173 523.26577247060777 0 0 0 0 -42.811094270789908 -23.641642016715195 0 -23.641642016715195 121.90068519114357 0 0 0 0 70.682029340967347 -22.295163760465584 0 -22.295163760465584 -42.377201004426752 0 0 0 0 -35.872494982692842 -21.503054668359255 0 -21.503054668359255 297.51205345799099 0 0 0 0 -42.837064204566559 -90.520328106314992 0 -90.520328106314992 270.37051500326561 0 0 0 0 -52.660090077529276 -31.507773396748235 0 -31.507773396748235 389.02925114701793 0 0 0 0 -17.481986235919749 81.143480338869267 0 81.143480338869267 387.51018060396018 0 0 0 0 -4.3919515948512071 12.225374656014537 0 12.225374656014537 312.5864623861853 0 0 0 0 -36.810750794237492 -35.640466242590264 0 -35.640466242590264 231.49183945526602 0 0 0 0 -42.576343866659045 -22.652401215869759 0 -22.652401215869759 309.39135180657013 0 0 0 0 -8.5612324413932583 -29.843083083942474 0 -29.843083083942474 219.94664765214839 0 0 0 0 2.5648715313643606 -1.3412612969977999 0 -1.3412612969977999 150.87376243824838 0 0 0 0 -45.684632307004904 -46.408477432629297 0 -46.408477432629297 370.3835753625026 0 0 0 0 7.3837012170479284 29.05955515622918 0 29.05955515622918 298.81396718173346 0 0 0 0 4.1605947294125798 -2.0342117642061623 0 -2.0342117642061623 -3.078241544344678 0 0 0 0 20.99411716517352 -284.3704010888323 0 -284.3704010888323 369.59169080790161 0 0 0 0 -8.8061379588780255 -46.948357467597816 0 -46.948357467597816 222.81479660930927 0 0 0 0 -2.9629431819048477 -55.882479030275135 0 -55.882479030275135 203.69900448761473 0 0 0 0 -8.7572011722368188 -30.403781672161131 0 -30.403781672161131 219.09314895774151 0 0 0 0 25.444296341260269 -51.459332129023096 0 -51.459332129023096 222.65053952261223 0 0 0 0 1.2672595969770946 -55.368631821829418 0 -55.368631821829418 116.76476262138269 0 0 0 0 -7.8828362755803028 -37.915885568509111 0 -37.915885568509111 244.23441359880235 0 0 0 0 -2.7194346256513597 -52.805698283965484 0 -52.805698283965484 91.268868849603408 0 0 0 0 -14.055728194499352 -51.521498006051843 0 -51.521498006051843 133.52208686868835 0 0 0 0 -10.981007028320164 -54.080413775875058 0 -54.080413775875058 169.16218953985299 0 0 0 0 2.193101472556009 -11.222861972502869 0 -11.222861972502869 187.98203639732674 0 0 0 0 30.568459893896943 -23.963317599438597 0 -23.963317599438597 118.06495652293597 0 0 0 0 -11.345486875381539 -79.453525479060772 0 -79.453525479060772 133.58624624608274 0 0 0 0 8.4666147757836541 -66.359515526486987 0 -66.359515526486987 54.208612660436813 0 0 0 0 -15.785679830926711 -77.595576647298003 0 -77.595576647298003 165.25441300710372 0 0 0 0 -17.950420014962333 -57.516372183860767 0 -57.516372183860767 189.52411972242408 0 0 0 0 19.698866670592906 -18.876226578831847 0 -18.876226578831847 203.58580765412262 0 0 0 0 19.543956251807458 -70.563726480554976 0 -70.563726480554976 59.223853834575124 0 0 0 0 20.714733502394665 -124.94928307193913 0 -124.94928307193913 17.138713250336878 0 0 0 0 -3.2198041832230047 -143.36953621079738 0 -143.36953621079738 179.40921929036267 0 0 0 0 -13.200088774012784 -81.042068082730111 0 -81.042068082730111 179.01307466891012 0 0 0 0 53.010048711745185 -36.884258638383471 0 -36.884258638383471 145.34848350143875 0 0 0 0 17.589714479344821 -26.129927169569783 0 -26.129927169569783 151.9090089601159 0 0 0 0 30.451303357818233 -33.434212747493802 0 -33.434212747493802 140.27826616994571 0 0 0 0 -19.139822453495071 -77.728632603953884 0 -77.728632603953884 145.19459063070144 0 0 0 0 -102.9704975863483 -105.2983177633464 0 -105.2983177633464 177.67130840780737 0 0 0 0 8.8173528419601261 -54.69404431419521 0 -54.69404431419521 140.71973138322844 0 0 0 0 -79.514172901308484 -59.439866108001297 0 -59.439866108001297 158.90397369119273 0 0 0 0 1.3115736638180167 -46.497116664207063 0 -46.497116664207063 142.83356361529712 0 0 0 0 -91.287017961690253 -151.50082514479436 0 -151.50082514479436 93.74814608019733 0 0 0 0 -85.551250776879101 -105.15837697043207 0 -105.15837697043207 174.33734948175334 0 0 0 0 -71.362572853733582 -85.684206252232798 0 -85.684206252232798 223.02140269746087 0 0 0 0 -66.571630095776982 -36.069397573905007 0 -36.069397573905007 230.76640538186257 0 0 0 0 -56.734111834306532 -31.601402705879082 0 -31.601402705879082 262.2227745901705 0 0 0 0 -47.777521600986802 -61.258255626162281 0 -61.258255626162281 264.40945472529711 0 0 0 0 -78.094287672825885 -44.465009216974067 0 -44.465009216974067 262.17881530580053 0 0 0 0 -79.065701270164936 -50.389798771017013 0 -50.389798771017013 262.08298376607297 0 0 0 0 -52.672154646228591 -46.364268926856312 0 -46.364268926856312 185.58040122596867 0 0 0 0 -46.25904426377474 -22.413221769706979 0 -22.413221769706979 269.36253330009276 0 0 0 0 -2.2886102250403688 -43.778215690417319 0 -43.778215690417319 170.20394169487818 0 0 0 0 -47.444660867655045 -4.5262698795126113 0 -4.5262698795126113 162.16678128379243 0 0 0 0 -26.699540864259689 -78.793033689356889 0 -78.793033689356889 273.79862248714699 0 0 0 0 194.63497904122141 164.61181480409869 0 164.61181480409869 213.05267753855179 0 0 0 0 -19.881173452528856 -56.353292804436933 0 -56.353292804436933 148.71403213270241 0 0 0 0 -14.684508933253554 15.328012798844412 0 15.328012798844412 124.51982305200988 0 0 0 0 74.577927636271852 -76.226920157765562 0 -76.226920157765562 231.31197949045054 0 0 0 0 69.544460732414336 -79.635865138527151 0 -79.635865138527151 323.52256377322192 0 0 0 0 108.49598691875872 -49.574221775841579 0 -49.574221775841579 317.1171518045503 0 0 0 0 133.57315384890609 -155.228648758482 0 -155.228648758482 358.41056614644185 0 0 0 0 143.63989506726284 -73.056773606309434 0 -73.056773606309434 323.20504372838332 0 0 0 0 244.27795679676001 -66.719088617384841 0 -66.719088617384841 354.75438963458146 0 0 0 0 154.93073725086674 -37.167592260361744 0 -37.167592260361744 430.97842017382209 0 0 0 0 136.48402478278649 -181.01010950620002 0 -181.01010950620002 258.20692989910822 0 0 0 0 125.55307685955086 -125.92304816323303 0 -125.92304816323303 128.31324574674363 0 0 0 0 52.031396560116264 -98.213368127524518 0 -98.213368127524518 153.04874247810039 0 0 0 0 10.690582551980697 -113.07306018148847 0 -113.07306018148847 175.33398519583716 0 0 0 0 -17.959291473202029 -85.404985840974405 0 -85.404985840974405 252.72719918332223 0 0 0 0 -24.555008005796481 -58.860349437260084 0 -58.860349437260084 159.52202160690604 0 0 0 0 58.758643093108731 -127.02233052879092 0 -127.02233052879092 268.68700222602274 0 0 0 0 20.60182995815353 -64.107546089687276 0 -64.107546089687276 292.66282647765183 0 0 0 0 81.855508688449845 -56.399302694087964 0 -56.399302694087964 262.94803842249166 0 0 0 0 -43.388102127340971 -42.713771950700902 0 -42.713771950700902 283.98834147883463 0 0 0 0 23.161251154965839 -66.962631033380603 0 -66.962631033380603 228.54153864415639 0 0 0 0 -9.5826105894175271 -27.674196948169993 0 -27.674196948169993 264.2806879808486 0 0 0 0 18.546810517096219 -66.847986631942149 0 -66.847986631942149 293.6654098485451 0 0 0 0 50.513060270781352 -21.736269017235827 0 -21.736269017235827 289.11244604862804 0 0 0 0 102.05067500281166 -56.975475994725457 0 -56.975475994725457 284.8229293425502 0 0 0 0 141.26712195129403 -15.794958059690543 0 -15.794958059690543 277.01931487964066 0 0 0 0 160.35108990919161 -26.23662954557949 0 -26.23662954557949 271.92787717245665 0 0 0 0 88.059571911372245 -24.943575387059354 0 -24.943575387059354 307.60143247955421 0 0 0 0 124.46114795287303 -43.491866201999073 0 -43.491866201999073 280.2555074471893 0 0 0 0 202.99839405701459 14.222817904770636 0 14.222817904770636 363.97391839852207 0 0 0 0 244.79672510734599 -6.1528365906269755 0 -6.1528365906269755 351.9903286603876 0 0 0 0 129.81597368149596 -17.297420059112483 0 -17.297420059112483 359.48321754890821 0 0 0 0 185.74467288736105 -17.787731344400527 0 -17.787731344400527 305.30654607409815 0 0 0 0 207.24025666637044 15.282932151239947 0 15.282932151239947 300.30272997422298 0 0 0 0 161.65033087812844 -14.800988329840038 0 -14.800988329840038 280.64120153915428 0 0 0 0 218.08764670649362 -0.77352719480768428 0 -0.77352719480768428 270.8971955574907 0 0 0 0 163.29298214905339 -35.97122298929753 0 -35.97122298929753 260.40436505813341 0 0 0 0 229.69734595475165 -6.753233875544538 0 -6.753233875544538 238.95473752273392 0 0 0 0 234.35710744792414 3.8747709112176381 0 3.8747709112176381 260.16351370928805 0 0 0 0 226.90581044197688 22.655025228030354 0 22.655025228030354 220.89744986741425 0 0 0 0 245.64092142654317 10.262561332903715 0 10.262561332903715 261.64024751749275 0 0 0 0 166.85314058225413 23.861651205983435 0 23.861651205983435 251.04234341343181 0 0 0 0 179.83151045423392 2.1724948686205607 0 2.1724948686205607 270.51007754372768 0 0 0 0 207.45031970011632 6.6512929021591845 0 6.6512929021591845 269.26594893251422 0 0 0 0 38.963581254140081 22.458589969512104 0 22.458589969512104 316.78028871282368 0 0 0 0 133.0763380277489 -11.889772000635276 0 -11.889772000635276 327.32557713576534 0 0 0 0 131.74840547526037 -8.2970278925467937 0 -8.2970278925467937 345.07490479778062 0 0 0 0 88.144843538038458 -26.542476192098547 0 -26.542476192098547 473.481895832585 0 0 0 0 222.49671929665146 -47.449980946646974 0 -47.449980946646974 360.23650984008782 0 0 0 0 18.47407175472091 16.512232123077411 0 16.512232123077411 400.66801101885721 0 0 0 0 90.415952626748634 -19.050650752177717 0 -19.050650752177717 411.75622186450346 0 0 0 0 210.51201382809552 -1.8518797352189722 0 -1.8518797352189722 309.88426752993837 0 0 0 0 249.43860694376053 -2.6901915037160506 0 -2.6901915037160506 309.84693479856924 0 0 0 0 217.41688764872833 -19.626450289017157 0 -19.626450289017157 328.63862560987764 0 0 0 0 221.64557434704776 16.691645859580063 0 16.691645859580063 339.437147736724 0 0 0 0 281.79683023550569 -58.298973488381307 0 -58.298973488381307 443.70415557845809 0 0 0 0 239.96737204976853 -42.134604807026335 0 -42.134604807026335 441.88566698328941 0 0 0 0 232.62452118873716 17.180754803392119 0 17.180754803392119 372.94986581076228 0 0 0 0 242.524597359994 -56.790330860349059 0 -56.790330860349059 451.52693560553598 0 0 0 0 255.67334531943834 -5.6071944880386582 0 -5.6071944880386582 501.76578458642325 0 0 0 0 309.80947217453877 -230.33376819460864 0 -230.33376819460864 682.52066733319953 0 0 0 0 54.71097318158354 -145.9865886908301 0 -145.9865886908301 900.82704767868563 0 0 0 0 5.5980076266106238 3.116462737479516 0 3.116462737479516 -1.6217000036885452 0 0 0 0 4.3702621827773305 -1.1199420344687638 0 -1.1199420344687638 0.19558244236485223 0 0 0 0 253.54093932238038 111.08260037700893 0 111.08260037700893 734.13945274459547 0 0 0 0 37.765768488127833 -83.850897295324103 0 -83.850897295324103 896.81128716740204 0 0 0 0 64.295045634788266 -16.104101395176258 0 -16.104101395176258 524.76203688877649 0 0 0 0 219.15223908436798 -31.03378248685658 0 -31.03378248685658 452.86818347166991 0 0 0 0 192.08866980651555 330.369386635919 0 330.369386635919 275.58000534500752 0 0 0 0 76.855695418254527 44.449244726391044 0 44.449244726391044 215.38172889517409 0 0 0 0 8.8401565205865182 80.810118556126326 0 80.810118556126326 431.68388127450453 0 0 0 0 62.914159001841654 -36.844763391645756 0 -36.844763391645756 -55.980582741336548 0 0 0 0 24.930236611878517 -7.4422609373018886 0 -7.4422609373018886 0.40537222409432161 0 0 0 0 26.537496758400181 153.29270884171456 0 153.29270884171456 278.71013787334959 0 0 0 0 248.16425594107091 -103.21582376196602 0 -103.21582376196602 54.170617496914929 0 0 0 0 10.576791167501185 5.4891382814287795 0 5.4891382814287795 3.330495778836692 0 0 0 0 32.747815707665723 54.851122357780696 0 54.851122357780696 -28.988235953329422 0 0 0 0 47.74960214258158 16.281570039016515 0 16.281570039016515 144.32191684113332 0 0 0 0 52.312399263210864 97.056419535216264 0 97.056419535216264 136.92712241938852 0 0 0 0 51.0017291707818 95.830820738185139 0 95.830820738185139 197.66365546692032 0 0 0 0 30.018537370154235 -9.8632890183009039 0 -9.8632890183009039 10.486594756530579 0 0 0 0 85.947857849657339 -15.53742686188707 0 -15.53742686188707 69.767110296603278 0 0 0 0 11.228024619063744 4.3021395736086276 0 4.3021395736086276 2.0509565760699644 0 0 0 0 69.077012887759963 161.20144432860252 0 161.20144432860252 168.36171313908562 0 0 0 0 69.896472084227483 104.54188607399556 0 104.54188607399556 244.47918421737995 0 0 0 0 48.818546855570958 6.5168138148874277 0 6.5168138148874277 233.46909793700343 0 0 0 0 87.026613555386291 56.794203600852597 0 56.794203600852597 299.59894516622444 0 0 0 0 15.775330031045925 115.45923076384133 0 115.45923076384133 353.93395599926589 0 0 0 0 28.431541010386468 61.035097162872262 0 61.035097162872262 359.64692484796933 0 0 0 0 35.322564992651735 58.131929213402145 0 58.131929213402145 300.73825152202335 0 0 0 0 -19.798574394921388 20.638327988268429 0 20.638327988268429 372.58315828414197 0 0 0 0 3.1606637678785319 -33.757153865473811 0 -33.757153865473811 294.06444329782971 0 0 0 0 -20.560152622649291 3.952760225186978 0 3.952760225186978 328.4250243035749 0 0 0 0 -41.1118984499563 4.2462681086922203 0 4.2462681086922203 381.20415322904228 0 0 0 0 -73.998548867578393 -16.522932730598768 0 -16.522932730598768 368.21044638073727 0 0 0 0 18.325029609366396 9.862735249720572 0 9.862735249720572 355.30917254591077 0 0 0 0 -46.669859476824058 24.894722407763766 0 24.894722407763766 359.59636754136591 0 0 0 0 -29.398516769337448 45.09387529426931 0 45.09387529426931 284.76303146104328 0 0 0 0 44.1732236510326 -0.73413501567620187 0 -0.73413501567620187 313.28558421024354 0 0 0 0 -72.902925905082611 59.397472781416582 0 59.397472781416582 349.06718079891652 0 0 0 0 -30.348178706529325 -2.2348060580970923 0 -2.2348060580970923 273.92901109641571 0 0 0 0 -37.653010502942834 27.695307722347934 0 27.695307722347934 275.03186707988573 0 0 0 0 -134.64685600107805 103.0325649772858 0 103.0325649772858 511.20070678974662 0 0 0 0 -83.228044007951212 11.424704368826497 0 11.424704368826497 274.28735121350906 0 0 0 0 611.87946489098931 -343.94109477994152 0 -343.94109477994152 105.93022452772493 0 0 0 0 -29.208227897288907 134.81617394435762 0 134.81617394435762 216.00828216586888 0 0 0 0 -0.79810495818112082 -3.55334351967148 0 -3.55334351967148 9.0818248123436689 0 0 0 0 -65.947709460081569 -103.58275307756776 0 -103.58275307756776 559.47954621534063 0 0 0 0 1.533462802461762 -6.2620517541160829 0 -6.2620517541160829 59.296258940796875 0 0 0 0 -209.96867781302262 -226.34821370356258 0 -226.34821370356258 178.02971879714823 0 0 0 0 13.1279332127815 -280.16739999039419 0 -280.16739999039419 79.640134878022764 0 0 0 0 325.88276873653376 -463.8066231795965 0 -463.8066231795965 424.37578762631347 0 0 0 0 12.749609236007018 -274.42540019909575 0 -274.42540019909575 310.14129399886224 0 0 0 0 458.19817569367069 -171.45861150453129 0 -171.45861150453129 -12.771689493238227 0 0 0 0 369.53420746674783 -309.6855243424443 0 -309.6855243424443 49.639378386185854 0 0 0 0 191.59534136410912 281.87847485492966 0 281.87847485492966 408.85627569569442 0 0 0 0 -82.177804686361924 -112.22632609108405 0 -112.22632609108405 712.78795016116783 0 0 0 0 -366.62298260609896 54.545982870207808 0 54.545982870207808 278.77265428666942 0 0 0 0 -6.0250329459477374 -6.4160910651374188 0 -6.4160910651374188 108.34978327011152 0 0 0 0 -133.33170482343121 100.09113445422918 0 100.09113445422918 126.25148480553344 0 0 0 0 -169.67372708414587 231.94543429873011 0 231.94543429873011 49.006598725427466 0 0 0 0 -110.62114982242747 143.64889759877042 0 143.64889759877042 39.644954145638621 0 0 0 0 -11.257957220413232 28.990617884400081 0 28.990617884400081 47.083938138522171 0 0 0 0 -14.738681195896168 41.684240755096688 0 41.684240755096688 49.703010062108802 0 0 0 0 -9.8072261427592053 26.118000584169248 0 26.118000584169248 44.21515590568093 0 0 0 0 139.71188371779044 189.35963531405832 0 189.35963531405832 -100.93077584048115 0 0 0 0 -171.63248675946647 132.47529873186363 0 132.47529873186363 165.65851684713562 0 0 0 0 -100.05281832783692 31.240869652820834 0 31.240869652820834 201.91229990475404 0 0 0 0 -4.2126780563746138 59.190822952008148 0 59.190822952008148 180.72279571850049 0 0 0 0 -8.0191582603242857 71.26347422783256 0 71.26347422783256 83.335396665009142 0 0 0 0 -4.5115961141265757 59.943952185703665 0 59.943952185703665 181.65759875717777 0 0 0 0 -7.9360771731122544 30.291076881344281 0 30.291076881344281 14.89995808486065 0 0 0 0 -5.0984904851475221 116.62886228289426 0 116.62886228289426 350.00215811928501 0 0 0 0 -2.3551785126251161 88.717291929351632 0 88.717291929351632 212.83542117200523 0 0 0 0 20.432596197786324 68.488619159110385 0 68.488619159110385 214.29072019643354 0 0 0 0 153.10115537572347 -192.88152837337839 0 -192.88152837337839 353.68777144104024 0 0 0 0 14.267692112219265 1.5060790502589043 0 1.5060790502589043 158.42057573852799 0 0 0 0 379.7188018092811 54.460170689160805 0 54.460170689160805 44.940892020982574 0 0 0 0 -32.536973746564399 57.388940766453743 0 57.388940766453743 190.26276653255991 0 0 0 0 25.358534038603466 -63.393653627006643 0 -63.393653627006643 63.318302871521155 0 0 0 0 48.883589195522063 115.4255763502988 0 115.4255763502988 -16.542159320910287 0 0 0 0 14.306997122227635 27.919726412576239 0 27.919726412576239 200.26451367947811 0 0 0 0 4.1753309433976398 78.858316322924139 0 78.858316322924139 84.603826659590936 0 0 0 0 14.404241902632364 30.948462899772437 0 30.948462899772437 172.57512151960691 0 0 0 0 44.011905004772416 -26.470977176549269 0 -26.470977176549269 100.991522335338 0 0 0 0 -8.0295381277760498 36.559363556541598 0 36.559363556541598 124.99988480606453 0 0 0 0 -8.3486425188827766 -26.823330707585917 0 -26.823330707585917 60.044642407469979 0 0 0 0 -13.788831987017602 41.10200848508066 0 41.10200848508066 210.03679599585303 0 0 0 0 -22.231723076280332 14.475132908613887 0 14.475132908613887 188.31907306910034 0 0 0 0 -8.55725888152773 65.794438490321227 0 65.794438490321227 233.46021103867679 0 0 0 0 -16.822338291508913 42.017600439208763 0 42.017600439208763 210.66892342089523 0 0 0 0 -13.61126824943176 35.941168060713608 0 35.941168060713608 182.7380952468485 0 0 0 0 -12.825451995819321 10.529823176739228 0 10.529823176739228 158.56321145237871 0 0 0 0 -15.946781845799933 24.462968135447227 0 24.462968135447227 176.80736682165571 0 0 0 0 -15.653559314304061 8.4012767759995768 0 8.4012767759995768 120.60035641898503 0 0 0 0 -36.333560503111983 15.995026050116394 0 15.995026050116394 208.67147879320692 0 0 0 0 -14.225015850528209 39.107805416029805 0 39.107805416029805 204.62581682895325 0 0 0 0 -25.734684940348018 -39.726275751545472 0 -39.726275751545472 83.771237705980639 0 0 0 0 7.8568320617018799 70.905123407257292 0 70.905123407257292 161.25445560267462 0 0 0 0 -7.973186224021787 -22.565978362736992 0 -22.565978362736992 15.620251602004261 0 0 0 0 48.185201507396229 -4.2832263182334955 0 -4.2832263182334955 137.87518739992487 0 0 0 0 19.885750000659755 -110.11989633940539 0 -110.11989633940539 108.57848990002276 0 0 0 0 -15.196159544145139 -28.846138231004197 0 -28.846138231004197 39.010153798845224 0 0 0 0 -44.561390209602905 32.760456106974289 0 32.760456106974289 218.20614165912048 0 0 0 0 -50.529422349480228 15.226436905694754 0 15.226436905694754 180.54955628366042 0 0 0 0 14.086420489051307 17.473933117708839 0 17.473933117708839 205.05279246296413 0 0 0 0 -3.1956664170887805 -16.609596450147137 0 -16.609596450147137 38.303672473816221 0 0 0 0 -37.100719056309572 23.505021803608315 0 23.505021803608315 215.47829163001734 0 0 0 0 -21.615256862530295 -26.139923072939482 0 -26.139923072939482 34.60320527654951 0 0 0 0 -0.64102918774483442 -11.506158343068819 0 -11.506158343068819 68.418176860043104 0 0 0 0 -0.95457089899923631 -11.162384745434792 0 -11.162384745434792 -56.705318646049818 0 0 0 0 -11.104390187964468 -17.6944804966544 0 -17.6944804966544 23.116953858563512 0 0 0 0 112.90431042712157 67.469482258942662 0 67.469482258942662 80.402119498961838 0 0 0 0 0.43351947918655731 -5.5965293758483661 0 -5.5965293758483661 4.3576689685135932 0 0 0 0 -2.6663597736479687 61.300990751521397 0 61.300990751521397 122.27447314401616 0 0 0 0 -48.63005417747695 -64.351875340872084 0 -64.351875340872084 168.71278795050603 0 0 0 0 38.658854790565783 42.605919956235084 0 42.605919956235084 -18.762720874527076 0 0 0 0 52.281979919393507 -194.86804770474009 0 -194.86804770474009 238.25271828977475 0 0 0 0 -58.095239530348408 10.472732735878253 0 10.472732735878253 525.40067672123769 0 0 0 0 137.38065277994707 -209.86696192218892 0 -209.86696192218892 483.93178561149398 0 0 0 0 114.27379151154264 -76.651287229402442 0 -76.651287229402442 57.18944318717422 0 0 0 0 -1.6595236696148614 0.14578912026648538 0 0.14578912026648538 4.8423364788924204 0 0 0 0 35.878424291272552 187.23335804971248 0 187.23335804971248 460.50413714158276 0 0 0 0 23.187916127995777 135.46597098130587 0 135.46597098130587 291.84632340518874 0 0 0 0 3.9389502217569095 -2.734589988235987 0 -2.734589988235987 2.5130803539893236 0 0 0 0 -22.141558170844519 11.689860307067647 0 11.689860307067647 598.35076849967663 0 0 0 0 23.59930502648217 -100.30167602815527 0 -100.30167602815527 556.67770704718714 0 0 0 0 3.3172942930550064 -1.0311412347032274 0 -1.0311412347032274 -3.4587205655948594 0 0 0 0 -20.620709612629298 36.157664984468283 0 36.157664984468283 493.02434061514941 0 0 0 0 24.926345234112091 -76.988469480982531 0 -76.988469480982531 466.25248566311348 0 0 0 0 36.932437234862057 62.018489395915552 0 62.018489395915552 206.79348361210577 0 0 0 0 35.663485475947937 1.1780997964769995 0 1.1780997964769995 316.62994568025897 0 0 0 0 50.73319582759143 51.365899982245537 0 51.365899982245537 51.830803307224414 0 0 0 0 8.5025407797775188 19.74706416709887 0 19.74706416709887 159.42260334973662 0 0 0 0 0.37188444019420785 42.976392368134839 0 42.976392368134839 153.61135782469137 0 0 0 0 -24.43905310121545 40.678260799001237 0 40.678260799001237 143.65791127725061 0 0 0 0 -2.3872219777622377 34.787511794074817 0 34.787511794074817 140.85633001107271 0 0 0 0 10.228363997057386 28.995331148484183 0 28.995331148484183 72.49134301749973 0 0 0 0 -31.075034090961708 13.384985452663386 0 13.384985452663386 287.25609154548329 0 0 0 0 -17.891306829933455 0.31064654849433282 0 0.31064654849433282 184.72989314537335 0 0 0 0 -10.215332219548145 50.562461333986903 0 50.562461333986903 205.94214306138747 0 0 0 0 -20.27730523429409 -7.2564190965181297 0 -7.2564190965181297 219.17917539682458 0 0 0 0 -34.20154310291764 14.189840122216083 0 14.189840122216083 202.18216659299719 0 0 0 0 -4.8780339047563448 8.2873128649128667 0 8.2873128649128667 110.36795633252947 0 0 0 0 -93.744927820084285 58.525117354642134 0 58.525117354642134 110.32078981171071 0 0 0 0 -15.347334978975709 -2.4391783445856845 0 -2.4391783445856845 146.83021895092133 0 0 0 0 -0.24594081370651111 9.3473815949982964 0 9.3473815949982964 57.544644471550782 0 0 0 0 -3.7841725586622488 134.14733517607237 0 134.14733517607237 123.47001158067724 0 0 0 0 -30.363946164894969 60.818907480035705 0 60.818907480035705 79.195245470589725 0 0 0 0 5.5052107074562366 19.714315802825872 0 19.714315802825872 -3.3623952111419726 0 0 0 0 -679.73703831460716 -110.02888557472761 0 -110.02888557472761 139.02012266576639 0 0 0 0 -149.88429884553261 43.56137542311626 0 43.56137542311626 177.15472867852077 0 0 0 0 -114.18365246663598 -4.4139170172566082 0 -4.4139170172566082 35.800149252463598 0 0 0 0 -26.202724512415443 83.69961510002031 0 83.69961510002031 69.30872454852215 0 0 0 0 14.661604983062716 121.2540714188508 0 121.2540714188508 98.683487524511293 0 0 0 0 -34.235509525322414 96.090400336455787 0 96.090400336455787 161.69024224847089 0 0 0 0 -176.92313864249081 15.940914433813305 0 15.940914433813305 314.30842442554422 0 0 0 0 -92.736746621187194 -29.087976369351964 0 -29.087976369351964 143.35633104940644 0 0 0 0 -34.144392907071051 78.337629285932053 0 78.337629285932053 330.11937709373888 0 0 0 0 3.9429524957358808 62.013929616165115 0 62.013929616165115 205.91805794422544 0 0 0 0 18.668520430373064 145.27348629068729 0 145.27348629068729 234.00073771516327 0 0 0 0 -9.7734019277713742 43.399543914018977 0 43.399543914018977 86.033621823167778 0 0 0 0 -9.6404301392476555 20.054500331373674 0 20.054500331373674 72.483415461043478 0 0 0 0 4.8964482624387671 38.935796670504701 0 38.935796670504701 43.565692084271795 0 0 0 0 34.322443331890668 12.177726311667811 0 12.177726311667811 182.16128642899275 0 0 0 0 -24.362312825292975 -40.605909515805251 0 -40.605909515805251 149.7118517289673 0 0 0 0 71.368037334659675 -87.920986162727786 0 -87.920986162727786 167.10406906923163 0 0 0 0 66.146175005195062 -16.99169757121706 0 -16.99169757121706 95.165826946606103 0 0 0 0 -86.69281853969369 -166.33144935764722 0 -166.33144935764722 362.24973000721002 0 0 0 0 -163.40530944956117 -60.360260342742549 0 -60.360260342742549 451.60662700220564 0 0 0 0 -137.67614491847962 -81.458045372390188 0 -81.458045372390188 319.01286887975812 0 0 0 0 -95.584314107932187 -91.18261331730173 0 -91.18261331730173 293.16054016619455 0 0 0 0 -129.44482852398141 -42.035809253167827 0 -42.035809253167827 266.93846840770857 0 0 0 0 -89.069065146220055 -145.22467588216387 0 -145.22467588216387 198.00742881299811 0 0 0 0 24.38169973913682 -91.458330169029068 0 -91.458330169029068 165.40929497126854 0 0 0 0 101.96520572550298 -36.37641403032103 0 -36.37641403032103 7.4585202392845531 0 0 0 0 12.690344535720214 -66.189785418790962 0 -66.189785418790962 245.21127162377525 0 0 0 0 16.318727324821339 -112.6552937015922 0 -112.6552937015922 138.79383098235121 0 0 0 0 74.187148510424777 32.259641372598708 0 32.259641372598708 43.650717757682287 0 0 0 0 39.892777610940357 -113.83000040161642 0 -113.83000040161642 26.201656484263367 0 0 0 0 -24.803222137754346 2.9022626082442002 0 2.9022626082442002 286.05990925575679 0 0 0 0 -9.534430154493748 16.523911325581139 0 16.523911325581139 97.207221438489796 0 0 0 0 3.5831606294864287 36.731090361423412 0 36.731090361423412 68.582160061596369 0 0 0 0 3.9841891525124531 31.129173237840824 0 31.129173237840824 38.439271707228848 0 0 0 0 7.4368647695331509 -1.5520463815017376 0 -1.5520463815017376 85.307546497805873 0 0 0 0 -0.82355508596014815 -8.3592545461643937 0 -8.3592545461643937 78.493708176231792 0 0 0 0 -5.663424906484579 21.568117185870506 0 21.568117185870506 85.625505946733028 0 0 0 0 -51.579505523499392 -11.868459668061405 0 -11.868459668061405 138.73313005879027 0 0 0 0 11.984365756457919 1.7397462955340757 0 1.7397462955340757 94.049584741644026 0 0 0 0 -11.689640726436885 -6.7613465894407145 0 -6.7613465894407145 55.771781269710701 0 0 0 0 21.705706657920928 3.4182094662828604 0 3.4182094662828604 23.740541708691126 0 0 0 0 -7.6770147532379998 2.2759474423630586 0 2.2759474423630586 21.757768634589553 0 0 0 0 -5.4237958218536733 0.30415251815429656 0 0.30415251815429656 58.548733723811893 0 0 0 0 -31.876819803233047 38.037436803861056 0 38.037436803861056 70.940508204766957 0 0 0 0 -10.269871540176609 70.995704006885717 0 70.995704006885717 36.359673835057947 0 0 0 0 -12.852994406088996 32.016900566892986 0 32.016900566892986 39.597604941238139 0 0 0 0 -1.4089832988938724 0.50298795089425141 0 0.50298795089425141 20.540196360927489 0 0 0 0 -15.127254109990623 12.437084218877057 0 12.437084218877057 50.809031679166509 0 0 0 0 185.42604878945224 276.14706775579543 0 276.14706775579543 -189.39159843504603 0 0 0 0 260.84121715872288 -259.52227409659827 0 -259.52227409659827 65.331598378019407 0 0 0 0 206.48914274432568 143.85501063238189 0 143.85501063238189 636.03199657475488 0 0 0 0 270.52060641282458 -332.39384058042197 0 -332.39384058042197 451.4370694014433 0 0 0 0 0.46142750754029077 -239.9840483663138 0 -239.9840483663138 1275.7363945662801 0 0 0 0 -599.84715220464022 -280.2165349275092 0 -280.2165349275092 1240.2225576579367 0 0 0 0 0.44959609934415301 3.7219382235037948 0 3.7219382235037948 13.02153363939027 0 0 0 0 250.02437099016043 811.02624976962397 0 811.02624976962397 751.26438599025641 0 0 0 0 -839.44620413782877 618.3292475442795 0 618.3292475442795 381.86201221942611 0 0 0 0 499.77539456330953 519.65959421171283 0 519.65959421171283 -316.42575688736542 0 0 0 0 -234.22235796041016 174.68455199927121 0 174.68455199927121 -43.491976140561746 0 0 0 0 498.84177118610137 521.20941128378036 0 521.20941128378036 -274.5422138935246 0 0 0 0 841.63345059972642 756.46515149288643 0 756.46515149288643 -113.9497050481732 0 0 0 0 -1229.9202010358149 704.52318569086492 0 704.52318569086492 736.26861474357429 0 0 0 0 -344.76055423172579 261.80334566996316 0 261.80334566996316 -71.858727976090449 0 0 0 0 399.44293149433861 1157.9338112149489 0 1157.9338112149489 805.30204825787223 0 0 0 0 34.348882470671043 6.1330457702642889 0 6.1330457702642889 1706.4226037467597 0 0 0 0 917.54517683728091 716.96261129074264 0 716.96261129074264 -225.22505942732096 0 0 0 0 2.6652652456068338 6.6304246731130547 0 6.6304246731130547 17.844595034686336 0 0 0 0 -98.63000352937479 -177.80135344110022 0 -177.80135344110022 1458.9319940123241 0 0 0 0 1507.5016239825868 -471.31808676099899 0 -471.31808676099899 521.68198478638078 0 0 0 0 161.1245958159825 -246.51370393697289 0 -246.51370393697289 574.78418002110266 0 0 0 0 447.45336497048334 613.67745804271544 0 613.67745804271544 1206.3053350197442 0 0 0 0 -306.84071784490618 435.25068004834611 0 435.25068004834611 -231.49145827221218 0 0 0 0 -158.40385500011348 -126.39783948881086 0 -126.39783948881086 1876.2791838082921 0 0 0 0 319.77616426084796 -418.18960908307054 0 -418.18960908307054 535.57599070394645 0 0 0 0 -12.650546403636554 -907.22760454050149 0 -907.22760454050149 198.22468852722523 0 0 0 0 154.39652210741389 -247.97726873753709 0 -247.97726873753709 88.908357333246386 0 0 0 0 168.23669463107171 487.35666539942758 0 487.35666539942758 -2.2522516656790685 0 0 0 0 -0.69739726770608401 6.8281974662898044 0 6.8281974662898044 27.737340033280987 0 0 0 0 -776.23765241058982 375.97729999303374 0 375.97729999303374 301.60341350699309 0 0 0 0 -0.41149776157828521 2.0490856178626728 0 2.0490856178626728 1.6962776570881033 0 0 0 0 740.5894527910616 497.02406338335277 0 497.02406338335277 13.920590224399348 0 0 0 0 0.18793474474242017 -275.85606891574309 0 -275.85606891574309 2815.1089367583045 0 0 0 0 1096.9613131298186 886.29828571333201 0 886.29828571333201 -869.02784893935313 0 0 0 0 -0.0067356244571365222 -1.9703413580568789 0 -1.9703413580568789 15.609292461158475 0 0 0 0 -0.18412523405302658 -0.042111380601355108 0 -0.042111380601355108 8.3251463902700493 0 0 0 0 -1.2096489000710413 3.0407305135892244 0 3.0407305135892244 2.5733505135914925 0 0 0 0 1222.0372058742705 425.90127420129647 0 425.90127420129647 -566.84386493969942 0 0 0 0 5.5438512134818403 2.8887921855930472 0 2.8887921855930472 16.959194882125303 0 0 0 0 -0.33560115741689411 2.7516740278339 0 2.7516740278339 14.779991938127409 0 0 0 0 127.78930930891397 633.25033158202132 0 633.25033158202132 1384.6231815257343 0 0 0 0 -821.94509060411417 -602.2465878055209 0 -602.2465878055209 1214.2227043989114 0 0 0 0 -448.15995989455644 315.97924943552061 0 315.97924943552061 2232.1632332936861 0 0 0 0 -0.31287407382181848 -3.6019214968658133 0 -3.6019214968658133 20.483452822962192 0 0 0 0 -94.845140337275552 160.33366942945577 0 160.33366942945577 2543.4486502646469 0 0 0 0 399.51056901138475 1142.8118168810834 0 1142.8118168810834 621.40811714297161 0 0 0 0 269.80387035387156 -375.91492564776854 0 -375.91492564776854 1821.2549541943154 0 0 0 0 368.88251128471529 620.24236559323617 0 620.24236559323617 -580.63551500994026 0 0 0 0 7.1919622333738582 7.8625425359059591 0 7.8625425359059591 30.178764466312714 0 0 0 0 0.92880848712537245 5.1196044695534511 0 5.1196044695534511 36.104558067163453 0 0 0 0 0.025694082094373308 3.0227872676114202 0 3.0227872676114202 31.637263018928934 0 0 0 0 19.480695868104185 17.670735917752609 0 17.670735917752609 39.493821614567423 0 0 0 0 -0.23422365960874966 -6.3510479776441571 0 -6.3510479776441571 19.24925715285849 0 0 0 0 30.510566176129572 32.376765297847214 0 32.376765297847214 58.437393834465183 0 0 0 0 30.872440350950473 16.17849055077977 0 16.17849055077977 41.778946706559509 0 0 0 0 2.0205589442555372 21.497937041771365 0 21.497937041771365 72.029212678957265 0 0 0 0 124.634777809936 75.388419403519947 0 75.388419403519947 7.6408271797699854 0 0 0 0 79.557268584620005 57.742869616311509 0 57.742869616311509 111.43414234342345 0 0 0 0 21.524384424102021 31.762607529079105 0 31.762607529079105 113.1366630619741 0 0 0 0 19.66188046424702 41.625421332380938 0 41.625421332380938 94.989481101336423 0 0 0 0 3.0517313051823045 19.499518912183703 0 19.499518912183703 71.177076811640291 0 0 0 0 -0.011814775747248896 16.022753643803298 0 16.022753643803298 67.26977682200959 0 0 0 0 10.060012066582265 14.715481332863177 0 14.715481332863177 21.380498118519711 0 0 0 0 191.53706358899035 507.37651612010086 0 507.37651612010086 503.34060640609823 0 0 0 0 -95.65865046865747 52.455644211477193 0 52.455644211477193 134.56911931236391 0 0 0 0 9.0811999177713005 143.1036531914433 0 143.1036531914433 185.19972566701472 0 0 0 0 -0.029752576352479521 0.62176251596881116 0 0.62176251596881116 1.9404612275401973 0 0 0 0 -88.107603651018621 -83.092058670088591 0 -83.092058670088591 -14.925023379706545 0 0 0 0 342.20967598102652 504.71854344650637 0 504.71854344650637 325.85096815391444 0 0 0 0 -4.9625682054335423 -6.1630353573866046 0 -6.1630353573866046 -1.4688561590781148 0 0 0 0 -57.201296326938746 -76.846752719269716 0 -76.846752719269716 -25.580597573280102 0 0 0 0 23.319311573510646 -63.267858795952634 0 -63.267858795952634 -44.717969744320726 0 0 0 0 71.351477338984935 89.983055829899968 0 89.983055829899968 150.13773100462276 0 0 0 0 1.7509254938677064 -1.8355208140413453 0 -1.8355208140413453 -0.47718826963279071 0 0 0 0 0.20190531228096298 -0.51745119956089525 0 -0.51745119956089525 2.2599172511686447 0 0 0 0 -19.24355757111158 -18.092872082896065 0 -18.092872082896065 -141.59531157868332 0 0 0 0 35.878260403303557 45.530128495272947 0 45.530128495272947 -136.89708949212218 0 0 0 0 -14.288118265988686 -302.21021424482751 0 -302.21021424482751 -601.63033454157994 0 0 0 0 90.8831601415759 -16.267400510172592 0 -16.267400510172592 -111.19126100667927 0 0 0 0 48.060866741208883 36.336433844568091 0 36.336433844568091 -166.115000396705 0 0 0 0 -114.16921141002422 167.13985185438651 0 167.13985185438651 -257.58799768451718 0 0 0 0 4.0183743519764903 -46.991230717481812 0 -46.991230717481812 -135.20919983441127 0 0 0 0 26.940227921111727 59.062108872742101 0 59.062108872742101 -37.838115260296036 0 0 0 0 54.05963620271632 -19.845668411086081 0 -19.845668411086081 18.579150791396387 0 0 0 0 19.081287716255702 98.629511786639341 0 98.629511786639341 155.08422981199692 0 0 0 0 99.058648658613947 76.162916559871519 0 76.162916559871519 -23.673306904631318 0 0 0 0 64.196111961626229 52.140903679828625 0 52.140903679828625 312.7855337603396 0 0 0 0 40.068496200674417 -34.761213751567993 0 -34.761213751567993 245.56779273541179 0 0 0 0 111.29379001026246 102.18921883069561 0 102.18921883069561 -246.86257596008363 0 0 0 0 71.898225702458831 65.805044625201845 0 65.805044625201845 123.10842258576304 0 0 0 0 -24.629135499177892 327.42851191619411 0 327.42851191619411 54.858165373298107 0 0 0 0 -101.93050275995006 -47.367780262051383 0 -47.367780262051383 572.04208979447139 0 0 0 0 -72.328463757737154 284.7947524615156 0 284.7947524615156 393.61538613250013 0 0 0 0 41.341358430027839 573.8204898249096 0 573.8204898249096 968.02455801382894 0 0 0 0 -471.34920867447016 90.744797524544992 0 90.744797524544992 767.19822956620919 0 0 0 0 -552.97673169981579 -873.00750733171299 0 -873.00750733171299 653.40991619124543 0 0 0 0 -309.83317613614747 -97.957813294764492 0 -97.957813294764492 888.21930790704209 0 0 0 0 -195.42661894709227 -478.75866036306252 0 -478.75866036306252 1019.6154530021013 0 0 0 0 -120.81069140493901 -431.69584025109361 0 -431.69584025109361 560.81666060315911 0 0 0 0 416.13477336583901 20.193984129553428 0 20.193984129553428 435.01699694609852 0 0 0 0 20.140855630982514 -28.244649537242367 0 -28.244649537242367 436.81202079434297 0 0 0 0 -67.142162504439057 -76.145968507116777 0 -76.145968507116777 564.61610481963726 0 0 0 0 64.571637325681422 -223.90487411274808 0 -223.90487411274808 615.42427572610904 0 0 0 0 141.68805184089865 -271.50923357276042 0 -271.50923357276042 559.25495685843634 0 0 0 0 108.59204786811642 228.40237150521716 0 228.40237150521716 722.75833995715948 0 0 0 0 84.178992727957848 166.28427092942002 0 166.28427092942002 572.97544710187503 0 0 0 0 -119.57903016516866 141.39811883904622 0 141.39811883904622 754.82719113180065 0 0 0 0 -54.981301234779494 100.1270304738282 0 100.1270304738282 548.37874986377574 0 0 0 0 -225.39493864698943 7.801819822001562 0 7.801819822001562 845.45208978306619 0 0 0 0 -166.70018657225773 44.517403534147888 0 44.517403534147888 585.98639896955501 0 0 0 0 -125.26429541637117 158.71117859501101 0 158.71117859501101 789.29022252536379 0 0 0 0 -87.430325461237771 63.732858570554527 0 63.732858570554527 582.40143104853814 0 0 0 0 -89.159760106288559 2.7945839893509401 0 2.7945839893509401 248.78680393629475 0 0 0 0 79.888794426318782 36.739077288541012 0 36.739077288541012 237.55115260956518 0 0 0 0 -85.319010076362247 119.04239873233018 0 119.04239873233018 306.68122225692059 0 0 0 0 -65.219664437004212 -0.29590619093505666 0 -0.29590619093505666 152.61372079739522 0 0 0 0 -46.640153485740711 106.62049893545736 0 106.62049893545736 206.29290470742853 0 0 0 0 17.129760296759912 129.46447003991398 0 129.46447003991398 258.08190174918855 0 0 0 0 176.62522615359785 57.803595438759658 0 57.803595438759658 276.12353009861545 0 0 0 0 -20.654807829617766 94.295815880817827 0 94.295815880817827 312.50290023963316 0 0 0 0 20.166537538238117 158.51893536216812 0 158.51893536216812 105.96554059756454 0 0 0 0 18.836346062505072 -0.56044400742393918 0 -0.56044400742393918 -30.115079791212338 0 0 0 0 -18.027201876696381 24.2972350421187 0 24.2972350421187 151.91632381230011 0 0 0 0 -28.422817289681007 115.24884230556199 0 115.24884230556199 80.53107299367548 0 0 0 0 10.961818059597135 144.59527695162978 0 144.59527695162978 -153.86449283719412 0 0 0 0 11.652734506341494 7.8246889760035288 0 7.8246889760035288 5.6044931235452111 0 0 0 0 5.5512495209836743 37.377173156648496 0 37.377173156648496 -189.0499839069671 0 0 0 0 -2.083783941294314 19.73462971826666 0 19.73462971826666 -108.59274613529851 0 0 0 0 -135.35671585201453 29.897820908081485 0 29.897820908081485 30.385853558618692 0 0 0 0 1.3503997815415909 -1.1754998368626133 0 -1.1754998368626133 0.26343510473037668 0 0 0 0 -6.8572141221184211 23.779591616199468 0 23.779591616199468 -41.35083477650187 0 0 0 0 -31.568637354643215 64.207135828059108 0 64.207135828059108 -95.668344339239411 0 0 0 0 -72.810173499077791 68.523311602286412 0 68.523311602286412 -15.865108918718761 0 0 0 0 -53.382662401071684 34.789232206308952 0 34.789232206308952 21.675959949876415 0 0 0 0 -49.442370654418028 63.517538430698551 0 63.517538430698551 99.869707671925426 0 0 0 0 17.745250150030188 148.10565124228015 0 148.10565124228015 138.16326987935463 0 0 0 0 -80.583326363625929 -28.255497167701833 0 -28.255497167701833 165.9098260710598 0 0 0 0 -34.664741476699419 -41.640560240368359 0 -41.640560240368359 -36.35313427609799 0 0 0 0 -45.33211473310439 -35.946087234740844 0 -35.946087234740844 56.00841689495428 0 0 0 0 -10.86494328754452 59.513942535319075 0 59.513942535319075 4.6674477588530863 0 0 0 0 -56.62792640876205 9.0859952307218919 0 9.0859952307218919 -10.091594332887325 0 0 0 0 -166.14210041832484 19.096905015103403 0 19.096905015103403 -7.8122004950273549 0 0 0 0 0.62614718348740928 5.9836555045131945 0 5.9836555045131945 43.634730904900493 0 0 0 0 -280.11775437489177 492.63809599465094 0 492.63809599465094 306.19880371878389 0 0 0 0 -223.07661047975398 60.159978744995897 0 60.159978744995897 -24.849933983859955 0 0 0 0 4.0658154178787953 2.9037010789508599 0 2.9037010789508599 1.4290993668956844 0 0 0 0 -136.26266349535581 106.17399011014641 0 106.17399011014641 -111.96390068541223 0 0 0 0 -171.19155491739912 -19.534204980438517 0 -19.534204980438517 133.63718638867431 0 0 0 0 166.57172704017921 174.00198526158783 0 174.00198526158783 122.43339425968588 0 0 0 0 50.684601063539958 48.064464763723663 0 48.064464763723663 43.879761391086504 0 0 0 0 366.85506205791535 228.77241139861871 0 228.77241139861871 26.189683251823226 0 0 0 0 65.201247039137229 -175.86366914605969 0 -175.86366914605969 -87.815055394836236 0 0 0 0 422.99114478443607 -5.3818369333457667 0 -5.3818369333457667 -189.52334842999699 0 0 0 0 592.97749601788746 340.03043188614538 0 340.03043188614538 95.335884556159726 0 0 0 0 320.50266870158703 170.73231434719492 0 170.73231434719492 26.025564049952663 0 0 0 0 556.59579726699303 142.32911864240305 0 142.32911864240305 -46.905364194069989 0 0 0 0 340.51091299170912 371.95160479568585 0 371.95160479568585 246.39510460564634 0 0 0 0 215.37736341308664 295.11761173827108 0 295.11761173827108 238.34475084033329 0 0 0 0 31.972466481260199 152.78352318202087 0 152.78352318202087 207.14274719348759 0 0 0 0 -29.021893240953432 -412.34284212657076 0 -412.34284212657076 -164.50927713768033 0 0 0 0 223.5083951174056 239.8976956102415 0 239.8976956102415 140.02238821300853 0 0 0 0 671.44712719958807 178.61824776678986 0 178.61824776678986 -1154.2509444832103 0 0 0 0 77.980181225171691 9.8260141735954676 0 9.8260141735954676 -93.543383931420976 0 0 0 0 -316.88331965247471 -309.58843871279532 0 -309.58843871279532 649.22904515539994 0 0 0 0 0.40111555693543499 2.3312944980593491 0 2.3312944980593491 18.931370396332284 0 0 0 0 -111.34946258711989 -112.21994855765661 0 -112.21994855765661 721.13984920128132 0 0 0 0 -42.08937921136021 -233.87008532343316 0 -233.87008532343316 220.36179829442699 0 0 0 0 -244.16557664712491 -42.34075072867563 0 -42.34075072867563 716.97639711660304 0 0 0 0 812.10993010573475 472.20533174066804 0 472.20533174066804 310.10520640635514 0 0 0 0 580.83123977900141 743.56458195014056 0 743.56458195014056 886.57592648093123 0 0 0 0 378.55076420879777 453.59731938524055 0 453.59731938524055 419.48823537409771 0 0 0 0 501.46568646280502 509.84452818497084 0 509.84452818497084 441.12732125801267 0 0 0 0 106.71045311591843 500.77508208247309 0 500.77508208247309 977.66542271591607 0 0 0 0 30.985179013528068 -335.9419699229984 0 -335.9419699229984 672.2219953595777 0 0 0 0 -135.02145743219262 -421.31596827080648 0 -421.31596827080648 1912.0351486009604 0 0 0 0 295.48552647373435 739.69928427559353 0 739.69928427559353 1279.1348389500636 0 0 0 0 8.1133738992951976 -109.85034098062897 0 -109.85034098062897 364.21462981397053 0 0 0 0 43.502070438998203 13.568760484469749 0 13.568760484469749 593.65821021873853 0 0 0 0 284.07431299227756 193.60634752301848 0 193.60634752301848 7.1722805022145621 0 0 0 0 -13.434784759939248 -99.35678817621374 0 -99.35678817621374 957.14676897121535 0 0 0 0 15.944403153054839 -6.5509887320647806 0 -6.5509887320647806 2.882816746564103 0 0 0 0 649.53387216234842 674.93605252282578 0 674.93605252282578 196.35600340424571 0 0 0 0 -255.28635224444224 240.35132035905553 0 240.35132035905553 800.49625294882571 0 0 0 0 720.17868460134468 903.60280659831915 0 903.60280659831915 471.68323034723289 0 0 0 0 94.43063617109874 763.32286200467206 0 763.32286200467206 1354.2774122223782 0 0 0 0 -355.43945151755997 -62.54796925138362 0 -62.54796925138362 1455.8683076586458 0 0 0 0 -284.30475294226926 114.12000996543793 0 114.12000996543793 945.56584003358148 0 0 0 0 -281.21176852901078 139.91174767252505 0 139.91174767252505 846.97215039338334 0 0 0 0 -252.91562411004679 247.91026117914771 0 247.91026117914771 780.8355031645624 0 0 0 0 150.4005423835697 164.72261337067175 0 164.72261337067175 720.99488811089668 0 0 0 0 75.732724232894725 273.72686089534545 0 273.72686089534545 840.30623341492901 0 0 0 0 -182.70378919354062 156.69264868395112 0 156.69264868395112 1078.6116565783741 0 0 0 0 -170.53825784316996 99.17165854916675 0 99.17165854916675 771.5113568452507 0 0 0 0 5.9079522887534335 -1.1866517647325452 0 -1.1866517647325452 1.9923459447459777 0 0 0 0 20.832179970211655 -63.856954682465584 0 -63.856954682465584 414.20316486057709 0 0 0 0 -618.42721565542524 -512.22713475313503 0 -512.22713475313503 2184.558829700356 0 0 0 0 -750.77193939255358 -356.81855671215453 0 -356.81855671215453 2158.5137772759044 0 0 0 0 -28.19778072601548 -248.17195790768164 0 -248.17195790768164 757.2765631362854 0 0 0 0 -269.7848115761426 85.516075405685115 0 85.516075405685115 684.48640435438574 0 0 0 0 -235.11257981392919 172.89332606614335 0 172.89332606614335 719.67780095252965 0 0 0 0 237.13269052103396 11.656060620072822 0 11.656060620072822 1716.3653167695811 0 0 0 0 -182.66465234218143 125.19499693289617 0 125.19499693289617 3.9916714553255588 0 0 0 0 -0.7617392635683764 0.52314285321746468 0 0.52314285321746468 4.0252539201139825 0 0 0 0 244.26523617561179 -216.91208943768288 0 -216.91208943768288 -545.90624012910121 0 0 0 0 -183.78504554612704 168.08564544144087 0 168.08564544144087 840.84246513992548 0 0 0 0 -227.71213699840519 -1124.0621680117983 0 -1124.0621680117983 992.85509127521073 0 0 0 0 -317.87257578464641 328.66879209594481 0 328.66879209594481 -270.14864355656755 0 0 0 0 4.5625074607545031 15.541839188351133 0 15.541839188351133 39.646691284230712 0 0 0 0 -143.19400898429319 77.348273441150013 0 77.348273441150013 -55.992743572482141 0 0 0 0 -160.14054192754202 68.147036064539861 0 68.147036064539861 -37.326253264251136 0 0 0 0 -36.666100013350842 -71.62016341144772 0 -71.62016341144772 163.43098818532235 0 0 0 0 -1.0276975635922918 1.8847879505277092 0 1.8847879505277092 7.4881950417430403 0 0 0 0 58.523721846388071 -85.030128161466564 0 -85.030128161466564 150.60358237668697 0 0 0 0 17.867682951699749 -220.85466479076058 0 -220.85466479076058 296.91670901598991 0 0 0 0 189.23465647968987 -285.57942967154668 0 -285.57942967154668 317.91198859312863 0 0 0 0 146.38337326395208 -301.54595432378119 0 -301.54595432378119 655.34694240972749 0 0 0 0 -88.902108909822232 -187.22919443610181 0 -187.22919443610181 290.08783718015184 0 0 0 0 -88.332139766803806 -193.17058049896241 0 -193.17058049896241 279.3251093752915 0 0 0 0 -74.403119183417402 -162.99684754462214 0 -162.99684754462214 193.80140071263304 0 0 0 0 -85.758031252941691 -211.61084945290349 0 -211.61084945290349 257.77113618107978 0 0 0 0 -56.019827448511933 -173.51928772272367 0 -173.51928772272367 259.91286645681248 0 0 0 0 -30.010154092154153 -113.23957945915754 0 -113.23957945915754 383.55434025665454 0 0 0 0 -66.146630255806485 -167.40886361409866 0 -167.40886361409866 317.53367530414835 0 0 0 0 -89.98936418047515 -111.19802892175358 0 -111.19802892175358 207.98499041478499 0 0 0 0 -85.601203868146513 -185.49670846232766 0 -185.49670846232766 268.17438451893395 0 0 0 0 -103.63091277075273 -186.80953600544308 0 -186.80953600544308 290.51140220300294 0 0 0 0 -100.2720874683032 -201.8987254700387 0 -201.8987254700387 306.63962496398017 0 0 0 0 -82.789958366214705 -205.01889044538257 0 -205.01889044538257 284.96420689692604 0 0 0 0 -119.01912409822398 -152.16065087224706 0 -152.16065087224706 298.74301648420624 0 0 0 0 -51.719970047713105 -183.23713877682167 0 -183.23713877682167 322.43791709312063 0 0 0 0 -16.310688854498551 -198.89039774222329 0 -198.89039774222329 275.10921011725441 0 0 0 0 -82.087788995406299 -210.55933147117321 0 -210.55933147117321 327.56373817415624 0 0 0 0 41.583215905983707 -218.37911592979799 0 -218.37911592979799 330.39523390844624 0 0 0 0 -16.19960313665888 -201.47940178419231 0 -201.47940178419231 326.20375585632792 0 0 0 0 159.11106316790756 -103.57750145071623 0 -103.57750145071623 227.32689364877297 0 0 0 0 81.537435585123603 -217.05726687912829 0 -217.05726687912829 256.80661911734205 0 0 0 0 -19.974195534789942 -151.94575969772995 0 -151.94575969772995 216.43704047601204 0 0 0 0 9.3856251750403317 -207.37415757926647 0 -207.37415757926647 179.99949210075283 0 0 0 0 -2.6790485433962203 -147.8556380077498 0 -147.8556380077498 216.84188850066857 0 0 0 0 -71.217964251909507 -214.86254362392356 0 -214.86254362392356 273.85881594741113 0 0 0 0 -74.31412969167468 -184.11755434340739 0 -184.11755434340739 212.11386407871032 0 0 0 0 -65.532736405853484 -182.22849730993767 0 -182.22849730993767 164.39531361302943 0 0 0 0 -86.811908595615023 -132.11714082374237 0 -132.11714082374237 72.469177248975029 0 0 0 0 -73.968258146871449 -219.07895371611812 0 -219.07895371611812 190.80945171663916 0 0 0 0 -127.10600281073948 -131.52064075350063 0 -131.52064075350063 101.29752117241151 0 0 0 0 -71.554742377393268 -13.848680922514177 0 -13.848680922514177 -180.18343434858252 0 0 0 0 -64.739283966389536 -123.96210944967015 0 -123.96210944967015 108.59443819141597 0 0 0 0 9.8980522541487517 -223.33956230356125 0 -223.33956230356125 49.303617366225808 0 0 0 0 50.876117117792774 -142.84438731469345 0 -142.84438731469345 -168.21132308029337 0 0 0 0 2.6151980016599534 -2.5459806441064075 0 -2.5459806441064075 1.264338344904246 0 0 0 0 150.16561968728638 -216.12145261102705 0 -216.12145261102705 -428.28508160355705 0 0 0 0 -279.78495682013272 122.23733165488375 0 122.23733165488375 1023.0561665721034 0 0 0 0 276.47387267075237 4.6752414721413516 0 4.6752414721413516 331.43750720864045 0 0 0 0 -102.58171213723472 -150.04502525606222 0 -150.04502525606222 79.963255550712347 0 0 0 0 -52.382113505977031 -72.201904646615731 0 -72.201904646615731 253.43350307080254 0 0 0 0 9.3259094199934829 -7.7771836634938154 0 -7.7771836634938154 3.2390857761698015 0 0 0 0 -144.5230288624407 41.226637288797065 0 41.226637288797065 1113.8903200259665 0 0 0 0 -0.67651723408279452 -2.1394056129634578 0 -2.1394056129634578 2.5193863227993631 0 0 0 0 -107.66766188333941 88.727073724785441 0 88.727073724785441 1018.0113804786961 0 0 0 0 -15.187829024219354 -127.99361032278102 0 -127.99361032278102 10.016627287623123 0 0 0 0 -48.045166839812737 -128.0232023865392 0 -128.0232023865392 75.411899914430251 0 0 0 0 -40.582974147340792 -153.75293945631711 0 -153.75293945631711 164.00327616975119 0 0 0 0 11.694371487408716 -39.091680228098994 0 -39.091680228098994 68.104398350129486 0 0 0 0 -71.167047120880852 -178.0077024744387 0 -178.0077024744387 263.29345021830522 0 0 0 0 -36.10646671581253 -111.53883031497389 0 -111.53883031497389 205.68761625289335 0 0 0 0 16.962812845580423 -9.8807747874786287 0 -9.8807747874786287 3.5265004736904046 0 0 0 0 -31.040208696398622 -7.3258895953767933 0 -7.3258895953767933 447.54221397738002 0 0 0 0 -18.990151697286819 -88.980182913088356 0 -88.980182913088356 412.56318743983866 0 0 0 0 1.7075343974393036 -76.016853989800438 0 -76.016853989800438 313.84060789960859 0 0 0 0 -40.48429044239947 -118.11849715842982 0 -118.11849715842982 271.98720176029019 0 0 0 0 26.052584402123102 20.71685729593446 0 20.71685729593446 263.64682274088045 0 0 0 0 141.56609106777796 -118.78563371824566 0 -118.78563371824566 306.21095392801362 0 0 0 0 22.114870610554135 151.86958889162634 0 151.86958889162634 839.8999001479242 0 0 0 0 -140.1212607909365 -91.380092773761135 0 -91.380092773761135 749.21395963209216 0 0 0 0 -92.731174029111571 54.667944708446157 0 54.667944708446157 542.3647974752821 0 0 0 0 -113.8771008542335 106.51603937713662 0 106.51603937713662 1116.3167592781538 0 0 0 0 135.94818829278302 411.06914402387702 0 411.06914402387702 711.28377816829016 0 0 0 0 -95.765725180875961 87.877901064726757 0 87.877901064726757 576.20008668179798 0 0 0 0 43.503026358260968 287.07417798340066 0 287.07417798340066 474.34781741141342 0 0 0 0 41.351654921443696 283.63716788805323 0 283.63716788805323 588.28470772234141 0 0 0 0 217.71240158954242 437.437511651573 0 437.437511651573 473.43996430486732 0 0 0 0 -9.947271173059562 95.765908200293779 0 95.765908200293779 256.25251179934776 0 0 0 0 2.3450223131767416 160.90574467768602 0 160.90574467768602 321.81421969587973 0 0 0 0 3.8195690835309506 199.52174649457447 0 199.52174649457447 292.23072656521981 0 0 0 0 -16.32415309328826 225.51057480707823 0 225.51057480707823 422.08893960628484 0 0 0 0 36.265731938139652 251.46320965126506 0 251.46320965126506 301.01070307855844 0 0 0 0 36.004700167605534 241.79262102320376 0 241.79262102320376 310.97335633364855 0 0 0 0 22.541678304596644 225.88970165400679 0 225.88970165400679 324.50903165258933 0 0 0 0 247.64357897359969 327.29645901291951 0 327.29645901291951 216.44784014747711 0 0 0 0 94.489886221019333 283.63119828472554 0 283.63119828472554 311.07741462730337 0 0 0 0 77.140934441054924 313.43630430469057 0 313.43630430469057 355.49333366955398 0 0 0 0 122.43219230288787 245.886281572999 0 245.886281572999 229.06657241549692 0 0 0 0 87.644105305342237 188.40237774811976 0 188.40237774811976 159.06274272761948 0 0 0 0 103.45331295638061 94.098855867909151 0 94.098855867909151 76.928430996631505 0 0 0 0 38.16059162624515 154.79942195955664 0 154.79942195955664 227.60115159593215 0 0 0 0 32.534926644713778 232.47443828287942 0 232.47443828287942 297.56841655854078 0 0 0 0 47.419670366153696 147.78331190421159 0 147.78331190421159 192.82869271753589 0 0 0 0 34.324546036298671 149.66636612229195 0 149.66636612229195 367.43594255388598 0 0 0 0 -9.9553865370776293 10.985144297095758 0 10.985144297095758 256.89567771469592 0 0 0 0 51.822169195866081 26.600589371693786 0 26.600589371693786 72.267858199855254 0 0 0 0 -15.430419453444756 33.803603252217727 0 33.803603252217727 143.6855873625027 0 0 0 0 93.941645001104007 520.7835411984488 0 520.7835411984488 1681.1534975437389 0 0 0 0 1103.2137001010015 849.09260885020194 0 849.09260885020194 -1154.3911097706659 0 0 0 0 5.9790843829972093 2.9281287846084183 0 2.9281287846084183 0.98181901154157458 0 0 0 0 57.680486015532551 139.76174187961442 0 139.76174187961442 316.2664126392483 0 0 0 0 -0.11516570309515828 59.887875724623882 0 59.887875724623882 379.65708859589358 0 0 0 0 6.6804038033332382 9.6341204543829519 0 9.6341204543829519 5.4819985068524204 0 0 0 0 32.399638272240736 232.24812035501964 0 232.24812035501964 467.44945722845296 0 0 0 0 62.986503036965587 117.99170828155911 0 117.99170828155911 374.13538538008288 0 0 0 0 56.703238352335347 110.06783887730671 0 110.06783887730671 700.48141223128187 0 0 0 0 444.79945563863885 429.10732734584599 0 429.10732734584599 335.25302995997481 0 0 0 0 21.958085316794495 117.95258555423061 0 117.95258555423061 186.26585466537654 0 0 0 0 164.77897445332565 162.54197156865848 0 162.54197156865848 120.17866378214967 0 0 0 0 151.90432691656224 296.06633731513284 0 296.06633731513284 262.42890710316715 0 0 0 0 36.011248621938648 181.45498430264706 0 181.45498430264706 229.9027901666559 0 0 0 0 55.354939643340458 102.89239476964576 0 102.89239476964576 115.69965138979023 0 0 0 0 -1.2775690502717794 -2.9853797962202577 0 -2.9853797962202577 2.2010269417847326 0 0 0 0 59.162704925839535 207.36407965754188 0 207.36407965754188 237.13461920135887 0 0 0 0 -15.466904610148958 121.30924220156885 0 121.30924220156885 249.76505705405725 0 0 0 0 84.139090973235398 182.83060068544 0 182.83060068544 165.21534481851268 0 0 0 0 -1.5634262627955775 2.7807166090590805 0 2.7807166090590805 23.224803572140786 0 0 0 0 -5.9380272883797005 0.58540569474419613 0 0.58540569474419613 8.6938431396311273 0 0 0 0 191.28017872073451 -202.53192842177668 0 -202.53192842177668 32.18956560195511 0 0 0 0 -135.33294152125018 9.1974915554601466 0 9.1974915554601466 53.568531599965354 0 0 0 0 -371.28790055675881 -96.942245629805257 0 -96.942245629805257 13.907296905046678 0 0 0 0 -185.53651262578933 172.69010516781418 0 172.69010516781418 -95.604801673238399 0 0 0 0 -3.676504714311573 1.488301773452406 0 1.488301773452406 9.8599777762568124 0 0 0 0 -492.79560110842021 58.621200428111479 0 58.621200428111479 156.70384412398562 0 0 0 0 -444.77639010486604 -157.46650660679188 0 -157.46650660679188 339.16175684912014 0 0 0 0 -70.154983318807126 19.998810195960687 0 19.998810195960687 144.1092121975671 0 0 0 0 -0.85260506203154263 6.0043660096980531 0 6.0043660096980531 28.336864237482189 0 0 0 0 136.56546781962447 27.352279095975973 0 27.352279095975973 -33.71231259747583 0 0 0 0 -102.61939399249991 56.886962856508035 0 56.886962856508035 7.187010658060899 0 0 0 0 254.49487877932518 -151.47764970225398 0 -151.47764970225398 -116.12174711620901 0 0 0 0 1387.0517824174431 679.58519631641684 0 679.58519631641684 -467.04045902952203 0 0 0 0 131.62563908371385 -87.296150307127391 0 -87.296150307127391 24.823963062720168 0 0 0 0 -136.83808905105343 -106.76881122672057 0 -106.76881122672057 219.06370288971084 0 0 0 0 -161.33615736925003 30.234817389238742 0 30.234817389238742 23.620422549778596 0 0 0 0 -245.24810145462334 -196.13038809625141 0 -196.13038809625141 154.99686795641901 0 0 0 0 -33.359268410719324 -237.1275756865216 0 -237.1275756865216 153.75997956644278 0 0 0 0 -21.481901491236158 -258.21506482916448 0 -258.21506482916448 184.20708754824591 0 0 0 0 -148.50650172985024 -313.57985059493512 0 -313.57985059493512 187.01073299757263 0 0 0 0 -123.22737119171995 -85.433093279389141 0 -85.433093279389141 140.49171395870508 0 0 0 0 -82.379150890812525 -204.74332240367949 0 -204.74332240367949 480.43854160076444 0 0 0 0 65.181811680512283 -157.42803366128646 0 -157.42803366128646 201.62542907698662 0 0 0 0 82.820811628650517 -254.56583479570691 0 -254.56583479570691 611.16989389016817 0 0 0 0 698.00909197106512 376.44035040454037 0 376.44035040454037 541.8343248704914 0 0 0 0 1.6844658257239735 4.2209103512287314 0 4.2209103512287314 11.709706205576481 0 0 0 0 677.55253104331541 627.37443449508282 0 627.37443449508282 -1034.5414377226407 0 0 0 0 241.33512517621728 -245.75617895795949 0 -245.75617895795949 242.19901677564485 0 0 0 0 1218.7828116612186 544.88492993990076 0 544.88492993990076 294.16036099851772 0 0 0 0 881.67557593962351 -784.27232553997601 0 -784.27232553997601 -554.1990826790352 0 0 0 0 -455.87303562422801 121.77503209092538 0 121.77503209092538 -59.360334452561801 0 0 0 0 -208.05506657882324 -170.85192681962508 0 -170.85192681962508 202.44482189627161 0 0 0 0 -173.61471544392634 -255.06430835417268 0 -255.06430835417268 83.912778963946039 0 0 0 0 -74.780531865515513 -221.05553758901078 0 -221.05553758901078 -111.45687992838066 0 0 0 0 -77.415624303388086 -299.40557256594184 0 -299.40557256594184 -5.3077940965886228 0 0 0 0 -79.31423754767809 -361.59608933761047 0 -361.59608933761047 259.76863614580361 0 0 0 0 -135.00086430373085 -369.9918060186028 0 -369.9918060186028 223.58833676410723 0 0 0 0 -196.53206331860861 -298.11752060612343 0 -298.11752060612343 273.04617411774234 0 0 0 0 -195.79586433498457 -289.11284350202186 0 -289.11284350202186 304.81332042091526 0 0 0 0 -286.37729845804279 -183.57555915709236 0 -183.57555915709236 259.7806884409656 0 0 0 0 -144.31827075267802 -366.57499148321222 0 -366.57499148321222 344.78452707984252 0 0 0 0 -155.29359592552237 -318.26424741424853 0 -318.26424741424853 677.87199224543292 0 0 0 0 -0.42946455386895543 -2.21738554685097 0 -2.21738554685097 16.569025475163187 0 0 0 0 45.913427554255634 610.1840389908175 0 610.1840389908175 822.98078129073838 0 0 0 0 -56.199629341235834 -397.56642448465482 0 -397.56642448465482 57.50585143850185 0 0 0 0 -57.119215669706136 -397.23039654408785 0 -397.23039654408785 427.68066820458625 0 0 0 0 -0.56955688961938133 2.2060673692015866 0 2.2060673692015866 14.174598916197908 0 0 0 0 -329.53791458617457 936.26462822739995 0 936.26462822739995 958.92339035096302 0 0 0 0 -6.8520591872862724 -153.55738796646619 0 -153.55738796646619 -346.14141859044321 0 0 0 0 52.771946605398625 -315.26750844631169 0 -315.26750844631169 -99.22509260836523 0 0 0 0 2286.1199501101137 785.94850076304283 0 785.94850076304283 -476.59797775422339 0 0 0 0 -565.53398508988766 82.376199706297484 0 82.376199706297484 -34.995732526964275 0 0 0 0 -453.47378938879956 -79.659175934939412 0 -79.659175934939412 -14.323798147081106 0 0 0 0 -64.025314821397842 -204.72282056925178 0 -204.72282056925178 -96.124717950180639 0 0 0 0 -302.41989131371884 88.93686969569535 0 88.93686969569535 -293.75620994473866 0 0 0 0 -240.1827288460438 -156.97267148504034 0 -156.97267148504034 123.48997227844666 0 0 0 0 -283.70312192592439 -271.02785292134786 0 -271.02785292134786 579.90081514039775 0 0 0 0 -153.52373307310199 16.239905996539164 0 16.239905996539164 384.94510776842071 0 0 0 0 -143.6780527013625 169.90055463134195 0 169.90055463134195 1125.2336760835751 0 0 0 0 265.43568235328894 -72.915929939641501 0 -72.915929939641501 -113.81550964991038 0 0 0 0 104.57666011280571 247.2628515723336 0 247.2628515723336 -81.444388723699376 0 0 0 0 35.360075197548213 25.372083994625427 0 25.372083994625427 -114.9845375099685 0 0 0 0 -348.60853640604307 227.23654118054264 0 227.23654118054264 -24.889599882619223 0 0 0 0 25.148629151155092 21.070555658414378 0 21.070555658414378 55.3396846656251 0 0 0 0 0.083137224859647141 -7.1048784333407724 0 -7.1048784333407724 33.736327225178684 0 0 0 0 -16.494736416101205 2.2302731352028786 0 2.2302731352028786 138.82569630848593 0 0 0 0 -232.32044269493213 -376.58492893181392 0 -376.58492893181392 -180.88451595933293 0 0 0 0 -708.59877623610214 -340.31414531588962 0 -340.31414531588962 169.69043605748448 0 0 0 0 -1.4059729797340879 -261.86935752382851 0 -261.86935752382851 -5.1089937479700893 0 0 0 0 -174.24217980991125 205.74873815978208 0 205.74873815978208 247.26729124964186 0 0 0 0 48.136821352420043 275.09724553341221 0 275.09724553341221 143.76738705169282 0 0 0 0 -310.96008351879618 83.36344268128596 0 83.36344268128596 75.33508472199901 0 0 0 0 -1.0236298203416578 -6.1665170884784146 0 -6.1665170884784146 36.83550441134912 0 0 0 0 -454.67669344683986 -81.14799570406467 0 -81.14799570406467 185.84480875721783 0 0 0 0 -258.45063430536948 50.273427179054124 0 50.273427179054124 95.690621033056232 0 0 0 0 -256.09663043224333 73.672683735218015 0 73.672683735218015 76.767910117981955 0 0 0 0 -173.27553059489674 19.318798205189523 0 19.318798205189523 82.491652172129761 0 0 0 0 -101.69478985456954 147.79782880668427 0 147.79782880668427 327.73356439045165 0 0 0 0 38.404511586189983 -204.97777219682757 0 -204.97777219682757 -83.545958303133375 0 0 0 0 100.43198058991402 -358.30578415228229 0 -358.30578415228229 -142.45546815116541 0 0 0 0 250.45642108674838 -299.57361122024304 0 -299.57361122024304 106.40043948605307 0 0 0 0 86.429799254350655 -285.66182475232927 0 -285.66182475232927 147.35393066715915 0 0 0 0 199.34919657993942 -189.86896581674227 0 -189.86896581674227 -123.88829564742628 0 0 0 0 68.885363751141085 -133.29319679090986 0 -133.29319679090986 119.41835737006477 0 0 0 0 0.46438407374665314 0.91706919039607726 0 0.91706919039607726 8.1242276797480599 0 0 0 0 -69.887502549408055 48.961511102039367 0 48.961511102039367 -163.55156697236816 0 0 0 0 -39.673057496675483 -0.48429450581897981 0 -0.48429450581897981 -113.44766519832774 0 0 0 0 -243.99670206157225 134.10922638886404 0 134.10922638886404 -76.597645069676219 0 0 0 0 -0.90777836938616607 -5.2891865000128604 0 -5.2891865000128604 32.056110033959726 0 0 0 0 -759.62854341018101 -277.46799177555658 0 -277.46799177555658 698.59228124356014 0 0 0 0 309.13679236539974 267.90200496063335 0 267.90200496063335 -320.23674216712243 0 0 0 0 62.595663599285217 -165.24257710410893 0 -165.24257710410893 513.39278139521775 0 0 0 0 252.38794649302326 167.46957138078142 0 167.46957138078142 334.93400882615242 0 0 0 0 163.99335942273046 -74.004729950276669 0 -74.004729950276669 30.578871715100831 0 0 0 0 356.78735595921626 -270.65780863212422 0 -270.65780863212422 177.52509601302154 0 0 0 0 184.99882311405236 -355.3023508622282 0 -355.3023508622282 141.55276704898279 0 0 0 0 200.44063550021792 -567.94313987504574 0 -567.94313987504574 66.510591824480798 0 0 0 0 0.23264203468755529 -2.0573942649191537 0 -2.0573942649191537 13.81087209895486 0 0 0 0 553.57565687844112 619.1918623707279 0 619.1918623707279 757.10010043971124 0 0 0 0 353.70367063153503 -225.40704170079334 0 -225.40704170079334 -480.81421467306791 0 0 0 0 70.189049350420078 313.18486588423548 0 313.18486588423548 700.2944168538088 0 0 0 0 432.97505438978806 350.43821545218816 0 350.43821545218816 167.1096620144599 0 0 0 0 69.522869311875695 297.56188288687554 0 297.56188288687554 422.18387881136732 0 0 0 0 69.718006535653103 230.53388133903354 0 230.53388133903354 317.39472476445371 0 0 0 0 63.390578444819539 247.74536871683813 0 247.74536871683813 327.07909376548196 0 0 0 0 99.88883573960635 249.41607782392634 0 249.41607782392634 127.4802066195407 0 0 0 0 102.41097209217105 298.41049393280991 0 298.41049393280991 115.34838267698069 0 0 0 0 151.16340680603707 117.75805031888012 0 117.75805031888012 74.495982290769462 0 0 0 0 -131.29110385250027 121.67377105221385 0 121.67377105221385 170.73663857291103 0 0 0 0 120.15653846420241 331.34809275856242 0 331.34809275856242 204.30283324203629 0 0 0 0 216.77032868515516 -79.283802025689511 0 -79.283802025689511 475.22783532930771 0 0 0 0 -15.882826157971067 1.9826932298310567 0 1.9826932298310567 408.41271228832647 0 0 0 0 -25.488893796100001 -132.21925087121781 0 -132.21925087121781 421.26706862817628 0 0 0 0 -34.541641579900414 163.59471918806958 0 163.59471918806958 644.76298500379198 0 0 0 0 -20.308315645926768 -40.256146317500679 0 -40.256146317500679 499.67801505701209 0 0 0 0 -39.293875803715764 100.69384073640686 0 100.69384073640686 395.70806871302193 0 0 0 0 -17.316789930875316 1.0803599528189807 0 1.0803599528189807 915.68292739245226 0 0 0 0 150.90153524350899 218.93183161295019 0 218.93183161295019 611.35971640402568 0 0 0 0 141.61896804401886 265.38154264714103 0 265.38154264714103 1429.1454717471497 0 0 0 0 279.07902729544003 -311.04950216138968 0 -311.04950216138968 1305.3085823072215 0 0 0 0 255.99882543063768 370.95048219636374 0 370.95048219636374 1555.9320498753077 0 0 0 0 153.00449941173247 -518.81762248196173 0 -518.81762248196173 850.82051690452499 0 0 0 0 146.8113392355142 17.192847138685465 0 17.192847138685465 542.93393644550815 0 0 0 0 74.136804705840404 119.41777705862478 0 119.41777705862478 613.00213437042839 0 0 0 0 1051.2788862433879 -136.86193006457324 0 -136.86193006457324 378.950259647434 0 0 0 0 116.68248800714855 155.90559035723709 0 155.90559035723709 373.91340803501259 0 0 0 0 1.5298486440969556 2.0636864005527116 0 2.0636864005527116 -4.4070570041470205 0 0 0 0 336.18560468743249 312.13527856002838 0 312.13527856002838 289.50005496860831 0 0 0 0 449.9374576588304 86.859301636859527 0 86.859301636859527 39.438777101633605 0 0 0 0 266.24191112225833 175.07982781473765 0 175.07982781473765 54.427802629565122 0 0 0 0 180.24902401509348 -32.245525522888784 0 -32.245525522888784 -2.5217566666397033 0 0 0 0 9.1202317230604422 -27.124559916876024 0 -27.124559916876024 64.342861440673005 0 0 0 0 45.876545997689604 -56.666341306052345 0 -56.666341306052345 35.159590156101331 0 0 0 0 9.3461031823026133 -30.294434211486077 0 -30.294434211486077 66.760597695305478 0 0 0 0 4.9007252708025444 -12.008791158853811 0 -12.008791158853811 6.7587255336958378 0 0 0 0 136.54758355469858 -278.94237421637808 0 -278.94237421637808 428.11200344597273 0 0 0 0 125.80874467019473 -106.49681152273843 0 -106.49681152273843 15.969316482340218 0 0 0 0 101.7497972470062 -201.44297036991156 0 -201.44297036991156 207.70822273372323 0 0 0 0 71.970959865181698 -111.05080970073323 0 -111.05080970073323 -33.455383708467707 0 0 0 0 35.083878092234954 -65.027355285536032 0 -65.027355285536032 30.703539683046984 0 0 0 0 28.766044656592658 -74.60921720061927 0 -74.60921720061927 70.127877457554007 0 0 0 0 48.914165326476905 -30.984588685394556 0 -30.984588685394556 195.40235035136357 0 0 0 0 25.620672710922008 221.90916638343333 0 221.90916638343333 331.28263801470166 0 0 0 0 -203.51311355736061 -159.11474403330067 0 -159.11474403330067 775.17559040218475 0 0 0 0 141.60705894320927 148.10225395858288 0 148.10225395858288 664.7110168983927 0 0 0 0 -8.2754061632553579 18.653462480769562 0 18.653462480769562 107.00461359111262 0 0 0 0 111.86441237504232 -108.76830484665697 0 -108.76830484665697 -117.67595754288777 0 0 0 0 -61.879405345742725 -204.53832656347731 0 -204.53832656347731 101.42070186336787 0 0 0 0 122.7123262922164 -169.60828656751255 0 -169.60828656751255 213.83097930003714 0 0 0 0 -0.75573319779974035 0.13470156806334899 0 0.13470156806334899 4.6816165703559136 0 0 0 0 -256.08137310156212 -82.736350560626306 0 -82.736350560626306 200.34817745292094 0 0 0 0 -126.01431047640654 96.011028563327272 0 96.011028563327272 138.04232763940672 0 0 0 0 -1.2507849924028074 -0.4686543127928644 0 -0.4686543127928644 8.6780075026510985 0 0 0 0 18.022363769736486 122.43215495235017 0 122.43215495235017 116.64771135768387 0 0 0 0 57.578253444572283 -5.9949325468187453 0 -5.9949325468187453 82.393823868598702 0 0 0 0 -24.880935902849956 -12.459869774356775 0 -12.459869774356775 60.315205521590542 0 0 0 0 -223.5619235516308 -14.772141569599626 0 -14.772141569599626 108.66904900608642 0 0 0 0 9.1412783413092313 167.09342743861089 0 167.09342743861089 149.45443644866464 0 0 0 0 -35.063209846204074 124.23215349018574 0 124.23215349018574 298.73047203029273 0 0 0 0 -105.30405600529184 -7.4168594368966296 0 -7.4168594368966296 54.846483694665949 0 0 0 0 10.609617023077199 -10.887747477308295 0 -10.887747477308295 6.3130112935129148 0 0 0 0 12.597485501496067 66.671521335170837 0 66.671521335170837 279.75313083440415 0 0 0 0 -66.477360194782818 -75.322474298758607 0 -75.322474298758607 137.23697345390974 0 0 0 0 3.7358480799430254 -25.17466058946593 0 -25.17466058946593 66.85409051325405 0 0 0 0 5.8695763643522696 -28.182450127569609 0 -28.182450127569609 68.692607178149046 0 0 0 0 11.035424317360253 -11.980650111773514 0 -11.980650111773514 24.070372405059175 0 0 0 0 84.128054920132399 77.13263237252977 0 77.13263237252977 92.21861978340894 0 0 0 0 31.051566985198406 318.69439767370932 0 318.69439767370932 130.37118386249495 0 0 0 0 -43.619994245080306 160.24372206708358 0 160.24372206708358 197.07035265407467 0 0 0 0 8.2407570170025792 380.47464836662402 0 380.47464836662402 -23.533150395203847 0 0 0 0 13.485386937732073 325.22052340349182 0 325.22052340349182 294.05159930864465 0 0 0 0 -49.116810753840582 190.54556428482465 0 190.54556428482465 502.12914265698055 0 0 0 0 266.18114675290531 33.519546605133655 0 33.519546605133655 631.82954291909118 0 0 0 0 191.0446924660846 -141.15148839968606 0 -141.15148839968606 357.98820696555049 0 0 0 0 -61.882316811027522 156.54735646759946 0 156.54735646759946 229.99012880309601 0 0 0 0 93.346830367872826 74.038730489119189 0 74.038730489119189 -49.722441874822835 0 0 0 0 6.5779413551360566 -8.1589750293998122 0 -8.1589750293998122 6.1296416068125268 0 0 0 0 67.720933311194472 133.20619446942146 0 133.20619446942146 275.1200452932535 0 0 0 0 44.632410069998059 61.395176902602543 0 61.395176902602543 210.13015497018569 0 0 0 0 104.93475555692339 96.444066719777766 0 96.444066719777766 196.09306223655585 0 0 0 0 -154.87820129952524 -128.76338989453507 0 -128.76338989453507 -615.18118326246622 0 0 0 0 72.511204604812065 79.295629556319909 0 79.295629556319909 254.99290332291275 0 0 0 0 42.166490335267554 -498.56394107737287 0 -498.56394107737287 -83.792906708533337 0 0 0 0 98.07849088277635 114.80678801892645 0 114.80678801892645 299.87041160382796 0 0 0 0 81.452891270279906 -2.6453504398232326 0 -2.6453504398232326 263.26225320724188 0 0 0 0 93.005083394063604 -17.245666856164462 0 -17.245666856164462 272.02474116630765 0 0 0 0 101.31075947911904 0.23212105649145087 0 0.23212105649145087 122.5567021453171 0 0 0 0 77.63800153331681 105.81000394353759 0 105.81000394353759 210.56331326630607 0 0 0 0 91.153811324239769 3.8334756240801653 0 3.8334756240801653 172.33328453433205 0 0 0 0 -127.87913442068111 144.15362660725077 0 144.15362660725077 40.917239296919433 0 0 0 0 219.92106596736585 -94.100642623350723 0 -94.100642623350723 106.94555091907387 0 0 0 0 81.121127129416891 -100.54235775669804 0 -100.54235775669804 289.49352061661193 0 0 0 0 115.29672065004763 -45.789668853849435 0 -45.789668853849435 133.3605707816605 0 0 0 0 104.4535941103677 -14.446054823347367 0 -14.446054823347367 205.09776044663158 0 0 0 0 45.154480594742836 -8.5661553697136696 0 -8.5661553697136696 477.87921885587275 0 0 0 0 49.391992197226955 -146.56007601336751 0 -146.56007601336751 526.72933120574453 0 0 0 0 2.3863687886764691 -3.0817029674454375 0 -3.0817029674454375 2.1225901002950991 0 0 0 0 -2.6264972857834437 85.074387071887031 0 85.074387071887031 603.2320410508255 0 0 0 0 0.55448217748309503 -1.906573929844626 0 -1.906573929844626 1.7742479221618055 0 0 0 0 -138.9132408792766 -223.46372256625909 0 -223.46372256625909 -637.2758193036716 0 0 0 0 72.901546713778316 132.20558120608621 0 132.20558120608621 414.02258160128258 0 0 0 0 -287.65886518216121 14.564108687860426 0 14.564108687860426 449.30865161324618 0 0 0 0 2.1115802802335093 -5.5611076130479091 0 -5.5611076130479091 3.6265047215949267 0 0 0 0 159.21329451894508 -562.73290046324109 0 -562.73290046324109 -329.88519714985159 0 0 0 0 -405.41868439996779 84.69945562294015 0 84.69945562294015 742.17585379135562 0 0 0 0 29.576275793117929 124.68455961100699 0 124.68455961100699 487.2116206736755 0 0 0 0 -278.71989804189343 275.87408585152298 0 275.87408585152298 629.54214749869425 0 0 0 0 -102.79294445149844 23.334197718599171 0 23.334197718599171 495.72402127292298 0 0 0 0 -188.66855089654337 254.04316272735014 0 254.04316272735014 449.46117162275186 0 0 0 0 79.61871784318555 195.48106166903744 0 195.48106166903744 771.10940092991223 0 0 0 0 45.264126785967392 266.32517800543519 0 266.32517800543519 639.33067487715743 0 0 0 0 214.82835103316029 130.05392314196797 0 130.05392314196797 473.88791131148173 0 0 0 0 26.321466410388894 -33.715687725620228 0 -33.715687725620228 556.15236103500865 0 0 0 0 0.67764470654745956 1.5970167173067438 0 1.5970167173067438 2.7756048127381518 0 0 0 0 27.949089430007461 -51.243328965458204 0 -51.243328965458204 198.71976044590701 0 0 0 0 -90.717638434062792 107.65812819064013 0 107.65812819064013 246.09838494857831 0 0 0 0 -23.630889228687693 -40.572398231732222 0 -40.572398231732222 30.302206626394764 0 0 0 0 58.905818313239706 3.5799337958087563 0 3.5799337958087563 5.2791930366802262 0 0 0 0 0.30203465739036162 2.9970444977731745 0 2.9970444977731745 6.9195499189284533 0 0 0 0 -331.84358148552656 188.97370038534427 0 188.97370038534427 56.150571358026355 0 0 0 0 60.778719299006298 207.4181564317114 0 207.4181564317114 81.030024083971512 0 0 0 0 27.135728269270203 109.8594388318088 0 109.8594388318088 -199.51474510735716 0 0 0 0 66.46629892771125 117.67300887207966 0 117.67300887207966 41.820700579992263 0 0 0 0 100.90006472586083 222.72162321631185 0 222.72162321631185 0.071991423603321891 0 0 0 0 181.87962006111866 137.68052588816499 0 137.68052588816499 103.5765492758801 0 0 0 0 114.91326927331738 227.48163732205285 0 227.48163732205285 167.36842343991157 0 0 0 0 96.420535388956068 179.09049400100048 0 179.09049400100048 41.708731832681224 0 0 0 0 -1.9260139890702703 25.975841309787938 0 25.975841309787938 119.32094110291655 0 0 0 0 -95.434260812648517 -93.727136166140554 0 -93.727136166140554 245.63980538528995 0 0 0 0 -129.97938813768724 84.575866441522521 0 84.575866441522521 257.63394234461884 0 0 0 0 73.533996735716755 149.06990474532358 0 149.06990474532358 379.74052460365056 0 0 0 0 23.687492419099726 -45.41830153738556 0 -45.41830153738556 439.7750379513418 0 0 0 0 7.5265097550391147 69.947414751688484 0 69.947414751688484 296.36004016811057 0 0 0 0 -73.342265202973977 -33.737315871338069 0 -33.737315871338069 538.85639924457064 0 0 0 0 61.475568386480518 -312.40960734777036 0 -312.40960734777036 771.30016003610217 0 0 0 0 70.931039656509256 58.282186022246606 0 58.282186022246606 631.16822472456261 0 0 0 0 -38.444577782768192 -228.26121301910462 0 -228.26121301910462 469.67883180704666 0 0 0 0 -73.49267554949347 -40.387891232673155 0 -40.387891232673155 328.86183098872425 0 0 0 0 -102.40978211052152 -190.27309117421828 0 -190.27309117421828 373.67085470806342 0 0 0 0 -145.57846688717655 -30.638344874416362 0 -30.638344874416362 236.3775229560415 0 0 0 0 -86.80411346511255 -155.12128024802223 0 -155.12128024802223 214.36833222434507 0 0 0 0 -201.14448215481264 60.082567116940481 0 60.082567116940481 71.435802589636296 0 0 0 0 -135.02853269394063 -75.049965606896876 0 -75.049965606896876 127.25735635578167 0 0 0 0 -74.558602760192116 62.761565249151317 0 62.761565249151317 -24.187995195992698 0 0 0 0 -131.57584081725645 90.289540472964291 0 90.289540472964291 -0.46222367091104388 0 0 0 0 -0.69658723573975401 2.5292391583432021 0 2.5292391583432021 7.9634819287031178 0 0 0 0 -56.524342064133634 -20.785765818622167 0 -20.785765818622167 8.0657470305304741 0 0 0 0 10.959816094220514 -119.16224972847704 0 -119.16224972847704 111.17781230802939 0 0 0 0 -122.98168934817841 22.034070487774443 0 22.034070487774443 -6.4322188142978121 0 0 0 0 -256.85235729600254 127.1506436034324 0 127.1506436034324 -8.3423942235531285 0 0 0 0 -755.64612302544367 118.03380980449583 0 118.03380980449583 114.95111947576515 0 0 0 0 4.1421878291473657 15.81781630280274 0 15.81781630280274 45.711826388771954 0 0 0 0 296.73002614174572 77.299599569101701 0 77.299599569101701 -123.93879578573251 0 0 0 0 -176.32178445571458 51.775487308019365 0 51.775487308019365 6.0382287235261174 0 0 0 0 364.41987710915447 396.27984334585926 0 396.27984334585926 170.16004602099565 0 0 0 0 -297.15490189733282 101.74201008375894 0 101.74201008375894 35.689211211589281 0 0 0 0 505.75269630398776 -846.50815866440462 0 -846.50815866440462 704.63279510629945 0 0 0 0 3.0337415264001191 14.010875442161307 0 14.010875442161307 45.089799961022152 0 0 0 0 -693.85416090946683 108.42481016816237 0 108.42481016816237 152.83416915268754 0 0 0 0 -139.9895411689472 2.8234424709080486 0 2.8234424709080486 2.4439775435239426 0 0 0 0 -81.326456391411284 60.344678200402996 0 60.344678200402996 11.262032819598744 0 0 0 0 -100.92768707494679 48.481217555803596 0 48.481217555803596 -26.430494287968031 0 0 0 0 0.95250846742008433 9.0330607155198663 0 9.0330607155198663 35.892849700904378 0 0 0 0 -392.03850233659205 84.051449837417749 0 84.051449837417749 85.010566552809905 0 0 0 0 -0.12841822402078673 2.3293763616753296 0 2.3293763616753296 14.45052523511805 0 0 0 0 262.47666449822464 -732.99851786805448 0 -732.99851786805448 557.55215715442318 0 0 0 0 -183.17590235362059 465.21262758163357 0 465.21262758163357 287.48389977093029 0 0 0 0 -383.49337068678938 149.82788206623809 0 149.82788206623809 917.11851755218231 0 0 0 0 -282.31014070514681 317.39269373551042 0 317.39269373551042 811.78790428853245 0 0 0 0 447.52898451455394 -679.45004370022798 0 -679.45004370022798 -141.18715823701496 0 0 0 0 -145.34343103056648 525.8361949855007 0 525.8361949855007 935.37752078467747 0 0 0 0 7.460048150927352 22.530052464556036 0 22.530052464556036 45.340744507171564 0 0 0 0 -31.599662719546235 -16.252818988799447 0 -16.252818988799447 31.290578999000985 0 0 0 0 -95.463148810650637 42.181657466309844 0 42.181657466309844 96.056019520292466 0 0 0 0 1.2895100858293009 -3.0956242890429166 0 -3.0956242890429166 12.406983718991654 0 0 0 0 -210.45455495199076 -60.321639065879936 0 -60.321639065879936 33.722336092891055 0 0 0 0 -83.234840605829959 -60.932179764698958 0 -60.932179764698958 129.90011257064907 0 0 0 0 -35.321909983545083 1.5735116059804568 0 1.5735116059804568 89.608090764773806 0 0 0 0 -60.665332577477784 39.738488965522265 0 39.738488965522265 92.61289593220863 0 0 0 0 -92.337371967366835 3.6973929024679819 0 3.6973929024679819 91.549127425052575 0 0 0 0 -99.93496786274568 42.122970902346424 0 42.122970902346424 17.170948632337968 0 0 0 0 -138.24307423405344 19.308038346338435 0 19.308038346338435 164.99773242080119 0 0 0 0 -158.61573424602415 31.825274051829183 0 31.825274051829183 118.44427891782834 0 0 0 0 -205.13699949076249 151.98016218064004 0 151.98016218064004 45.788792232793639 0 0 0 0 6.4944972037588915 13.824679472306912 0 13.824679472306912 26.756512557824522 0 0 0 0 222.25534577925734 -697.92736662513926 0 -697.92736662513926 599.75870531018882 0 0 0 0 -451.75731202755441 20.326453785644844 0 20.326453785644844 490.27467930034618 0 0 0 0 1.5328305229240851 3.790828850690815 0 3.790828850690815 9.5395217055074681 0 0 0 0 113.81290964871812 324.43057422743732 0 324.43057422743732 -28.630714583596273 0 0 0 0 52.833631628785497 297.58048203056023 0 297.58048203056023 484.99799683823949 0 0 0 0 48.523345940567935 181.95510952088807 0 181.95510952088807 2.054520090969163 0 0 0 0 88.86596305110001 370.2264940746245 0 370.2264940746245 184.64350831191405 0 0 0 0 -25.016359166569657 92.418761635592091 0 92.418761635592091 240.55486223465414 0 0 0 0 -56.444466411023768 20.714703180114157 0 20.714703180114157 78.228410744937719 0 0 0 0 -38.411533654730377 52.977454923719051 0 52.977454923719051 551.56003621057607 0 0 0 0 35.443676295972239 5.6262158873287262 0 5.6262158873287262 141.34775990525668 0 0 0 0 -70.700996207619482 -34.858919214595517 0 -34.858919214595517 78.112973572817282 0 0 0 0 -5.745119822119932 -123.06517164541583 0 -123.06517164541583 195.82314041494828 0 0 0 0 0.19417914152789081 -13.103889362006157 0 -13.103889362006157 75.708536039339378 0 0 0 0 -33.735050450969524 7.3568947023450164 0 7.3568947023450164 234.41798781990656 0 0 0 0 163.92848385470714 -112.35726331400656 0 -112.35726331400656 246.76646623537818 0 0 0 0 176.46325275972637 188.6968174467479 0 188.6968174467479 341.97736792874639 0 0 0 0 -0.34360087959328794 40.672497842155281 0 40.672497842155281 523.60471774950565 0 0 0 0 10.013648566310081 -175.72662524862244 0 -175.72662524862244 258.38618057646818 0 0 0 0 0.15659111116684843 0.99751614462061156 0 0.99751614462061156 5.0553761925888239 0 0 0 0 0.23393115747339882 46.334736550539674 0 46.334736550539674 36.549115619680379 0 0 0 0 -59.731650184765094 7.7726666963208118 0 7.7726666963208118 12.163502796727698 0 0 0 0 -0.14794383207295986 8.3519937468954595 0 8.3519937468954595 -5.9506621526888921 0 0 0 0 193.28754352523924 -267.21030522807268 0 -267.21030522807268 32.513099312614941 0 0 0 0 -0.21394781867605436 1.1775791338670842 0 1.1775791338670842 11.808048874176393 0 0 0 0 -340.52390073910476 -15.376564825116475 0 -15.376564825116475 303.78818799753208 0 0 0 0 30.285950796160478 -310.46236513881013 0 -310.46236513881013 708.44023991842187 0 0 0 0 -55.240107107964548 -25.892144491772342 0 -25.892144491772342 52.094259415142005 0 0 0 0 268.79241710723204 -242.10499087077915 0 -242.10499087077915 -68.530139307324134 0 0 0 0 657.28318459220532 -497.24834662208559 0 -497.24834662208559 72.933811107053771 0 0 0 0 279.92198385365032 -262.08698341876152 0 -262.08698341876152 -124.59787679463625 0 0 0 0 475.05269758431422 -318.09000370340073 0 -318.09000370340073 -111.8071799283025 0 0 0 0 225.35094537098456 -377.04660127824172 0 -377.04660127824172 62.782464186675497 0 0 0 0 57.635396618774621 -228.59852285617671 0 -228.59852285617671 -2.80142691549554 0 0 0 0 -69.896490589235441 31.613026109851489 0 31.613026109851489 -146.41364053422876 0 0 0 0 -120.22984055062045 -191.68198134378326 0 -191.68198134378326 1092.2568283838409 0 0 0 0 641.03785927843592 -551.33378343546519 0 -551.33378343546519 97.228619313245872 0 0 0 0 763.83866029149169 -91.910786022697721 0 -91.910786022697721 -107.14134028590342 0 0 0 0 65.703640087826841 -212.50422856937075 0 -212.50422856937075 1220.9149100800787 0 0 0 0 -0.011522801826136228 -60.816564336324518 0 -60.816564336324518 -64.447271714918315 0 0 0 0 -201.0596029145056 204.58464767975966 0 204.58464767975966 772.35143391684687 0 0 0 0 -0.23024963632282353 -0.21367545911473229 0 -0.21367545911473229 6.4339050514175256 0 0 0 0 -94.664674277538467 -53.024606006227259 0 -53.024606006227259 -40.464385122802923 0 0 0 0 -150.89307285937539 -78.717281518940581 0 -78.717281518940581 34.025025177455973 0 0 0 0 303.76679305581729 8.7360735475267575 0 8.7360735475267575 -118.3213697198662 0 0 0 0 -0.2836122231230564 0.5283634175007883 0 0.5283634175007883 13.051905812411803 0 0 0 0 0.093985428133347065 -56.418272747292633 0 -56.418272747292633 383.37284791702405 0 0 0 0 128.99937345168303 -278.27164563559927 0 -278.27164563559927 607.10444605558587 0 0 0 0 19.022043696758544 -71.740962908734218 0 -71.740962908734218 876.94037237556768 0 0 0 0 94.583263657931653 -208.78353055812477 0 -208.78353055812477 830.67224383447319 0 0 0 0 -27.629658162508449 -236.43907653581846 0 -236.43907653581846 1013.4701877139596 0 0 0 0 0.70710257503360652 0.374683051384892 0 0.374683051384892 1.9613835748143487 0 0 0 0 -136.94378774514075 1.4356279709463706 0 1.4356279709463706 946.0012882539304 0 0 0 0 30.967145572960558 -339.07322322975961 0 -339.07322322975961 1006.0621988938365 0 0 0 0 0.52823364654385074 1.9040651124171148 0 1.9040651124171148 4.1565227666665692 0 0 0 0 -131.57110993955811 210.01003586736624 0 210.01003586736624 204.07889800754492 0 0 0 0 -14.457845383026356 95.130414042980192 0 95.130414042980192 1323.0536074834235 0 0 0 0 36.815296677446852 -339.43598055721668 0 -339.43598055721668 685.179078554429 0 0 0 0 -37.574350104818336 -80.716365568485344 0 -80.716365568485344 995.82946439410443 0 0 0 0 2.5678492188396831 -39.02387301257113 0 -39.02387301257113 947.41043428372359 0 0 0 0 0.59431193569779794 0.3148617126793738 0 0.3148617126793738 1.7423621391897939 0 0 0 0 -68.09442549879634 -224.5933134718216 0 -224.5933134718216 1158.2619039421843 0 0 0 0 436.53065603570468 -186.59427251211309 0 -186.59427251211309 793.63885888368532 0 0 0 0 54.711323461410984 -315.69820536320913 0 -315.69820536320913 916.10043190292708 0 0 0 0 335.48656764902296 203.6550096543715 0 203.6550096543715 733.11014102667104 0 0 0 0 445.30369123135188 -468.13896099760314 0 -468.13896099760314 782.85787114988489 0 0 0 0 -116.69409538061313 -329.61025765788509 0 -329.61025765788509 1276.824795928027 0 0 0 0 1.0578519984993422 1.4240788288258273 0 1.4240788288258273 2.5800944729324158 0 0 0 0 -99.621972993527834 -133.27481068234192 0 -133.27481068234192 953.22727532882709 0 0 0 0 -126.12496699151686 -157.56113002792381 0 -157.56113002792381 931.37988160792156 0 0 0 0 -27.231802822474606 -240.53590151277604 0 -240.53590151277604 952.42757115847053 0 0 0 0 25.105194910937996 -94.33476274790155 0 -94.33476274790155 603.71172678258154 0 0 0 0 -13.652507083985384 -210.87206610510111 0 -210.87206610510111 639.54998670596979 0 0 0 0 204.92052080010103 -223.11283633097628 0 -223.11283633097628 533.10108772967942 0 0 0 0 36.633186416512899 -105.27211393968901 0 -105.27211393968901 534.74088534103498 0 0 0 0 48.148018630096146 180.58342070104118 0 180.58342070104118 -141.7719925561687 0 0 0 0 161.59000713733985 -201.88598431698483 0 -201.88598431698483 101.17180968588218 0 0 0 0 -25.376818010605348 -2.1643586492646136 0 -2.1643586492646136 213.0066767702483 0 0 0 0 115.87614394522936 -117.13262018711248 0 -117.13262018711248 131.46201030866359 0 0 0 0 34.035219556411121 14.382300099408894 0 14.382300099408894 248.90262286018697 0 0 0 0 60.555643235317518 -152.007521864929 0 -152.007521864929 456.48315648331481 0 0 0 0 -11.679954290564883 -21.624712804623414 0 -21.624712804623414 690.89855108017218 0 0 0 0 0.21292253333039621 10.999689709031372 0 10.999689709031372 566.63659895356977 0 0 0 0 -22.887601038702023 -128.73138317062694 0 -128.73138317062694 937.74327080373769 0 0 0 0 70.631695700928532 -134.70142856454913 0 -134.70142856454913 365.23609479083825 0 0 0 0 0.010913126283134964 58.854102297387726 0 58.854102297387726 115.10232359374641 0 0 0 0 30.278478942166458 97.153582187781467 0 97.153582187781467 -53.70124820539786 0 0 0 0 -0.011913579312044592 14.379069417744176 0 14.379069417744176 26.834811883047223 0 0 0 0 64.411154536503531 -27.817560862361461 0 -27.817560862361461 -56.25479416588496 0 0 0 0 1.2240948426778928 3.2407188354287086 0 3.2407188354287086 5.2886665502375649 0 0 0 0 0.00082646735602944638 11.284038421392324 0 11.284038421392324 4.5421795355796348 0 0 0 0 -8.872761948999937 -2.5594302124227397 0 -2.5594302124227397 19.3674596472556 0 0 0 0 -5.2868152426666164 -1.5768233383545294 0 -1.5768233383545294 7.3247678677228123 0 0 0 0 -29.154260322951615 28.79870577618567 0 28.79870577618567 -59.003403645314393 0 0 0 0 89.079538321103016 65.067604758469315 0 65.067604758469315 22.036271125718486 0 0 0 0 8.6900513523232128 -6.1390439177339431 0 -6.1390439177339431 -38.578150345980248 0 0 0 0 -11.918174271316339 109.56310862664395 0 109.56310862664395 -31.193362905847607 0 0 0 0 0.89525397832632381 -0.17616297173810835 0 -0.17616297173810835 -1.144418100717985 0 0 0 0 -22.426236173855347 -118.16405466124627 0 -118.16405466124627 -25.142013872988173 0 0 0 0 57.321225923011028 -81.954383747575775 0 -81.954383747575775 56.49847207494895 0 0 0 0 -19.699167805875845 2.6243712435680209 0 2.6243712435680209 -32.950366370452684 0 0 0 0 19.80589689466629 -51.234140562828543 0 -51.234140562828543 -88.271771820524009 0 0 0 0 -36.413707758891341 -11.672506636386942 0 -11.672506636386942 26.406653419461719 0 0 0 0 -51.691416713480976 61.903694749962597 0 61.903694749962597 146.70218948519323 0 0 0 0 -37.41384097142906 -17.310984925970246 0 -17.310984925970246 23.74452855049114 0 0 0 0 -24.460318069908951 22.552522558897408 0 22.552522558897408 72.07064684535726 0 0 0 0 -26.360395833998155 84.858650680587743 0 84.858650680587743 79.847515584842768 0 0 0 0 25.296062854493648 31.732297976772372 0 31.732297976772372 35.518944237177834 0 0 0 0 88.106783382779895 -67.818389025735087 0 -67.818389025735087 34.170440666668583 0 0 0 0 -93.932200990343517 112.46189660829259 0 112.46189660829259 0.52384726011223393 0 0 0 0 24.644251443792719 26.699487171789116 0 26.699487171789116 27.83370356061414 0 0 0 0 -81.333121911432499 47.023579452325066 0 47.023579452325066 34.80558259569807 0 0 0 0 -88.572473639630516 52.483063117375423 0 52.483063117375423 70.132052398425003 0 0 0 0 -63.194053911052833 -2.6122246540107881 0 -2.6122246540107881 122.74999143544665 0 0 0 0 -136.41333039914662 49.647332095351885 0 49.647332095351885 132.01458207274845 0 0 0 0 -62.652129135821269 -7.612161448058032 0 -7.612161448058032 132.99080499861157 0 0 0 0 -81.431139804011764 -14.289913958775287 0 -14.289913958775287 136.13593314880563 0 0 0 0 -50.422595496636632 -19.047319818406322 0 -19.047319818406322 136.54915916426398 0 0 0 0 -82.062688607660789 -48.323416769486357 0 -48.323416769486357 75.871526367089245 0 0 0 0 -35.355509708531208 -18.427332544608788 0 -18.427332544608788 24.272206197024275 0 0 0 0 -57.630064279587032 1.2505115810145071 0 1.2505115810145071 141.86503646773053 0 0 0 0 -143.91373895583547 35.327917073474964 0 35.327917073474964 74.543244716813206 0 0 0 0 -5.2530060247407002 -1.9079388866080933 0 -1.9079388866080933 11.034606045820283 0 0 0 0 -12.5958895698368 -33.315528630657354 0 -33.315528630657354 86.871627758911927 0 0 0 0 -10.740308772415119 -33.709022040566197 0 -33.709022040566197 59.832649466166913 0 0 0 0 27.229619886398723 -59.651454423641553 0 -59.651454423641553 97.870963472410949 0 0 0 0 43.917183859597571 -104.52492022599836 0 -104.52492022599836 213.0105128694704 0 0 0 0 -43.8724053416488 -25.880484871880981 0 -25.880484871880981 397.35498100964469 0 0 0 0 -59.943293369343564 -61.253051412189961 0 -61.253051412189961 213.42251629517705 0 0 0 0 -52.696210882308151 23.348319328826619 0 23.348319328826619 164.28242908137327 0 0 0 0 -92.900935899572346 16.311484136810577 0 16.311484136810577 179.28355356289831 0 0 0 0 -43.402708877561054 131.98432726155443 0 131.98432726155443 216.38830168196 0 0 0 0 -2.5678813883005205 146.18808172178251 0 146.18808172178251 66.943428674945608 0 0 0 0 0.77113629257110006 194.38259592423856 0 194.38259592423856 256.32282989838859 0 0 0 0 81.320636065205235 241.18788220407805 0 241.18788220407805 33.382873628725065 0 0 0 0 77.657893559743343 251.79334759174344 0 251.79334759174344 21.497892673593014 0 0 0 0 9.2576202387399462 205.65994986298756 0 205.65994986298756 41.533382767127478 0 0 0 0 104.69526088102066 278.30698615463916 0 278.30698615463916 -26.221891332301311 0 0 0 0 66.995560486499926 296.29527697927551 0 296.29527697927551 179.32494463166222 0 0 0 0 153.91902892665166 220.76014169288101 0 220.76014169288101 -224.48307993561684 0 0 0 0 229.46292110836112 449.25204214340192 0 449.25204214340192 136.61472958451486 0 0 0 0 84.062876426574803 221.32026022333594 0 221.32026022333594 -4.3944929886274622 0 0 0 0 105.18191457806915 172.53048895959 0 172.53048895959 -61.788424842088716 0 0 0 0 -79.335942041667295 58.127704295169679 0 58.127704295169679 -3.4888835312158335 0 0 0 0 -1.0908445365048465 141.12670418836933 0 141.12670418836933 83.886326048574119 0 0 0 0 -79.032681369046259 107.36801706269034 0 107.36801706269034 -27.535602843170636 0 0 0 0 -150.99082385487782 59.18152998595906 0 59.18152998595906 91.664787087793229 0 0 0 0 -111.60021940875049 129.3679405841649 0 129.3679405841649 -87.320737140733399 0 0 0 0 -235.84692853720662 234.19873763262876 0 234.19873763262876 -69.274367681664444 0 0 0 0 258.55688104756518 -129.72495448807604 0 -129.72495448807604 292.35028285242788 0 0 0 0 15.944733925267125 19.709416309532742 0 19.709416309532742 22.218846699725532 0 0 0 0 -73.149549759344723 216.76391087144839 0 216.76391087144839 289.0923302815354 0 0 0 0 -254.7243980781077 80.654014227649895 0 80.654014227649895 -12.318815621780232 0 0 0 0 -65.720750318160754 31.033090471632022 0 31.033090471632022 -171.76589632641117 0 0 0 0 -77.357496866612848 -362.35404086584276 0 -362.35404086584276 1096.1061834356951 0 0 0 0 5.990799215303948 7.3800703639200833 0 7.3800703639200833 9.1395927930624339 0 0 0 0 -80.109608197473818 -325.91476746017634 0 -325.91476746017634 778.00504850529251 0 0 0 0 -83.166915765343219 -130.16340450206189 0 -130.16340450206189 1137.6140629268193 0 0 0 0 494.15751018329365 -295.94403321808204 0 -295.94403321808204 610.79497828336025 0 0 0 0 5.7504495743819311 2.3242411555803528 0 2.3242411555803528 2.0265149994460216 0 0 0 0 1105.8593124665169 -213.75246408327075 0 -213.75246408327075 963.31656973285135 0 0 0 0 672.05321616262177 -456.71295904534054 0 -456.71295904534054 1211.367955006659 0 0 0 0 -181.31289469889975 106.6827843538922 0 106.6827843538922 861.92791945324279 0 0 0 0 -254.73991172439935 79.659527475378127 0 79.659527475378127 1169.1063985266956 0 0 0 0 45.473067791587255 -382.02832085487898 0 -382.02832085487898 942.56976625428069 0 0 0 0 27.36351827042904 -114.35481319042083 0 -114.35481319042083 948.39469962869771 0 0 0 0 11.323307488576802 -477.21074673775001 0 -477.21074673775001 1227.5838654030231 0 0 0 0 7.7850367906751217 -513.63246451248415 0 -513.63246451248415 1446.6440719132661 0 0 0 0 16.167048969888128 -102.81403553107521 0 -102.81403553107521 1599.0494516506442 0 0 0 0 -28.190377217566152 -287.50961934225052 0 -287.50961934225052 643.73773519566748 0 0 0 0 -60.566760952886852 -186.01639013446402 0 -186.01639013446402 923.90326836187523 0 0 0 0 -30.943163891813128 -82.794913005331182 0 -82.794913005331182 739.20435818983242 0 0 0 0 -67.931503972408336 -138.23847591000958 0 -138.23847591000958 656.54169208282838 0 0 0 0 12.783528863150824 4.7657140704615699 0 4.7657140704615699 2.7584074210998466 0 0 0 0 -45.91585090555327 32.567474618903361 0 32.567474618903361 687.77475628514367 0 0 0 0 1.6799496607900437 -47.020879714138573 0 -47.020879714138573 751.23770177492406 0 0 0 0 -26.293538747921957 -108.56397351869964 0 -108.56397351869964 718.37008834572043 0 0 0 0 88.767920904043876 -123.22055767056008 0 -123.22055767056008 708.79938738243072 0 0 0 0 22.928038353883494 -66.676623623556225 0 -66.676623623556225 619.07534926192602 0 0 0 0 -24.761708963655792 -165.7026129386395 0 -165.7026129386395 861.02578971366165 0 0 0 0 -114.11857177184174 -212.98764125906746 0 -212.98764125906746 207.49218264002411 0 0 0 0 -20.294513364722661 -67.213844005309511 0 -67.213844005309511 810.67614664921712 0 0 0 0 7.2801921898914177 1.5864050012181394 0 1.5864050012181394 1.2782282633082218 0 0 0 0 -669.29644741504126 -395.23973904965533 0 -395.23973904965533 615.91711519792443 0 0 0 0 -156.30116998813173 197.38750265224371 0 197.38750265224371 577.00804822524333 0 0 0 0 -60.242329194816193 233.79253121395595 0 233.79253121395595 163.54348384377954 0 0 0 0 -23.382293613923139 89.718887525021273 0 89.718887525021273 341.46647675556596 0 0 0 0 -297.23804774860582 364.76951487523911 0 364.76951487523911 379.33915476163384 0 0 0 0 -11.244950892037195 332.12811496276845 0 332.12811496276845 347.13696359776077 0 0 0 0 239.31869098843345 506.50731612593518 0 506.50731612593518 -14.958714363136096 0 0 0 0 986.12918279701989 587.85877312120283 0 587.85877312120283 1010.7148043068883 0 0 0 0 148.61123077430966 913.51110823485942 0 913.51110823485942 1048.9359122587484 0 0 0 0 -1187.653067147271 -126.26391384970339 0 -126.26391384970339 2017.5571231691283 0 0 0 0 -31.376855750208961 336.83903046846535 0 336.83903046846535 289.99439006275497 0 0 0 0 -464.58453555861229 -45.995528605133586 0 -45.995528605133586 -12.15984877361916 0 0 0 0 -22.441745480768191 113.9057558751374 0 113.9057558751374 42.728685821144609 0 0 0 0 210.20111130068017 -79.547777651372598 0 -79.547777651372598 144.74701217446272 0 0 0 0 -597.71697962956341 -351.54948543897626 0 -351.54948543897626 -217.3769882539782 0 0 0 0 -606.40301525093264 -299.09162887098501 0 -299.09162887098501 709.9609813496063 0 0 0 0 -749.82126244213032 -19.785946781863458 0 -19.785946781863458 451.6030563783861 0 0 0 0 16.766960430759127 -46.334969175717561 0 -46.334969175717561 17.147854681839817 0 0 0 0 -1.1280756321908632 -6.5763550051887485 0 -6.5763550051887485 22.759221496873977 0 0 0 0 -9.7947070821910316 -24.13080659348185 0 -24.13080659348185 78.249171296532268 0 0 0 0 -0.80441345291001198 15.658823143705376 0 15.658823143705376 59.423778220501845 0 0 0 0 -13.380765938765478 -33.851057883668545 0 -33.851057883668545 107.14349137450336 0 0 0 0 -2.7985201424086714 -28.101868419484262 0 -28.101868419484262 71.313234771460742 0 0 0 0 -37.851675416676443 -124.12069896342837 0 -124.12069896342837 24.842946237040451 0 0 0 0 -4.6514220086608322 -20.804688811500711 0 -20.804688811500711 94.275767988325157 0 0 0 0 -11.811422790399661 -39.029472149075445 0 -39.029472149075445 37.17266114364611 0 0 0 0 50.922934182893187 -26.592537566059036 0 -26.592537566059036 32.478409744569944 0 0 0 0 -0.63926016013507092 1.087824350760151 0 1.087824350760151 17.267863357744886 0 0 0 0 118.28055215413065 -64.623699081304949 0 -64.623699081304949 35.36022464101552 0 0 0 0 -41.416267378580386 -109.02062160804053 0 -109.02062160804053 73.490124796429882 0 0 0 0 41.549163055109787 -106.32805295502294 0 -106.32805295502294 25.056996677216375 0 0 0 0 139.03511599355261 -181.00308362816577 0 -181.00308362816577 93.287846012899536 0 0 0 0 -24.711700166497604 -72.978102717679576 0 -72.978102717679576 370.64339453633875 0 0 0 0 148.92394468564561 -43.098688252969168 0 -43.098688252969168 48.409649088789592 0 0 0 0 369.83770853086253 -278.68033675375045 0 -278.68033675375045 263.61021830618847 0 0 0 0 -82.1976198355419 431.06531939648994 0 431.06531939648994 229.24704626341554 0 0 0 0 -125.39038684841444 37.718801881797845 0 37.718801881797845 -165.64722595653438 0 0 0 0 -280.44592039861118 289.8563654521713 0 289.8563654521713 -26.399474483138874 0 0 0 0 -703.74430058690666 125.98448389155783 0 125.98448389155783 97.930089335830417 0 0 0 0 -74.523982467590486 78.122264977326267 0 78.122264977326267 -99.754358144244179 0 0 0 0 -8.8698521659316611 203.20495088229654 0 203.20495088229654 98.64074784998229 0 0 0 0 8.6871667149580389 244.03334596788773 0 244.03334596788773 192.51560341435834 0 0 0 0 32.122379501044634 274.21486270870082 0 274.21486270870082 68.37448148385738 0 0 0 0 5.3615762733099928 307.20868997665821 0 307.20868997665821 -1.3827961227216292 0 0 0 0 -17.494366762361096 313.01386983507837 0 313.01386983507837 230.11024265571177 0 0 0 0 -51.366848579848011 118.89551822503563 0 118.89551822503563 696.65716929957853 0 0 0 0 0.20545160548502173 0.82281554108812927 0 0.82281554108812927 6.9737106318112296 0 0 0 0 -318.07986844107245 27.586679317682865 0 27.586679317682865 845.37948005634826 0 0 0 0 -142.09489915949086 237.00609182563494 0 237.00609182563494 904.83837450761348 0 0 0 0 71.627913508350957 -417.96736487951421 0 -417.96736487951421 1225.4286082369363 0 0 0 0 118.62299088052805 -425.70585978702002 0 -425.70585978702002 990.36078375838588 0 0 0 0 130.31264071905343 12.904867715362343 0 12.904867715362343 -226.14278353132249 0 0 0 0 0.70357727914802126 0.97955872717187731 0 0.97955872717187731 2.1503280168485617 0 0 0 0 -125.15349838120704 431.5470047341405 0 431.5470047341405 165.85733077520854 0 0 0 0 244.50840811224214 445.52165378888094 0 445.52165378888094 604.34025935147656 0 0 0 0 179.66335108087571 139.56481372607959 0 139.56481372607959 69.27762940863613 0 0 0 0 64.117066714894918 -60.386132038343931 0 -60.386132038343931 200.73548699724779 0 0 0 0 133.90865790228872 -179.25843585812254 0 -179.25843585812254 402.37391847272374 0 0 0 0 -209.12425952826788 175.7145298864707 0 175.7145298864707 -15.788045731722377 0 0 0 0 -0.081191888158063108 2.0101879308551815 0 2.0101879308551815 4.4879959507533158 0 0 0 0 -165.42821549978271 -84.789223723091709 0 -84.789223723091709 -2.1233103311096784 0 0 0 0 187.51779534123443 -6.4184987061162246 0 -6.4184987061162246 -85.141613263433101 0 0 0 0 76.447584779469651 -59.888624650846396 0 -59.888624650846396 41.408200999372639 0 0 0 0 63.598252465195628 34.534369198181594 0 34.534369198181594 -17.654118571052095 0 0 0 0 111.19091273268077 -83.71524635401147 0 -83.71524635401147 110.71905897482065 0 0 0 0 80.704768026360398 -64.858404781640274 0 -64.858404781640274 172.40516865369864 0 0 0 0 103.22331200902227 -79.165265887750138 0 -79.165265887750138 43.333124873926863 0 0 0 0 -40.234692456119774 85.350274939322844 0 85.350274939322844 107.15999703204997 0 0 0 0 -89.473203999460566 6.5294145780208055 0 6.5294145780208055 -18.787466632929863 0 0 0 0 77.204074015482718 36.43014825377395 0 36.43014825377395 115.36550380647532 0 0 0 0 120.40640492381362 0.47868262030533515 0 0.47868262030533515 68.129861113571678 0 0 0 0 80.390185874538929 -22.089107122679707 0 -22.089107122679707 93.313734763796674 0 0 0 0 125.14196968199644 -17.266639142500935 0 -17.266639142500935 128.21845665376895 0 0 0 0 136.24186033166279 -24.771520488735405 0 -24.771520488735405 55.314836874546017 0 0 0 0 142.7585293794541 -40.228138332618983 0 -40.228138332618983 60.745082867826568 0 0 0 0 180.89788571802865 19.074370269780047 0 19.074370269780047 33.575637928974174 0 0 0 0 133.56237076563684 28.236537499440601 0 28.236537499440601 112.78203029444558 0 0 0 0 199.80730020360625 58.600146240234608 0 58.600146240234608 89.012236091308296 0 0 0 0 165.61366332099078 90.22264504499617 0 90.22264504499617 161.26085606960987 0 0 0 0 160.96685844342119 73.532940419172519 0 73.532940419172519 108.17574923424399 0 0 0 0 46.574415211496074 -2.47030822483066 0 -2.47030822483066 158.22264767781598 0 0 0 0 48.540863366851568 16.00643359751848 0 16.00643359751848 220.26378284874954 0 0 0 0 132.13944900150193 26.339103222777339 0 26.339103222777339 134.58144144137623 0 0 0 0 42.260362621694213 -9.0231343090963492 0 -9.0231343090963492 154.81044477006071 0 0 0 0 -109.14997511285642 55.519088618995738 0 55.519088618995738 427.37224480745499 0 0 0 0 -30.797761246312419 63.210594983538613 0 63.210594983538613 421.06273025355767 0 0 0 0 39.203711791687738 49.179132183533511 0 49.179132183533511 247.94478880552924 0 0 0 0 62.469525794398578 93.459683088309248 0 93.459683088309248 297.72408943503979 0 0 0 0 -25.291168001913093 38.182559282256989 0 38.182559282256989 542.50034119847987 0 0 0 0 175.7147249794516 100.78637204164988 0 100.78637204164988 165.37061309721321 0 0 0 0 204.64146085942855 195.80324073749944 0 195.80324073749944 228.13444972591242 0 0 0 0 95.595701084853317 195.7313688393333 0 195.7313688393333 391.73706909263274 0 0 0 0 112.44997071260832 161.09663356919191 0 161.09663356919191 290.17664768750547 0 0 0 0 293.76602863904736 221.84232476141187 0 221.84232476141187 146.71829986845114 0 0 0 0 165.61935800321908 293.02847523232049 0 293.02847523232049 550.97123279981315 0 0 0 0 130.65954618993965 247.95484154182486 0 247.95484154182486 546.69557553667619 0 0 0 0 449.4535715259085 -465.15186196244395 0 -465.15186196244395 656.83103126171045 0 0 0 0 38.53892147535862 -7.3586830593994819 0 -7.3586830593994819 935.43192696152255 0 0 0 0 -33.996708461254912 -30.887495095405029 0 -30.887495095405029 1325.6989034905419 0 0 0 0 70.508216331363656 295.42039731470868 0 295.42039731470868 1180.2790569596691 0 0 0 0 25.682552320300317 70.387464430641558 0 70.387464430641558 562.37202653169516 0 0 0 0 -24.732118485379033 -93.735114186391002 0 -93.735114186391002 702.56001668258978 0 0 0 0 -24.986018589472231 -84.729512263146034 0 -84.729512263146034 383.55051801545778 0 0 0 0 -47.602917097622267 89.018672190173675 0 89.018672190173675 433.18167998197896 0 0 0 0 143.6378071163856 30.354505908726424 0 30.354505908726424 191.06736064546567 0 0 0 0 -223.44590342054801 -200.10139152175543 0 -200.10139152175543 176.49212884811323 0 0 0 0 -109.53175752197697 51.336087756644702 0 51.336087756644702 461.63081384735415 0 0 0 0 -103.74098957523915 -21.964238463275251 0 -21.964238463275251 446.72382363929864 0 0 0 0 -98.12557514543343 -44.763598905876279 0 -44.763598905876279 292.2435856674274 0 0 0 0 -209.53314915860199 -190.40039762061497 0 -190.40039762061497 196.67263769962301 0 0 0 0 -10.196747494940041 195.97352806970594 0 195.97352806970594 333.00581471745681 0 0 0 0 -1.041021135194887 0.329048225609057 0 0.329048225609057 4.7518951043086872 0 0 0 0 -28.474339873757117 74.79875426957733 0 74.79875426957733 6.9256762645527488 0 0 0 0 19.665633995422468 -75.070535688490054 0 -75.070535688490054 -20.597062736094813 0 0 0 0 111.68950285332153 -15.68325747309791 0 -15.68325747309791 71.605997400474735 0 0 0 0 4.5459736194056859 71.970615771031589 0 71.970615771031589 21.728577075664361 0 0 0 0 13.990774588341537 157.83346372981759 0 157.83346372981759 297.68654782259546 0 0 0 0 -31.934210105153397 -64.527855494417963 0 -64.527855494417963 91.016322440416843 0 0 0 0 -18.474835162822536 -32.763407201637676 0 -32.763407201637676 139.26926534802229 0 0 0 0 54.325346457893374 -36.718367510071403 0 -36.718367510071403 97.104204359740834 0 0 0 0 -19.332083888871352 -35.368897574376547 0 -35.368897574376547 150.70153224423854 0 0 0 0 -112.86680411663019 -112.93403661431148 0 -112.93403661431148 183.33623489461024 0 0 0 0 -283.97467313135257 -58.677705671470903 0 -58.677705671470903 438.57982576755967 0 0 0 0 -114.26679744500143 -34.341527761906036 0 -34.341527761906036 146.28856657968208 0 0 0 0 24.040470260262282 -196.90199906275666 0 -196.90199906275666 301.3833194692852 0 0 0 0 -284.62937665341678 -80.410098974873108 0 -80.410098974873108 301.68136330472771 0 0 0 0 -339.40686715513561 -24.644790531365288 0 -24.644790531365288 248.14815550531785 0 0 0 0 -151.7116090859563 -18.947000424152066 0 -18.947000424152066 167.71564850838331 0 0 0 0 -170.82220226061145 -64.566749791731127 0 -64.566749791731127 -82.599387850485073 0 0 0 0 -273.4980003270357 73.495063421711166 0 73.495063421711166 101.25971120579925 0 0 0 0 -252.65553769000144 -238.47239483443263 0 -238.47239483443263 -30.970171688193659 0 0 0 0 -70.54621770344238 -181.68692946233205 0 -181.68692946233205 93.515426005804329 0 0 0 0 -61.908936363921384 -101.92213173585333 0 -101.92213173585333 151.80536458345887 0 0 0 0 -191.26307530293298 -105.01978504473846 0 -105.01978504473846 45.003720381399035 0 0 0 0 -196.82614477832908 -23.213715258067168 0 -23.213715258067168 209.02998596453108 0 0 0 0 -99.92991549556973 -3.8319177032171865 0 -3.8319177032171865 158.42046656729508 0 0 0 0 -35.140587728993523 40.051882435218431 0 40.051882435218431 202.51845800517185 0 0 0 0 -192.10834673770432 52.7418616013274 0 52.7418616013274 245.95214599087194 0 0 0 0 -16.832742906787701 -38.319419768805432 0 -38.319419768805432 156.06409560489553 0 0 0 0 -61.578048312305214 -136.19522933543522 0 -136.19522933543522 75.145514983145404 0 0 0 0 899.91894979052449 82.851228152372641 0 82.851228152372641 -45.031877243192866 0 0 0 0 -14.306181478740399 -74.304690446582754 0 -74.304690446582754 83.863175151738687 0 0 0 0 -282.82771729595424 220.52796119829145 0 220.52796119829145 679.0650334502825 0 0 0 0 -16.494599193209492 -44.37023828037313 0 -44.37023828037313 146.32584498042968 0 0 0 0 4.2600693505736515 8.0149573180963927 0 8.0149573180963927 29.175906442063479 0 0 0 0 -104.46975909735635 -263.1683486157126 0 -263.1683486157126 58.325262413153723 0 0 0 0 103.8891731232975 8.5755813718969875 0 8.5755813718969875 58.400308064068668 0 0 0 0 96.547113351680309 -200.15962647118431 0 -200.15962647118431 212.47578227882332 0 0 0 0 -101.13685886400248 2.2869450771058837 0 2.2869450771058837 561.54657163858064 0 0 0 0 177.14082470750782 -124.71790737590345 0 -124.71790737590345 82.641599607857643 0 0 0 0 95.468167573755636 -67.10667127425404 0 -67.10667127425404 42.09546105118352 0 0 0 0 12.234112993682174 -25.227029237263196 0 -25.227029237263196 70.548612755937938 0 0 0 0 -28.714436377013044 -130.45979341649218 0 -130.45979341649218 -31.760741363672423 0 0 0 0 -62.478605955753665 -111.47297169113153 0 -111.47297169113153 37.907654869617545 0 0 0 0 -45.068688042394569 -110.31303999874945 0 -110.31303999874945 -56.230822133744368 0 0 0 0 -11.693747364210139 -49.985992896497919 0 -49.985992896497919 -4.8885213928442681 0 0 0 0 -28.493700977422804 -105.97065638190179 0 -105.97065638190179 -34.721026331666508 0 0 0 0 -46.863138570869523 -86.599652490935114 0 -86.599652490935114 -52.686773454290233 0 0 0 0 -67.724093362292479 -147.29774463320791 0 -147.29774463320791 -85.554029983701184 0 0 0 0 -97.53322176428992 -142.78675030951854 0 -142.78675030951854 -53.094672813283978 0 0 0 0 -86.367273953048425 -125.62732383232651 0 -125.62732383232651 -96.684590327669866 0 0 0 0 -174.00390049487123 -166.0489607135969 0 -166.0489607135969 -62.663523990799149 0 0 0 0 7.7023199904160702 -14.557933055919257 0 -14.557933055919257 21.73256251280614 0 0 0 0 -157.31917257114856 -129.28573809810769 0 -129.28573809810769 -73.275022941408679 0 0 0 0 -123.83315978291466 -154.78994192267419 0 -154.78994192267419 -73.818766182637773 0 0 0 0 -95.186488872215705 -144.63236258001416 0 -144.63236258001416 -77.089176510871766 0 0 0 0 -135.69113036037015 -155.4843464316582 0 -155.4843464316582 -50.741692266950849 0 0 0 0 -135.44350180198671 -155.70652029759367 0 -155.70652029759367 -98.664729748634272 0 0 0 0 85.733516755487415 -633.05044766743254 0 -633.05044766743254 530.04050158991595 0 0 0 0 -699.37056927661331 442.58263460614398 0 442.58263460614398 210.80830099756895 0 0 0 0 99.564386934290368 236.44359787309099 0 236.44359787309099 -230.42781902861316 0 0 0 0 5.0150030012676758 -5.5805910049006684 0 -5.5805910049006684 6.1423203513860756 0 0 0 0 -400.4446843021824 -222.73072669165413 0 -222.73072669165413 44.873933415481588 0 0 0 0 336.3808892827592 48.438980174247263 0 48.438980174247263 -110.43094000345445 0 0 0 0 5.5012676370664257 -10.105148074043818 0 -10.105148074043818 13.431516803614187 0 0 0 0 -137.40729693343565 -193.87465879827505 0 -193.87465879827505 5.6154420429083984 0 0 0 0 -48.640401442420625 -109.55736214637363 0 -109.55736214637363 -48.68469568999717 0 0 0 0 -82.275984545596657 -163.15866234738132 0 -163.15866234738132 -76.53201019242988 0 0 0 0 -270.50362150325236 -77.063950622712582 0 -77.063950622712582 -52.935848209497635 0 0 0 0 103.86434985241723 176.97157346550972 0 176.97157346550972 473.46191512396763 0 0 0 0 71.695254176443996 144.68415690763504 0 144.68415690763504 410.75956139204936 0 0 0 0 101.07811334844473 127.2186966888039 0 127.2186966888039 398.20735150262772 0 0 0 0 100.74082637708375 132.18800023982476 0 132.18800023982476 423.23007753385173 0 0 0 0 85.667634692757019 144.45940561258612 0 144.45940561258612 379.19433145286166 0 0 0 0 124.93535228459973 183.58357729459385 0 183.58357729459385 383.93793889020162 0 0 0 0 41.130961316170215 188.15827847044784 0 188.15827847044784 384.1008179714845 0 0 0 0 83.003351046021862 157.30602147661193 0 157.30602147661193 366.9597817932663 0 0 0 0 31.499259993948726 162.48888980707852 0 162.48888980707852 367.63238717346758 0 0 0 0 77.900501911879473 145.58358483111078 0 145.58358483111078 329.37683293072041 0 0 0 0 44.708703804087236 176.48144135241455 0 176.48144135241455 368.63552847038954 0 0 0 0 3.7062004946260458 175.26066013695527 0 175.26066013695527 382.88382705720142 0 0 0 0 23.711894339360242 148.42997836886207 0 148.42997836886207 344.79306356351299 0 0 0 0 3.3654593199946703 142.49872622741714 0 142.49872622741714 352.11153676536924 0 0 0 0 -3.5871535511495658 0.72680528293575719 0 0.72680528293575719 3.7415145377862302 0 0 0 0 1488.6591339743773 -1007.8887792794631 0 -1007.8887792794631 -314.79719401728289 0 0 0 0 56.120063224067053 117.26106383122169 0 117.26106383122169 282.20880746438343 0 0 0 0 106.0651752871895 197.68160236466429 0 197.68160236466429 453.49753838447214 0 0 0 0 103.50206983787001 159.55484798185103 0 159.55484798185103 377.26423054980114 0 0 0 0 112.5070309906896 193.91833767516073 0 193.91833767516073 296.29158734706289 0 0 0 0 99.298382529754235 164.2493543344026 0 164.2493543344026 373.89188929717056 0 0 0 0 117.34161810637488 253.27650299301604 0 253.27650299301604 403.51879249792546 0 0 0 0 94.145712567074952 161.62260921791312 0 161.62260921791312 390.38417565520285 0 0 0 0 2.8613667113970402 -2.2572726225812687 0 -2.2572726225812687 -2.0642886412837811 0 0 0 0 85.909693075212999 173.32605172783951 0 173.32605172783951 375.55082572094398 0 0 0 0 -122.78561250898383 -120.29820681480487 0 -120.29820681480487 -93.29215714095335 0 0 0 0 -84.085543289316774 -144.4337424769983 0 -144.4337424769983 -110.40865507663693 0 0 0 0 9.5255488261386496 -10.422378225772135 0 -10.422378225772135 10.801824644194269 0 0 0 0 -98.40775208415107 -134.82658132897996 0 -134.82658132897996 -76.627836920924892 0 0 0 0 -46.214161188226171 -89.942587727062346 0 -89.942587727062346 -118.55421956373903 0 0 0 0 3.747431491783118 -3.4682208327036932 0 -3.4682208327036932 3.2133601670806371 0 0 0 0 56.485812989741135 -197.57134216730992 0 -197.57134216730992 -204.22860784388467 0 0 0 0 99.881362752408677 106.51477968045219 0 106.51477968045219 480.72693024245109 0 0 0 0 73.607433976748325 95.092180491930776 0 95.092180491930776 483.4182536455337 0 0 0 0 141.69456775409276 -72.958149126177887 0 -72.958149126177887 543.68749878217204 0 0 0 0 87.421854024484446 76.200260598739987 0 76.200260598739987 507.48820459684794 0 0 0 0 55.021930065811489 180.06505510654551 0 180.06505510654551 1035.2404549439525 0 0 0 0 235.57020792750518 -225.73888162663206 0 -225.73888162663206 576.23414852701535 0 0 0 0 31.263754337275714 71.509115511349592 0 71.509115511349592 326.10481779690599 0 0 0 0 179.94971772743702 -144.76964824540482 0 -144.76964824540482 405.20618532074877 0 0 0 0 138.81734410592026 -25.424871411769345 0 -25.424871411769345 300.8218982838298 0 0 0 0 124.85977242743684 59.818103834040812 0 59.818103834040812 443.91013093664696 0 0 0 0 114.73081418722893 93.375339881789841 0 93.375339881789841 333.27501129033044 0 0 0 0 193.83624172959514 44.17201222100266 0 44.17201222100266 361.13505959404574 0 0 0 0 488.17860977681971 -175.77240149500722 0 -175.77240149500722 350.7168034214701 0 0 0 0 253.54573664434679 69.648767387127009 0 69.648767387127009 287.91722398257116 0 0 0 0 450.09981351131455 -199.89280406903345 0 -199.89280406903345 354.99799126903235 0 0 0 0 546.35740204611034 -135.84758814325323 0 -135.84758814325323 204.20033106298069 0 0 0 0 122.89925655311299 -155.47051415233364 0 -155.47051415233364 481.81561926834911 0 0 0 0 446.79286197860961 -108.31200190241907 0 -108.31200190241907 -78.391897486108064 0 0 0 0 0.96036921015286936 -1.9635102409606162 0 -1.9635102409606162 1.2969683092749733 0 0 0 0 108.3950724162712 123.53058112004146 0 123.53058112004146 307.48459923533665 0 0 0 0 618.92490977319449 32.587707091945049 0 32.587707091945049 340.49960269549842 0 0 0 0 505.05730369801006 213.24245307123056 0 213.24245307123056 1186.5751306902675 0 0 0 0 636.88385600841991 526.98807402427337 0 526.98807402427337 889.1384115264882 0 0 0 0 339.71842047112534 -119.50661720649805 0 -119.50661720649805 561.67836695139704 0 0 0 0 122.90318160207403 -105.61476623948693 0 -105.61476623948693 201.75036167331564 0 0 0 0 484.6024596725544 1818.3391888879378 0 1818.3391888879378 3175.2579323551035 0 0 0 0 1862.0540311869593 2050.2523865488547 0 2050.2523865488547 5003.7422373408335 0 0 0 0 509.3434913340119 1493.3905528455405 0 1493.3905528455405 713.12068527090014 0 0 0 0 147.21543547505939 1043.5022152488891 0 1043.5022152488891 4431.8700195583951 0 0 0 0 -230.13089251898612 371.74223250493378 0 371.74223250493378 3951.818506218151 0 0 0 0 -585.51320704746377 1459.1429825517553 0 1459.1429825517553 4998.9677898829323 0 0 0 0 583.44820486759977 421.93265544523456 0 421.93265544523456 986.34734961751383 0 0 0 0 -21.276126268572828 -1313.4913229902195 0 -1313.4913229902195 5001.0541585137325 0 0 0 0 482.78414268685447 788.58197442213714 0 788.58197442213714 -967.60622865567711 0 0 0 0 86.866735252217552 -1016.7525160860532 0 -1016.7525160860532 5729.7762353777653 0 0 0 0 7.0356370847556482 10.842175693325643 0 10.842175693325643 10.289031026926551 0 0 0 0 -94.269656425288531 107.36820855543374 0 107.36820855543374 322.21306537310738 0 0 0 0 -252.62851504546325 -162.14186035846069 0 -162.14186035846069 -25.373758148776687 0 0 0 0 -276.88473418351623 282.97469911677308 0 282.97469911677308 -96.131865928677144 0 0 0 0 -231.09207298933006 -9.8815614284958428 0 -9.8815614284958428 305.17271922898362 0 0 0 0 -61.127099729934343 -154.27482666974902 0 -154.27482666974902 272.35658514790339 0 0 0 0 -67.985679079578858 85.386857402481837 0 85.386857402481837 281.26297329701629 0 0 0 0 -13.835135727752913 -0.94898531333092251 0 -0.94898531333092251 265.69048769333313 0 0 0 0 105.87031164942709 -51.995594131629332 0 -51.995594131629332 84.170201160606666 0 0 0 0 1.188589733194819 -2.5319001450396286 0 -2.5319001450396286 1.728789295868765 0 0 0 0 49.904422108969811 72.309763836743514 0 72.309763836743514 114.57311747242784 0 0 0 0 -44.069250095101324 114.23175896548128 0 114.23175896548128 268.28448805792141 0 0 0 0 -86.378812605719759 46.28167564036994 0 46.28167564036994 159.29389681899556 0 0 0 0 -90.193329171332152 46.373095996899792 0 46.373095996899792 159.39541520956845 0 0 0 0 -17.832788305972599 4.0611675846412254 0 4.0611675846412254 67.787438373576151 0 0 0 0 -126.89099106045069 136.24916752355784 0 136.24916752355784 289.20218309774282 0 0 0 0 -0.068782736477480455 -1.011292891012971 0 -1.011292891012971 0.92329747931621853 0 0 0 0 73.789234464160927 19.551323601157492 0 19.551323601157492 53.486388447316131 0 0 0 0 16.668346336894047 133.48369829840522 0 133.48369829840522 7.1729713865061058 0 0 0 0 16.428771462629861 31.536167305729549 0 31.536167305729549 35.236723339741928 0 0 0 0 1104.5005722851035 929.95212954195085 0 929.95212954195085 792.47074731221073 0 0 0 0 -854.77782941428109 250.19489155283372 0 250.19489155283372 4988.7091344210712 0 0 0 0 17.387133820223237 29.653567587834502 0 29.653567587834502 17.553194959781791 0 0 0 0 -688.66942116286646 141.46746396437084 0 141.46746396437084 3555.2183716691325 0 0 0 0 -443.6103685843193 -433.50186257689165 0 -433.50186257689165 2410.9082711992669 0 0 0 0 6.4146551847388649 7.6529117075253623 0 7.6529117075253623 22.94308916741187 0 0 0 0 -347.56990393245763 -933.45579197875486 0 -933.45579197875486 4988.6183565693791 0 0 0 0 1250.1399121954141 -1659.1006111796887 0 -1659.1006111796887 2749.9961661449488 0 0 0 0 543.05356615937058 -50.848756178820622 0 -50.848756178820622 -465.68335961698904 0 0 0 0 -251.73883960439298 -385.76235667429501 0 -385.76235667429501 2416.4730500055884 0 0 0 0 20.848022634656431 14.669648591889683 0 14.669648591889683 28.302925317468137 0 0 0 0 19.079429359857386 2.9695280537671351 0 2.9695280537671351 94.019453217711998 0 0 0 0 12.245836255619906 7.0092236477139522 0 7.0092236477139522 97.452375626395224 0 0 0 0 4.145987985890919 23.903149488494108 0 23.903149488494108 86.837819041319221 0 0 0 0 -70.879321975893617 46.815970253590422 0 46.815970253590422 135.938855266053 0 0 0 0 -75.297566939527314 52.94161724204605 0 52.94161724204605 135.45356990049913 0 0 0 0 -98.204734365806871 21.032932654183242 0 21.032932654183242 148.44142810973426 0 0 0 0 -98.187952833412055 34.801815537586663 0 34.801815537586663 238.60078364741639 0 0 0 0 -5.8268980801537609 0.79374295711982512 0 0.79374295711982512 119.8349329055402 0 0 0 0 -58.149350876454719 -33.69146567064854 0 -33.69146567064854 213.59624538385833 0 0 0 0 -17.662232024078548 -10.618597757980751 0 -10.618597757980751 89.126814625647967 0 0 0 0 -2.7843560092117432 -13.347793609361062 0 -13.347793609361062 87.678173523484077 0 0 0 0 -229.71834415339413 -121.84626410923011 0 -121.84626410923011 97.015458739042515 0 0 0 0 -7.2065865126528745 -30.459834362907031 0 -30.459834362907031 23.365402186205813 0 0 0 0 -79.799558176630171 -250.68338098930326 0 -250.68338098930326 43.936613754689461 0 0 0 0 -1.9893406160998737 -53.930704752814592 0 -53.930704752814592 179.65802612271929 0 0 0 0 -105.28090067239691 -314.95855907741498 0 -314.95855907741498 124.83123616685043 0 0 0 0 -193.49251175818335 -217.55403048590233 0 -217.55403048590233 35.310611526510911 0 0 0 0 -167.23116033885299 -37.83389642223483 0 -37.83389642223483 213.8804206654313 0 0 0 0 -163.76688915827947 6.2928081365589605 0 6.2928081365589605 252.92833429956227 0 0 0 0 -133.18526713619053 52.569914106443321 0 52.569914106443321 322.79437241150299 0 0 0 0 -149.29065891719802 -7.2422392229709658 0 -7.2422392229709658 282.44850835787656 0 0 0 0 -146.61725441978797 5.1945489132849616 0 5.1945489132849616 233.95739958148624 0 0 0 0 42.898638289447717 186.97219331362248 0 186.97219331362248 407.41998476361914 0 0 0 0 -134.74101330029043 1.5429161168140126 0 1.5429161168140126 211.26270995241794 0 0 0 0 0.724856888959029 -25.667304160425097 0 -25.667304160425097 5.0789951696225444 0 0 0 0 0.34611388174614177 -56.385052936630871 0 -56.385052936630871 188.18271739480994 0 0 0 0 21.595381262567116 -351.22933712027589 0 -351.22933712027589 227.37674053185492 0 0 0 0 -603.37501383736208 -262.82112646239329 0 -262.82112646239329 659.11678499344634 0 0 0 0 56.634062160498033 -302.88524282447634 0 -302.88524282447634 -17.411481780909526 0 0 0 0 -40.007683148859542 -122.35344677465037 0 -122.35344677465037 -44.530828807754006 0 0 0 0 -92.659602496073603 -199.65798990931398 0 -199.65798990931398 -26.365075950074242 0 0 0 0 -8.8848076516872361 -27.143773163823411 0 -27.143773163823411 118.98763493486081 0 0 0 0 -81.366272092702729 80.562406123230176 0 80.562406123230176 354.79909854827565 0 0 0 0 -32.868585736604473 -59.954851565620629 0 -59.954851565620629 111.81109107629163 0 0 0 0 -3.1640585421044367 -24.544841830075597 0 -24.544841830075597 97.772266250681923 0 0 0 0 -7.5748846541390762 4.4581175435322677 0 4.4581175435322677 14.3905314531508 0 0 0 0 -483.77431175433321 -199.78491801867494 0 -199.78491801867494 247.12994229965989 0 0 0 0 102.12663688853416 100.61917999896923 0 100.61917999896923 406.35110533604166 0 0 0 0 -215.79030597599922 -400.57860082028492 0 -400.57860082028492 97.35781134343415 0 0 0 0 137.22773741352194 -105.48080220136035 0 -105.48080220136035 28.448589947132859 0 0 0 0 20.840449478183473 -221.47187128270161 0 -221.47187128270161 105.56641024822602 0 0 0 0 -260.4966878510013 -222.69073530875903 0 -222.69073530875903 223.08991422998952 0 0 0 0 106.63959730093302 -188.49753734926344 0 -188.49753734926344 203.55714950795664 0 0 0 0 97.683060500030024 -129.05266083548486 0 -129.05266083548486 111.03349040476678 0 0 0 0 63.96979924811194 -150.79147924789868 0 -150.79147924789868 183.28249952560145 0 0 0 0 107.88748792355591 -159.29211075259082 0 -159.29211075259082 187.57385591509956 0 0 0 0 67.203466168283285 -242.69179001783777 0 -242.69179001783777 129.43472284354357 0 0 0 0 67.588247225010718 -150.67348325760395 0 -150.67348325760395 390.28165747507592 0 0 0 0 2.8331914153832258 -253.50698232457944 0 -253.50698232457944 262.09120445765438 0 0 0 0 1.4727179486166051 -13.19245517554009 0 -13.19245517554009 585.49194596789312 0 0 0 0 19.555236218315258 -117.63518726354232 0 -117.63518726354232 599.38292530079343 0 0 0 0 61.478153625260347 -112.61805279787222 0 -112.61805279787222 380.50186423838022 0 0 0 0 94.40690300813111 -174.78327222699227 0 -174.78327222699227 364.29672477851273 0 0 0 0 75.069559059250878 -235.47681864348124 0 -235.47681864348124 412.21571756826597 0 0 0 0 15.644344822199287 -121.90774584226165 0 -121.90774584226165 632.26388171687722 0 0 0 0 83.267697225896654 -280.39803281229979 0 -280.39803281229979 636.05287324171513 0 0 0 0 368.85615528053006 -327.16724704743683 0 -327.16724704743683 246.11246748364647 0 0 0 0 4.6051022424821113 -4.0127110484551736 0 -4.0127110484551736 4.2686302086755177 0 0 0 0 -76.834790991225191 -73.493435778829735 0 -73.493435778829735 1167.2346578743291 0 0 0 0 533.68572075769589 -469.13950348263097 0 -469.13950348263097 224.81529771491478 0 0 0 0 256.15196872111545 -38.444024628157422 0 -38.444024628157422 -35.421190615656087 0 0 0 0 -26.411972216205186 29.589148389881302 0 29.589148389881302 75.392573443037691 0 0 0 0 151.68600854798609 -28.924525223705132 0 -28.924525223705132 16.099784914782504 0 0 0 0 222.62911729255325 -222.63959724688902 0 -222.63959724688902 133.13783795238123 0 0 0 0 181.90032127550057 -103.95255296993128 0 -103.95255296993128 72.654723207422649 0 0 0 0 99.108110973601811 -98.505802482191939 0 -98.505802482191939 95.258961890867795 0 0 0 0 150.22167721426194 -121.39825025116443 0 -121.39825025116443 12.035104667156702 0 0 0 0 48.857834627274201 -103.56878696052445 0 -103.56878696052445 16.307998308504466 0 0 0 0 -24.825406805835541 -9.0048265302029904 0 -9.0048265302029904 22.909293417485969 0 0 0 0 -6.9933872787919427 2.8542212280881358 0 2.8542212280881358 -4.1091050643881317 0 0 0 0 -122.94872619847899 -5.8869048967571871 0 -5.8869048967571871 -4.1080952665070072 0 0 0 0 -44.426619453684566 -117.16705676726997 0 -117.16705676726997 -111.35647422989132 0 0 0 0 -28.53344796051465 -82.31581874290714 0 -82.31581874290714 -42.723080829287937 0 0 0 0 70.017806787912377 -92.069622818744392 0 -92.069622818744392 -42.295967484096764 0 0 0 0 40.456253387578499 -86.903412210202077 0 -86.903412210202077 -108.21268864980084 0 0 0 0 28.346305047822625 -124.20347608998418 0 -124.20347608998418 -45.276334427951952 0 0 0 0 37.906955085814161 -117.72176814722479 0 -117.72176814722479 -40.888091046537738 0 0 0 0 39.966940938155403 -146.08582179981022 0 -146.08582179981022 -11.525314720784081 0 0 0 0 86.266946488855183 -145.81108710031549 0 -145.81108710031549 -38.724028887278109 0 0 0 0 30.859990791956079 -151.8082619787092 0 -151.8082619787092 36.199565978022292 0 0 0 0 131.92528758162121 -178.43220011139056 0 -178.43220011139056 41.735995622497285 0 0 0 0 -64.177838401155043 -159.02290022014495 0 -159.02290022014495 76.744541432184633 0 0 0 0 57.286594079721908 -193.54375698599324 0 -193.54375698599324 -24.10453459371638 0 0 0 0 -71.057375836328902 -209.39049570429779 0 -209.39049570429779 -12.646195377994445 0 0 0 0 -41.515429470249728 -55.491539056340116 0 -55.491539056340116 98.424361195790425 0 0 0 0 -7.220731433877063 -42.947311240481213 0 -42.947311240481213 53.095127170643536 0 0 0 0 -60.94070361475724 -88.551424413286441 0 -88.551424413286441 42.729548217437696 0 0 0 0 28.080281409834924 -98.674498585191031 0 -98.674498585191031 -59.713748456619214 0 0 0 0 17.956608079266516 -34.631428737207898 0 -34.631428737207898 -19.746186011063401 0 0 0 0 8.1177787498886573 -109.42833998706192 0 -109.42833998706192 -11.866865232300825 0 0 0 0 -279.4576434556202 36.122670307900989 0 36.122670307900989 75.891806582218123 0 0 0 0 -8.286796504709562 -4.133478340274138 0 -4.133478340274138 22.698115137540043 0 0 0 0 -17.861247849145457 -56.109486175460916 0 -56.109486175460916 43.076999151613563 0 0 0 0 7.571121829991398 -7.9155230801807193 0 -7.9155230801807193 116.51384309628338 0 0 0 0 2.9025929870787781 -24.733316291976081 0 -24.733316291976081 74.730922573674491 0 0 0 0 17.573410234408712 9.2421039900476671 0 9.2421039900476671 30.438325612561101 0 0 0 0 190.71074673441649 -44.101172244379995 0 -44.101172244379995 -34.579275364263594 0 0 0 0 -58.595817875209775 -251.77884086003723 0 -251.77884086003723 1425.963989001888 0 0 0 0 -241.95071299075235 151.8750344768996 0 151.8750344768996 409.80578528047772 0 0 0 0 11.57544467000916 -23.687785972980294 0 -23.687785972980294 52.167238323487197 0 0 0 0 6.6183527387298469 -8.9441138910130178 0 -8.9441138910130178 22.237414308181485 0 0 0 0 390.01135931001005 2148.6051348301371 0 2148.6051348301371 4990.355689345306 0 0 0 0 -815.77605916193704 393.39461355831008 0 393.39461355831008 5003.1482481533167 0 0 0 0 -208.20191349954064 704.66865237796446 0 704.66865237796446 1657.1964438491959 0 0 0 0 -686.09721102924914 -638.92191473469575 0 -638.92191473469575 2519.1500323049549 0 0 0 0 -586.94752138866261 -793.03771552041871 0 -793.03771552041871 2632.4118307238386 0 0 0 0 333.71890910248675 -2808.3418323158257 0 -2808.3418323158257 4987.8599197173025 0 0 0 0 1308.130449477316 -1243.6448823266182 0 -1243.6448823266182 460.52798115866972 0 0 0 0 916.16532211749973 134.26852149589104 0 134.26852149589104 -190.41918236355559 0 0 0 0 656.88734739359552 -1211.2929882011176 0 -1211.2929882011176 1607.4791075525281 0 0 0 0 18.611718815720337 -134.3259797404753 0 -134.3259797404753 412.95301302299777 0 0 0 0 -281.76642662886968 -154.66500039968378 0 -154.66500039968378 1954.5879414000665 0 0 0 0 -7.7246419078640685 -594.71885528587745 0 -594.71885528587745 1054.0388095782546 0 0 0 0 -362.84133747426267 70.760451614922204 0 70.760451614922204 673.06270612269873 0 0 0 0 9.9564680976017002 -58.810043110264814 0 -58.810043110264814 -519.20815861976007 0 0 0 0 347.35791291854184 194.32847620140819 0 194.32847620140819 -432.19310640537878 0 0 0 0 -3.0276869386418364 1.1657457288202977 0 1.1657457288202977 -0.29394196428017949 0 0 0 0 -66.309547123900444 -98.212373221846065 0 -98.212373221846065 466.94920453238592 0 0 0 0 17.027260991557704 -52.933884243881039 0 -52.933884243881039 -114.91432599889231 0 0 0 0 -33.679706997970442 -66.651379105474916 0 -66.651379105474916 -76.910772237766651 0 0 0 0 -138.6736914281837 -76.608387457075878 0 -76.608387457075878 -101.08668407108053 0 0 0 0 -52.843210867875086 -124.87540263791743 0 -124.87540263791743 -498.92009267157846 0 0 0 0 -54.297927523102146 -15.330989847763703 0 -15.330989847763703 -157.49388912244467 0 0 0 0 -0.31982056168169493 228.76420874860196 0 228.76420874860196 -149.97538707942022 0 0 0 0 0.65858431975654508 0.82901911393128103 0 0.82901911393128103 154.47735711315181 0 0 0 0 -1.7115783277258325 -2.0810572262913212 0 -2.0810572262913212 -6.4281345092926472 0 0 0 0 217.32077170572833 -163.43186505562335 0 -163.43186505562335 -104.32648403671919 0 0 0 0 142.4969632571773 40.619732857354393 0 40.619732857354393 60.468021090298862 0 0 0 0 159.6870341318172 -102.963252567155 0 -102.963252567155 134.29466040280022 0 0 0 0 23.546864126345099 -432.00735685216205 0 -432.00735685216205 -238.17734721950546 0 0 0 0 57.713716218853733 59.964927193948824 0 59.964927193948824 1015.3212096640345 0 0 0 0 -180.46277880510434 -530.94473426346121 0 -530.94473426346121 1503.4949090697628 0 0 0 0 214.87454774291263 470.63055890891701 0 470.63055890891701 1767.7414790829207 0 0 0 0 -565.78809845364026 462.69464016815618 0 462.69464016815618 1859.0114898372849 0 0 0 0 -558.74458748034056 330.73054189891991 0 330.73054189891991 3033.5603526307168 0 0 0 0 -1010.1151565133849 -656.06163208196813 0 -656.06163208196813 5004.2178275137994 0 0 0 0 -0.12143820213729933 6.5647832536378701 0 6.5647832536378701 295.12024046372971 0 0 0 0 6.4695754343136516 -889.97341002027679 0 -889.97341002027679 4965.1912371335729 0 0 0 0 1.9841308497942611 5.1045379537996212 0 5.1045379537996212 21.817122094421109 0 0 0 0 -358.62578565473689 1597.8242222458139 0 1597.8242222458139 4986.7593940259885 0 0 0 0 970.28997297884916 1497.4663360702943 0 1497.4663360702943 1385.1739437593205 0 0 0 0 168.51234928571648 -414.53207973005919 0 -414.53207973005919 -393.17986667489458 0 0 0 0 -624.67682637857718 -138.59233347471309 0 -138.59233347471309 307.40675011955318 0 0 0 0 -0.42177715267347726 5.9821597819177583 0 5.9821597819177583 48.997848474483533 0 0 0 0 508.29892906460844 180.33702386127334 0 180.33702386127334 28.39459435804747 0 0 0 0 -105.11397309016934 -293.09127337436075 0 -293.09127337436075 176.08517692153691 0 0 0 0 -192.67345963905115 -53.932613930070147 0 -53.932613930070147 -71.734905895835254 0 0 0 0 20.406444310457523 -6.4111550992965931 0 -6.4111550992965931 53.045087729871739 0 0 0 0 4.031450293290705 -5.8223644194949884 0 -5.8223644194949884 0.97161145909922197 0 0 0 0 -4.8241321090226243 3.1618980873398073 0 3.1618980873398073 10.624769494954421 0 0 0 0 -0.24221583739640209 -67.237656690482254 0 -67.237656690482254 15.465716745587997 0 0 0 0 -0.19947588920757839 -5.1632658236990636 0 -5.1632658236990636 1.6164409606587355 0 0 0 0 17.498847805134005 -61.154382413058556 0 -61.154382413058556 7.3141011334373616 0 0 0 0 -23.594731157431376 -6.567154673175537 0 -6.567154673175537 38.471621365402825 0 0 0 0 -23.837167786790673 -38.807438393487246 0 -38.807438393487246 19.105666431241843 0 0 0 0 -32.861140547555379 -59.491640407177329 0 -59.491640407177329 37.554691381781595 0 0 0 0 -91.718571512146852 -100.65915171709912 0 -100.65915171709912 -59.624747794790892 0 0 0 0 -84.715237825331599 -213.06664267387532 0 -213.06664267387532 -72.748368957137131 0 0 0 0 -2.5086205463010511 -15.845717907914405 0 -15.845717907914405 42.462139936829089 0 0 0 0 98.160505173723664 -39.675560487099574 0 -39.675560487099574 -83.405384365905775 0 0 0 0 -2.532083561152084 -12.941973556515649 0 -12.941973556515649 -13.35211205751574 0 0 0 0 -25.247061641600339 12.422216148417647 0 12.422216148417647 28.861814840478473 0 0 0 0 -1.2227729696364182 -20.556291300140856 0 -20.556291300140856 39.422485661684732 0 0 0 0 14.805323949752733 -33.258526569974492 0 -33.258526569974492 -81.375799926740001 0 0 0 0 30.964155915912045 -82.539042837946909 0 -82.539042837946909 -96.966247824071615 0 0 0 0 1.157729184460297 -1.2395353239696476 0 -1.2395353239696476 14.719304466729398 0 0 0 0 -117.56202915399373 -17.76259263765678 0 -17.76259263765678 61.218238321991521 0 0 0 0 10.810070634504694 -20.166840049874736 0 -20.166840049874736 -1.5056175631762017 0 0 0 0 8.3147329378137229 -11.162575111523211 0 -11.162575111523211 9.7867925402520655 0 0 0 0 -59.833761385802518 -44.700196292891633 0 -44.700196292891633 7.0435595681337873 0 0 0 0 -112.27095188260546 151.62449730867229 0 151.62449730867229 846.92277384872432 0 0 0 0 220.1444887308721 22.180012331562466 0 22.180012331562466 6.3466330088558607 0 0 0 0 -14.566519788918896 -46.219592179775645 0 -46.219592179775645 -15.196330169892462 0 0 0 0 -0.78696250019702774 -68.401029691598524 0 -68.401029691598524 56.541533955722116 0 0 0 0 22.495926106607968 66.653516146790935 0 66.653516146790935 223.15729010227369 0 0 0 0 -57.665839438762077 -27.415767214031803 0 -27.415767214031803 286.35691896058142 0 0 0 0 299.75981754049059 -428.90630907071773 0 -428.90630907071773 715.86082151317169 0 0 0 0 -97.100473663837505 -303.28240116010022 0 -303.28240116010022 546.99248901611645 0 0 0 0 -24.508437163618623 -12.937341938597456 0 -12.937341938597456 368.09444726454149 0 0 0 0 1.0388508950796904 123.63695748428017 0 123.63695748428017 868.15745300004028 0 0 0 0 5.0299265475971024 -5.568568328853182 0 -5.568568328853182 3.4434755471103173 0 0 0 0 54.916730980752163 -120.09255762552766 0 -120.09255762552766 862.49974029317491 0 0 0 0 53.274611432461256 -154.59036984499267 0 -154.59036984499267 139.61772619785552 0 0 0 0 151.44872659484872 158.08400212018319 0 158.08400212018319 239.81477441845891 0 0 0 0 494.09479194037084 235.18641378898099 0 235.18641378898099 355.11214912457217 0 0 0 0 94.03652620976527 3.9904869546580812 0 3.9904869546580812 225.4479673734395 0 0 0 0 230.32222303736165 93.165553002052548 0 93.165553002052548 70.481413824661104 0 0 0 0 -16.132093015557075 33.543616526277219 0 33.543616526277219 164.60916985538552 0 0 0 0 112.76185367093467 30.86013840318401 0 30.86013840318401 -23.944857300170952 0 0 0 0 77.280331136674221 -75.70817213731857 0 -75.70817213731857 -30.344982002723555 0 0 0 0 20.010611139853779 9.8527732052571082 0 9.8527732052571082 -138.46361262624282 0 0 0 0 71.163268560385177 -266.8126324058041 0 -266.8126324058041 -244.46398709661571 0 0 0 0 93.464887197889112 -279.36803454819005 0 -279.36803454819005 204.6439073974816 0 0 0 0 -86.562717038625578 -42.029208784374987 0 -42.029208784374987 -62.77974306168835 0 0 0 0 -436.36574017203441 -667.1596469970932 0 -667.1596469970932 -194.14728463302879 0 0 0 0 8.1013718976440021 -10.009716868781393 0 -10.009716868781393 9.2484070420551134 0 0 0 0 -175.04824309994919 -42.394253875769891 0 -42.394253875769891 -226.077623920522 0 0 0 0 900.84403908913873 -538.80270968813454 0 -538.80270968813454 85.383563127897588 0 0 0 0 666.72951338589803 -384.04715266229954 0 -384.04715266229954 -555.21208278774247 0 0 0 0 -224.89430327958374 -62.468635215709583 0 -62.468635215709583 -102.97202700407934 0 0 0 0 513.71065036085838 -662.24256939824954 0 -662.24256939824954 -384.38709085627943 0 0 0 0 -277.58956475896036 -378.83540007063857 0 -378.83540007063857 -15.89955769572407 0 0 0 0 350.49243980831011 294.82029934079605 0 294.82029934079605 207.51032803446139 0 0 0 0 157.57337807170097 92.260089442588651 0 92.260089442588651 24.566991446407883 0 0 0 0 1428.2786007401216 -19.56893093970649 0 -19.56893093970649 -166.98845844001639 0 0 0 0 2.413751766253708 -4.2080239648502324 0 -4.2080239648502324 13.81175752652692 0 0 0 0 366.43874602118558 -279.48981751728115 0 -279.48981751728115 -48.290411041056359 0 0 0 0 519.18366708697431 -231.33132015402612 0 -231.33132015402612 -126.68366696385692 0 0 0 0 665.69963384505172 -354.17508649537353 0 -354.17508649537353 -126.7801521338115 0 0 0 0 35.496419826929468 10.664763192005466 0 10.664763192005466 134.90767959876484 0 0 0 0 3.1234577790700651 -11.146205640046652 0 -11.146205640046652 41.357703755010689 0 0 0 0 154.78419293470824 -75.786510888815883 0 -75.786510888815883 163.89788134372293 0 0 0 0 334.79290624041823 -342.65455111286815 0 -342.65455111286815 178.2903485691495 0 0 0 0 141.16912552009353 44.718666989856501 0 44.718666989856501 11.270286436219976 0 0 0 0 358.18523832749634 -238.38062272678599 0 -238.38062272678599 -90.09246492518696 0 0 0 0 363.67129907866911 483.62406271806867 0 483.62406271806867 115.75523482388508 0 0 0 0 498.33402552646248 68.659940015584652 0 68.659940015584652 5.3278263717575101 0 0 0 0 352.42897454711897 -236.85189114881223 0 -236.85189114881223 590.89802268463609 0 0 0 0 430.53576155897827 -441.11877918115442 0 -441.11877918115442 232.87664160565328 0 0 0 0 514.40370177538534 -748.78879917684662 0 -748.78879917684662 455.89893044764176 0 0 0 0 430.76871544786536 -451.69624864473917 0 -451.69624864473917 -140.52470208198611 0 0 0 0 0.75538205243378798 1.9769743179923935 0 1.9769743179923935 1.9416816092972482 0 0 0 0 297.75931348412496 -176.48278006100918 0 -176.48278006100918 -24.702449551137761 0 0 0 0 372.16663904147572 -108.35171256376998 0 -108.35171256376998 -49.59645772310796 0 0 0 0 194.72999163817076 -97.068314109865241 0 -97.068314109865241 22.222701954753575 0 0 0 0 88.216643816238502 -163.62966521596172 0 -163.62966521596172 -71.279868333935156 0 0 0 0 179.43563709470618 -22.114314673446643 0 -22.114314673446643 -226.18528646397317 0 0 0 0 476.70436918709129 -20.103594540365521 0 -20.103594540365521 -76.233506027630938 0 0 0 0 3.4194549056846313 -13.823417085293272 0 -13.823417085293272 62.699984165557908 0 0 0 0 -1.3704041509081435 282.24451301165936 0 282.24451301165936 125.14532144110126 0 0 0 0 2.9120601892031219 -14.634015283512094 0 -14.634015283512094 64.041117348848331 0 0 0 0 -239.01657257296984 -80.313999125724422 0 -80.313999125724422 -34.420359760537394 0 0 0 0 67.59798164709855 -11.056504474483518 0 -11.056504474483518 12.817577972732664 0 0 0 0 -202.92365751065654 2.9735593830582729 0 2.9735593830582729 176.25845710647809 0 0 0 0 -274.28517738249951 -169.6960292944342 0 -169.6960292944342 904.40005250404465 0 0 0 0 5.2646178294366504 -4.6385688256819453 0 -4.6385688256819453 2.9925693595240332 0 0 0 0 22.090341100278238 -649.67580028640168 0 -649.67580028640168 767.8433958338187 0 0 0 0 543.99756963185382 380.846707386444 0 380.846707386444 681.21534333600084 0 0 0 0 -49.870287462115812 91.721151757954431 0 91.721151757954431 9.0820238763517409 0 0 0 0 0.60940795785333357 2.3660151204955042 0 2.3660151204955042 2.1732441792308776 0 0 0 0 -128.91242535471247 37.777554621165109 0 37.777554621165109 226.25860155561531 0 0 0 0 -40.945769712302081 -159.36380476047816 0 -159.36380476047816 628.45909018790917 0 0 0 0 -94.537773712727585 -324.41303978831547 0 -324.41303978831547 357.94655830341708 0 0 0 0 -19.302393843309972 -15.963081856568806 0 -15.963081856568806 36.298407878060971 0 0 0 0 -0.4813231672865963 -1.6890309303458082 0 -1.6890309303458082 2.8632490008586657 0 0 0 0 92.750209154672575 -65.822487504728997 0 -65.822487504728997 27.659411228933095 0 0 0 0 3.9646663103694664 -11.649732595611567 0 -11.649732595611567 15.825812176013073 0 0 0 0 -21.855506173576941 -81.933854052997049 0 -81.933854052997049 142.30271616180562 0 0 0 0 25.299362097318976 -5.872230039486567 0 -5.872230039486567 7.8413920506100112 0 0 0 0 -12.407785232724564 -27.718391403440364 0 -27.718391403440364 32.928053451712003 0 0 0 0 108.4513823587331 -110.21281392330093 0 -110.21281392330093 -327.70969816422439 0 0 0 0 -173.6336376361744 343.05557934070634 0 343.05557934070634 85.71562237791295 0 0 0 0 212.6582877573037 78.955108834954444 0 78.955108834954444 -446.87881202006702 0 0 0 0 211.20232065471464 69.020463226497668 0 69.020463226497668 -174.9053957036158 0 0 0 0 -14.023702244619926 -506.15168887721302 0 -506.15168887721302 403.31383632172265 0 0 0 0 110.32250451107666 605.88073459820589 0 605.88073459820589 292.66835064106635 0 0 0 0 677.71940555956098 355.99887302240404 0 355.99887302240404 -327.37460058483884 0 0 0 0 -590.6462804253174 -784.17869937349678 0 -784.17869937349678 1296.8788982848055 0 0 0 0 1.9669818568715431 -14.522695899013417 0 -14.522695899013417 76.547638341227696 0 0 0 0 974.1910558935233 714.6264124222289 0 714.6264124222289 -884.9589548371996 0 0 0 0 652.38986013757403 -396.25811867534321 0 -396.25811867534321 74.680854669280961 0 0 0 0 1.2047575568420648 -1.7110071697660132 0 -1.7110071697660132 17.768313761413907 0 0 0 0 153.46300493221634 -43.294065433631658 0 -43.294065433631658 -53.621817492647097 0 0 0 0 -209.2390788466455 -439.24826196896356 0 -439.24826196896356 447.68587230967387 0 0 0 0 156.93766676015503 -48.46225655813987 0 -48.46225655813987 -109.63497986896255 0 0 0 0 214.9100756424923 -228.10026573420873 0 -228.10026573420873 -84.781231013366778 0 0 0 0 155.08353573491695 -169.73019280129301 0 -169.73019280129301 -275.38326693086128 0 0 0 0 169.92960717816095 -124.23137335051433 0 -124.23137335051433 -156.42663896770682 0 0 0 0 80.549347452979418 -229.7434524415512 0 -229.7434524415512 -21.303840712782403 0 0 0 0 264.01854453371425 -95.893044211701181 0 -95.893044211701181 -1.4893427032075124 0 0 0 0 214.98068915075964 -312.32140541727813 0 -312.32140541727813 53.116405006607238 0 0 0 0 84.351305657863122 -210.28096115632798 0 -210.28096115632798 -25.334602710456238 0 0 0 0 64.344514489285757 -148.02486043513773 0 -148.02486043513773 -8.4718721054778143 0 0 0 0 141.29023347593977 -111.19800890448212 0 -111.19800890448212 2.5113681031143642 0 0 0 0 141.07375538983615 -127.36478497372082 0 -127.36478497372082 -169.22047844025292 0 0 0 0 -520.63907953985517 -189.01563252429946 0 -189.01563252429946 738.36606121005934 0 0 0 0 548.25026252794612 277.55465697708735 0 277.55465697708735 -396.03278135882283 0 0 0 0 -111.40921786811884 -146.37293114256772 0 -146.37293114256772 -12.803669242024625 0 0 0 0 -125.07900581055458 -43.864535988463558 0 -43.864535988463558 33.212844672765641 0 0 0 0 -0.67328601621424866 -5.4037662594097631 0 -5.4037662594097631 2.8355496412198491 0 0 0 0 -364.25866490789667 -25.929945103383034 0 -25.929945103383034 139.79055432783207 0 0 0 0 2.1987105173977941 -6.8885084518006288 0 -6.8885084518006288 13.868395423832041 0 0 0 0 5.0002901202542489 -22.437728427073125 0 -22.437728427073125 0.62560617166718657 0 0 0 0 -14.974113754857171 -94.369270828265144 0 -94.369270828265144 -70.052216942316591 0 0 0 0 368.8048061087884 24.058705669551273 0 24.058705669551273 120.66116958597559 0 0 0 0 23.600965655208711 -363.02124912393629 0 -363.02124912393629 -268.50483963183615 0 0 0 0 -1.8274788862322566 0.38621056195553649 0 0.38621056195553649 2.2719783649859409 0 0 0 0 6.5407022413128288 12.267240950026462 0 12.267240950026462 -53.440394140969147 0 0 0 0 -12.571767488049886 72.260585173942673 0 72.260585173942673 105.27238748765376 0 0 0 0 -88.433585539373325 -67.425860705747255 0 -67.425860705747255 95.033183863823069 0 0 0 0 -32.079384319713427 -44.687200059795941 0 -44.687200059795941 29.712789225144661 0 0 0 0 -85.368217754106809 -40.48974247240767 0 -40.48974247240767 181.95075123395449 0 0 0 0 -30.158731662666924 47.354838178143837 0 47.354838178143837 181.5856567621413 0 0 0 0 68.473561986025402 4.2541515305620123 0 4.2541515305620123 181.08556864156344 0 0 0 0 -52.37268527387775 -10.906519686897695 0 -10.906519686897695 207.47535650998907 0 0 0 0 62.886711255690557 13.684630846642904 0 13.684630846642904 127.41924096915955 0 0 0 0 -44.756345442574201 -87.925363957636591 0 -87.925363957636591 33.431885320656875 0 0 0 0 -26.100688125665783 -42.398495280271163 0 -42.398495280271163 -68.067329696236584 0 0 0 0 -22.386331314882227 -119.54629669687438 0 -119.54629669687438 -72.609850376457359 0 0 0 0 324.61677280946412 -72.061667946182752 0 -72.061667946182752 23.321258748761466 0 0 0 0 -13.679773257536098 -21.266968927080029 0 -21.266968927080029 23.300987879716558 0 0 0 0 3.9992974486152124 -10.327223428790241 0 -10.327223428790241 14.332605167773295 0 0 0 0 -183.50202631741286 -269.40814450368453 0 -269.40814450368453 53.054015830823118 0 0 0 0 1.8986301997660462 -56.457829096194018 0 -56.457829096194018 -271.50025130277936 0 0 0 0 -5.7965719708485581 -2.9330982582575622 0 -2.9330982582575622 5.0739123680895233 0 0 0 0 -2.8959969705219044 -0.63033238700510097 0 -0.63033238700510097 6.6357531751453926 0 0 0 0 -18.045660943627773 -9.9067360408428158 0 -9.9067360408428158 18.846737166757521 0 0 0 0 162.53433966614671 -563.20779030131689 0 -563.20779030131689 187.26317312042011 0 0 0 0 428.92756973347048 -403.94246885124494 0 -403.94246885124494 -259.17133299353191 0 0 0 0 365.92499420542026 -607.7958787466132 0 -607.7958787466132 -55.893722343891568 0 0 0 0 -30.291803824267618 194.0246388597061 0 194.0246388597061 300.84080731252743 0 0 0 0 384.63689734345098 -340.01676159698764 0 -340.01676159698764 686.59455893126869 0 0 0 0 510.31348222260522 -144.41302206636828 0 -144.41302206636828 264.29703391364455 0 0 0 0 700.33738478685962 -43.752305958173565 0 -43.752305958173565 198.12659021470972 0 0 0 0 272.01402640445485 100.06554231541668 0 100.06554231541668 197.44243295745571 0 0 0 0 41.84867030694727 12.039949312222234 0 12.039949312222234 224.61056609661682 0 0 0 0 204.10898179935293 62.604485919249782 0 62.604485919249782 209.42038082977888 0 0 0 0 56.362916647575446 28.587797795994447 0 28.587797795994447 259.76096773631434 0 0 0 0 251.11913225222088 -13.429647393795676 0 -13.429647393795676 226.76321432516124 0 0 0 0 267.50915533748594 2.3336467221815838 0 2.3336467221815838 212.27669176731797 0 0 0 0 277.86736194876812 -27.210979205443437 0 -27.210979205443437 210.68857534511881 0 0 0 0 236.52158898420839 -12.447722277727735 0 -12.447722277727735 237.39457225641672 0 0 0 0 224.08289502215507 -40.834728206020372 0 -40.834728206020372 254.39084108693351 0 0 0 0 159.97309957527432 -47.390870730170718 0 -47.390870730170718 259.49067312853367 0 0 0 0 283.00660982101834 -102.15316740843616 0 -102.15316740843616 283.22402054983104 0 0 0 0 112.28749209794023 -78.187065561824056 0 -78.187065561824056 381.88718441149103 0 0 0 0 191.94225399040312 -129.33643269628806 0 -129.33643269628806 413.76913535564745 0 0 0 0 193.91353051148781 -95.410610417900898 0 -95.410610417900898 402.26173496179399 0 0 0 0 91.673875099938414 -16.258653183929709 0 -16.258653183929709 300.69440353902883 0 0 0 0 34.698697830895298 -22.711572976534626 0 -22.711572976534626 431.34884902804333 0 0 0 0 81.412061546395307 -20.598738964477889 0 -20.598738964477889 284.6296865527147 0 0 0 0 143.34282443881057 -76.810572580630833 0 -76.810572580630833 321.7818311871697 0 0 0 0 42.797765841197361 -46.832450522592808 0 -46.832450522592808 345.78250021751228 0 0 0 0 13.479756421592356 0.95782950898865238 0 0.95782950898865238 276.53958039189683 0 0 0 0 -60.26581832104057 -20.445813805674334 0 -20.445813805674334 267.34212866491043 0 0 0 0 -32.63417077111535 -57.076187498551917 0 -57.076187498551917 275.63645870834807 0 0 0 0 -9.5354729036203025 -40.218265115909617 0 -40.218265115909617 225.95514250663109 0 0 0 0 16.691499105261073 51.688270770597228 0 51.688270770597228 221.66799135480323 0 0 0 0 17.676095227082442 39.983927029919869 0 39.983927029919869 274.63878270499663 0 0 0 0 15.113385728258436 47.699236532025679 0 47.699236532025679 304.68187628165833 0 0 0 0 22.003115047837127 86.15047668387524 0 86.15047668387524 277.2099822565051 0 0 0 0 172.1616847164014 179.04853170617025 0 179.04853170617025 -130.3143602440432 0 0 0 0 -5.3974968262568268 13.506902035454754 0 13.506902035454754 2.4277630868936058 0 0 0 0 -29.986867983583977 64.934895579659951 0 64.934895579659951 333.34748678323376 0 0 0 0 -34.1776518011593 -7.7307178484606993 0 -7.7307178484606993 182.15048047384698 0 0 0 0 -31.05389030819515 44.111449279836961 0 44.111449279836961 304.75570735921792 0 0 0 0 29.200096121840943 64.649715008237763 0 64.649715008237763 155.31528089661151 0 0 0 0 12.417596544100643 -8.5212848416989129 0 -8.5212848416989129 4.9741915961410044 0 0 0 0 26.044468784973105 41.008504630064635 0 41.008504630064635 205.79633156891214 0 0 0 0 21.485045087644266 107.56486395342745 0 107.56486395342745 562.92502851288737 0 0 0 0 5.5575915252262433 -3.103819776451509 0 -3.103819776451509 1.8593081289695164 0 0 0 0 58.6390883992608 11.429968159676719 0 11.429968159676719 809.16909199758811 0 0 0 0 64.414027247647937 91.887033101158522 0 91.887033101158522 245.74888242106681 0 0 0 0 30.108219007754087 7.6839543289606809 0 7.6839543289606809 113.62835285514302 0 0 0 0 -32.793136904821523 -16.656038861410295 0 -16.656038861410295 153.39154095789229 0 0 0 0 -89.944279206727515 -10.844704633229412 0 -10.844704633229412 125.37628256325843 0 0 0 0 -37.987274165040617 -2.6557480918781948 0 -2.6557480918781948 121.65133877093285 0 0 0 0 -57.807206505717659 31.741810456464009 0 31.741810456464009 146.12471442428068 0 0 0 0 -37.050203339505245 19.779916174675051 0 19.779916174675051 133.65642273076722 0 0 0 0 -73.09869238635838 34.729181240712933 0 34.729181240712933 147.05689671611981 0 0 0 0 -47.002927388710305 172.46041675798369 0 172.46041675798369 221.28156302686807 0 0 0 0 -78.219946675628762 -31.306274092415151 0 -31.306274092415151 236.81769722031095 0 0 0 0 -59.694299164197218 -35.831987752068017 0 -35.831987752068017 226.33079027914209 0 0 0 0 -107.76232709014857 6.459738830153583 0 6.459738830153583 224.5894726436054 0 0 0 0 -59.708793456620697 -16.699324229222839 0 -16.699324229222839 247.88768470994023 0 0 0 0 -69.493248948267137 -49.320810627821629 0 -49.320810627821629 251.41445688474414 0 0 0 0 -137.3453148590188 -217.0493961848224 0 -217.0493961848224 154.6441976869537 0 0 0 0 -14.618550295567697 14.049274369365129 0 14.049274369365129 27.950237866127821 0 0 0 0 -317.36071598735634 261.38752151787867 0 261.38752151787867 416.75325561485442 0 0 0 0 -15.653763055781811 19.146366444066246 0 19.146366444066246 113.87602970806262 0 0 0 0 -196.99419802764896 -57.664696411520708 0 -57.664696411520708 166.76795880399087 0 0 0 0 4.9477114893845018 -12.462405426541039 0 -12.462405426541039 53.423610268599873 0 0 0 0 -2.6722896641902452 104.09341311532262 0 104.09341311532262 81.674673213012284 0 0 0 0 -51.937119304439875 4.4150159568926028 0 4.4150159568926028 166.29435729332909 0 0 0 0 -36.82357564672067 17.894884496848533 0 17.894884496848533 144.37387701988754 0 0 0 0 -45.15708409946501 57.114530482645932 0 57.114530482645932 112.67963141608925 0 0 0 0 -114.54512528876023 162.27568706645434 0 162.27568706645434 235.83893653498671 0 0 0 0 164.07213344348975 102.29343180292562 0 102.29343180292562 120.63118016653971 0 0 0 0 228.20261148068403 -111.1595356753387 0 -111.1595356753387 100.06785281446355 0 0 0 0 42.372538484461984 -338.01544816967362 0 -338.01544816967362 -36.104665477188973 0 0 0 0 10.890776210015495 -14.838757006593369 0 -14.838757006593369 19.38995785256725 0 0 0 0 2.3419422248286583 -3.5137779084879455 0 -3.5137779084879455 4.1415190736741465 0 0 0 0 675.38742951984204 180.43783006457124 0 180.43783006457124 -228.74927393603139 0 0 0 0 17.305727594240231 -21.977928699216413 0 -21.977928699216413 23.863599844378257 0 0 0 0 131.80127573833227 44.701947542027483 0 44.701947542027483 -59.391584905737545 0 0 0 0 -226.7296737161987 -403.87051544429414 0 -403.87051544429414 255.08764689680652 0 0 0 0 216.63924751962691 35.297542034211801 0 35.297542034211801 -58.472018093285442 0 0 0 0 105.31007670529235 11.706050832832261 0 11.706050832832261 -31.445629096124321 0 0 0 0 150.13662487692073 118.98575644966695 0 118.98575644966695 -109.81231113884132 0 0 0 0 60.490096951033649 96.183082730414753 0 96.183082730414753 -28.105483941559214 0 0 0 0 131.01448792738643 48.472255512437187 0 48.472255512437187 -4.1980795109993778 0 0 0 0 -60.02947928750325 65.323419224267127 0 65.323419224267127 95.202552244594699 0 0 0 0 -83.234390062283808 96.888604896776087 0 96.888604896776087 81.694897942717944 0 0 0 0 -16.7171524951987 20.723459612157797 0 20.723459612157797 118.74126283173231 0 0 0 0 -8.5482764984461141 219.4688112320091 0 219.4688112320091 -48.944067221935256 0 0 0 0 -208.0120631300581 95.624167984969972 0 95.624167984969972 81.7221775906728 0 0 0 0 -130.39468619265767 194.3081617445132 0 194.3081617445132 -18.182902354390535 0 0 0 0 -41.118141936089501 250.61128951303908 0 250.61128951303908 -189.2888668464002 0 0 0 0 -162.76325505732211 338.02219586523552 0 338.02219586523552 -133.17110314415186 0 0 0 0 83.890810431013165 127.80292597266816 0 127.80292597266816 -125.86475537958177 0 0 0 0 -23.605011260338046 49.425360815247586 0 49.425360815247586 -49.413099125304143 0 0 0 0 613.08916148957371 -479.60999460459425 0 -479.60999460459425 520.43273392145784 0 0 0 0 1072.6206341070183 510.26782332107905 0 510.26782332107905 196.74763786065159 0 0 0 0 -21.779714031950277 71.174962771907303 0 71.174962771907303 119.9193344342566 0 0 0 0 155.48911547493191 252.96594557743811 0 252.96594557743811 51.72370738141035 0 0 0 0 405.85690208831346 81.276257747802447 0 81.276257747802447 -113.58865739613248 0 0 0 0 280.69470881344364 -119.17678469884777 0 -119.17678469884777 35.033346395837725 0 0 0 0 239.85570691186456 -71.830775213784364 0 -71.830775213784364 82.474231208518177 0 0 0 0 192.50853523501081 -199.9838268443691 0 -199.9838268443691 353.56625119768432 0 0 0 0 -198.25354693716554 -198.59285019375966 0 -198.59285019375966 385.59942537152529 0 0 0 0 12.398791047392251 -20.599111100273149 0 -20.599111100273149 647.19916197589191 0 0 0 0 0.51808431292242396 -0.56643971042043972 0 -0.56643971042043972 0.58082534685992471 0 0 0 0 50.092633274645664 58.533425317335059 0 58.533425317335059 163.73956062116486 0 0 0 0 63.35384803163889 -217.45222468954262 0 -217.45222468954262 -74.715809058703599 0 0 0 0 119.59541230882041 25.030372686160263 0 25.030372686160263 -23.90469497723825 0 0 0 0 -81.176024680618866 -40.51531660769524 0 -40.51531660769524 83.393257384796016 0 0 0 0 -122.14372441331852 -36.900649099602106 0 -36.900649099602106 162.66020474405195 0 0 0 0 29.904112474450812 128.94968436738509 0 128.94968436738509 332.47795408469483 0 0 0 0 -120.07135719674125 -40.310371790867521 0 -40.310371790867521 309.43531581135539 0 0 0 0 -120.53539321926564 -18.686875128912106 0 -18.686875128912106 41.027819296565667 0 0 0 0 -119.68016689006618 -25.221353078323773 0 -25.221353078323773 77.577417797124326 0 0 0 0 -108.50376008940631 -270.30481087048383 0 -270.30481087048383 -102.66154610026024 0 0 0 0 9.7296342140493337 -12.063780985392942 0 -12.063780985392942 18.435558836871049 0 0 0 0 -122.5514253427682 -87.254846703287512 0 -87.254846703287512 55.446937830196475 0 0 0 0 14.661836444009168 -17.666679508888592 0 -17.666679508888592 86.760557516406152 0 0 0 0 -2.6455086481582839 28.17309928391478 0 28.17309928391478 6.4538876657679793 0 0 0 0 -17.37706277954814 -23.200249194134848 0 -23.200249194134848 75.781745799693283 0 0 0 0 -105.59341382593547 63.982029560242154 0 63.982029560242154 33.754091812610568 0 0 0 0 -8.4729032199538405 17.997610517926294 0 17.997610517926294 90.943624501937066 0 0 0 0 -427.63697684757449 263.34881025560753 0 263.34881025560753 66.940480120647408 0 0 0 0 -126.00612897665144 41.450926387440632 0 41.450926387440632 46.353298482732498 0 0 0 0 -157.72699922567926 -5.0705110608396353 0 -5.0705110608396353 73.293989406753099 0 0 0 0 -16.883434561810823 -4.9038033941332344 0 -4.9038033941332344 21.76521796130595 0 0 0 0 -95.58114092122014 -34.984029074571481 0 -34.984029074571481 68.520594590632982 0 0 0 0 -27.591399547747947 4.9914590123979288 0 4.9914590123979288 68.808010180164501 0 0 0 0 -22.102104227738891 11.373484888229029 0 11.373484888229029 79.615119494557504 0 0 0 0 -76.953995019569845 11.70177546872219 0 11.70177546872219 79.353371133956898 0 0 0 0 -127.11744839874063 65.53303936256998 0 65.53303936256998 66.751108548531192 0 0 0 0 -76.330487951375517 16.138427168176349 0 16.138427168176349 87.994878149551369 0 0 0 0 -958.26963266904966 640.30518655430569 0 640.30518655430569 411.79749037898728 0 0 0 0 0.095205995871956162 3.0936362597751117 0 3.0936362597751117 88.619934607403991 0 0 0 0 -69.901181659942949 12.736434271695543 0 12.736434271695543 87.491066396600218 0 0 0 0 -79.010252920556354 22.418548640948757 0 22.418548640948757 86.156032618229801 0 0 0 0 -48.940387128272235 29.667943411004671 0 29.667943411004671 87.742070841291934 0 0 0 0 -41.859977351543421 12.545413046599606 0 12.545413046599606 68.763260244360936 0 0 0 0 -4.1063767356963581 137.70256876222811 0 137.70256876222811 30.679135406345608 0 0 0 0 -123.94444803999704 134.4505521761912 0 134.4505521761912 123.50521611918703 0 0 0 0 -37.618818516150895 -23.747689225511067 0 -23.747689225511067 13.160988048266518 0 0 0 0 199.19061933869762 231.95249112510373 0 231.95249112510373 198.29728942169891 0 0 0 0 2.7571609651968858 -4.3305729834003373 0 -4.3305729834003373 -1.2728380651684077 0 0 0 0 -9.2538851866338518 38.806183138928191 0 38.806183138928191 32.848617358909905 0 0 0 0 -3.2902161433962647 21.763739699655162 0 21.763739699655162 47.223683246582368 0 0 0 0 -23.207670306977889 17.996925932331578 0 17.996925932331578 53.345316120473399 0 0 0 0 -4.2010674341498433 7.8428827617275108 0 7.8428827617275108 9.6495869877041507 0 0 0 0 24.471085888333619 -9.2303374665252704 0 -9.2303374665252704 68.144179369202902 0 0 0 0 -38.08648464459111 23.980656589017599 0 23.980656589017599 31.143703836889472 0 0 0 0 -14.120605784203619 15.258304974088006 0 15.258304974088006 95.465983938741459 0 0 0 0 -25.158545695903538 15.431208427998783 0 15.431208427998783 50.02065055743023 0 0 0 0 -48.711547097191641 186.8579184395112 0 186.8579184395112 7.4200743134751974 0 0 0 0 4.4243269351292041 47.849399659774505 0 47.849399659774505 105.44943763603384 0 0 0 0 93.501815186869464 85.482472570904065 0 85.482472570904065 -26.215560051277862 0 0 0 0 -48.570410553689953 34.254426434523339 0 34.254426434523339 71.385962724256387 0 0 0 0 -3.7291826335267482 15.221330445549473 0 15.221330445549473 6.5734150786564243 0 0 0 0 -45.013537437006718 29.829793843939115 0 29.829793843939115 15.655670608204673 0 0 0 0 -56.351718865880827 21.03462345816888 0 21.03462345816888 93.280635732677183 0 0 0 0 -53.053600755281998 35.283286556485109 0 35.283286556485109 71.038339088052453 0 0 0 0 -31.961208603396511 4.6006284648865403 0 4.6006284648865403 97.723807840178779 0 0 0 0 -58.573009444351449 22.626832363683206 0 22.626832363683206 112.6110992738686 0 0 0 0 -16.722270319445009 13.579924624535263 0 13.579924624535263 94.393855258024729 0 0 0 0 16.552889031330778 46.67600661375036 0 46.67600661375036 98.263281120205647 0 0 0 0 -33.926281079660413 22.839524790304601 0 22.839524790304601 84.659934831686101 0 0 0 0 -57.553121864927363 25.570602472365863 0 25.570602472365863 90.109255366777688 0 0 0 0 -53.446856270621936 16.829798324721196 0 16.829798324721196 92.196602473391977 0 0 0 0 -1187.1575207461578 -148.33863470478127 0 -148.33863470478127 761.00193638301425 0 0 0 0 -1.6365571310580855 0.42496071016928649 0 0.42496071016928649 73.699465425024613 0 0 0 0 -36.653295132705196 22.074202872464411 0 22.074202872464411 66.004218296489853 0 0 0 0 -53.765128479928421 44.795322446949285 0 44.795322446949285 42.1583571014271 0 0 0 0 -63.580614170352533 22.442170032896684 0 22.442170032896684 68.399399949542385 0 0 0 0 -43.465119827219297 6.8911710950978886 0 6.8911710950978886 -42.602020557940705 0 0 0 0 -28.673297838518693 -27.406839546281844 0 -27.406839546281844 29.991984985664203 0 0 0 0 167.83585634829382 -448.2565991222873 0 -448.2565991222873 -114.79707603768838 0 0 0 0 -0.68144071042845045 -4.2871685903479175 0 -4.2871685903479175 47.368111831536254 0 0 0 0 101.2103699565816 -530.49960735171862 0 -530.49960735171862 129.6842261883794 0 0 0 0 119.39036229175025 -387.32631856234002 0 -387.32631856234002 327.87715261703124 0 0 0 0 231.67093562432569 -116.63862466924184 0 -116.63862466924184 12.560553814335435 0 0 0 0 190.25684898861522 283.49518101055946 0 283.49518101055946 176.90083809439602 0 0 0 0 103.93579622428462 94.489608009593212 0 94.489608009593212 -30.41858967315784 0 0 0 0 77.993783272422689 57.025046357284737 0 57.025046357284737 -36.814856236589549 0 0 0 0 134.28747684474109 76.159654702563785 0 76.159654702563785 -63.516929868179432 0 0 0 0 1.0507049721203656 -1.3472838580531246 0 -1.3472838580531246 -1.8964249367686534 0 0 0 0 184.57532404804522 117.2418369112238 0 117.2418369112238 -50.527281448034046 0 0 0 0 -88.412471197338505 -27.918622605462588 0 -27.918622605462588 21.430764292977983 0 0 0 0 20.529950556407499 298.68670778820524 0 298.68670778820524 460.30980724799883 0 0 0 0 -5.007242034405067 199.79021001378351 0 199.79021001378351 445.41314075364789 0 0 0 0 53.327468176306539 274.69474739450743 0 274.69474739450743 274.794615445011 0 0 0 0 13.392235231100585 44.076799405287602 0 44.076799405287602 328.27198301556928 0 0 0 0 13.906062528928771 191.20283867681792 0 191.20283867681792 396.30071604512341 0 0 0 0 -12.354512812841961 171.62831333725262 0 171.62831333725262 414.92584706035268 0 0 0 0 -96.570192965864578 -45.799042169546283 0 -45.799042169546283 1280.1177531997746 0 0 0 0 -88.921430226256916 160.56707050955083 0 160.56707050955083 455.7609225990891 0 0 0 0 -154.1412728726807 526.048659156746 0 526.048659156746 494.18706631395617 0 0 0 0 1412.5163284933731 -900.50997021823787 0 -900.50997021823787 177.73511682346725 0 0 0 0 0.30243111640320808 -1.292949323524418 0 -1.292949323524418 18.213199735171685 0 0 0 0 -155.38798562712469 -346.03728795757343 0 -346.03728795757343 -24.755301649322064 0 0 0 0 -168.23356695894915 -336.37294150978414 0 -336.37294150978414 1609.4430270685079 0 0 0 0 -36.653650030388235 -482.68437166422882 0 -482.68437166422882 143.09087236897176 0 0 0 0 195.2204851640588 -304.16524049086775 0 -304.16524049086775 277.16775459641212 0 0 0 0 105.70525174200432 -476.47278106827434 0 -476.47278106827434 -37.587931141453737 0 0 0 0 -259.75323168265243 295.84790353005519 0 295.84790353005519 35.084944026522862 0 0 0 0 -1.6332162704088171 -1.5396962497167905 0 -1.5396962497167905 52.024597844041722 0 0 0 0 -776.64626359453769 138.18728502222621 0 138.18728502222621 192.85682573459053 0 0 0 0 -102.89851818387899 113.34521740214404 0 113.34521740214404 -59.091261381458025 0 0 0 0 17.105367428362541 375.9510295326163 0 375.9510295326163 225.9778289526148 0 0 0 0 -38.532904718836619 62.498686023638584 0 62.498686023638584 -30.920659022049222 0 0 0 0 322.67493651656827 95.661720202020661 0 95.661720202020661 35.834960682910605 0 0 0 0 72.501678516084411 245.39887150937648 0 245.39887150937648 190.32211892103805 0 0 0 0 242.6834781132591 158.35069368008135 0 158.35069368008135 207.3869130120147 0 0 0 0 313.07845133832086 107.94719992184764 0 107.94719992184764 243.3237952062118 0 0 0 0 655.36894906898237 -98.35322096402524 0 -98.35322096402524 234.86360879222548 0 0 0 0 89.204646634693233 -27.013645500366692 0 -27.013645500366692 242.32492592122071 0 0 0 0 18.319329056101317 264.80183411235976 0 264.80183411235976 69.540168581967009 0 0 0 0 -569.28040367168546 71.387709082722722 0 71.387709082722722 498.0453001162241 0 0 0 0 -566.97240286576505 79.932824971512673 0 79.932824971512673 -40.48358132156136 0 0 0 0 -952.50822768192529 142.05486693666899 0 142.05486693666899 290.30087987810111 0 0 0 0 -476.17199156448777 -43.862126097781584 0 -43.862126097781584 19.387394984234561 0 0 0 0 -1273.5722996484237 235.00372178541147 0 235.00372178541147 53.591789005964529 0 0 0 0 -3.583488152145168 0.55482101439692322 0 0.55482101439692322 76.952317846229931 0 0 0 0 -1455.9003553652663 -191.11449541203547 0 -191.11449541203547 664.89478767749097 0 0 0 0 -34.486733335012971 -864.77266813291521 0 -864.77266813291521 116.32277200989483 0 0 0 0 -482.87222603866451 504.79473960112955 0 504.79473960112955 -363.76005090091894 0 0 0 0 -10.830461861849523 15.024779083791564 0 15.024779083791564 13.885223165684096 0 0 0 0 -2754.1623602962295 -277.9720074287161 0 -277.9720074287161 -44.837795322200691 0 0 0 0 -758.37004137408655 -28.864461167497211 0 -28.864461167497211 949.64144382324594 0 0 0 0 -0.60107228515866529 0.67581246084477797 0 0.67581246084477797 43.643546671039189 0 0 0 0 -1870.6580022285457 891.572499950169 0 891.572499950169 875.69729258864027 0 0 0 0 193.77078560866764 -571.9620752824012 0 -571.9620752824012 2991.7258171622234 0 0 0 0 1757.7513971313156 2720.7298951478761 0 2720.7298951478761 952.28163556088839 0 0 0 0 2.095593950144417 6.0136789769665064 0 6.0136789769665064 18.677322062165899 0 0 0 0 222.00271380035781 670.67765039145161 0 670.67765039145161 3468.5090880171119 0 0 0 0 2.3183881213771893 -5.9699024476315401 0 -5.9699024476315401 14.137683366006115 0 0 0 0 -686.47900187353434 -230.34976756691685 0 -230.34976756691685 4977.3743102615481 0 0 0 0 0.49697706295313415 -3.1659188093542596 0 -3.1659188093542596 37.506249819782283 0 0 0 0 -1210.184419273513 -446.27761265149456 0 -446.27761265149456 343.65915010743629 0 0 0 0 -6.3854293315777175 30.190030831328841 0 30.190030831328841 -693.42365275802149 0 0 0 0 624.456506195271 -26.256650233037362 0 -26.256650233037362 -693.42365275799239 0 0 0 0 -617.06573900858416 197.69232663319599 0 197.69232663319599 571.69566584427957 0 0 0 0 292.24813494746843 -73.191629570723308 0 -73.191629570723308 167.96612116448523 0 0 0 0 551.96969493506515 -1960.4574045375157 0 -1960.4574045375157 691.1377095441494 0 0 0 0 -618.1715994646886 -1252.1246362944512 0 -1252.1246362944512 4988.6557822698087 0 0 0 0 -461.36930155536305 -425.28254169059801 0 -425.28254169059801 1873.1513169170221 0 0 0 0 294.21281113244305 -426.50223335343981 0 -426.50223335343981 1151.644478704111 0 0 0 0 85.737311564562901 -182.97467778281134 0 -182.97467778281134 1924.5202355348829 0 0 0 0 159.9981053649621 221.76483706924046 0 221.76483706924046 1502.5035792814888 0 0 0 0 87.239262222583648 64.693769574831947 0 64.693769574831947 207.0858813852974 0 0 0 0 95.443143874704703 -226.10698284152619 0 -226.10698284152619 860.27191236674844 0 0 0 0 -3.214001510897333 347.3097211505592 0 347.3097211505592 834.57356972828347 0 0 0 0 1930.8457248420304 -870.59737078280341 0 -870.59737078280341 -23.267688331841782 0 0 0 0 0.90973195441252175 -2.6817649239590771 0 -2.6817649239590771 16.040953876205123 0 0 0 0 -30.873327435904304 -1158.3677445584619 0 -1158.3677445584619 1246.8472188855521 0 0 0 0 -347.65902091445264 -49.503911677070391 0 -49.503911677070391 1696.5526020654215 0 0 0 0 240.94827398093514 -395.87876001837685 0 -395.87876001837685 1590.5043690303355 0 0 0 0 973.86099687101114 372.6886803175139 0 372.6886803175139 2395.5379878894491 0 0 0 0 754.6464386435199 977.97612298092645 0 977.97612298092645 739.97591756990732 0 0 0 0 -61.904985282937737 2089.5086317583427 0 2089.5086317583427 4990.2953007084034 0 0 0 0 -262.74509588723419 1160.1499851088774 0 1160.1499851088774 2210.0050049382626 0 0 0 0 -554.05587493744383 -20.210929963904164 0 -20.210929963904164 3397.8915193878165 0 0 0 0 -529.60152998324293 390.9906854410292 0 390.9906854410292 5000.0284979237313 0 0 0 0 -88.224841576037761 -846.4883659187617 0 -846.4883659187617 2870.9024308057196 0 0 0 0 -595.61333642670354 -679.86653256580576 0 -679.86653256580576 4999.0992254591874 0 0 0 0 121.18416419157325 -1479.865313018483 0 -1479.865313018483 4641.3540123160383 0 0 0 0 -52.901823124071171 -1000.5866516032729 0 -1000.5866516032729 3504.7171805697035 0 0 0 0 87.37355652682902 -1723.959726910005 0 -1723.959726910005 4999.2536726136786 0 0 0 0 -74.217283060983164 -212.98120460931386 0 -212.98120460931386 446.38414075298169 0 0 0 0 368.99922386263484 -1321.9525757374795 0 -1321.9525757374795 3992.029519952237 0 0 0 0 1.1695649616158137 -10.198264825664822 0 -10.198264825664822 -4.9829572872849468 0 0 0 0 -31.652323375530408 -566.93086530897813 0 -566.93086530897813 3084.8234414845429 0 0 0 0 -0.68706139501595631 -3.1815543339216461 0 -3.1815543339216461 0.78081328264073591 0 0 0 0 1232.6993499033044 -2786.3230467804824 0 -2786.3230467804824 4997.8694903187552 0 0 0 0 2.0291237176906627 25.122518795671315 0 25.122518795671315 76.073506203705264 0 0 0 0 7.8700393621151443 -20.293305589210384 0 -20.293305589210384 -6.6585788325235526 0 0 0 0 -133.69622194915701 1786.0054938821568 0 1786.0054938821568 957.02117090274805 0 0 0 0 -83.585784089264507 -23.766653089565807 0 -23.766653089565807 252.7621455625158 0 0 0 0 -1.9549510134281607 0.21529282138033068 0 0.21529282138033068 8.546997768287067 0 0 0 0 2469.3835536448446 -60.147949525824515 0 -60.147949525824515 107.49251282300975 0 0 0 0 13.871022872738237 -20.102656834074633 0 -20.102656834074633 32.935504408832699 0 0 0 0 786.79368787072895 -2181.5280302930223 0 -2181.5280302930223 4833.4689324828432 0 0 0 0 729.24374200706961 -1954.2060453824124 0 -1954.2060453824124 4363.4065715770812 0 0 0 0 167.22847136448149 -90.129485764970013 0 -90.129485764970013 13.685123153547465 0 0 0 0 960.4270845084136 1169.5647398456022 0 1169.5647398456022 -135.88198025429665 0 0 0 0 -501.91183176543097 10.121451747632932 0 10.121451747632932 428.54887303142414 0 0 0 0 -935.66713483152103 604.04629771660825 0 604.04629771660825 133.81125671939344 0 0 0 0 -194.47260732396126 198.8457448190602 0 198.8457448190602 172.23228123375884 0 0 0 0 4.8981742021941272 38.693627236861886 0 38.693627236861886 97.64688558747892 0 0 0 0 -336.94086260232507 14.468398636450956 0 14.468398636450956 22.291606613058207 0 0 0 0 -405.59807223130349 -50.196330340387519 0 -50.196330340387519 251.39793208024003 0 0 0 0 -444.20219504843914 -107.63904364516372 0 -107.63904364516372 608.79274404010312 0 0 0 0 -42.337086654986535 -204.16808799164573 0 -204.16808799164573 632.14865911695961 0 0 0 0 -179.60894188318684 13.563119332542556 0 13.563119332542556 365.52087849975396 0 0 0 0 68.429459098237231 -35.799824449100925 0 -35.799824449100925 87.576259501573077 0 0 0 0 -457.90269181824578 379.13270646567332 0 379.13270646567332 -47.637602852887994 0 0 0 0 -296.43515055654149 279.42813805910191 0 279.42813805910191 153.92792402382929 0 0 0 0 7.7799378235292176 43.753844625003666 0 43.753844625003666 108.19135502990144 0 0 0 0 -53.97020747340531 -47.434031542637968 0 -47.434031542637968 126.17898086215428 0 0 0 0 9.3380545445068819 44.91920420814909 0 44.91920420814909 112.10848607985466 0 0 0 0 -170.7893813345575 348.59378959560763 0 348.59378959560763 64.580833829561016 0 0 0 0 -368.98304839479079 253.0341456808776 0 253.0341456808776 220.0038651003066 0 0 0 0 204.85207686958711 -42.485213677004367 0 -42.485213677004367 60.610377159342192 0 0 0 0 -203.70729286919504 -213.49122364401819 0 -213.49122364401819 644.10295515071959 0 0 0 0 -20.638887986186809 -3.3912951573096972 0 -3.3912951573096972 -1.4317167978937371 0 0 0 0 -137.2712324300976 -29.256132516959497 0 -29.256132516959497 143.27486201825195 0 0 0 0 110.48675223421151 -90.550354961192284 0 -90.550354961192284 111.74550498581607 0 0 0 0 -332.89612253858763 -301.44268923725394 0 -301.44268923725394 368.38971799264323 0 0 0 0 -137.44803325752997 -431.18126442066711 0 -431.18126442066711 453.97185230585376 0 0 0 0 -419.23487098734984 325.93335514773139 0 325.93335514773139 -251.08027627990282 0 0 0 0 -7.1784350589083088 -1.5129404174719006 0 -1.5129404174719006 0.58704783290601315 0 0 0 0 -127.73568712400811 100.31399571029732 0 100.31399571029732 464.20517152692923 0 0 0 0 3.223240489268588 -2.8724725567360276 0 -2.8724725567360276 2.6132523236243568 0 0 0 0 -110.67325634118114 460.30145915776166 0 460.30145915776166 552.94348292566565 0 0 0 0 -360.97250671303846 25.083211434404177 0 25.083211434404177 654.1880145518453 0 0 0 0 -515.41150411263766 209.88075735607447 0 209.88075735607447 391.24477076045378 0 0 0 0 -252.483571410677 -27.991431329110412 0 -27.991431329110412 -8.7240195319805025 0 0 0 0 -538.01942097521942 102.95113176095271 0 102.95113176095271 212.78171322997468 0 0 0 0 -327.48581587416874 -332.30789835196958 0 -332.30789835196958 105.81046063324811 0 0 0 0 6.1775197318083688 -8.3040765245928458 0 -8.3040765245928458 8.6372063469921425 0 0 0 0 -459.43964960404605 -107.41690695399467 0 -107.41690695399467 493.53408068881436 0 0 0 0 -162.36475834328655 44.283446484020942 0 44.283446484020942 364.49708978230865 0 0 0 0 -325.01481859019202 -305.80703363772727 0 -305.80703363772727 -194.5665739358692 0 0 0 0 69.292478192289536 -297.61449526692127 0 -297.61449526692127 -250.68603829959667 0 0 0 0 62.849515831675035 -114.89844007120973 0 -114.89844007120973 -277.34065763584113 0 0 0 0 60.176086048404613 -154.18267547785308 0 -154.18267547785308 -146.01146331616539 0 0 0 0 29.755957919598586 -177.18997625504699 0 -177.18997625504699 -149.34144353280863 0 0 0 0 4.8252964947287182 -41.045852752090013 0 -41.045852752090013 -64.766718852826216 0 0 0 0 10.574983292462093 22.621131885406157 0 22.621131885406157 43.932898634543562 0 0 0 0 4.0425920297539051 -113.27303902542099 0 -113.27303902542099 44.919746339906851 0 0 0 0 -233.37182002086138 -146.86946085276259 0 -146.86946085276259 50.656111365227844 0 0 0 0 -32.684103466033676 -9.9144092679225579 0 -9.9144092679225579 18.658224114603666 0 0 0 0 -209.60501190942114 -4.9820667364449491 0 -4.9820667364449491 331.27963674021066 0 0 0 0 -117.39362033981661 -18.554154859261416 0 -18.554154859261416 89.678356938263846 0 0 0 0 534.77204181433717 180.93412244444198 0 180.93412244444198 91.526280860666702 0 0 0 0 72.412100489701515 -332.54975164379948 0 -332.54975164379948 -22.564683563422022 0 0 0 0 -124.59249531639773 -335.00227054022173 0 -335.00227054022173 223.60605849709327 0 0 0 0 1193.051949658025 -356.29697066761264 0 -356.29697066761264 73.914648025786562 0 0 0 0 728.46415531239882 255.99340238468565 0 255.99340238468565 433.80092138224097 0 0 0 0 558.48662718799869 -702.36869678704352 0 -702.36869678704352 539.04240412853164 0 0 0 0 164.33978220210008 0.88763101512750708 0 0.88763101512750708 845.62519960076975 0 0 0 0 234.69024314630133 161.31777028946485 0 161.31777028946485 826.53319789579723 0 0 0 0 -12.328470339709725 -262.30928510761441 0 -262.30928510761441 824.09539413595792 0 0 0 0 -27.695379356078622 -373.94784202033935 0 -373.94784202033935 346.50694550849175 0 0 0 0 -1.0644014134539701 0.82608217794484307 0 0.82608217794484307 2.9278464461820386 0 0 0 0 -258.08831774314899 -263.5367704657325 0 -263.5367704657325 608.75285372604196 0 0 0 0 -127.54567438104567 -52.971356983017245 0 -52.971356983017245 525.7367324293873 0 0 0 0 391.54206591054776 -84.998456399658338 0 -84.998456399658338 116.049139109446 0 0 0 0 -87.790390698980161 -146.86984364694115 0 -146.86984364694115 553.95222647984519 0 0 0 0 192.43718746314755 180.33595086383556 0 180.33595086383556 81.061301598334893 0 0 0 0 1.6255050878849839 2.8247172852830857 0 2.8247172852830857 4.6688336374330586 0 0 0 0 -653.3571814063057 244.02109061471651 0 244.02109061471651 243.09808307079496 0 0 0 0 86.324192036620218 -198.10634850898981 0 -198.10634850898981 -376.86616404868278 0 0 0 0 -281.71248367924704 77.087398302470774 0 77.087398302470774 423.70145253439136 0 0 0 0 251.70019177759627 -160.10364076915664 0 -160.10364076915664 157.82628197295696 0 0 0 0 95.034609889279366 -128.65097603634007 0 -128.65097603634007 159.66564921479448 0 0 0 0 663.76168728142102 -65.618386821512388 0 -65.618386821512388 56.708609776499472 0 0 0 0 2.1342494083795729 1.6641654613809507 0 1.6641654613809507 2.990604564006782 0 0 0 0 350.08207640878169 -447.12245664483902 0 -447.12245664483902 150.94707138361343 0 0 0 0 611.6590889163856 -293.69262417122684 0 -293.69262417122684 273.65000658311283 0 0 0 0 638.14330663622593 -325.9610429542048 0 -325.9610429542048 74.999798950847293 0 0 0 0 345.09868135741806 -232.95917077594135 0 -232.95917077594135 1501.6258979870411 0 0 0 0 661.68105308616066 140.98470950003366 0 140.98470950003366 1104.7996203032872 0 0 0 0 119.20418445617184 8.1465516291214044 0 8.1465516291214044 1529.6058142343065 0 0 0 0 395.66206541038514 405.46561652358037 0 405.46561652358037 1435.1787342942305 0 0 0 0 378.26999025245834 278.53558729870167 0 278.53558729870167 2606.3615137106362 0 0 0 0 -52.223163193212088 406.09264594758076 0 406.09264594758076 2149.5579425085789 0 0 0 0 -111.98347396214241 -186.9977640591004 0 -186.9977640591004 800.10976383064985 0 0 0 0 88.729617843318465 24.473296487147536 0 24.473296487147536 210.10101723811522 0 0 0 0 356.23318462386874 651.57375918615776 0 651.57375918615776 1036.9973140299289 0 0 0 0 -92.93980945761615 1471.0956617947177 0 1471.0956617947177 2355.9044967761088 0 0 0 0 595.22587231373609 3525.7540474889829 0 3525.7540474889829 4560.8755057482376 0 0 0 0 29.972366192694039 1765.089851491495 0 1765.089851491495 2996.6350652024039 0 0 0 0 2815.5334206248031 6323.0107974707989 0 6323.0107974707989 4990.7261358218548 0 0 0 0 5277.2712651798902 524.72297419179449 0 524.72297419179449 -4615.6499703727295 0 0 0 0 -482.34691173147996 642.01440925128236 0 642.01440925128236 3456.0587270259157 0 0 0 0 64.04913120689173 -45.239955921195815 0 -45.239955921195815 3102.0636671895936 0 0 0 0 -494.08079407753445 1009.8463705399413 0 1009.8463705399413 5000.0187095408237 0 0 0 0 -463.33366792353519 84.822667039805992 0 84.822667039805992 4999.2043376931806 0 0 0 0 335.65913613242287 -539.67480330010812 0 -539.67480330010812 3682.540572834981 0 0 0 0 -451.65570479429687 -399.97732660972838 0 -399.97732660972838 3661.9019194019456 0 0 0 0 -442.35476988297137 -792.35927778116002 0 -792.35927778116002 4998.6633795372945 0 0 0 0 -359.92116911078517 -1108.3987171629606 0 -1108.3987171629606 3895.647945413205 0 0 0 0 -262.52829865254296 -1255.6939556969201 0 -1255.6939556969201 3831.8065385064747 0 0 0 0 4.7164702744215852 -4.6430896640297199 0 -4.6430896640297199 3.7223121798581094 0 0 0 0 -34.404849048177326 -671.92786941582199 0 -671.92786941582199 3821.9946794328357 0 0 0 0 307.58833552822546 -712.91823730870601 0 -712.91823730870601 1483.6538303236257 0 0 0 0 -142.8774630987084 -279.46666943065429 0 -279.46666943065429 2570.3414516932999 0 0 0 0 8.9340398074654086 -12.010767679829051 0 -12.010767679829051 2.6219316874568177 0 0 0 0 -133.66394535779364 -112.74486643286809 0 -112.74486643286809 89.841656742543364 0 0 0 0 -156.61075420837506 -188.08453353687878 0 -188.08453353687878 205.18481507253136 0 0 0 0 175.01982569836559 112.75374494399171 0 112.75374494399171 53.557437644155698 0 0 0 0 -124.65233670463545 -250.36888258980582 0 -250.36888258980582 279.09487134639767 0 0 0 0 581.08917059981763 -118.6192833739442 0 -118.6192833739442 -363.236224212038 0 0 0 0 253.37840358951235 -111.15813798901013 0 -111.15813798901013 597.87794470045719 0 0 0 0 664.83082570914848 -644.88379655798201 0 -644.88379655798201 1041.3617276162604 0 0 0 0 626.90201262862661 -300.26685520619321 0 -300.26685520619321 -23.284227096938139 0 0 0 0 285.12274426141983 -121.2118979309069 0 -121.2118979309069 2535.9425399533666 0 0 0 0 157.54822918419777 -84.183049020852877 0 -84.183049020852877 2525.2090021614076 0 0 0 0 -157.02895121127375 1233.1750366049455 0 1233.1750366049455 3595.5104836089231 0 0 0 0 687.81140752788792 931.26821780863611 0 931.26821780863611 2095.9547919532197 0 0 0 0 -53.644492701360491 320.22800197000447 0 320.22800197000447 6341.4189286995315 0 0 0 0 12.796472303259314 659.37966079727107 0 659.37966079727107 3676.1047217466294 0 0 0 0 2265.7686975703964 206.86968306145172 0 206.86968306145172 5001.091855552042 0 0 0 0 1100.8790713600401 2236.8594728112353 0 2236.8594728112353 9011.2566602454172 0 0 0 0 3550.6043012945383 3727.0883830164703 0 3727.0883830164703 4005.4031559525902 0 0 0 0 9.5289223322745329 -9.5280831089758777 0 -9.5280831089758777 25.864714857251272 0 0 0 0 2509.1831988206932 -1771.0184123079089 0 -1771.0184123079089 443.81307571894649 0 0 0 0 643.97075241700645 464.71186459808087 0 464.71186459808087 1484.7540629267696 0 0 0 0 1284.3543276757227 241.87524755341292 0 241.87524755341292 -876.15153531948454 0 0 0 0 0.35939531910585121 -8.3338067348883662 0 -8.3338067348883662 4.0426266433906619 0 0 0 0 1096.0587163355719 1989.6515042018218 0 1989.6515042018218 3778.6422258158746 0 0 0 0 2418.690646334242 3314.1858684078325 0 3314.1858684078325 720.42618647171184 0 0 0 0 477.35907457058238 1194.9521672548653 0 1194.9521672548653 3386.6979871305339 0 0 0 0 -1090.2107275812905 839.38843571513098 0 839.38843571513098 624.60726670259101 0 0 0 0 6.6962428036753288 4.2098571883695115 0 4.2098571883695115 50.896243876873093 0 0 0 0 441.28070595086842 1083.9086857856457 0 1083.9086857856457 -443.39870838130446 0 0 0 0 1415.8300960971642 -533.4303735367248 0 -533.4303735367248 194.68024449625591 0 0 0 0 2328.4565270234034 -1398.8232361809642 0 -1398.8232361809642 361.02894235695021 0 0 0 0 277.7231132063132 -281.8725489254939 0 -281.8725489254939 547.72146800108021 0 0 0 0 450.50586313492113 -1108.2076435280651 0 -1108.2076435280651 1978.7823447908443 0 0 0 0 602.90155398844195 -1206.8927099138218 0 -1206.8927099138218 3921.2378996239786 0 0 0 0 1788.5542664809361 -2255.6079157397753 0 -2255.6079157397753 1880.6348078700139 0 0 0 0 2565.1323910026513 -3844.6546682568078 0 -3844.6546682568078 3440.0121034598851 0 0 0 0 1184.9044358853785 -1344.0374437126156 0 -1344.0374437126156 1825.355635520842 0 0 0 0 4396.5634187705564 -1443.5359216617835 0 -1443.5359216617835 6193.6432209764262 0 0 0 0 334.15028389273056 -3146.3258178596006 0 -3146.3258178596006 6416.6385205092884 0 0 0 0 2108.1663052503445 480.91109323970159 0 480.91109323970159 6570.4620145239205 0 0 0 0 310.70150969397184 -1432.5188842413136 0 -1432.5188842413136 5001.0550589473041 0 0 0 0 -458.57937466718522 -1070.6686307115106 0 -1070.6686307115106 4843.6201781170712 0 0 0 0 310.57092687626385 -2141.0338798708472 0 -2141.0338798708472 3876.4807594651065 0 0 0 0 -109.96354861704559 -933.4140297152635 0 -933.4140297152635 2828.6950074377019 0 0 0 0 249.4901745161946 -1412.1968033407429 0 -1412.1968033407429 2187.5676927314616 0 0 0 0 812.21320052516069 -629.19734115627216 0 -629.19734115627216 927.6319396123472 0 0 0 0 215.96615758207861 249.17604537322495 0 249.17604537322495 287.34380273956413 0 0 0 0 -231.02372386207546 -367.16788580948651 0 -367.16788580948651 1700.5724183830348 0 0 0 0 33.376854882856378 33.448969650677327 0 33.448969650677327 217.75299613520747 0 0 0 0 0.78984828685172914 5.982071060106799 0 5.982071060106799 22.912350701945115 0 0 0 0 4.0346808950514532 -6.1654819824110643 0 -6.1654819824110643 23.729836557049587 0 0 0 0 5.8702667377219768 43.471371142202315 0 43.471371142202315 216.75206511222279 0 0 0 0 447.93878362086525 -76.502560885921412 0 -76.502560885921412 -167.16441314816257 0 0 0 0 4.3019482331401377 18.924273044442089 0 18.924273044442089 181.49063554265012 0 0 0 0 6.1916590003639325 26.59882427949535 0 26.59882427949535 109.56303569008723 0 0 0 0 -390.00564136270896 230.34676592707456 0 230.34676592707456 107.28041690067766 0 0 0 0 262.6020670893713 -596.66689464807132 0 -596.66689464807132 1035.2808364682496 0 0 0 0 690.86959409459178 -119.8124328894869 0 -119.8124328894869 -184.23035758596598 0 0 0 0 -382.17929855588955 -576.47039093794956 0 -576.47039093794956 434.98773609702766 0 0 0 0 9.2422495804269893 -11.96460843700126 0 -11.96460843700126 29.869876080052961 0 0 0 0 34.92975858070804 12.380659895216013 0 12.380659895216013 55.697075526732078 0 0 0 0 26.836185747931722 10.635801673518017 0 10.635801673518017 56.828463563328114 0 0 0 0 4.0806477617594661 17.012693327548796 0 17.012693327548796 73.543516601164427 0 0 0 0 9.4841615260147591 30.925457954880585 0 30.925457954880585 122.7480057555149 0 0 0 0 23.198902205633203 40.611659599577251 0 40.611659599577251 118.26712836459046 0 0 0 0 0.67227977305686437 4.681132208430121 0 4.681132208430121 31.329128695122414 0 0 0 0 23.588937119373441 64.314725130390798 0 64.314725130390798 185.54631986140157 0 0 0 0 54.332760415290977 59.629542289949313 0 59.629542289949313 141.36135202979403 0 0 0 0 86.105798869521323 -32.050644727136387 0 -32.050644727136387 457.85028773165209 0 0 0 0 7.717023655789653 -13.629392366920776 0 -13.629392366920776 23.616383130847225 0 0 0 0 54.644385989891404 49.54309720540283 0 49.54309720540283 154.16667278882232 0 0 0 0 63.837293818518447 45.112864311282465 0 45.112864311282465 145.98701150671513 0 0 0 0 604.56067877119744 851.83041403574498 0 851.83041403574498 544.51871790597215 0 0 0 0 326.61003139023774 989.75642052250623 0 989.75642052250623 2100.5828613555877 0 0 0 0 -7.1948831169538607 37.575930250883175 0 37.575930250883175 80.285713454086363 0 0 0 0 -6.9905402391532334 71.491352603206906 0 71.491352603206906 146.58317504076695 0 0 0 0 84.7932129943174 57.789619797575142 0 57.789619797575142 -65.680516716267448 0 0 0 0 125.58600389352159 219.46528830011084 0 219.46528830011084 347.00080330402488 0 0 0 0 -1.4738766713206548 -3.1983465086352325 0 -3.1983465086352325 -1.3033942414822661 0 0 0 0 60.795689797850514 36.155375365797681 0 36.155375365797681 162.01642416189861 0 0 0 0 10.969457820136086 60.209345030474651 0 60.209345030474651 97.173766209412861 0 0 0 0 0.46941273625515834 5.039904989814417 0 5.039904989814417 30.266061713139727 0 0 0 0 -0.72299079789081588 55.470067013782682 0 55.470067013782682 209.17237046262017 0 0 0 0 0.4854570724619407 65.9809701351478 0 65.9809701351478 105.5265035856537 0 0 0 0 11.184790192992295 54.232790926071175 0 54.232790926071175 220.87391845505772 0 0 0 0 -10.228594046256148 7.2653197843179811 0 7.2653197843179811 13.982196485834848 0 0 0 0 4.0899428849952528 61.286466417259362 0 61.286466417259362 111.14846470957127 0 0 0 0 18.405831264450171 14.539641354782361 0 14.539641354782361 -46.78888453685795 0 0 0 0 8.6379505710803244 13.971170545307722 0 13.971170545307722 -5.6344725607428927 0 0 0 0 18.863046994165963 62.653635693358524 0 62.653635693358524 -5.1649721589149831 0 0 0 0 0.52923423023185023 73.158062333752923 0 73.158062333752923 74.446980969183642 0 0 0 0 15.882621745482538 54.534883938944404 0 54.534883938944404 103.61785975800012 0 0 0 0 -68.052453862444509 102.2051613535823 0 102.2051613535823 233.63200167057948 0 0 0 0 6.1772686755913506 45.097431433342102 0 45.097431433342102 115.14331813897171 0 0 0 0 -70.577425133788438 122.0561369359425 0 122.0561369359425 287.32234796091871 0 0 0 0 1.6074601322381983 10.323930561353031 0 10.323930561353031 21.07600850273522 0 0 0 0 157.82134695740206 243.43253801299852 0 243.43253801299852 168.22294439308507 0 0 0 0 141.5419900139832 84.623576639194653 0 84.623576639194653 186.37871507697309 0 0 0 0 -41.699980528031574 165.15382274021567 0 165.15382274021567 474.0368732346351 0 0 0 0 104.95041508509837 -8.9958483694302345 0 -8.9958483694302345 449.13659716687835 0 0 0 0 -369.84747915911476 -317.1403339436124 0 -317.1403339436124 -118.20195067366967 0 0 0 0 42.148668197927691 -9.1337900111848285 0 -9.1337900111848285 159.12058630135425 0 0 0 0 9.1885382114032801 23.447241298636012 0 23.447241298636012 -3.444126010387218 0 0 0 0 0.95165200847508369 30.129673624125775 0 30.129673624125775 133.66234779889888 0 0 0 0 -269.48814861286655 17.703517552473841 0 17.703517552473841 102.14566281075349 0 0 0 0 -275.71578911850378 41.568445827372898 0 41.568445827372898 200.04033237046042 0 0 0 0 -168.54718217157642 210.96143047882879 0 210.96143047882879 476.32941453940293 0 0 0 0 -270.60181013487409 34.063014973404393 0 34.063014973404393 205.09792799561001 0 0 0 0 -176.37656329965421 34.895147437366177 0 34.895147437366177 118.83051659242028 0 0 0 0 -179.43208832229175 -48.279699723798331 0 -48.279699723798331 184.47942124041583 0 0 0 0 -101.8342017018671 103.23795001927783 0 103.23795001927783 138.27475974831304 0 0 0 0 -0.96340909659401741 24.099482886932165 0 24.099482886932165 144.72024724641614 0 0 0 0 -81.023858202664996 -108.66029743026957 0 -108.66029743026957 44.952433902220946 0 0 0 0 28.583913448180283 28.036735351986863 0 28.036735351986863 147.71591795864515 0 0 0 0 7.1264965451155149 39.741088738759572 0 39.741088738759572 190.36762726503366 0 0 0 0 -9.828619243430694 20.075925198827463 0 20.075925198827463 439.04160242054786 0 0 0 0 23.445362242448027 115.05487095166609 0 115.05487095166609 134.77081694321532 0 0 0 0 86.167775339797117 236.22744205933122 0 236.22744205933122 306.04731761282164 0 0 0 0 222.22529275919078 98.065331141158822 0 98.065331141158822 -113.40663369649701 0 0 0 0 16.875676224823565 133.35795872685367 0 133.35795872685367 281.79448160586617 0 0 0 0 23.119193880508647 123.0188484747996 0 123.0188484747996 291.3804367617231 0 0 0 0 40.582423491261125 87.924632833120995 0 87.924632833120995 278.45506731049682 0 0 0 0 15.35355520495159 41.981556326285499 0 41.981556326285499 181.20745117795013 0 0 0 0 1.1962911189111765 46.014499140164844 0 46.014499140164844 242.49203950366064 0 0 0 0 52.335784908021196 44.468438343013986 0 44.468438343013986 344.21200300885903 0 0 0 0 38.015662520902197 83.348713694831531 0 83.348713694831531 308.88189122101176 0 0 0 0 2.5208414510393595 21.183116215397604 0 21.183116215397604 339.30306826261221 0 0 0 0 24.682989106634324 114.40646148412679 0 114.40646148412679 326.39892509439233 0 0 0 0 6.402555466582271 21.083496283787099 0 21.083496283787099 127.09081326215164 0 0 0 0 -9.0211255449751313 -1.2973441580898992 0 -1.2973441580898992 1.5503385992046788 0 0 0 0 89.482209475576383 -205.71785367904809 0 -205.71785367904809 477.60290176469061 0 0 0 0 -31.399924372054102 -180.60294973329724 0 -180.60294973329724 520.45660973572672 0 0 0 0 178.33440041672031 213.56415462041457 0 213.56415462041457 837.69699584008185 0 0 0 0 -1.0292265530712774 1.1936674807903107 0 1.1936674807903107 0.652330768644656 0 0 0 0 509.91018972820643 -380.65065359202629 0 -380.65065359202629 214.24141686658874 0 0 0 0 187.63191845720371 -60.471128077235221 0 -60.471128077235221 226.06176932775102 0 0 0 0 419.18583148295795 -106.70503400144423 0 -106.70503400144423 202.42891573481197 0 0 0 0 584.28445571872669 152.59771568543732 0 152.59771568543732 689.02526218732396 0 0 0 0 695.21428695076463 -274.23371638261619 0 -274.23371638261619 267.7765000195941 0 0 0 0 452.59687136246976 16.07803241506349 0 16.07803241506349 548.45408233509761 0 0 0 0 323.61939277280339 224.47723214740012 0 224.47723214740012 467.90411065272974 0 0 0 0 -72.266413733624631 40.171944975419592 0 40.171944975419592 385.01020669562047 0 0 0 0 484.85888392801121 -275.04187340962767 0 -275.04187340962767 461.51198061325749 0 0 0 0 489.76367735970166 392.61960599297834 0 392.61960599297834 630.21531596993009 0 0 0 0 -401.71736168273321 -167.91174064232973 0 -167.91174064232973 312.05211812704329 0 0 0 0 -315.64885333147276 38.566552939343865 0 38.566552939343865 437.25465128565293 0 0 0 0 -76.606270223158845 -119.39413837964685 0 -119.39413837964685 21.357609961019079 0 0 0 0 -577.93332643098961 -126.04969853483726 0 -126.04969853483726 572.11597366557544 0 0 0 0 -58.55228461850902 136.79049570356415 0 136.79049570356415 221.68069607995858 0 0 0 0 -189.2828828639681 226.56591003879657 0 226.56591003879657 318.49290883488197 0 0 0 0 -322.12308924025751 45.365367540764964 0 45.365367540764964 258.22477993537086 0 0 0 0 102.08539550379237 498.01155059727603 0 498.01155059727603 729.58310863289933 0 0 0 0 616.99234395650296 174.54040050490573 0 174.54040050490573 44.692325116173379 0 0 0 0 -0.6828265568512748 2.726002214308215 0 2.726002214308215 5.4928206605440364 0 0 0 0 -7.1961894459828173 3.1880665561457828 0 3.1880665561457828 10.353887006626266 0 0 0 0 172.73915977908678 85.334751974139294 0 85.334751974139294 35.595190167575765 0 0 0 0 -6.6420038487584634 -13.148966979096912 0 -13.148966979096912 14.674547276135812 0 0 0 0 205.34350558540677 173.87358917612278 0 173.87358917612278 87.933685825128578 0 0 0 0 -88.674093447854602 92.272848584636449 0 92.272848584636449 149.47420454239727 0 0 0 0 -232.28466306781627 118.90959231820966 0 118.90959231820966 269.98114459180215 0 0 0 0 -61.799110928050368 227.03822657677347 0 227.03822657677347 263.87294371032203 0 0 0 0 53.268909424087269 123.05033635794962 0 123.05033635794962 83.16366620837448 0 0 0 0 -7.4473676371887221 4.4135965983437586 0 4.4135965983437586 13.464674121455255 0 0 0 0 5.7621843449140329 115.68637464621224 0 115.68637464621224 89.959882842046682 0 0 0 0 -3.863717192268723 140.41508964083641 0 140.41508964083641 115.69661713266737 0 0 0 0 -32.639332825664724 -4.1163761417344631 0 -4.1163761417344631 26.809183197270158 0 0 0 0 -6.2157658557673585 -7.6107457149805668 0 -7.6107457149805668 13.566968581575338 0 0 0 0 -6.5782245554870826 -6.7000123143953374 0 -6.7000123143953374 25.055592002137928 0 0 0 0 -6.5661197299002332 -11.53237043955027 0 -11.53237043955027 19.740731326955938 0 0 0 0 34.162230692076719 -255.83605274898946 0 -255.83605274898946 -19.239826458135383 0 0 0 0 -1.4766667462692973 -0.36368504532665491 0 -0.36368504532665491 1.8865690218703879 0 0 0 0 -211.0688933476971 112.35119990430371 0 112.35119990430371 169.15257893097504 0 0 0 0 361.24020847447088 -229.79595686234018 0 -229.79595686234018 130.72317065612953 0 0 0 0 245.15526751045286 -348.47491379443443 0 -348.47491379443443 248.8396319928562 0 0 0 0 -113.24805569646384 -323.26101514407219 0 -323.26101514407219 387.60408949204202 0 0 0 0 224.50117756896333 -4.2349256942589335 0 -4.2349256942589335 -204.97267288909779 0 0 0 0 42.047404437447355 397.60379670862585 0 397.60379670862585 86.564559132998852 0 0 0 0 16.571197220075646 -11.00609510547838 0 -11.00609510547838 330.76748846557621 0 0 0 0 1.2056452200111969 1.4043845698455759 0 1.4043845698455759 0.71571377012018189 0 0 0 0 15.554283134188836 -27.829911839114516 0 -27.829911839114516 154.94048694698176 0 0 0 0 14.189574724300826 -8.8936384264359276 0 -8.8936384264359276 38.119002300418288 0 0 0 0 -4.0890164938039675 -23.507367165355845 0 -23.507367165355845 30.946541155301929 0 0 0 0 4.9378917787776118 2.8416619582781095 0 2.8416619582781095 24.472493318811672 0 0 0 0 -18.985627593903359 -19.05854805952572 0 -19.05854805952572 144.95118133094275 0 0 0 0 -19.362642559189595 59.430951395304419 0 59.430951395304419 156.27144934329681 0 0 0 0 -19.937612598470992 57.693522438692526 0 57.693522438692526 161.01158776205102 0 0 0 0 -2.2564105033563919 103.93994063543551 0 103.93994063543551 258.65748268517791 0 0 0 0 202.52941098983962 174.5172045412649 0 174.5172045412649 137.76699882613957 0 0 0 0 97.707570821429726 94.048942434104902 0 94.048942434104902 94.825237398805257 0 0 0 0 78.257000285906088 99.976987848644058 0 99.976987848644058 94.398103375773644 0 0 0 0 78.739946700419978 66.936816860584258 0 66.936816860584258 58.383357906734091 0 0 0 0 41.173136345359353 80.086077800971907 0 80.086077800971907 113.03189699566883 0 0 0 0 86.197570426927427 123.91654800368292 0 123.91654800368292 132.65666932223576 0 0 0 0 4.1757244592424456 84.206543066095946 0 84.206543066095946 165.85990662258428 0 0 0 0 -11.117602413515783 62.398653552141013 0 62.398653552141013 139.46811985011846 0 0 0 0 40.98746331405448 80.830045863310716 0 80.830045863310716 119.00189066473558 0 0 0 0 16.895398594113857 54.009245176691707 0 54.009245176691707 102.32307618206869 0 0 0 0 14.040272042661144 62.599479096254754 0 62.599479096254754 139.31510281634473 0 0 0 0 12.298531059707614 39.718243851501938 0 39.718243851501938 127.68411184813567 0 0 0 0 25.142506939573764 46.906872304548415 0 46.906872304548415 107.7638130049254 0 0 0 0 15.414509034311322 32.963287038225644 0 32.963287038225644 91.096172893767289 0 0 0 0 35.036044668588829 27.284096471274097 0 27.284096471274097 67.142873465223602 0 0 0 0 15.292431818588852 17.650606022421471 0 17.650606022421471 88.368910114881146 0 0 0 0 51.997776002078041 41.965206019537163 0 41.965206019537163 79.030250072573835 0 0 0 0 32.789587357822711 3.9892534424225232 0 3.9892534424225232 109.62027691469393 0 0 0 0 -29.287477938401935 71.34617380202053 0 71.34617380202053 198.07355955996445 0 0 0 0 24.151010598153789 72.835661565149621 0 72.835661565149621 175.03091874521317 0 0 0 0 -0.40102017738083973 12.276164423434626 0 12.276164423434626 29.008757329044535 0 0 0 0 11.066753360177017 15.563016007981332 0 15.563016007981332 183.21759225703317 0 0 0 0 9.6162449114917763 26.982874318274298 0 26.982874318274298 126.76760980120207 0 0 0 0 1.1598137971202505 48.019231706696701 0 48.019231706696701 123.37897921117838 0 0 0 0 1.1434687139631023 44.139676172203053 0 44.139676172203053 161.7872539349255 0 0 0 0 -16.629019569807497 35.662945964998471 0 35.662945964998471 126.92308237704174 0 0 0 0 15.337078785272752 53.255956501380297 0 53.255956501380297 134.73425473995667 0 0 0 0 -3.7228534628364969 54.963790832894801 0 54.963790832894801 143.91973790560132 0 0 0 0 -25.922713520780235 3.6189670542212298 0 3.6189670542212298 110.58899107306206 0 0 0 0 -0.2786002887298018 29.894425769148874 0 29.894425769148874 121.57737732982787 0 0 0 0 49.55391759596273 5.2330188214813234 0 5.2330188214813234 94.504135923985814 0 0 0 0 -0.1394509736855003 1.0180343502652178 0 1.0180343502652178 95.985952614787493 0 0 0 0 -13.847700816399765 2.5143721329750406 0 2.5143721329750406 96.383145849835273 0 0 0 0 -12.486479695267917 8.8266871311689101 0 8.8266871311689101 70.979354686549868 0 0 0 0 -7.2891490886819117 0.30466680675226598 0 0.30466680675226598 54.008478416339777 0 0 0 0 -32.104249865928523 5.8168624791323964 0 5.8168624791323964 105.77267530051358 0 0 0 0 -42.366408637009499 28.016302125831771 0 28.016302125831771 134.12462285075094 0 0 0 0 -24.441380994853944 24.814109291196814 0 24.814109291196814 118.52718498012746 0 0 0 0 -12.736959631583431 -14.173173319518583 0 -14.173173319518583 29.093636019409132 0 0 0 0 -22.755012445149305 21.618649095943852 0 21.618649095943852 27.996095038788098 0 0 0 0 -0.061179764340605125 2.6441967900221943 0 2.6441967900221943 8.5663769366589619 0 0 0 0 -34.145697360018403 27.510355252210957 0 27.510355252210957 40.346278758778681 0 0 0 0 -54.833700379188258 -17.987860621642994 0 -17.987860621642994 89.527606199011416 0 0 0 0 -0.40216757372887457 37.733870580994335 0 37.733870580994335 112.75001806615091 0 0 0 0 1.3556734210804948 21.844132193442761 0 21.844132193442761 43.273439065389645 0 0 0 0 -22.985802295691634 -24.874833608080785 0 -24.874833608080785 27.910438428127165 0 0 0 0 -0.70014828636112725 -14.315997350433463 0 -14.315997350433463 90.247380569894176 0 0 0 0 -92.139039726657757 0.46474434429728717 0 0.46474434429728717 155.17992857838544 0 0 0 0 -27.012560592167574 -41.816346198265819 0 -41.816346198265819 152.84946641012175 0 0 0 0 -27.655773025824715 -29.315571270119108 0 -29.315571270119108 96.698219224970671 0 0 0 0 -2.0108287776256475 -20.76203210292806 0 -20.76203210292806 84.060703711922542 0 0 0 0 0.71612866404939268 -9.8250247563300945 0 -9.8250247563300945 104.74603201418358 0 0 0 0 13.842223665071742 -30.772168910458277 0 -30.772168910458277 135.05907773461513 0 0 0 0 18.212952219095314 -20.757214076642413 0 -20.757214076642413 86.187193586585636 0 0 0 0 -3.2488032575902821 5.4286348692185129 0 5.4286348692185129 58.834340406028787 0 0 0 0 -1.5148031239125745 2.7524839779627612 0 2.7524839779627612 53.423602240883909 0 0 0 0 10.843997088506057 -9.9294202659712028 0 -9.9294202659712028 89.837186618780834 0 0 0 0 90.106236714411352 -25.039978615255677 0 -25.039978615255677 65.727254985496984 0 0 0 0 -9.5393001063304332 11.489122044269514 0 11.489122044269514 19.64224198084834 0 0 0 0 -15.383938875775694 2.3664253488388027 0 2.3664253488388027 8.7293680391161832 0 0 0 0 -4.6851524092868742 -5.8159824683477979 0 -5.8159824683477979 1.8981029351911332 0 0 0 0 -4.6430116144608746 124.61939377143062 0 124.61939377143062 309.22347847608034 0 0 0 0 -20.682091351324964 -29.892958053667492 0 -29.892958053667492 10.107821225732652 0 0 0 0 12.664094526409826 -36.346225586945366 0 -36.346225586945366 127.00490597074531 0 0 0 0 -22.401398880151078 -104.39089299801753 0 -104.39089299801753 303.53356010494463 0 0 0 0 -29.402266590270642 -6.8472161704939936 0 -6.8472161704939936 231.30699573377206 0 0 0 0 -72.398448970756135 -20.75381851010934 0 -20.75381851010934 96.854338397977699 0 0 0 0 -36.874717837756975 -10.355028089656116 0 -10.355028089656116 89.06075982100765 0 0 0 0 -4.6346440253895249 2.9917049742124746 0 2.9917049742124746 65.316545284932445 0 0 0 0 -60.48829388875879 40.506868160655358 0 40.506868160655358 29.097769154162961 0 0 0 0 -52.807169694437107 33.828735871344179 0 33.828735871344179 33.270044789394888 0 0 0 0 -67.457115212259396 50.10729099584205 0 50.10729099584205 44.586148316288018 0 0 0 0 -27.634537312379507 -18.719387884659227 0 -18.719387884659227 57.181064185104333 0 0 0 0 -111.3746175688467 10.400604608732465 0 10.400604608732465 96.589161906536901 0 0 0 0 0.95450717914596273 4.9780631942007112 0 4.9780631942007112 60.562805217388757 0 0 0 0 -45.653659761958806 34.347373317854363 0 34.347373317854363 69.908713019011884 0 0 0 0 -170.17662581497621 78.793835394715188 0 78.793835394715188 63.245917536209163 0 0 0 0 0.12915237166955462 16.581945498525876 0 16.581945498525876 105.46176614506233 0 0 0 0 56.981046781396799 -1.5631443424790632 0 -1.5631443424790632 134.83461208274821 0 0 0 0 60.883213642198825 2.7484342063617078 0 2.7484342063617078 97.113100326936546 0 0 0 0 27.588183365938676 15.53360604104455 0 15.53360604104455 122.37180922568223 0 0 0 0 -21.285962853875617 -1.1828255913351313 0 -1.1828255913351313 104.2750094944131 0 0 0 0 24.718933917580216 18.734481624200271 0 18.734481624200271 85.475319104275513 0 0 0 0 4.2103398476258462 -13.938282557734055 0 -13.938282557734055 94.191485353527241 0 0 0 0 -18.34618120816117 -6.7190459910380014 0 -6.7190459910380014 91.027709323636373 0 0 0 0 62.629437116379904 14.915751301687123 0 14.915751301687123 83.234966553056438 0 0 0 0 1.5146365603363374 17.886035461560883 0 17.886035461560883 106.48561079503108 0 0 0 0 26.708565995392291 11.281183532664727 0 11.281183532664727 108.25016875713482 0 0 0 0 -1.5593621229277312 1.2633638819325554 0 1.2633638819325554 30.215973522996421 0 0 0 0 3.495941204510796 17.306144539742029 0 17.306144539742029 91.626738194142618 0 0 0 0 -33.134434141893962 157.54232609725841 0 157.54232609725841 -138.5671583671101 0 0 0 0 23.68249219869017 46.154027140824837 0 46.154027140824837 121.9086715227786 0 0 0 0 25.682852200295883 47.969360911862168 0 47.969360911862168 65.248185154682687 0 0 0 0 27.978156362084889 -277.67620536871254 0 -277.67620536871254 94.713408416879247 0 0 0 0 133.07873798587576 25.936524955854111 0 25.936524955854111 -249.94820475412052 0 0 0 0 -148.37022469708086 53.787672520980777 0 53.787672520980777 30.066683733017271 0 0 0 0 -6.4868383833274379 5.5107453854743653 0 5.5107453854743653 37.001367196433421 0 0 0 0 -47.127792026682471 46.362709956198159 0 46.362709956198159 84.431013904648353 0 0 0 0 -13.54043644595613 3.2496284554371471 0 3.2496284554371471 19.20144233448616 0 0 0 0 -2.6444224474417304 3.006114845091302 0 3.006114845091302 55.202759548000131 0 0 0 0 -213.84936454742245 32.391035522913171 0 32.391035522913171 25.406285563753045 0 0 0 0 -290.01363759563287 63.069832789300563 0 63.069832789300563 106.3313742593964 0 0 0 0 -4.2646436811727639 6.3334724389071084 0 6.3334724389071084 9.3743917898923002 0 0 0 0 -54.976384519797648 70.567202878166427 0 70.567202878166427 227.43737822053663 0 0 0 0 -547.3203395059727 -368.50404419761617 0 -368.50404419761617 104.29306846526561 0 0 0 0 -173.65449420922005 144.05015417981667 0 144.05015417981667 270.47535049805447 0 0 0 0 -2.9486036754139713 7.9088395269611977 0 7.9088395269611977 47.731940359352507 0 0 0 0 8.0457397433833648 21.073285176581521 0 21.073285176581521 131.66349088259449 0 0 0 0 -285.14806251661389 -177.63123267622359 0 -177.63123267622359 154.98515140946256 0 0 0 0 -60.229008367789902 -70.827527271816507 0 -70.827527271816507 74.141631755155686 0 0 0 0 -161.5434498570412 -36.28684479486401 0 -36.28684479486401 207.22385610617675 0 0 0 0 395.28703298368299 -411.79085648930959 0 -411.79085648930959 64.793656813366397 0 0 0 0 -854.67066625691496 374.24285481115658 0 374.24285481115658 1432.4700259517849 0 0 0 0 -88.142540624504591 16.319668249521783 0 16.319668249521783 787.11849220069053 0 0 0 0 16.798083057095766 48.376786883025488 0 48.376786883025488 29.260339830794692 0 0 0 0 152.18347886376546 147.99152170352318 0 147.99152170352318 -1.5356815021550574 0 0 0 0 412.04662049296837 473.90998655803196 0 473.90998655803196 319.90633605942639 0 0 0 0 -0.33447367923095417 -0.89912079565930725 0 -0.89912079565930725 13.26464892871212 0 0 0 0 -414.94561271794646 -114.41096109937098 0 -114.41096109937098 161.27076562148068 0 0 0 0 401.9405176277769 66.828873145937905 0 66.828873145937905 -513.27489651313954 0 0 0 0 11.782045188385382 9.8728550006671867 0 9.8728550006671867 107.46550138169232 0 0 0 0 25.302141183062986 -4.8047078691797651 0 -4.8047078691797651 85.520714560318993 0 0 0 0 1.4573395768091475 15.938600447749803 0 15.938600447749803 104.7861104459185 0 0 0 0 1.5494107106397494 19.221662997736384 0 19.221662997736384 103.54571388022273 0 0 0 0 46.121362954175538 18.517246660432193 0 18.517246660432193 89.016300585335557 0 0 0 0 32.164307617010309 27.43411488892707 0 27.43411488892707 99.314091169555468 0 0 0 0 18.194723596395761 14.415938079041553 0 14.415938079041553 94.390686029724293 0 0 0 0 -0.040129671642489484 15.172010375010359 0 15.172010375010359 93.307447116059848 0 0 0 0 16.041422909772791 19.638150105856539 0 19.638150105856539 84.842904019105845 0 0 0 0 5.9205161673801285 -2.3493842703292103 0 -2.3493842703292103 88.83679448937005 0 0 0 0 -0.15841452631761399 7.0935993318280453 0 7.0935993318280453 74.193396820424823 0 0 0 0 -8.6131358629612578 -15.320784413230285 0 -15.320784413230285 83.350960501321424 0 0 0 0 -31.716123083076809 -0.24498393365138327 0 -0.24498393365138327 73.35056748410716 0 0 0 0 -8.833001162818249 -6.8191562582278493 0 -6.8191562582278493 69.027713643474272 0 0 0 0 0.51345679719638904 -9.7268319457437755 0 -9.7268319457437755 71.684009852056192 0 0 0 0 -51.596944865583964 5.386346763727488 0 5.386346763727488 72.597152175250812 0 0 0 0 -31.118357950729489 -5.5036930872993253 0 -5.5036930872993253 40.534152185631683 0 0 0 0 -22.496557979211389 -8.4296624504640931 0 -8.4296624504640931 67.796199011141653 0 0 0 0 -63.404041132227348 -17.270316771873013 0 -17.270316771873013 80.503097565739154 0 0 0 0 -29.282098600089512 -0.9200849333901715 0 -0.9200849333901715 87.741530023418818 0 0 0 0 -24.114087460881365 -15.734700889753185 0 -15.734700889753185 63.381023558830748 0 0 0 0 -21.191541039562992 10.78988885407307 0 10.78988885407307 84.269042073674882 0 0 0 0 0.13431308186022761 3.8223389587665224 0 3.8223389587665224 78.970162510389855 0 0 0 0 6.4595401625443856 18.160018546125684 0 18.160018546125684 84.938107044357821 0 0 0 0 -8.1932221039454589 9.5342454443211864 0 9.5342454443211864 90.678080436704477 0 0 0 0 -2.386898805912665 1.4648612823084477 0 1.4648612823084477 75.828381960576735 0 0 0 0 -25.979538356373439 -7.8244305803357292 0 -7.8244305803357292 84.006029429565388 0 0 0 0 -19.892180290470947 -11.146563460176367 0 -11.146563460176367 81.175417400248989 0 0 0 0 14.765806835255717 -0.4999393393891296 0 -0.4999393393891296 67.859576633079996 0 0 0 0 23.32451846769527 8.6910288231615596 0 8.6910288231615596 72.930151629348984 0 0 0 0 1.5539634855696249 5.8081568951256486 0 5.8081568951256486 81.821277908724369 0 0 0 0 11.955869031209545 18.963977856424208 0 18.963977856424208 87.608430747066677 0 0 0 0 6.8646262405246716 24.211919095785674 0 24.211919095785674 98.443592622052165 0 0 0 0 13.861313484842867 27.208644066628949 0 27.208644066628949 104.45412482905704 0 0 0 0 18.914354025243256 22.165209040052105 0 22.165209040052105 92.654470295645297 0 0 0 0 10.082426697397125 25.380828393684624 0 25.380828393684624 106.0939042158916 0 0 0 0 18.118933616219465 24.186654186337364 0 24.186654186337364 103.39203049039907 0 0 0 0 27.176814992384607 20.36149360159834 0 20.36149360159834 104.51395825881991 0 0 0 0 13.769495466839089 26.038182749804946 0 26.038182749804946 126.98218357610085 0 0 0 0 24.44217615618615 22.828606962381514 0 22.828606962381514 103.21249303944205 0 0 0 0 25.310812400797658 27.113361659230577 0 27.113361659230577 108.99120768785332 0 0 0 0 26.360631937851849 23.924487570679958 0 23.924487570679958 99.057845468300002 0 0 0 0 31.641984516078537 15.619698029961 0 15.619698029961 98.586048950483018 0 0 0 0 27.154127216773304 23.979364818003887 0 23.979364818003887 90.83608347961399 0 0 0 0 17.209804715689415 20.645647549140449 0 20.645647549140449 97.42512047040691 0 0 0 0 17.512798572357269 20.993577546259985 0 20.993577546259985 87.39355798296765 0 0 0 0 5.8553686371739104 18.141846849444391 0 18.141846849444391 95.532415326673799 0 0 0 0 26.356340219186869 22.997760253924898 0 22.997760253924898 93.357378152739329 0 0 0 0 317.42876889914805 85.580012144269858 0 85.580012144269858 -325.15597685246757 0 0 0 0 122.88496453714197 -113.65064492155216 0 -113.65064492155216 182.49415776002934 0 0 0 0 0.1531749753474827 -2.9601069840326488 0 -2.9601069840326488 -5.5903588322511411 0 0 0 0 148.61386346179052 -37.114058469887823 0 -37.114058469887823 52.418231155497779 0 0 0 0 111.36603230485684 -60.852127216072404 0 -60.852127216072404 92.764243560995965 0 0 0 0 172.85612534795155 -58.703637594780957 0 -58.703637594780957 67.565060648004874 0 0 0 0 43.978534280649455 -27.975299509589604 0 -27.975299509589604 126.22280077663163 0 0 0 0 37.851932550147467 -22.424407038924983 0 -22.424407038924983 167.21399484916037 0 0 0 0 -65.017687265432869 14.425306560369791 0 14.425306560369791 97.871623082624865 0 0 0 0 -13.491925803669307 -15.378714384658878 0 -15.378714384658878 121.01435547155057 0 0 0 0 -5.711883509202039 -7.3558637339908586 0 -7.3558637339908586 32.571954779859887 0 0 0 0 68.282335998782401 -100.65816071217159 0 -100.65816071217159 -124.42556960460934 0 0 0 0 227.82179857452502 77.961746359796962 0 77.961746359796962 200.60065509992637 0 0 0 0 -28.135844406156139 -131.17333843902452 0 -131.17333843902452 132.12226056907093 0 0 0 0 610.30758232895096 367.18298895144835 0 367.18298895144835 369.19955685713921 0 0 0 0 3.9114346565602318 -119.04540635058038 0 -119.04540635058038 293.54710567306029 0 0 0 0 71.638817858809489 -173.36247309713144 0 -173.36247309713144 735.96934283793234 0 0 0 0 506.79317828715557 208.93241542442775 0 208.93241542442775 456.22073717119929 0 0 0 0 83.536504810216229 -45.571217703287402 0 -45.571217703287402 343.49746836505437 0 0 0 0 325.92691880763687 56.115270250007597 0 56.115270250007597 64.887078129220754 0 0 0 0 149.60277165032437 -147.81925456031786 0 -147.81925456031786 1136.0814089890191 0 0 0 0 121.41894384576244 -22.582562533279997 0 -22.582562533279997 764.69632089819061 0 0 0 0 270.08201242693849 6.0695117909417604 0 6.0695117909417604 393.24850238973158 0 0 0 0 138.56138676788578 43.758733555117942 0 43.758733555117942 453.88967974190746 0 0 0 0 36.465899125601936 34.778089954168536 0 34.778089954168536 431.97045326427906 0 0 0 0 110.30089302524902 154.74035662373353 0 154.74035662373353 277.11988071562519 0 0 0 0 -102.22639487443348 141.67036353186995 0 141.67036353186995 322.20397255226271 0 0 0 0 41.946999865902399 52.530740539950784 0 52.530740539950784 213.73393935923377 0 0 0 0 47.51342490013667 170.93800370262034 0 170.93800370262034 269.000780848072 0 0 0 0 34.37384924333719 101.45184865783449 0 101.45184865783449 269.72550784048508 0 0 0 0 -49.789392756842062 85.616234239041887 0 85.616234239041887 195.57913340510277 0 0 0 0 126.35000139294834 81.518183923293691 0 81.518183923293691 141.99000705734943 0 0 0 0 219.14351340930807 203.44593529723352 0 203.44593529723352 292.26847056432234 0 0 0 0 -525.68114454344527 240.39584312365332 0 240.39584312365332 272.16828056167287 0 0 0 0 -0.65497639542042974 0.18105558958912304 0 0.18105558958912304 5.2865057441063641 0 0 0 0 -117.22314449681289 -405.0898912636876 0 -405.0898912636876 -133.0220071969743 0 0 0 0 -103.46334054075533 168.30616264723358 0 168.30616264723358 197.47563112314128 0 0 0 0 -309.56233349284867 55.411346282777231 0 55.411346282777231 339.02583673756453 0 0 0 0 -160.33670418701422 37.132353331209742 0 37.132353331209742 232.75133195881972 0 0 0 0 -41.303850081943438 -2.2323111501682433 0 -2.2323111501682433 329.09141015628302 0 0 0 0 -49.508127924699238 81.059958502628433 0 81.059958502628433 186.76664264284773 0 0 0 0 -524.18330765699261 -24.151783357837758 0 -24.151783357837758 823.1640498272609 0 0 0 0 51.072135112645356 138.90723988090031 0 138.90723988090031 175.87860802519572 0 0 0 0 -36.313633315864081 93.483863789522729 0 93.483863789522729 73.419198315605172 0 0 0 0 -222.00371807721831 76.616059773860798 0 76.616059773860798 176.51451458141673 0 0 0 0 -21.132681618620154 77.804861944438017 0 77.804861944438017 107.09528374146612 0 0 0 0 -54.863721631145836 71.961676574785088 0 71.961676574785088 182.288762250133 0 0 0 0 -48.245348158707202 85.400542092356773 0 85.400542092356773 44.046122396888677 0 0 0 0 -35.596486936863585 114.74580021296788 0 114.74580021296788 106.80021020997717 0 0 0 0 -123.48919118755566 119.30244072614369 0 119.30244072614369 101.04999135040634 0 0 0 0 197.1234510836648 12.886534983124875 0 12.886534983124875 78.761517459272 0 0 0 0 102.44290925677251 98.31454329227563 0 98.31454329227563 139.655675757057 0 0 0 0 76.702696630128685 69.070567534668953 0 69.070567534668953 106.76550541244069 0 0 0 0 9.8357925037698806 126.26982997059531 0 126.26982997059531 182.89301165279721 0 0 0 0 16.648571651472594 72.284447673413524 0 72.284447673413524 67.313767298132007 0 0 0 0 20.584858949204317 88.207616025218158 0 88.207616025218158 105.1567060896873 0 0 0 0 56.615974035017643 13.404109275994415 0 13.404109275994415 80.320580032302132 0 0 0 0 86.393344314149999 41.031876547360298 0 41.031876547360298 59.444972487166524 0 0 0 0 3.052330630823235 41.338102400397474 0 41.338102400397474 69.838369115594105 0 0 0 0 -28.187052289389726 117.15038149038264 0 117.15038149038264 56.374182722975092 0 0 0 0 -25.845244247968367 48.185075373474319 0 48.185075373474319 -67.776535257558862 0 0 0 0 -41.321277946494774 100.60231830718112 0 100.60231830718112 -16.52953247077312 0 0 0 0 -56.56069488117646 112.27151369411877 0 112.27151369411877 12.985984149676369 0 0 0 0 -24.058700351205516 87.713749347360135 0 87.713749347360135 -9.4146125731276697 0 0 0 0 -46.453386341286205 117.45892066621309 0 117.45892066621309 35.022938012484701 0 0 0 0 -77.01604457743349 85.656144083444815 0 85.656144083444815 2.4356614519056166 0 0 0 0 -14.673163170550197 52.510630291566486 0 52.510630291566486 17.779278704694661 0 0 0 0 -8.537093797899816 1.6913804014901501 0 1.6913804014901501 -0.90144783412272922 0 0 0 0 -20.335165683895525 80.82539931339943 0 80.82539931339943 -95.885632432495186 0 0 0 0 53.345829321076735 71.961357937307184 0 71.961357937307184 302.07198082781542 0 0 0 0 -1.6620158153554598 106.8730694103906 0 106.8730694103906 397.82089594639547 0 0 0 0 13.533052709055937 94.985320137770032 0 94.985320137770032 430.4011782357702 0 0 0 0 -33.434716696437249 19.988997828539141 0 19.988997828539141 326.77941763862691 0 0 0 0 45.647144395901705 51.534133308166929 0 51.534133308166929 191.85122238270105 0 0 0 0 -19.913513438658015 196.64720281504469 0 196.64720281504469 -349.30318645080843 0 0 0 0 -2.8333083893318438 -0.30582350402643499 0 -0.30582350402643499 0.3270729970529267 0 0 0 0 8.5527581757103235 95.175809700773243 0 95.175809700773243 423.32197885168716 0 0 0 0 34.790966410431338 44.27151391289226 0 44.27151391289226 376.05386396424728 0 0 0 0 15.971945896364105 110.64503458936633 0 110.64503458936633 450.25492265429057 0 0 0 0 -123.79052879626852 108.85383862605522 0 108.85383862605522 508.28194728513063 0 0 0 0 -165.80398994453162 188.25799307608213 0 188.25799307608213 440.81599902785092 0 0 0 0 189.66136402443635 267.75620773732044 0 267.75620773732044 140.1656550969783 0 0 0 0 -40.078861359832537 -43.037907754045392 0 -43.037907754045392 158.59801304809935 0 0 0 0 -3.5804012037488064 18.723872142334585 0 18.723872142334585 304.61124074914369 0 0 0 0 -93.113286987655556 110.97613148368782 0 110.97613148368782 69.808821732614888 0 0 0 0 47.446980280372372 -23.078899857446231 0 -23.078899857446231 168.45004637187685 0 0 0 0 8.630178732003742 -42.576407324414504 0 -42.576407324414504 117.58846559357335 0 0 0 0 209.17396836746775 41.201772321717726 0 41.201772321717726 101.34830005685217 0 0 0 0 128.57341121846912 -63.898521345719928 0 -63.898521345719928 108.62353849352894 0 0 0 0 78.053361999495337 -17.915720982005951 0 -17.915720982005951 80.948728570696403 0 0 0 0 -12.876748718046363 -17.649763998409185 0 -17.649763998409185 88.429167664482122 0 0 0 0 -55.104507369781231 -123.50324715256284 0 -123.50324715256284 25.985323915560002 0 0 0 0 -16.879744421723856 -35.447805995734669 0 -35.447805995734669 91.706648031022382 0 0 0 0 122.54409028195641 -34.332516821315949 0 -34.332516821315949 125.21870233832351 0 0 0 0 212.79554283875575 105.36211019338725 0 105.36211019338725 191.36027945663227 0 0 0 0 135.74190840298138 -1.3051960204998068 0 -1.3051960204998068 184.99274317242816 0 0 0 0 -2.7423642685315173 -27.697734768086889 0 -27.697734768086889 -28.157132788523313 0 0 0 0 -145.80372800660007 -288.74369782090434 0 -288.74369782090434 387.3798955991515 0 0 0 0 -38.445116928823182 -82.20872953986327 0 -82.20872953986327 -68.584292352155899 0 0 0 0 -34.248167873847706 -36.399141996502294 0 -36.399141996502294 -60.874603501841193 0 0 0 0 67.333764229250448 -296.32180748404426 0 -296.32180748404426 71.435043415462133 0 0 0 0 600.8973639223376 433.25991675095065 0 433.25991675095065 1427.6828455138748 0 0 0 0 -2.3398367646453799 -3.439732104787538 0 -3.439732104787538 11.207236679860841 0 0 0 0 -162.07356565697683 -419.18399094755296 0 -419.18399094755296 512.02440945763374 0 0 0 0 -180.29721633319241 -313.80326216731919 0 -313.80326216731919 355.97564206487732 0 0 0 0 -30.219826616690717 -45.076881749841931 0 -45.076881749841931 173.52860496669331 0 0 0 0 99.677152319643938 442.70285215100739 0 442.70285215100739 1086.1420663090757 0 0 0 0 -44.058700086343379 -64.020396211803018 0 -64.020396211803018 -5.8116582127549918 0 0 0 0 -11.06818216029442 346.26868765872985 0 346.26868765872985 566.56447467123508 0 0 0 0 438.40834458849758 347.28091049909563 0 347.28091049909563 309.56580461611156 0 0 0 0 455.08359402943506 536.51527864720993 0 536.51527864720993 499.29727814660873 0 0 0 0 787.20423118975827 464.40696749068593 0 464.40696749068593 415.07555629962008 0 0 0 0 775.044940596777 530.35431673841231 0 530.35431673841231 287.00053420846234 0 0 0 0 762.33314302994188 587.29457340890258 0 587.29457340890258 316.54255843802821 0 0 0 0 666.60893773675559 338.42134567705216 0 338.42134567705216 251.48631777854462 0 0 0 0 266.23586264075493 351.52096642174001 0 351.52096642174001 404.78364176988543 0 0 0 0 330.84613879691733 259.76568450750347 0 259.76568450750347 258.52464382367361 0 0 0 0 -48.197635494153118 -35.654518992948063 0 -35.654518992948063 149.9219109253134 0 0 0 0 -141.56203436213855 107.61888979967262 0 107.61888979967262 420.71369737646091 0 0 0 0 153.45220100878851 73.766623119925498 0 73.766623119925498 270.32046296070621 0 0 0 0 246.3670903852817 235.50186393489275 0 235.50186393489275 286.48210876258963 0 0 0 0 463.93184995417027 136.11524801094129 0 136.11524801094129 239.43992418864218 0 0 0 0 456.34225640478871 299.51538935890858 0 299.51538935890858 280.45139025591925 0 0 0 0 325.20125313083372 6.5093752255470463 0 6.5093752255470463 141.83761417820642 0 0 0 0 826.89029096801505 232.12723977143105 0 232.12723977143105 108.71447234195512 0 0 0 0 783.44002775500348 480.49459331394974 0 480.49459331394974 370.31614573163097 0 0 0 0 929.17300067955375 464.94543456152314 0 464.94543456152314 304.55537703508162 0 0 0 0 1153.813282319584 732.01471104175835 0 732.01471104175835 377.04946395553998 0 0 0 0 539.48750740331468 396.96755440741799 0 396.96755440741799 366.10493878425041 0 0 0 0 924.47050360497087 485.66280104895122 0 485.66280104895122 221.53218103764812 0 0 0 0 -78.12289677376657 99.389224040442059 0 99.389224040442059 253.56020798888494 0 0 0 0 -11.794860839777535 80.393212233249415 0 80.393212233249415 399.37813272538915 0 0 0 0 85.405184740531126 147.75698318093418 0 147.75698318093418 394.4369293120908 0 0 0 0 -3.8178715277518194 -1.1524081822380907 0 -1.1524081822380907 2.8071541094446957 0 0 0 0 -4.9886278721728559 177.97976192962597 0 177.97976192962597 527.33707511810644 0 0 0 0 4.2919805103656472 56.555402998565114 0 56.555402998565114 492.4379817321169 0 0 0 0 -0.74298348882007303 73.942539477611717 0 73.942539477611717 480.25564116450551 0 0 0 0 43.739711838570202 61.16544389326009 0 61.16544389326009 454.01127363329579 0 0 0 0 135.02517399614953 258.78361211927768 0 258.78361211927768 314.00124298901937 0 0 0 0 -32.368654245369498 -52.601295231565018 0 -52.601295231565018 165.91666709404126 0 0 0 0 -464.54678807284131 443.53378546271415 0 443.53378546271415 888.18261221751163 0 0 0 0 30.556074752084442 -251.81966944221131 0 -251.81966944221131 362.00426143269578 0 0 0 0 -7.0767093141738009 -9.6990399392235922 0 -9.6990399392235922 12.357895696419064 0 0 0 0 -460.72230562920618 478.4915725181454 0 478.4915725181454 255.05171355311177 0 0 0 0 -84.466855743138694 66.040382358383795 0 66.040382358383795 327.56825690309051 0 0 0 0 118.89785687881931 284.71833381798206 0 284.71833381798206 883.98742973546905 0 0 0 0 439.75792736572112 125.64798872788379 0 125.64798872788379 163.23688584506453 0 0 0 0 151.07971459444434 119.48713597698952 0 119.48713597698952 416.84066129648272 0 0 0 0 48.413708182540176 45.309600892025628 0 45.309600892025628 429.41213959860033 0 0 0 0 7.9097243181136037 169.45138887672874 0 169.45138887672874 516.34471274085809 0 0 0 0 -10.707594142688322 -74.583464089722838 0 -74.583464089722838 756.47972780387499 0 0 0 0 -6.2437499587576895 -92.668312234287441 0 -92.668312234287441 656.53204724669922 0 0 0 0 84.531646788279431 119.22340302087105 0 119.22340302087105 471.70758059903164 0 0 0 0 -132.62963103984521 136.80606824419192 0 136.80606824419192 452.38446547315107 0 0 0 0 -57.807001619528819 88.459116055259074 0 88.459116055259074 457.64328073311844 0 0 0 0 -45.975621025653489 -16.714626016825207 0 -16.714626016825207 149.20574880957699 0 0 0 0 32.922333870218154 -277.77081346572595 0 -277.77081346572595 218.32035178757724 0 0 0 0 -3.7136591658800171 -65.445523362530366 0 -65.445523362530366 127.51658769178903 0 0 0 0 -587.45385316436841 388.88940272610489 0 388.88940272610489 -45.406824137433432 0 0 0 0 53.209758914557824 137.10486777207552 0 137.10486777207552 273.29065896083193 0 0 0 0 111.95228750716069 14.65939223128953 0 14.65939223128953 241.10360953434429 0 0 0 0 15.703269183985062 62.451421108267482 0 62.451421108267482 157.25863047685289 0 0 0 0 -776.00429327486449 268.79567126396432 0 268.79567126396432 95.951929734328587 0 0 0 0 -264.64192608765461 368.73164424960851 0 368.73164424960851 44.881304840609118 0 0 0 0 -162.33365999950303 92.384648599321736 0 92.384648599321736 -266.03228934574872 0 0 0 0 -151.38856198400532 5.7892826038905696 0 5.7892826038905696 -291.02787362338859 0 0 0 0 -401.86864846015487 334.89450642485463 0 334.89450642485463 -339.9477685606762 0 0 0 0 -504.22538123246522 -50.597575830674032 0 -50.597575830674032 -321.26959594154323 0 0 0 0 -1836.1026544824426 -206.81283652513957 0 -206.81283652513957 -321.58646906776994 0 0 0 0 -10.917359862866 12.268070131305969 0 12.268070131305969 27.082993094932533 0 0 0 0 -79.1774121560249 220.18027690764018 0 220.18027690764018 -571.51800759288017 0 0 0 0 156.92133491993764 188.1004524722739 0 188.1004524722739 -230.33962385186896 0 0 0 0 -78.782200013735164 330.06842672283494 0 330.06842672283494 -98.885961908235913 0 0 0 0 193.72456271398391 381.04326088140078 0 381.04326088140078 -50.784703469689703 0 0 0 0 284.02133252983572 338.54891718755243 0 338.54891718755243 218.24699340592269 0 0 0 0 0.10573784023221222 -1.4088229879572083 0 -1.4088229879572083 6.0140294682924491 0 0 0 0 198.44306421459964 385.96236681894516 0 385.96236681894516 -148.40457415761193 0 0 0 0 108.81877783438586 144.28067098255997 0 144.28067098255997 207.1175721214895 0 0 0 0 109.00681144064242 113.23363123019226 0 113.23363123019226 -170.68882914682581 0 0 0 0 -19.120530172657254 188.78883116642828 0 188.78883116642828 -70.792505910736509 0 0 0 0 -9.6990458260663672 -65.37776665596175 0 -65.37776665596175 -51.650140258614556 0 0 0 0 90.522991879829306 62.864245190292422 0 62.864245190292422 86.651339635805925 0 0 0 0 253.15571087949843 -35.385863233019336 0 -35.385863233019336 -6.2739763326972025 0 0 0 0 211.68324822137947 193.53265013545752 0 193.53265013545752 173.25927494867938 0 0 0 0 3.7657868839934672 -7.4669583028837465 0 -7.4669583028837465 15.477914168972006 0 0 0 0 254.98077952709548 -25.325732003817393 0 -25.325732003817393 42.986217577083153 0 0 0 0 11.210450671868784 58.965520042176649 0 58.965520042176649 122.96434213524844 0 0 0 0 141.69811373848552 192.39499612454529 0 192.39499612454529 35.989928029994189 0 0 0 0 134.14193628981047 203.52505314351583 0 203.52505314351583 225.12528911273694 0 0 0 0 167.16868611568952 179.01874033335116 0 179.01874033335116 191.97864274081076 0 0 0 0 311.14406558767564 115.31923272834729 0 115.31923272834729 130.22941580577753 0 0 0 0 -86.958718246943477 430.22136250982658 0 430.22136250982658 1554.6487941602481 0 0 0 0 280.27931981197241 378.81378363720614 0 378.81378363720614 434.13518939437199 0 0 0 0 298.62993709856937 -39.136342360190611 0 -39.136342360190611 47.355883309530327 0 0 0 0 -113.60508075919881 87.444402020806592 0 87.444402020806592 601.91013276169178 0 0 0 0 329.38753051324261 123.72051764235584 0 123.72051764235584 102.11409750609528 0 0 0 0 198.48838239407939 196.95796539877756 0 196.95796539877756 640.16041760970984 0 0 0 0 37.034693647805398 -51.490478796433308 0 -51.490478796433308 1323.5199595444064 0 0 0 0 -35.228429799464038 -432.25470459829921 0 -432.25470459829921 1537.1280125484227 0 0 0 0 -22.209392056165598 74.735590533255163 0 74.735590533255163 90.241725575477631 0 0 0 0 25.062910575431903 55.822793285106812 0 55.822793285106812 124.65733224590329 0 0 0 0 -661.8867983211519 259.29604236834712 0 259.29604236834712 677.50671921688991 0 0 0 0 -18.306479159289893 -8.5160459419967083 0 -8.5160459419967083 591.79922472486032 0 0 0 0 -335.35241069273582 -674.20195020894789 0 -674.20195020894789 2001.8828277753892 0 0 0 0 -287.83830306558104 -884.29989681096595 0 -884.29989681096595 1974.0006752331574 0 0 0 0 -875.83459112154605 -945.756381533899 0 -945.756381533899 5000.4222824570206 0 0 0 0 -434.97802223319985 180.98481386299682 0 180.98481386299682 2935.2819396652303 0 0 0 0 -855.65797828680388 -173.20827475666556 0 -173.20827475666556 3083.3479322214152 0 0 0 0 -843.47861375524633 316.70301734125314 0 316.70301734125314 4999.2671788479483 0 0 0 0 -111.33746852756985 439.58990488337804 0 439.58990488337804 2479.6183106078315 0 0 0 0 1062.2038946641528 638.66213460601648 0 638.66213460601648 382.18348873200739 0 0 0 0 1943.6117278447418 2364.0456933232672 0 2364.0456933232672 1686.1764106738119 0 0 0 0 355.97159813945188 761.13154594059233 0 761.13154594059233 2144.2192815765811 0 0 0 0 1108.7815399233782 707.2466290422235 0 707.2466290422235 395.2896085275861 0 0 0 0 -11.393503210124207 11.136260070912222 0 11.136260070912222 14.122303657156607 0 0 0 0 1034.1408717450952 496.24370186162287 0 496.24370186162287 174.36943073237489 0 0 0 0 503.16950221352272 193.97241297410619 0 193.97241297410619 229.54210354271345 0 0 0 0 498.31270138121363 221.63148806902245 0 221.63148806902245 131.24005658758801 0 0 0 0 1644.3625244465402 535.54069324129523 0 535.54069324129523 250.97307275897765 0 0 0 0 17.14841118727341 36.77003315237345 0 36.77003315237345 90.285241870355065 0 0 0 0 1084.0066964709836 232.09542148089167 0 232.09542148089167 92.226776824722037 0 0 0 0 1082.9908322915071 500.6494797105297 0 500.6494797105297 539.33017442086202 0 0 0 0 12.215942576910852 12.642875219334343 0 12.642875219334343 34.323412173603344 0 0 0 0 1050.4085572701122 -3033.2337512061458 0 -3033.2337512061458 4990.8673667168441 0 0 0 0 6084.9791276731703 2959.8798774768093 0 2959.8798774768093 1719.7447712068606 0 0 0 0 859.85189005266227 2477.466769077364 0 2477.466769077364 4990.4857352148656 0 0 0 0 161.16337832937634 1900.3217664677286 0 1900.3217664677286 4992.1816304084641 0 0 0 0 738.15245681210058 1526.674925901294 0 1526.674925901294 3452.7063670715506 0 0 0 0 708.35671511136536 2029.6618244024721 0 2029.6618244024721 3891.0573589365231 0 0 0 0 1156.2687722804187 566.59590127100819 0 566.59590127100819 409.17687499164458 0 0 0 0 2518.4897379424492 3344.9021545567084 0 3344.9021545567084 2585.5490005148895 0 0 0 0 -5.2847698731371349 8.4534846452952479 0 8.4534846452952479 10.806795068361623 0 0 0 0 2294.5586699242835 2001.4511503630329 0 2001.4511503630329 618.95312862191349 0 0 0 0 -821.73130000223671 -143.00400181899204 0 -143.00400181899204 2640.1389882416988 0 0 0 0 -3.274852821437241 5.2497703680197816 0 5.2497703680197816 15.830365678722444 0 0 0 0 153.85094388959413 1409.7116022638256 0 1409.7116022638256 4411.0239688884685 0 0 0 0 -546.25416259168526 1527.6520596299761 0 1527.6520596299761 2329.909786980701 0 0 0 0 862.85914678876804 3470.0871958061216 0 3470.0871958061216 4990.7421599540567 0 0 0 0 -975.59183028283246 2309.0560944407753 0 2309.0560944407753 5000.5285826016261 0 0 0 0 -1387.9953156010486 1085.3948861245917 0 1085.3948861245917 3158.3376807790373 0 0 0 0 -922.89575858715489 1171.7610802216623 0 1171.7610802216623 2858.0189473637874 0 0 0 0 -3.9092790247591824 4.2061536746972124 0 4.2061536746972124 15.008779748140228 0 0 0 0 -1486.9292058082081 177.97650317782245 0 177.97650317782245 1829.7634038565593 0 0 0 0 -1258.8594551825804 918.71372877169779 0 918.71372877169779 2677.3957337399297 0 0 0 0 -1092.0272465203848 1036.78430450409 0 1036.78430450409 2624.0559832199069 0 0 0 0 609.94246363163052 588.91219054565954 0 588.91219054565954 677.67529057823413 0 0 0 0 -69.267219609724634 771.08357825125859 0 771.08357825125859 1937.1164857467002 0 0 0 0 -330.61684081704561 675.27908957971522 0 675.27908957971522 1945.5242178127664 0 0 0 0 -1101.7808909529986 753.40487733735063 0 753.40487733735063 2681.9269854609156 0 0 0 0 -972.96696289637748 881.69840309166466 0 881.69840309166466 1786.7428615267781 0 0 0 0 -2204.8258327881458 475.08233553558239 0 475.08233553558239 1714.8701545096956 0 0 0 0 -1015.1417853856989 402.93324033961926 0 402.93324033961926 2558.5669828409591 0 0 0 0 -1218.8892299300805 752.89226747873181 0 752.89226747873181 3516.1198662763709 0 0 0 0 -1238.7615476230417 1003.1454360822172 0 1003.1454360822172 2815.1366596857115 0 0 0 0 -469.35217326740712 552.41793475586019 0 552.41793475586019 2745.759966528909 0 0 0 0 -1843.3962479831757 2128.724331806663 0 2128.724331806663 1301.0055696648778 0 0 0 0 -1522.7030006575419 1235.9344420994603 0 1235.9344420994603 3247.5640502604801 0 0 0 0 -1415.6099789785394 960.3444796275835 0 960.3444796275835 2836.9421186986583 0 0 0 0 -1538.3985033445831 -351.25457384681795 0 -351.25457384681795 1636.7721779742715 0 0 0 0 -1913.6213974834689 298.56450269775087 0 298.56450269775087 4999.8948315363523 0 0 0 0 -1194.8814800338605 -1572.1278373934911 0 -1572.1278373934911 4992.2628949747523 0 0 0 0 -2.5520541054789048 3.6952809624633574 0 3.6952809624633574 14.648756250583517 0 0 0 0 -926.96561075690408 1613.3317418104871 0 1613.3317418104871 458.68466310064832 0 0 0 0 -897.6009879496437 1158.3560525925286 0 1158.3560525925286 3198.4433563571365 0 0 0 0 -818.57950123875139 -731.21839823896153 0 -731.21839823896153 2977.2904541333282 0 0 0 0 -992.47971511102855 -761.6068523830545 0 -761.6068523830545 2197.3595540676906 0 0 0 0 -2.2282728301657753 4.3048343102090314 0 4.3048343102090314 13.405364428165456 0 0 0 0 -999.00557888947606 -889.16458470090583 0 -889.16458470090583 4596.9125909079448 0 0 0 0 -314.30015978523886 -347.57235172091896 0 -347.57235172091896 5002.1108784308453 0 0 0 0 -594.97129761316648 293.85191706282785 0 293.85191706282785 3600.1324186435231 0 0 0 0 -740.25845216657308 240.06187801738997 0 240.06187801738997 4987.6214333784628 0 0 0 0 578.27742019942593 -478.81534597228165 0 -478.81534597228165 3600.1665989450998 0 0 0 0 327.16712261773216 -922.01621631950911 0 -922.01621631950911 4268.1188012573693 0 0 0 0 280.71051713787 -1360.5420890688056 0 -1360.5420890688056 809.41260635657818 0 0 0 0 41.864470432738187 -1937.5712800514302 0 -1937.5712800514302 3349.6177747258698 0 0 0 0 -320.27680649651398 -463.52703496017102 0 -463.52703496017102 2938.2327745118673 0 0 0 0 -297.92525497583813 -14.941124020304414 0 -14.941124020304414 3832.9798072096746 0 0 0 0 -496.3387739734128 -655.98203078447114 0 -655.98203078447114 3011.7098108876817 0 0 0 0 -51.603688871930899 -159.17114859140202 0 -159.17114859140202 1034.4496380342171 0 0 0 0 -75.478273866559903 -290.9045718152629 0 -290.9045718152629 1581.8622254828915 0 0 0 0 -106.23132244017702 -558.04437390718158 0 -558.04437390718158 1603.8598271227384 0 0 0 0 -33.935031528351374 -695.80428010663309 0 -695.80428010663309 1707.7030756701715 0 0 0 0 179.35263053706672 -246.78431728848227 0 -246.78431728848227 581.1843982898572 0 0 0 0 264.08092034000197 -714.29062756996427 0 -714.29062756996427 1223.4276043348073 0 0 0 0 -11.061861503719228 61.604104022353567 0 61.604104022353567 -17.196926798846107 0 0 0 0 -597.47070160161024 1055.6882578171926 0 1055.6882578171926 3574.3021682591934 0 0 0 0 -1038.3566723268716 -389.58849789136002 0 -389.58849789136002 3275.5353239576798 0 0 0 0 -716.65706149948937 -67.147763938264688 0 -67.147763938264688 3291.605887347278 0 0 0 0 -227.62757607363142 104.85743656113846 0 104.85743656113846 1220.3282916308672 0 0 0 0 -639.36865993764968 -296.20614864630988 0 -296.20614864630988 2114.8710183486546 0 0 0 0 -237.7564791365744 -111.44281050338031 0 -111.44281050338031 2092.6176795142665 0 0 0 0 -276.73570129983091 194.59507515638688 0 194.59507515638688 2078.1853526092746 0 0 0 0 -550.26807650737101 415.73979992782552 0 415.73979992782552 2798.7516320496652 0 0 0 0 -603.60828662355902 232.10677354774452 0 232.10677354774452 2169.2221998331224 0 0 0 0 -93.775606836537463 481.08526452157093 0 481.08526452157093 997.9214245393523 0 0 0 0 -36.720565407362756 287.97597361510998 0 287.97597361510998 967.24710637523094 0 0 0 0 272.78854280827454 436.00575699166802 0 436.00575699166802 335.55663150805049 0 0 0 0 79.749319644516163 326.8929062575553 0 326.8929062575553 575.04670305309992 0 0 0 0 20.460866172749434 165.41507328471562 0 165.41507328471562 590.18019898765488 0 0 0 0 -72.170026352889636 83.2026759863802 0 83.2026759863802 1203.5554244965715 0 0 0 0 -52.195219237741185 133.10137163006584 0 133.10137163006584 536.71162024962541 0 0 0 0 115.00719946031995 224.79561227753584 0 224.79561227753584 195.04118908137025 0 0 0 0 173.05727357201158 198.57171631605888 0 198.57171631605888 154.80783989579504 0 0 0 0 -10.060068183749081 49.497028466190386 0 49.497028466190386 262.14309003518429 0 0 0 0 -110.67198509390687 68.725878135821404 0 68.725878135821404 663.56282277144783 0 0 0 0 -100.83853997171369 -19.050278670845728 0 -19.050278670845728 309.20304334885441 0 0 0 0 -137.37866923266222 287.14416178183455 0 287.14416178183455 276.73643850102235 0 0 0 0 91.23532673100226 58.012953232733707 0 58.012953232733707 468.76969614984409 0 0 0 0 -25.791622330378686 -15.862992288632086 0 -15.862992288632086 1057.2213513597435 0 0 0 0 -18.18481291302362 166.11149151174322 0 166.11149151174322 218.70244971224747 0 0 0 0 -0.95249074601315442 143.79692657353735 0 143.79692657353735 582.79427751673575 0 0 0 0 50.900997417781298 255.22627575663682 0 255.22627575663682 298.1749680704379 0 0 0 0 -64.955063938306012 204.38886207962059 0 204.38886207962059 500.28062143003626 0 0 0 0 -268.36140845268051 230.83663399346551 0 230.83663399346551 352.92011363059282 0 0 0 0 -34.614786527220218 186.86118932933459 0 186.86118932933459 306.3191691650718 0 0 0 0 -93.101764920232313 255.49394781410228 0 255.49394781410228 307.89486359275088 0 0 0 0 -136.8887436078528 208.66712078597629 0 208.66712078597629 303.87510738096898 0 0 0 0 -115.11301108254503 85.345026148832403 0 85.345026148832403 40.77523280983587 0 0 0 0 -41.516860338605056 100.44546456335229 0 100.44546456335229 213.90974726145942 0 0 0 0 -43.861819841511647 200.61869288471644 0 200.61869288471644 116.09407633345108 0 0 0 0 -39.769072519807651 233.17418873177667 0 233.17418873177667 174.59754521264404 0 0 0 0 -64.225721481630046 115.61878809761038 0 115.61878809761038 44.933531941351248 0 0 0 0 -38.846144223224655 199.11732289521024 0 199.11732289521024 -23.442383939174761 0 0 0 0 73.468495176205124 147.65267832635436 0 147.65267832635436 -7.0538891085307114 0 0 0 0 -97.459776517400428 105.74516810892965 0 105.74516810892965 13.461988085677149 0 0 0 0 -105.40209085304195 -26.531813063105801 0 -26.531813063105801 -8.4269560314714909 0 0 0 0 -19.735674554388673 60.79721298248387 0 60.79721298248387 6.2918273331134458 0 0 0 0 -18.843218883122418 24.497231372080932 0 24.497231372080932 14.603512104944173 0 0 0 0 -9.9968321690375888 22.39564018920646 0 22.39564018920646 28.167074555560248 0 0 0 0 2.6034019316608124 123.07108792246436 0 123.07108792246436 -147.86652562118252 0 0 0 0 -9.8505943041115618 34.448428556864741 0 34.448428556864741 5.8245942483968065 0 0 0 0 -3.5061345982212515 13.857034309170558 0 13.857034309170558 46.686059871077305 0 0 0 0 53.816274421730668 -91.94640238674765 0 -91.94640238674765 -115.58594483035267 0 0 0 0 -36.583234312827699 136.34851194518706 0 136.34851194518706 148.75654061097885 0 0 0 0 -200.35903781650995 97.918005828221794 0 97.918005828221794 175.83047330668887 0 0 0 0 67.383344259419118 241.3114206150276 0 241.3114206150276 -117.59170490020188 0 0 0 0 -30.459977922569749 76.88048309246696 0 76.88048309246696 -60.875701080306953 0 0 0 0 47.225469451657318 25.818874965319992 0 25.818874965319992 -171.28259295359021 0 0 0 0 -15.960110039713072 155.76533652286162 0 155.76533652286162 204.11425961113127 0 0 0 0 9.8524733496687986 292.87987412846996 0 292.87987412846996 201.51233195311215 0 0 0 0 126.70374945232834 209.53422728752776 0 209.53422728752776 -101.83008122096362 0 0 0 0 325.55042769239299 236.51976184482191 0 236.51976184482191 65.297450155456318 0 0 0 0 -0.2071915014048713 7.7704118596927287 0 7.7704118596927287 -26.812032028650652 0 0 0 0 -61.718866926295959 191.73012822914461 0 191.73012822914461 59.159462789986719 0 0 0 0 96.073121113564412 209.49103060398193 0 209.49103060398193 50.102292916504666 0 0 0 0 -49.864058802539148 172.18236298818374 0 172.18236298818374 15.996148586702475 0 0 0 0 -183.16620867114034 269.54402253159788 0 269.54402253159788 36.98941252190707 0 0 0 0 -9.9373339211838214 7.8257581042671518 0 7.8257581042671518 121.98487784056874 0 0 0 0 -297.12168905820181 274.13700734457962 0 274.13700734457962 172.02875789919926 0 0 0 0 -235.95220000989138 222.5212978956115 0 222.5212978956115 191.11107598164017 0 0 0 0 -32.343927721374115 75.87684503724148 0 75.87684503724148 -57.796479508805163 0 0 0 0 -833.48905415989248 -86.976084873647778 0 -86.976084873647778 -0.37648032781726215 0 0 0 0 -1487.7987164884316 260.21844337261791 0 260.21844337261791 180.93677559470234 0 0 0 0 -443.2135086750659 274.32088925826974 0 274.32088925826974 180.88752453194229 0 0 0 0 285.81061010415488 1059.9830844563476 0 1059.9830844563476 241.55184956111771 0 0 0 0 964.51241707763756 449.68314889198155 0 449.68314889198155 353.5074867912117 0 0 0 0 1312.2179117795085 898.66460240153538 0 898.66460240153538 266.78924379993259 0 0 0 0 -1507.8460719380855 281.40946401572728 0 281.40946401572728 286.75137662007182 0 0 0 0 -8.0031842632647425 7.8666195304345621 0 7.8666195304345621 3.4302684612088115 0 0 0 0 -1492.3745638980979 491.7542067242764 0 491.7542067242764 5.7671026302850805 0 0 0 0 -752.95545205665985 -365.0144790565173 0 -365.0144790565173 341.46357458897546 0 0 0 0 -1188.9250053838064 600.18623817047046 0 600.18623817047046 -1062.9085805375653 0 0 0 0 -11.478556175786297 11.482657021145513 0 11.482657021145513 6.9973322808055514 0 0 0 0 -447.93198979346289 -97.576702066136932 0 -97.576702066136932 469.22377101808888 0 0 0 0 420.41191618826747 254.29721034725662 0 254.29721034725662 -154.72572792248684 0 0 0 0 -355.17195026100717 286.00349306434327 0 286.00349306434327 343.23412102005386 0 0 0 0 -2385.4169692429186 -6.6696346043099766 0 -6.6696346043099766 834.0129025686183 0 0 0 0 -2181.8456623825632 -351.08608141700097 0 -351.08608141700097 139.42840037139104 0 0 0 0 -2345.3058940016699 835.522652425876 0 835.522652425876 413.67117065340062 0 0 0 0 890.04395917072907 1010.1496450400809 0 1010.1496450400809 650.77238551682967 0 0 0 0 -1.0012167844530742 1.0122432022831092 0 1.0122432022831092 1.7660239135780103 0 0 0 0 116.33760642243942 42.584397383747273 0 42.584397383747273 176.29089355970791 0 0 0 0 123.93224043949522 162.28922289532784 0 162.28922289532784 -82.803164054392255 0 0 0 0 -248.78192793576409 159.7817583335418 0 159.7817583335418 201.0721636331873 0 0 0 0 -7.9994845724712738 21.370970277068341 0 21.370970277068341 3.9486721465592041 0 0 0 0 -2311.3681018823518 -657.87619387995801 0 -657.87619387995801 60.09662262861093 0 0 0 0 -12.115546075306408 8.4803088719471589 0 8.4803088719471589 22.522633843428537 0 0 0 0 -2455.9381694109034 630.81954058822885 0 630.81954058822885 206.31645746544382 0 0 0 0 -763.26037004766374 850.4633486136795 0 850.4633486136795 -823.43022006688989 0 0 0 0 161.29529169734116 5.4168506736968993 0 5.4168506736968993 -45.58740574564581 0 0 0 0 0.88394267259471304 91.046370280113479 0 91.046370280113479 836.74914251402515 0 0 0 0 1045.7076319343803 460.18548286383884 0 460.18548286383884 -562.00247039383976 0 0 0 0 -143.91894230694172 1622.0024653780056 0 1622.0024653780056 4978.1266438263674 0 0 0 0 0.56770969216826872 8.9362146302808068 0 8.9362146302808068 11.809792149947612 0 0 0 0 -3.1436796466145847 8.7824420850270997 0 8.7824420850270997 33.951466283600212 0 0 0 0 -507.32032775611685 1049.2056645395642 0 1049.2056645395642 1021.2936948394345 0 0 0 0 2.2098912706289866 29.933695728344901 0 29.933695728344901 7.7161026102257892 0 0 0 0 2849.0015597891852 -4602.8738789232902 0 -4602.8738789232902 4992.5795533092023 0 0 0 0 -0.5785280869234567 1.4938882215548954 0 1.4938882215548954 5.8227326982099044 0 0 0 0 -2.958066097081899 9.9111694129533134 0 9.9111694129533134 4969.9344209764931 0 0 0 0 2.068886970652505 2.4140036208329718 0 2.4140036208329718 7.388244693881802 0 0 0 0 1279.2187123799454 -2597.626307826009 0 -2597.626307826009 4093.2594338052149 0 0 0 0 -15.368697572278279 78.032323368268408 0 78.032323368268408 53.160226204650826 0 0 0 0 5.6161034805196266 14.567910467387264 0 14.567910467387264 18.904821286239894 0 0 0 0 88.023594785989417 53.9928966254447 0 53.9928966254447 32.76576563132403 0 0 0 0 -639.86800235568262 -666.56434553956205 0 -666.56434553956205 169.95183332547822 0 0 0 0 -0.33842482005776381 3.8114323973041975 0 3.8114323973041975 13.785749248879483 0 0 0 0 16.831056665612891 68.575986878240656 0 68.575986878240656 71.725554521675804 0 0 0 0 18.839278300520618 66.024029991505813 0 66.024029991505813 52.623057926117326 0 0 0 0 118.87257336895129 85.993325608273153 0 85.993325608273153 70.87094866347843 0 0 0 0 -34.38305760288813 22.50043708634621 0 22.50043708634621 115.37034803752334 0 0 0 0 -43.007950445894494 55.592975495819701 0 55.592975495819701 120.13067099711043 0 0 0 0 -122.38093348847315 56.35682180277945 0 56.35682180277945 126.75657183412113 0 0 0 0 11.174369189169216 35.193788690391045 0 35.193788690391045 73.60785817177333 0 0 0 0 -37.702983665022202 19.492931009212043 0 19.492931009212043 126.12400978066216 0 0 0 0 84.628639924090066 118.95650287623721 0 118.95650287623721 1233.6155145231896 0 0 0 0 133.00765463527637 -560.71150882713118 0 -560.71150882713118 1329.3507169821678 0 0 0 0 1.37466362307085 27.01282914913898 0 27.01282914913898 54.635510367623851 0 0 0 0 320.83166437557799 -1035.5873965440478 0 -1035.5873965440478 2503.0517819105735 0 0 0 0 965.33035518360759 -1863.9398688602723 0 -1863.9398688602723 2972.3395717639942 0 0 0 0 -59.114642961939104 -1981.0170906119274 0 -1981.0170906119274 5000.9769492291671 0 0 0 0 -437.90458358066911 -1152.4431340717201 0 -1152.4431340717201 3427.2517097239761 0 0 0 0 325.4371719796589 -1518.0104914374654 0 -1518.0104914374654 3052.5443558674888 0 0 0 0 -286.91634515788041 -1075.456072195906 0 -1075.456072195906 3538.0580732111412 0 0 0 0 -390.56499956539392 -685.19250800060399 0 -685.19250800060399 3522.8563706167388 0 0 0 0 -375.6248164208402 -875.21611316885537 0 -875.21611316885537 4440.3446052123327 0 0 0 0 -504.00679112887485 -1244.4326832435709 0 -1244.4326832435709 4500.8065873158339 0 0 0 0 -697.28732267901853 -1007.8168930025276 0 -1007.8168930025276 4998.3652012130769 0 0 0 0 -399.30590489895854 -753.485241038401 0 -753.485241038401 3975.1112787738384 0 0 0 0 113.95528539368024 -640.59170403880125 0 -640.59170403880125 3897.5509105169549 0 0 0 0 9.7091214547800355 -8.4735139542014508 0 -8.4735139542014508 6.3730159168395346 0 0 0 0 -47.514372057808032 -832.3281954073318 0 -832.3281954073318 -40.434701747231884 0 0 0 0 -199.17097240774046 205.7006402089537 0 205.7006402089537 4845.0845831144215 0 0 0 0 -212.59252501243168 458.28617705558281 0 458.28617705558281 3478.4694717869925 0 0 0 0 -170.40955022322112 -939.17666690686747 0 -939.17666690686747 3610.463744870649 0 0 0 0 142.61949817573304 346.49429897566733 0 346.49429897566733 1482.2467707485121 0 0 0 0 39.354163005779611 -885.08588205793421 0 -885.08588205793421 2954.5802283557423 0 0 0 0 21.197674063602591 -14.120332147784552 0 -14.120332147784552 43.659116939688886 0 0 0 0 132.54234824385139 -321.81574504828041 0 -321.81574504828041 888.78204290439317 0 0 0 0 102.51718256748063 19.207867156321299 0 19.207867156321299 164.27103605175216 0 0 0 0 -523.59640261888012 -199.7266903273412 0 -199.7266903273412 562.12009274218872 0 0 0 0 -218.69014592906296 294.3103883044314 0 294.3103883044314 172.8210339125917 0 0 0 0 -1.2827700186543787 7.8443594296782209 0 7.8443594296782209 12.311726939533912 0 0 0 0 -288.99369129329853 54.305388929584296 0 54.305388929584296 -27.529298331519385 0 0 0 0 -406.53924929839377 -283.43240093007262 0 -283.43240093007262 51.875866923946887 0 0 0 0 -328.44830553208931 41.628268645217759 0 41.628268645217759 198.63275485465419 0 0 0 0 -205.49752477045831 118.71022276059375 0 118.71022276059375 221.24375060026068 0 0 0 0 -1.7649517064663698 35.316213241245748 0 35.316213241245748 127.03238013381079 0 0 0 0 39.480500531713915 51.979680021322565 0 51.979680021322565 183.71954678831389 0 0 0 0 -3.7215310821465302 -50.146500777410608 0 -50.146500777410608 119.34833660245417 0 0 0 0 -8.1616144323081699 -101.91080165661697 0 -101.91080165661697 300.20547518593958 0 0 0 0 -6.613784065873908 -5.9336165636500198 0 -5.9336165636500198 25.821449229714347 0 0 0 0 -90.428466675259187 -12.596030889406393 0 -12.596030889406393 265.54059679498096 0 0 0 0 -6.5009722160511956 98.451234832289629 0 98.451234832289629 100.88297738926485 0 0 0 0 -48.448636889098452 29.027566510809265 0 29.027566510809265 202.20469693062478 0 0 0 0 -18.536082918119142 53.469632046666533 0 53.469632046666533 110.30479284456248 0 0 0 0 0.13353754288351638 -41.180575271222096 0 -41.180575271222096 194.26459960086504 0 0 0 0 2.2932649674671666 -259.54766815741459 0 -259.54766815741459 553.28417841177725 0 0 0 0 -299.28617136301864 387.53168947091035 0 387.53168947091035 -94.700254089308146 0 0 0 0 0.18618598189489255 0.28436908064820443 0 0.28436908064820443 1.6808752334900703 0 0 0 0 -16.338485353107881 66.97129118705837 0 66.97129118705837 91.953992891494806 0 0 0 0 57.993171912480307 217.26037715203347 0 217.26037715203347 64.383270427191746 0 0 0 0 -47.384802613540842 235.24294298636596 0 235.24294298636596 74.131032028031768 0 0 0 0 -19.630959060644273 31.504394404801133 0 31.504394404801133 71.699530847283313 0 0 0 0 -59.862191167803758 61.874195261800196 0 61.874195261800196 49.426880588953736 0 0 0 0 -6.9860890369192763 2.188934239556005 0 2.188934239556005 24.777112622183868 0 0 0 0 -15.823404833593941 54.312761359193246 0 54.312761359193246 198.86036287429101 0 0 0 0 136.55483634797429 82.025680527382065 0 82.025680527382065 -134.91310947292266 0 0 0 0 -64.338342537606877 126.49120377612417 0 126.49120377612417 238.8113595667528 0 0 0 0 -2.2703516123221288 1.8924587801298003 0 1.8924587801298003 -2.4344959210778199 0 0 0 0 -65.248188116969914 16.387891394479084 0 16.387891394479084 344.22166967650992 0 0 0 0 24.724406474559601 52.823120692453813 0 52.823120692453813 85.13168745697476 0 0 0 0 10.461925454601953 -27.454253366151534 0 -27.454253366151534 174.42061493959045 0 0 0 0 -4.5919217098626177 58.133701171071152 0 58.133701171071152 137.70459771266906 0 0 0 0 -0.88482294971890951 34.440980693179881 0 34.440980693179881 170.4419293316023 0 0 0 0 -17.395847137968758 63.187637816081406 0 63.187637816081406 179.49215488036862 0 0 0 0 -41.638403477137444 103.23491828392434 0 103.23491828392434 162.5602865103574 0 0 0 0 -38.194854598552865 85.339273459700053 0 85.339273459700053 236.39455416904821 0 0 0 0 49.3274852604834 -42.1460735200817 0 -42.1460735200817 155.16647865170671 0 0 0 0 7.1511981441087755 132.38671831680404 0 132.38671831680404 57.203175518938224 0 0 0 0 -57.623301058506911 179.70839129332307 0 179.70839129332307 100.91750508794212 0 0 0 0 49.292738442994391 188.65690390649252 0 188.65690390649252 101.57690691557946 0 0 0 0 -292.45953544180992 -407.22811864788673 0 -407.22811864788673 -883.0257134516869 0 0 0 0 -11.405318292768698 147.95119569405506 0 147.95119569405506 82.858596621954348 0 0 0 0 72.884814262012583 90.295241696207086 0 90.295241696207086 122.28607327752979 0 0 0 0 -2.3814072781137838 57.371342414116953 0 57.371342414116953 146.52077308495063 0 0 0 0 -0.72910244882248065 0.74301731123028958 0 0.74301731123028958 -3.1433593746995143 0 0 0 0 -98.865097545490016 29.776876444957452 0 29.776876444957452 258.47338491438131 0 0 0 0 -245.62606834775397 205.80646414884541 0 205.80646414884541 365.23724596231477 0 0 0 0 -7.8332935399832877 552.3363279569312 0 552.3363279569312 697.08058338871342 0 0 0 0 -466.56153280804301 14.176187443779781 0 14.176187443779781 424.71626316662878 0 0 0 0 -152.87425791868691 26.955571818107273 0 26.955571818107273 484.27531678788364 0 0 0 0 -318.68658244914241 164.24077834784111 0 164.24077834784111 734.58527210736065 0 0 0 0 -140.81066430294049 188.28780752100283 0 188.28780752100283 495.45486061391421 0 0 0 0 -124.78915460247845 -37.099606925621629 0 -37.099606925621629 189.78745587245794 0 0 0 0 30.821972491220549 -4.2112560547393514 0 -4.2112560547393514 -4.9537916801637039 0 0 0 0 -64.93246463075684 78.857990282645915 0 78.857990282645915 345.3114392584248 0 0 0 0 -413.44293445101903 -215.00821882369928 0 -215.00821882369928 528.78924113186076 0 0 0 0 -265.15181713949005 -301.54122267788625 0 -301.54122267788625 236.2537798587 0 0 0 0 -420.38542616531322 -171.30262531188782 0 -171.30262531188782 922.92094100429676 0 0 0 0 -11.099817965094427 12.214966455403612 0 12.214966455403612 22.514497853525427 0 0 0 0 -19.215256901691191 53.84138465745491 0 53.84138465745491 147.03678778535686 0 0 0 0 -197.93729804314899 -264.38556502392748 0 -264.38556502392748 25.532809857570101 0 0 0 0 -33.831853455453029 74.093110256580985 0 74.093110256580985 145.90440214116825 0 0 0 0 -14.880046503551718 -3.4166246473311048 0 -3.4166246473311048 31.709437741249928 0 0 0 0 -307.25660707598217 118.63718880753731 0 118.63718880753731 -149.13345360773383 0 0 0 0 -19.661794367279072 -0.69166755024343729 0 -0.69166755024343729 131.05839975085109 0 0 0 0 -147.50819381025121 -123.97369858218008 0 -123.97369858218008 134.97808876488125 0 0 0 0 -225.80731374942161 -162.99401834094897 0 -162.99401834094897 346.92914104217198 0 0 0 0 -172.80674529993985 -42.792559401656035 0 -42.792559401656035 449.33430804533418 0 0 0 0 -3.3689155391304908 5.4979529890256913 0 5.4979529890256913 36.114450777026718 0 0 0 0 317.56697605844602 31.018778747442411 0 31.018778747442411 -5.0674631130677881 0 0 0 0 -24.498801727024102 135.57811854940519 0 135.57811854940519 453.36621633201139 0 0 0 0 -44.176359604405661 34.38373044123 0 34.38373044123 129.79911519203961 0 0 0 0 15.338779092709956 -43.592985148046864 0 -43.592985148046864 225.47672423400218 0 0 0 0 -20.993324172790381 -0.84745241911150515 0 -0.84745241911150515 239.80186234461144 0 0 0 0 -0.57758600664532178 -0.26275166450679421 0 -0.26275166450679421 -0.038380242506320883 0 0 0 0 -47.050620222015368 41.583615380994161 0 41.583615380994161 115.44214372225514 0 0 0 0 -221.8538338596893 -167.51875750721956 0 -167.51875750721956 21.864638511869998 0 0 0 0 -57.2868864525758 28.727769231190905 0 28.727769231190905 112.2014312458341 0 0 0 0 371.05503256626071 344.23963336294401 0 344.23963336294401 144.06827480497304 0 0 0 0 -352.01571181251711 25.707134565978777 0 25.707134565978777 357.3220675159464 0 0 0 0 -11.156836079069308 205.12558391696803 0 205.12558391696803 213.22337030302151 0 0 0 0 475.12400650989071 314.90334464867919 0 314.90334464867919 167.67106992476329 0 0 0 0 0.18032219636023045 1.8791121765597092 0 1.8791121765597092 5.1714868030406365 0 0 0 0 218.93686728981785 24.106416093985899 0 24.106416093985899 173.23563189723063 0 0 0 0 71.976841674779877 -141.05542621311906 0 -141.05542621311906 447.63348093617242 0 0 0 0 -80.292301943485654 154.33866776920331 0 154.33866776920331 713.01728840956639 0 0 0 0 -47.931579265109093 -11.914003344390949 0 -11.914003344390949 317.99620952270925 0 0 0 0 -25.67486221820468 -60.604859431026853 0 -60.604859431026853 331.75865873374278 0 0 0 0 -77.236518266343694 143.71114209843472 0 143.71114209843472 258.87711278785719 0 0 0 0 -151.40207560169847 38.151894952839939 0 38.151894952839939 438.48706324395607 0 0 0 0 -65.269009438872445 -56.481816322891973 0 -56.481816322891973 433.04004173245994 0 0 0 0 -68.01568989045893 -44.916334686451592 0 -44.916334686451592 303.84494881490536 0 0 0 0 -0.97422241361551776 -1.4695224385118308 0 -1.4695224385118308 1.9304750345173716 0 0 0 0 -793.37453129202709 -342.56140943971695 0 -342.56140943971695 -335.34029602189548 0 0 0 0 -92.515987381942864 -35.111728865551413 0 -35.111728865551413 324.87695837214414 0 0 0 0 -103.9361501254803 1.6089452692649502 0 1.6089452692649502 323.8918216775055 0 0 0 0 -406.31344424270645 -122.0890030991286 0 -122.0890030991286 238.97423935617553 0 0 0 0 -69.255275188895013 -350.1889792769216 0 -350.1889792769216 -336.68419307553995 0 0 0 0 -108.71223072372752 28.940844395328895 0 28.940844395328895 309.2398305252209 0 0 0 0 81.690280795962167 -57.035167903886759 0 -57.035167903886759 168.63029250809632 0 0 0 0 -0.019060263236981234 -2.4143544242398889 0 -2.4143544242398889 3.5810339259481907 0 0 0 0 -6.5899940899079752 -81.381327010021778 0 -81.381327010021778 -16.911784736257687 0 0 0 0 23.181892892736613 -171.51348738414526 0 -171.51348738414526 231.03544374720514 0 0 0 0 75.864624954628226 147.42252450490923 0 147.42252450490923 99.301903886109358 0 0 0 0 -18.246050569025357 58.001056224785316 0 58.001056224785316 237.6391176852776 0 0 0 0 0.72996354640156413 -14.487072773910768 0 -14.487072773910768 46.359653534469544 0 0 0 0 14.568089778951451 153.03770860859731 0 153.03770860859731 295.4105461811123 0 0 0 0 -250.0495722430245 -54.068884282469071 0 -54.068884282469071 414.61235336507525 0 0 0 0 -0.26174852235684931 10.358603795602505 0 10.358603795602505 626.51386664644815 0 0 0 0 -12.881654720764105 51.096986206444853 0 51.096986206444853 1035.7808298817181 0 0 0 0 39.747037847370507 137.11429017700721 0 137.11429017700721 1104.2386795613929 0 0 0 0 -44.144327883531211 29.697933573661203 0 29.697933573661203 1131.3628451004624 0 0 0 0 -45.850549290001851 -9.5315346511283678 0 -9.5315346511283678 949.36265488709614 0 0 0 0 -30.58281725111334 -95.045848884190491 0 -95.045848884190491 967.05553408726701 0 0 0 0 18.620446480544118 -68.737831370410277 0 -68.737831370410277 957.82621381879289 0 0 0 0 -66.639072955249219 159.76874099879205 0 159.76874099879205 1028.1689404771605 0 0 0 0 0.26006306454987232 -1.1351204936251804 0 -1.1351204936251804 2.414909487539262 0 0 0 0 -129.67354714627905 -84.045328505511861 0 -84.045328505511861 1027.3833963167999 0 0 0 0 13.243587570000201 73.408944709510251 0 73.408944709510251 363.58670772009646 0 0 0 0 -119.46170282057693 -32.391996326725348 0 -32.391996326725348 805.36175032006577 0 0 0 0 -32.845112074563531 -105.67867119984294 0 -105.67867119984294 434.89386487659067 0 0 0 0 -59.155235871632982 41.522953951098316 0 41.522953951098316 556.63362165662693 0 0 0 0 16.436753675919519 -117.20009069734078 0 -117.20009069734078 669.34271732985508 0 0 0 0 -12.625262687863803 -84.918896696050069 0 -84.918896696050069 893.79150144677988 0 0 0 0 -118.31589624185277 -136.97339408955304 0 -136.97339408955304 875.84149059785705 0 0 0 0 -51.387867662099538 -28.740698109164441 0 -28.740698109164441 1250.865788753028 0 0 0 0 -123.90010393749625 27.453475068527041 0 27.453475068527041 1176.8585770101708 0 0 0 0 -121.70624234433365 -18.689124557116884 0 -18.689124557116884 1202.8239699844708 0 0 0 0 -108.78147417196099 86.211113116136403 0 86.211113116136403 1086.8761639328586 0 0 0 0 -113.09955924178229 95.771590813046714 0 95.771590813046714 1302.2334298531932 0 0 0 0 -191.20860127808331 574.21582359768217 0 574.21582359768217 1719.6910574947779 0 0 0 0 -84.452106016559512 -145.00988520673491 0 -145.00988520673491 1645.3484552218288 0 0 0 0 210.34647108018686 271.19954964803037 0 271.19954964803037 1770.4753419361732 0 0 0 0 68.814591214761094 -267.41780448952341 0 -267.41780448952341 2279.526945779282 0 0 0 0 395.39461878558359 91.989837140587042 0 91.989837140587042 1257.0518990201817 0 0 0 0 219.97950495781413 437.59890866030037 0 437.59890866030037 1604.3401114091976 0 0 0 0 320.1772074896553 -29.280194328734069 0 -29.280194328734069 1242.1164720464731 0 0 0 0 165.53559052351909 -122.78305996133713 0 -122.78305996133713 878.78545910181128 0 0 0 0 180.3408392597847 131.62784522335187 0 131.62784522335187 899.89512171244132 0 0 0 0 -28.300808327253378 50.891846796708705 0 50.891846796708705 893.16314203155343 0 0 0 0 -44.378095016253837 -24.633690598835528 0 -24.633690598835528 870.55158659795416 0 0 0 0 54.960932009370708 -92.708653413690627 0 -92.708653413690627 546.80279232416069 0 0 0 0 -85.106593640245336 50.204301353387564 0 50.204301353387564 532.93259960363503 0 0 0 0 -152.11301996745613 156.61252581788358 0 156.61252581788358 418.32377975783311 0 0 0 0 176.42946388052883 9.3412585914702504 0 9.3412585914702504 442.52716633587261 0 0 0 0 61.32430667028666 1.3197313476412091 0 1.3197313476412091 1272.8099158084206 0 0 0 0 226.88432077268567 198.31777114394936 0 198.31777114394936 930.20748217447544 0 0 0 0 -39.144966372448835 32.453352275755606 0 32.453352275755606 894.61827968732905 0 0 0 0 -127.03668129949483 124.16562797367078 0 124.16562797367078 1087.6038424932049 0 0 0 0 86.542052207171309 313.96698754614044 0 313.96698754614044 1195.9870843821918 0 0 0 0 69.798100483971211 221.80462240050838 0 221.80462240050838 593.63946877376293 0 0 0 0 -134.67978921019676 -86.774461001259624 0 -86.774461001259624 380.86121901734441 0 0 0 0 -115.86996674892634 -77.382481477688998 0 -77.382481477688998 7.219801324463333 0 0 0 0 -32.882353348062679 228.979598186168 0 228.979598186168 1038.2030788715056 0 0 0 0 1.0322972909362242 1.0977982712983021 0 1.0977982712983021 -0.5483737253737786 0 0 0 0 -31.874207913268492 249.16177038584647 0 249.16177038584647 1051.9625592240482 0 0 0 0 -8.1370323933813324 144.47332281188756 0 144.47332281188756 1174.4110253845283 0 0 0 0 33.059573952889878 -44.089964995408081 0 -44.089964995408081 1571.5646473337183 0 0 0 0 36.747702081141597 52.485786498800735 0 52.485786498800735 1391.5108975561743 0 0 0 0 113.50776729314202 -302.21145422963309 0 -302.21145422963309 767.19875408841472 0 0 0 0 -153.11375875852355 116.21280676836614 0 116.21280676836614 2283.8167997114215 0 0 0 0 2.2836673393302256 3.7831615329056092 0 3.7831615329056092 3.6034860559845754 0 0 0 0 30.996814238772231 -111.89052007240389 0 -111.89052007240389 956.82049243553774 0 0 0 0 190.03371635674102 -273.42386252321012 0 -273.42386252321012 715.82814667242928 0 0 0 0 155.14150943784216 -332.78424711721163 0 -332.78424711721163 616.41074722533813 0 0 0 0 5.5738333381177601 13.179350075797657 0 13.179350075797657 17.47869311442355 0 0 0 0 -124.51086236465892 139.78762488707434 0 139.78762488707434 -144.61125754538807 0 0 0 0 -288.36846019496238 212.51548874752189 0 212.51548874752189 -88.554150948533788 0 0 0 0 70.795519528733053 162.44701499334769 0 162.44701499334769 628.85029568691971 0 0 0 0 -99.957530399982488 -251.18330543070988 0 -251.18330543070988 518.9597708710935 0 0 0 0 -47.312264889292237 -97.295939367948449 0 -97.295939367948449 66.641031641280279 0 0 0 0 -100.88122791828982 -271.923358065309 0 -271.923358065309 1010.5123806436532 0 0 0 0 -0.32624106576522927 1.5000776167640879 0 1.5000776167640879 3.6714937489207387 0 0 0 0 0.31154418987159715 2.8755268225504551 0 2.8755268225504551 140.20830577919332 0 0 0 0 -34.47685550005707 76.460832066863077 0 76.460832066863077 80.797995616303524 0 0 0 0 84.651415757195537 18.028785003509256 0 18.028785003509256 -59.034387032246741 0 0 0 0 8.0496679342568527 14.962397256600383 0 14.962397256600383 20.096895439988884 0 0 0 0 -73.68889090009921 10.594183074892499 0 10.594183074892499 -51.383603050198872 0 0 0 0 -98.06922233426107 33.906006324839836 0 33.906006324839836 133.48316061566584 0 0 0 0 -91.27950340419298 95.114872491511051 0 95.114872491511051 -36.31893302660319 0 0 0 0 -93.362942021308839 76.305724839250615 0 76.305724839250615 -46.809434395458084 0 0 0 0 0.11653852491070621 0.025735270127825061 0 0.025735270127825061 2.4391843278874319 0 0 0 0 -94.6987610260487 86.706667552010913 0 86.706667552010913 -0.33870360490982421 0 0 0 0 -93.660003417787578 102.9489474043221 0 102.9489474043221 -8.2462035530188587 0 0 0 0 -84.754525855808822 62.303412791487062 0 62.303412791487062 -11.633971516821475 0 0 0 0 -104.24081234572253 49.398499944567448 0 49.398499944567448 -47.166703188311658 0 0 0 0 -94.324830102489486 69.37225325241161 0 69.37225325241161 -9.1550692342862021 0 0 0 0 -93.58737514338047 50.619532477940083 0 50.619532477940083 33.007908434956335 0 0 0 0 -132.68976343218597 72.965293825720437 0 72.965293825720437 20.289092886057915 0 0 0 0 -163.88892913291249 63.74011393886758 0 63.74011393886758 84.824970302695874 0 0 0 0 -100.7007862057111 106.20989002738497 0 106.20989002738497 54.620009401114658 0 0 0 0 -75.325034643272375 53.575957567052683 0 53.575957567052683 -122.54983039048966 0 0 0 0 -168.0669194397083 104.31021265860181 0 104.31021265860181 -2.4040724403748754 0 0 0 0 -291.44442374330572 108.95893942829571 0 108.95893942829571 8.8416899625735823 0 0 0 0 -169.62205939300182 33.525692935153756 0 33.525692935153756 31.264558150869561 0 0 0 0 -169.30441906938086 42.926785775416647 0 42.926785775416647 44.954714982435689 0 0 0 0 -178.83292039279283 34.644500145092024 0 34.644500145092024 47.630900426876906 0 0 0 0 -106.52736142497349 -49.560229056485696 0 -49.560229056485696 73.50041810167022 0 0 0 0 -102.82242711688481 15.779000821603404 0 15.779000821603404 55.590091468126047 0 0 0 0 -64.387200857922124 6.0685530633345479 0 6.0685530633345479 26.414504984553787 0 0 0 0 -40.724143755297604 -55.55053307642811 0 -55.55053307642811 53.827627734135604 0 0 0 0 -13.098801700688348 -90.281460645834159 0 -90.281460645834159 104.17818155654822 0 0 0 0 -58.093254578258581 -28.926308218215127 0 -28.926308218215127 42.912766554138216 0 0 0 0 7.772764423072644 23.007292315996892 0 23.007292315996892 82.682662523817271 0 0 0 0 -43.353705173203338 170.1386996920337 0 170.1386996920337 53.750710231114681 0 0 0 0 -68.539942723882575 -67.26395379765745 0 -67.26395379765745 44.648715661256574 0 0 0 0 -137.50922877322085 -1.5360144458609284 0 -1.5360144458609284 -242.51481135209906 0 0 0 0 -181.30111750228161 17.967221036160481 0 17.967221036160481 -0.81893630456761457 0 0 0 0 -386.47181973972442 42.601247713610064 0 42.601247713610064 12.372676556515216 0 0 0 0 2.2815222294132349 5.3486007559355642 0 5.3486007559355642 8.2561778765308986 0 0 0 0 98.705085161476518 -323.99992309220397 0 -323.99992309220397 738.51922042213846 0 0 0 0 -48.274041297676987 715.21821608548635 0 715.21821608548635 508.82864524947945 0 0 0 0 -41.003747563370695 606.91005032300018 0 606.91005032300018 -225.00315312822931 0 0 0 0 29.324261680477449 87.597176123323152 0 87.597176123323152 117.58953882221249 0 0 0 0 0.064866078687906836 19.149687699324691 0 19.149687699324691 502.05225667267223 0 0 0 0 7.9971575013244376 175.97189979343966 0 175.97189979343966 769.62791118569976 0 0 0 0 -60.815859262697018 349.24657181536168 0 349.24657181536168 762.66726223463775 0 0 0 0 -107.11393653033375 292.25877019979816 0 292.25877019979816 1223.5415740599783 0 0 0 0 -30.157274720713371 250.31765067037486 0 250.31765067037486 922.78232146974187 0 0 0 0 -32.22695923087015 51.058443182351766 0 51.058443182351766 944.00929957194603 0 0 0 0 43.969183117493316 104.15034481629118 0 104.15034481629118 413.1963904449658 0 0 0 0 51.732740935907998 15.062359708419535 0 15.062359708419535 428.67002669345675 0 0 0 0 143.80232912379515 238.51100260577368 0 238.51100260577368 228.49153619885328 0 0 0 0 32.225016375566511 -39.71785936410015 0 -39.71785936410015 224.17615438770372 0 0 0 0 65.174063176238761 -84.737987725959101 0 -84.737987725959101 120.11504979155143 0 0 0 0 111.0296846694913 46.419040131040674 0 46.419040131040674 190.38269294335623 0 0 0 0 63.473914357913749 -45.317562250435003 0 -45.317562250435003 30.008133449126035 0 0 0 0 14.133776982140382 -53.239925809990382 0 -53.239925809990382 30.467049943352322 0 0 0 0 60.876794238324081 -79.218387527856976 0 -79.218387527856976 12.69615119532682 0 0 0 0 80.224748097241459 10.963686182643869 0 10.963686182643869 166.38095222105039 0 0 0 0 109.11233132051585 -40.325085359167133 0 -40.325085359167133 205.78370652432204 0 0 0 0 136.57820827383478 441.28728833136847 0 441.28728833136847 146.33994698314928 0 0 0 0 -34.438387796604374 -6.3253737870109035 0 -6.3253737870109035 243.71617504242749 0 0 0 0 0.39813957801652966 1.3434385172079431 0 1.3434385172079431 3.2047172170689464 0 0 0 0 37.669534225619643 80.071617681460339 0 80.071617681460339 313.01021544431569 0 0 0 0 67.408839183708096 -184.151273880183 0 -184.151273880183 176.53829291729198 0 0 0 0 45.930093412148295 390.04506526560726 0 390.04506526560726 261.94938920815912 0 0 0 0 22.091517887910673 -216.57085553267419 0 -216.57085553267419 154.01141579941032 0 0 0 0 0.13474718225155408 -0.2842508571501412 0 -0.2842508571501412 2.6793916859813294 0 0 0 0 -12.001533231272921 50.204566727683414 0 50.204566727683414 1014.4122071188758 0 0 0 0 364.03547135254593 -272.51946540860808 0 -272.51946540860808 36.735660829368499 0 0 0 0 79.388382973443825 -44.520142867346294 0 -44.520142867346294 403.00513238559506 0 0 0 0 0.39650761199443219 -0.64241623229526112 0 -0.64241623229526112 2.12053996614776 0 0 0 0 -443.79478872157415 403.26229219073139 0 403.26229219073139 2614.3865247012145 0 0 0 0 630.57195792453422 1513.301639229634 0 1513.301639229634 1448.9835822181776 0 0 0 0 1893.754900862903 335.68307254896354 0 335.68307254896354 276.30447684155661 0 0 0 0 -484.47206553953947 918.29674736822199 0 918.29674736822199 1179.7057891478398 0 0 0 0 185.25767175723377 -477.14339928835398 0 -477.14339928835398 -71.905947937717428 0 0 0 0 1.6803918493685526 -19.454769403263441 0 -19.454769403263441 28.93429900502673 0 0 0 0 -441.93972173061775 -575.85068781052541 0 -575.85068781052541 193.8663737616771 0 0 0 0 427.1612653379234 -166.78225674979331 0 -166.78225674979331 106.39753700171423 0 0 0 0 526.35614581941991 -1120.3884085587197 0 -1120.3884085587197 1864.5668954200155 0 0 0 0 -45.311345477946816 -19.535623159754323 0 -19.535623159754323 42.574899723509589 0 0 0 0 -104.1520751234392 -119.57505863044935 0 -119.57505863044935 9.2732836534050875 0 0 0 0 2.1419764926743543 -11.58453393683476 0 -11.58453393683476 22.207579142467011 0 0 0 0 -347.98426633794043 610.38589171715284 0 610.38589171715284 1447.8240477553773 0 0 0 0 -392.93920989784783 453.14147290863184 0 453.14147290863184 1017.2011887572735 0 0 0 0 42.686247927619661 746.83336192907154 0 746.83336192907154 1221.595993624127 0 0 0 0 392.96031762020129 1134.4751606743812 0 1134.4751606743812 1379.8807994272793 0 0 0 0 431.01833559189799 787.28875792172767 0 787.28875792172767 1152.3909456448891 0 0 0 0 541.2363102896652 784.09097677608224 0 784.09097677608224 418.21871596995334 0 0 0 0 766.66536112706467 557.18022345618738 0 557.18022345618738 477.57628201771877 0 0 0 0 -629.2285862888084 398.65918662207332 0 398.65918662207332 657.36024063041259 0 0 0 0 65.732302371100559 890.69003799462007 0 890.69003799462007 673.27796195032715 0 0 0 0 -740.48006246441037 261.82598280479579 0 261.82598280479579 507.94830637260748 0 0 0 0 639.44917456557596 1452.116493029549 0 1452.116493029549 1343.7751844195445 0 0 0 0 -202.23726568805705 347.47779922186055 0 347.47779922186055 351.1523307772004 0 0 0 0 -0.3378321747050177 2.5596545566808189 0 2.5596545566808189 32.431115361982108 0 0 0 0 -289.06059790135339 -975.67512732467321 0 -975.67512732467321 1332.3994919284596 0 0 0 0 -0.57237095714456032 -0.23291638640449719 0 -0.23291638640449719 84.188141139065181 0 0 0 0 -812.09529279545347 148.19755454748292 0 148.19755454748292 411.57659833866637 0 0 0 0 -128.99376103727445 -228.12290319774911 0 -228.12290319774911 1235.2896508421545 0 0 0 0 310.20430849599325 507.63047722373449 0 507.63047722373449 288.47502704526414 0 0 0 0 57.023892918805359 303.22827046958264 0 303.22827046958264 1137.2632361924771 0 0 0 0 67.862768609639716 -219.44762293886015 0 -219.44762293886015 1160.9007263550011 0 0 0 0 -106.10267527842916 -16.786614876786189 0 -16.786614876786189 -53.116914627418737 0 0 0 0 -0.8739640114181384 -71.385888546785282 0 -71.385888546785282 698.49102908559144 0 0 0 0 -28.987478112263489 239.95136158235255 0 239.95136158235255 712.0889696549566 0 0 0 0 -0.43545159094467678 3.5500286110176091 0 3.5500286110176091 7.6913350827306886 0 0 0 0 112.22814854758326 -69.098985322285444 0 -69.098985322285444 338.78071581429685 0 0 0 0 -142.43838686038634 128.38760404812638 0 128.38760404812638 1184.5486806917761 0 0 0 0 1.3610739463855914 6.6925191817124414 0 6.6925191817124414 5.0285176909877123 0 0 0 0 285.97330095711914 121.26303274286329 0 121.26303274286329 16.019238659393523 0 0 0 0 -10.768494603822546 -123.57366990108858 0 -123.57366990108858 1385.9159706644277 0 0 0 0 -67.442084823430378 278.99810231295123 0 278.99810231295123 1325.3309475494316 0 0 0 0 -112.73993104705914 242.23339895048412 0 242.23339895048412 1251.09328946598 0 0 0 0 -73.586261757960074 248.96129296712752 0 248.96129296712752 1160.7582272704167 0 0 0 0 -68.556537217566074 237.10697289685049 0 237.10697289685049 1188.4752822935116 0 0 0 0 -49.261729371144611 154.00846734002698 0 154.00846734002698 1249.045787538593 0 0 0 0 -60.889426392473069 193.54214461810261 0 193.54214461810261 1114.6342108699901 0 0 0 0 13.671703470987268 191.98977797108091 0 191.98977797108091 970.93645508302143 0 0 0 0 -49.607787685692529 233.01106630788126 0 233.01106630788126 1189.2551294834011 0 0 0 0 -81.650148908642564 20.678186381639534 0 20.678186381639534 984.19276450149482 0 0 0 0 -87.977878990737736 94.858853677251318 0 94.858853677251318 1163.5763872819844 0 0 0 0 7.8280798378564995 8.2507899456329596 0 8.2507899456329596 4.3334322517441706 0 0 0 0 115.26017697378438 -146.26093002770358 0 -146.26093002770358 421.36017430215725 0 0 0 0 -58.923806255261297 132.49415595386381 0 132.49415595386381 1211.8051486317854 0 0 0 0 -590.62505843066356 -115.70090487948619 0 -115.70090487948619 2912.4767392851791 0 0 0 0 -599.89184786153055 22.729550208525325 0 22.729550208525325 1122.7004050213727 0 0 0 0 -80.525483419827651 279.61054816662363 0 279.61054816662363 464.66566477094602 0 0 0 0 8.5537566258415652 10.015414247677455 0 10.015414247677455 3.8645313050002557 0 0 0 0 -263.99422802821209 202.00089678299992 0 202.00089678299992 1210.675249948792 0 0 0 0 -10.75772064605917 630.98530271682102 0 630.98530271682102 -885.15267282302375 0 0 0 0 3.0172172916322566 5.6294802302948028 0 5.6294802302948028 1.8823135304307073 0 0 0 0 -195.68972428750931 86.238636412163032 0 86.238636412163032 1056.6066250649237 0 0 0 0 -127.91949290486809 390.14591033337638 0 390.14591033337638 -879.9610494847293 0 0 0 0 -49.203360920504565 -110.55945213772793 0 -110.55945213772793 681.39541985408869 0 0 0 0 -20.429707970277832 -42.992170376597642 0 -42.992170376597642 729.33621450874489 0 0 0 0 10.817661462289834 -70.394482995325234 0 -70.394482995325234 569.70397426481941 0 0 0 0 46.415946441875349 -118.47592685339623 0 -118.47592685339623 413.25721435305604 0 0 0 0 -7.9203849746591004 -166.15172138892376 0 -166.15172138892376 574.20886044313374 0 0 0 0 56.620884208430653 -76.410301535725011 0 -76.410301535725011 213.91503853492031 0 0 0 0 -7.7728804226862849 62.922506937858998 0 62.922506937858998 506.15050504205283 0 0 0 0 16.576695084278981 -102.38656409455871 0 -102.38656409455871 564.909404866572 0 0 0 0 292.98039809318743 -548.07863830204587 0 -548.07863830204587 912.96479529689532 0 0 0 0 109.72704011682981 161.89207494547009 0 161.89207494547009 443.54831786606883 0 0 0 0 54.513546264206752 279.37647079826638 0 279.37647079826638 814.3220088283997 0 0 0 0 445.05808087844525 -350.31924702991091 0 -350.31924702991091 320.17483584697766 0 0 0 0 -4.1117717636507223 -241.31326997477299 0 -241.31326997477299 1117.2264544521968 0 0 0 0 115.12011676431575 182.57066493174352 0 182.57066493174352 398.03764447849244 0 0 0 0 -139.6570804763769 -113.99468091363087 0 -113.99468091363087 1170.853449136659 0 0 0 0 2.9771470335830266 -1.8241386702368629 0 -1.8241386702368629 9.5326967073372657 0 0 0 0 -0.79152836673347338 41.993384938221425 0 41.993384938221425 -17.467715180566302 0 0 0 0 181.10745851907359 217.50039303101221 0 217.50039303101221 57.178673818896641 0 0 0 0 2.6699504935380283 2.1097599659668447 0 2.1097599659668447 7.9327406338109654 0 0 0 0 10.526626833597323 12.171730584483129 0 12.171730584483129 2.1639299901925142 0 0 0 0 196.51985672695264 -50.694076769184903 0 -50.694076769184903 24.02782018504513 0 0 0 0 228.1336403895034 -215.8770168297724 0 -215.8770168297724 108.92166080395691 0 0 0 0 10.42192478355317 11.04970067453641 0 11.04970067453641 22.888410944605141 0 0 0 0 42.747731004514208 18.851995823395555 0 18.851995823395555 47.593017635113938 0 0 0 0 9.4441497317541234 20.618156545504462 0 20.618156545504462 51.456824582186528 0 0 0 0 8.2370305767094578 14.300371969729895 0 14.300371969729895 44.929467018402647 0 0 0 0 15.219334144985623 -11.962910284317331 0 -11.962910284317331 33.241629655545694 0 0 0 0 3.0808127028872985 13.84459889125813 0 13.84459889125813 25.963109176224407 0 0 0 0 -2.3214890175927394 -0.50951471168082207 0 -0.50951471168082207 -13.123925563268131 0 0 0 0 0.044840330057751898 -0.71057069923290328 0 -0.71057069923290328 1.8574178456918276 0 0 0 0 7.9558631576841377 7.4837629215697348 0 7.4837629215697348 40.183146167581299 0 0 0 0 -104.24081234569917 49.398499944771174 0 49.398499944771174 -47.166703188256179 0 0 0 0 -104.24081234573407 49.398499944567448 0 49.398499944567448 -47.166703187976964 0 0 0 0 92.383441491330814 -187.27201773564593 0 -187.27201773564593 130.58399446374096 0 0 0 0 43.391118656843901 -205.80204129848062 0 -205.80204129848062 238.72144460893469 0 0 0 0 52.653987485644393 -258.51001081999857 0 -258.51001081999857 397.16745188555979 0 0 0 0 52.098463595838439 -201.25182689832218 0 -201.25182689832218 102.72302928012505 0 0 0 0 -23.950993857785761 -131.30042518035407 0 -131.30042518035407 120.81121547400835 0 0 0 0 -60.574757585391126 -293.66194037017704 0 -293.66194037017704 101.23965561979276 0 0 0 0 115.16774357553186 -503.21002729328029 0 -503.21002729328029 345.21540748298867 0 0 0 0 5.3055223094352542 -6.9457766873542255 0 -6.9457766873542255 10.228149541918867 0 0 0 0 208.3474517599243 -396.81080386134272 0 -396.81080386134272 -131.150567329978 0 0 0 0 -237.92093863603623 -215.22804521263606 0 -215.22804521263606 208.88207092505763 0 0 0 0 15.83440534144264 -21.328932495447532 0 -21.328932495447532 29.402129905714901 0 0 0 0 80.765640743491531 327.07907821483241 0 327.07907821483241 452.30606218765024 0 0 0 0 -224.10424466832819 -279.39626022617813 0 -279.39626022617813 -60.865509072988061 0 0 0 0 -29.410376696368985 -60.650028636220668 0 -60.650028636220668 -50.634449769282583 0 0 0 0 -242.84254344156943 -167.72042330362456 0 -167.72042330362456 184.99907385060214 0 0 0 0 -64.847008601238485 -98.543309887791111 0 -98.543309887791111 294.92879092652583 0 0 0 0 -147.50201620406551 7.9967156786515261 0 7.9967156786515261 159.23032851325115 0 0 0 0 -101.76626753131131 -31.146976571457344 0 -31.146976571457344 33.384260778344469 0 0 0 0 -183.60398036962579 -45.576945692446316 0 -45.576945692446316 169.77328554153064 0 0 0 0 -179.3718553466515 -34.875636609642243 0 -34.875636609642243 203.46111879314412 0 0 0 0 -7.3609923109925788 -1.7423597103867792 0 -1.7423597103867792 2.5862361831434555 0 0 0 0 -268.85015926357664 -277.2211798934004 0 -277.2211798934004 -421.02556432728306 0 0 0 0 -24.197877806283941 143.18329714487481 0 143.18329714487481 322.14496814749145 0 0 0 0 -45.962261276827121 -31.351614080388572 0 -31.351614080388572 147.64632899934077 0 0 0 0 -139.17916676494497 814.64224537403788 0 814.64224537403788 -365.95097622886715 0 0 0 0 835.93309304459581 223.70998763716489 0 223.70998763716489 -1242.0395351994812 0 0 0 0 -8.0173871555919121 -4.6150741809024396 0 -4.6150741809024396 2.1180417420261222 0 0 0 0 35.120394821471564 418.10823639150476 0 418.10823639150476 396.81892004152178 0 0 0 0 -42.658442683692556 -41.50041823527863 0 -41.50041823527863 116.27413643772888 0 0 0 0 -19.938269108648207 -25.015466867423896 0 -25.015466867423896 80.764213621147775 0 0 0 0 -4.1464155135215712 7.2195839266187249 0 7.2195839266187249 107.97412417274121 0 0 0 0 -74.084191067261827 -54.392724801546137 0 -54.392724801546137 59.291526634042384 0 0 0 0 -50.82589874193549 -1.7011489571863478 0 -1.7011489571863478 27.377706021652472 0 0 0 0 -118.97318669687229 -72.08683189356816 0 -72.08683189356816 139.64823895052541 0 0 0 0 15.735179387166227 -35.177299955095435 0 -35.177299955095435 56.5468903133293 0 0 0 0 -172.48983861536544 -95.259597828349797 0 -95.259597828349797 157.69984621454932 0 0 0 0 -5.1813447336747913 130.2354345366391 0 130.2354345366391 306.59641928608471 0 0 0 0 -98.139604990253247 -257.80561561844843 0 -257.80561561844843 -44.811146296320658 0 0 0 0 -13.973141019400828 -8.284482869268686 0 -8.284482869268686 201.01414633507375 0 0 0 0 -12.471158973599856 -27.680183911440608 0 -27.680183911440608 164.89570616293605 0 0 0 0 56.616914726975665 -39.66608448857005 0 -39.66608448857005 14.321093053891673 0 0 0 0 -13.196451557809281 -29.183863948278059 0 -29.183863948278059 164.50706066473685 0 0 0 0 -135.68219849718116 -112.07136847208312 0 -112.07136847208312 194.85485552578757 0 0 0 0 -188.22347925698705 48.300635605628486 0 48.300635605628486 55.061407886983943 0 0 0 0 -447.09365025080206 -536.11176156608417 0 -536.11176156608417 167.96440694650664 0 0 0 0 131.64099471941881 593.61613529668102 0 593.61613529668102 766.76694791580303 0 0 0 0 126.75468145720151 -421.52439052561022 0 -421.52439052561022 755.33170434254862 0 0 0 0 -660.28121163719152 -361.77443840434898 0 -361.77443840434898 442.55160661592527 0 0 0 0 -16.042119482312415 -25.346396166623393 0 -25.346396166623393 159.98186962147486 0 0 0 0 -116.22556433600948 155.16607149336232 0 155.16607149336232 142.39738830515125 0 0 0 0 -274.36788861234527 151.84100882405619 0 151.84100882405619 249.55464991064582 0 0 0 0 -158.92447161285691 195.66119423184318 0 195.66119423184318 282.87156522054283 0 0 0 0 -75.449361057311762 222.3920257194477 0 222.3920257194477 250.02666521933861 0 0 0 0 -52.890294683263164 157.13666772948091 0 157.13666772948091 204.96725079687894 0 0 0 0 636.04395417524665 318.0241164100662 0 318.0241164100662 66.806794885371346 0 0 0 0 77.957008158111421 344.84784644260071 0 344.84784644260071 285.70460378529719 0 0 0 0 193.24101226671291 142.21589213928928 0 142.21589213928928 35.725893193652155 0 0 0 0 117.43591702490085 167.07114509829262 0 167.07114509829262 193.39382630074397 0 0 0 0 -100.7885323041919 178.42096678286907 0 178.42096678286907 385.91887918586144 0 0 0 0 101.22493827813378 182.34564015085925 0 182.34564015085925 352.30224403311149 0 0 0 0 257.8448358648966 260.95985789713814 0 260.95985789713814 166.59942566673271 0 0 0 0 138.59265447630605 231.45299746704404 0 231.45299746704404 165.68614362664812 0 0 0 0 45.277101196654257 271.41345913075202 0 271.41345913075202 262.76141828008258 0 0 0 0 140.9212819414106 245.58754586729628 0 245.58754586729628 229.37570383711136 0 0 0 0 -24.268046208966553 197.13337246875744 0 197.13337246875744 256.63200462365057 0 0 0 0 -78.920383900462184 179.80113101248571 0 179.80113101248571 225.09046053170459 0 0 0 0 0.14576919636238017 181.01649938244373 0 181.01649938244373 211.45997350147809 0 0 0 0 -41.466902325613773 193.66882562820683 0 193.66882562820683 254.10710261462373 0 0 0 0 4.3150666842793726 178.77931681998962 0 178.77931681998962 253.73130329977721 0 0 0 0 27.626453773882531 239.37762360362103 0 239.37762360362103 263.64120053244915 0 0 0 0 20.293440491535875 210.93477097873983 0 210.93477097873983 324.88877922671963 0 0 0 0 26.102287227211491 224.63858389189409 0 224.63858389189409 272.61235367116751 0 0 0 0 77.687195355378208 240.08299588016234 0 240.08299588016234 241.07130609283922 0 0 0 0 65.483489443766302 212.96781944487884 0 212.96781944487884 276.1691129070241 0 0 0 0 67.744668176106643 227.08292458867072 0 227.08292458867072 280.03175053952145 0 0 0 0 95.472822191732121 207.72834377907566 0 207.72834377907566 268.68655643213424 0 0 0 0 62.147501298459247 214.70432495989371 0 214.70432495989371 340.27716633980162 0 0 0 0 74.626740796764352 255.20275069974014 0 255.20275069974014 367.49704933448811 0 0 0 0 -57.029221933062217 38.889802217679971 0 38.889802217679971 303.84942703269735 0 0 0 0 14.672842417239735 205.97408874644316 0 205.97408874644316 352.88467723956273 0 0 0 0 88.899320197138877 248.33543397704489 0 248.33543397704489 328.43779651546356 0 0 0 0 73.785987200924865 212.92948128546413 0 212.92948128546413 324.91110591104371 0 0 0 0 81.516585271969234 57.638126432299032 0 57.638126432299032 -20.838437359343516 0 0 0 0 5.1493456794111481 2.2326597202724088 0 2.2326597202724088 8.0459259881259584 0 0 0 0 -6.909208610006317 -27.887284971395275 0 -27.887284971395275 57.29503051257052 0 0 0 0 -0.32247612729406683 -20.643604375320137 0 -20.643604375320137 9.0448301905853441 0 0 0 0 4.6349626676192202 -8.7397645999881206 0 -8.7397645999881206 18.177511981288262 0 0 0 0 6.256539424035509 38.063101307474426 0 38.063101307474426 105.85579341542325 0 0 0 0 15.345014862792596 22.262374152418488 0 22.262374152418488 80.230945290939417 0 0 0 0 2.8901377821413412 -2.2243398327092336 0 -2.2243398327092336 6.7556471277204082 0 0 0 0 -4.6346520689469273 -3.9545346114820461 0 -3.9545346114820461 7.9500230054675711 0 0 0 0 194.5239164212544 235.60295073062298 0 235.60295073062298 323.18561266706092 0 0 0 0 1.7157552829548521 -1.117176141979769 0 -1.117176141979769 0.48744594722757029 0 0 0 0 -568.59596445475881 229.97941765793439 0 229.97941765793439 21.845988969304017 0 0 0 0 -12.086850451977146 31.99255827130483 0 31.99255827130483 34.074740422646073 0 0 0 0 -492.78257669910954 0.88923201250690909 0 0.88923201250690909 355.33235642663203 0 0 0 0 14.902019639532227 360.22629137350305 0 360.22629137350305 -267.16093483762234 0 0 0 0 -518.59003714136225 265.65461390758264 0 265.65461390758264 342.42772002588026 0 0 0 0 21.658921168571922 79.099427665835208 0 79.099427665835208 128.11973188722268 0 0 0 0 95.127646959746926 230.58809180936805 0 230.58809180936805 275.9386197986787 0 0 0 0 -193.761740280097 199.8015389079228 0 199.8015389079228 158.00303975483985 0 0 0 0 4.2526610226632329 227.13833192117454 0 227.13833192117454 338.93581197556341 0 0 0 0 -40.205969425725925 -163.60275047992764 0 -163.60275047992764 188.72110563368915 0 0 0 0 -84.459736042936129 -16.670453196995368 0 -16.670453196995368 128.09122058420326 0 0 0 0 -11.238941977384499 -8.3093119708796905 0 -8.3093119708796905 33.270776371933778 0 0 0 0 67.52476696481699 75.205255496093741 0 75.205255496093741 123.666877082258 0 0 0 0 92.830643494166907 202.46390702551616 0 202.46390702551616 212.63369785289979 0 0 0 0 -58.170740738132736 96.573673480190337 0 96.573673480190337 198.9041206927177 0 0 0 0 -94.334369867821806 10.359142910587252 0 10.359142910587252 143.67268300172873 0 0 0 0 -6.2536172568397888 135.14263407036196 0 135.14263407036196 203.2500876627746 0 0 0 0 7.2857548808824504 71.383770927321166 0 71.383770927321166 165.98066201916663 0 0 0 0 -156.37622226952226 108.02737866820826 0 108.02737866820826 233.65856232008809 0 0 0 0 -83.456649611816829 41.863085647572007 0 41.863085647572007 100.67494590892602 0 0 0 0 -10.574019963876644 -18.438586260249167 0 -18.438586260249167 88.855763157213914 0 0 0 0 -66.439085119498486 -39.298110797768459 0 -39.298110797768459 156.34220685022592 0 0 0 0 -15.369004471145132 5.0747969579120564 0 5.0747969579120564 26.981526152711496 0 0 0 0 6.1105568699658761 -45.248936025272997 0 -45.248936025272997 96.65488914460002 0 0 0 0 26.238793407915182 0.13780738304922124 0 0.13780738304922124 125.09667596503277 0 0 0 0 -2.8131236785334295 16.175730206586366 0 16.175730206586366 145.03095655576635 0 0 0 0 -12.932853139673352 7.888585541297644 0 7.888585541297644 61.817846222069903 0 0 0 0 -16.650896819483023 -2.9739990188973024 0 -2.9739990188973024 124.90895794468815 0 0 0 0 -20.140437384586065 -18.241290240187681 0 -18.241290240187681 18.365603100386295 0 0 0 0 73.227340172783443 -112.67344373426749 0 -112.67344373426749 -477.23378157465777 0 0 0 0 -19.436333528081317 -17.301906026456109 0 -17.301906026456109 146.39532315267741 0 0 0 0 -177.22696848848409 -534.91641402297319 0 -534.91641402297319 126.42257631517714 0 0 0 0 -311.98504021996996 -40.607588186838257 0 -40.607588186838257 213.17287129748365 0 0 0 0 185.0591172028744 211.9830203202655 0 211.9830203202655 148.14325765136164 0 0 0 0 264.03883935508384 -552.53679714658938 0 -552.53679714658938 245.62329858669546 0 0 0 0 102.01998361131928 494.42510580478483 0 494.42510580478483 1340.3307553215709 0 0 0 0 -463.48384675758462 -124.63672200979636 0 -124.63672200979636 987.63003053102875 0 0 0 0 89.716791123214534 73.991212743450888 0 73.991212743450888 133.91690669138188 0 0 0 0 2.4979073614021274 9.6245521141028689 0 9.6245521141028689 18.227127609439776 0 0 0 0 12.153225098269104 -0.10133005940588191 0 -0.10133005940588191 56.042208060622215 0 0 0 0 -386.79940230702232 206.26075372382911 0 206.26075372382911 131.71516699734457 0 0 0 0 3.4424391935709835 12.495586186007074 0 12.495586186007074 21.364672691331407 0 0 0 0 -0.37465994484938747 25.530226535330428 0 25.530226535330428 44.205225883020262 0 0 0 0 56.378010233045416 261.11979018460261 0 261.11979018460261 -245.28339746175334 0 0 0 0 32.527784539788513 -106.95321162637993 0 -106.95321162637993 61.808791507719434 0 0 0 0 86.194995330197798 -89.90615278608675 0 -89.90615278608675 61.843877357168822 0 0 0 0 104.68410593398585 117.09397451244877 0 117.09397451244877 69.144602909334935 0 0 0 0 640.70880697557141 778.66218754969486 0 778.66218754969486 -630.27374999551103 0 0 0 0 10.656731445144132 2.2755637156299144 0 2.2755637156299144 7.6998139387636115 0 0 0 0 -12.83251312151501 8.5497189378799021 0 8.5497189378799021 29.39258532084699 0 0 0 0 -124.00748281090411 38.36711742409716 0 38.36711742409716 -9.8105432812008075 0 0 0 0 14.607500199511037 46.255052625820099 0 46.255052625820099 -125.97138203505892 0 0 0 0 -0.91967844551299716 4.1734708778804155 0 4.1734708778804155 -13.847884290481431 0 0 0 0 -11.10691781279597 12.448692563127366 0 12.448692563127366 31.798762784150369 0 0 0 0 34.59323800218317 -107.79025732423179 0 -107.79025732423179 68.272533771581948 0 0 0 0 110.5988642505356 -68.270175738027319 0 -68.270175738027319 -66.629024400604976 0 0 0 0 -62.066511790901586 -106.77246521227426 0 -106.77246521227426 47.404857513436582 0 0 0 0 0.077804335455567697 -1.2420941431216619 0 -1.2420941431216619 -5.0333285402666661 0 0 0 0 184.64066841744261 -290.05778553877462 0 -290.05778553877462 948.33478182672116 0 0 0 0 -356.8359790397576 -183.96362738910102 0 -183.96362738910102 674.89934524706041 0 0 0 0 145.67678250876838 107.40768954707892 0 107.40768954707892 -14.27826979969177 0 0 0 0 4.9603652114884156 32.313947182143608 0 32.313947182143608 71.329812150037185 0 0 0 0 -44.074032238486325 -72.116900656445068 0 -72.116900656445068 149.6923309614649 0 0 0 0 -112.8670068381989 568.44383126112371 0 568.44383126112371 -29.443246009977884 0 0 0 0 -119.94202152780326 -42.966267630632501 0 -42.966267630632501 74.437741838875809 0 0 0 0 123.41381483834616 -154.55208116749532 0 -154.55208116749532 1064.0818958500167 0 0 0 0 477.23243566561678 238.85868619009125 0 238.85868619009125 205.3031156170764 0 0 0 0 67.372722510011954 114.53334368037758 0 114.53334368037758 -19.099510483574704 0 0 0 0 103.16569088743745 278.53530280642735 0 278.53530280642735 290.92713281876058 0 0 0 0 -202.51257164728486 153.89563554107735 0 153.89563554107735 902.52921156573575 0 0 0 0 -51.130802435181977 -363.62872442233493 0 -363.62872442233493 905.65299586590641 0 0 0 0 -160.30966678464483 -393.82391275014379 0 -393.82391275014379 964.47912451667071 0 0 0 0 134.64615047769166 -334.78928442467441 0 -334.78928442467441 384.15501899924129 0 0 0 0 -49.183819632660743 66.877827474836522 0 66.877827474836522 -24.585579920531018 0 0 0 0 -43.656498920583545 43.161081612604903 0 43.161081612604903 77.081730687670643 0 0 0 0 77.093674665665276 29.225284511121572 0 29.225284511121572 -67.432039536011871 0 0 0 0 36.348236674680265 -17.41397375271481 0 -17.41397375271481 -14.005430598830571 0 0 0 0 15.33309342503253 35.445144307959708 0 35.445144307959708 -136.55830130371032 0 0 0 0 379.88255839621888 -497.7853052189239 0 -497.7853052189239 519.56499977907515 0 0 0 0 -237.81238800105893 -97.718092771996453 0 -97.718092771996453 425.35519155151269 0 0 0 0 642.61583473837663 -258.51272554843308 0 -258.51272554843308 88.989023760455893 0 0 0 0 0.80432048590351268 -4.8181497070010622 0 -4.8181497070010622 5.6836398162670321 0 0 0 0 345.07424932397271 -28.051969538952108 0 -28.051969538952108 -77.561527432524599 0 0 0 0 84.096839590098966 138.03857509500858 0 138.03857509500858 641.2412917506299 0 0 0 0 6.3944976817493577 -3.9471598183717447 0 -3.9471598183717447 3.8842956533478059 0 0 0 0 57.949776505136924 640.75481638136989 0 640.75481638136989 1295.0047270696086 0 0 0 0 109.11860805355192 -154.63470038578089 0 -154.63470038578089 -61.587295570512651 0 0 0 0 9.1674279906878837 39.364504906894581 0 39.364504906894581 -8.4476385148445843 0 0 0 0 -40.094908944971849 11.992128024226986 0 11.992128024226986 -17.897124111492303 0 0 0 0 -47.34675507284058 -90.169123986718432 0 -90.169123986718432 -56.362792245679884 0 0 0 0 16.382831892002809 -13.946696476012733 0 -13.946696476012733 11.80986306571242 0 0 0 0 27.214864053998099 -32.336464749729203 0 -32.336464749729203 -41.332438764540711 0 0 0 0 2.8174002162043053 -8.4405749072757317 0 -8.4405749072757317 3.1352115301415324 0 0 0 0 8.7067640505842974 -61.355987546368851 0 -61.355987546368851 4.709479258817737 0 0 0 0 35.916477380689685 -11.1887402064458 0 -11.1887402064458 -35.165726079372689 0 0 0 0 27.407047050360688 1.506005990828271 0 1.506005990828271 -31.535837260322296 0 0 0 0 28.384145958459612 -9.7059750096887001 0 -9.7059750096887001 -82.00513605872402 0 0 0 0 8.122981686782623 -18.361254948831629 0 -18.361254948831629 -7.6717965804273263 0 0 0 0 40.41683542042847 -15.770018032399093 0 -15.770018032399093 -9.1258513922221027 0 0 0 0 4.0061932566050018 -49.719205847373814 0 -49.719205847373814 47.675096332051908 0 0 0 0 43.399239938681603 -45.251850522428867 0 -45.251850522428867 44.998005174376885 0 0 0 0 20.941663201408119 -74.506744706115569 0 -74.506744706115569 167.76666699111229 0 0 0 0 42.288987456220411 -21.075640210314305 0 -21.075640210314305 61.468374130825396 0 0 0 0 27.986791723496538 -50.054937253080425 0 -50.054937253080425 36.553596542304149 0 0 0 0 29.031932104698853 -69.151633258748916 0 -69.151633258748916 85.215441074586124 0 0 0 0 23.275530414094646 -29.940306297517964 0 -29.940306297517964 28.345223209253163 0 0 0 0 8.8416937318086184 -48.233771437404357 0 -48.233771437404357 57.413347121851984 0 0 0 0 5.4171199609802301 -13.057443716386523 0 -13.057443716386523 15.202935033547817 0 0 0 0 -9.2273895018724943 -110.59022273568553 0 -110.59022273568553 -89.054404747847002 0 0 0 0 -84.421601211675807 -74.723114815176814 0 -74.723114815176814 -7.8789243751962204 0 0 0 0 -21.62325929313829 -87.321502094360767 0 -87.321502094360767 -152.99020852482681 0 0 0 0 5.2764510648376017 -28.780825488676783 0 -28.780825488676783 -44.478167218156159 0 0 0 0 13.085002741197968 -22.539817832526751 0 -22.539817832526751 -40.543829207847011 0 0 0 0 -76.348057608384352 -54.19278880226193 0 -54.19278880226193 36.656248158484232 0 0 0 0 -73.9114556657496 -42.947200648370199 0 -42.947200648370199 22.019127564853989 0 0 0 0 -69.53832868161021 -61.049242222470639 0 -61.049242222470639 2.2979519712389447 0 0 0 0 -16.599612817099569 -1.5648607612456544 0 -1.5648607612456544 3.5585308969020844 0 0 0 0 -0.35862355273638968 -88.832341373548843 0 -88.832341373548843 14.055380449484801 0 0 0 0 0.69878743393186582 -4.5620705387899818 0 -4.5620705387899818 16.187460693617837 0 0 0 0 -80.773473416531488 -39.871061166741129 0 -39.871061166741129 69.750866258138558 0 0 0 0 -31.476938602512746 -1.9348310406057863 0 -1.9348310406057863 -58.313572264145478 0 0 0 0 12.270009631050979 -28.063888885216926 0 -28.063888885216926 4.1612959095850854 0 0 0 0 547.25215362317977 -145.62683961878065 0 -145.62683961878065 66.201155665563419 0 0 0 0 104.12113704689 -151.0746558970859 0 -151.0746558970859 67.187319303746335 0 0 0 0 76.969820628292837 -178.46404077184707 0 -178.46404077184707 118.79916881094687 0 0 0 0 73.342241713877229 -175.16329781790409 0 -175.16329781790409 151.60393299622228 0 0 0 0 111.83360677626115 -110.11094514977594 0 -110.11094514977594 139.99200047340128 0 0 0 0 1.6181971773409529 4.4361377270611229 0 4.4361377270611229 0.19574129338885271 0 0 0 0 117.16949901763655 32.545814177938155 0 32.545814177938155 304.00987760705902 0 0 0 0 -652.36241634686667 -51.551651136629516 0 -51.551651136629516 421.63192589618848 0 0 0 0 116.27033785268213 -97.299669188330881 0 -97.299669188330881 -79.071577394173801 0 0 0 0 32.685823373369203 45.38950116498745 0 45.38950116498745 86.986697408632608 0 0 0 0 2.2380924481112743 -101.91906784604362 0 -101.91906784604362 281.79583013779484 0 0 0 0 214.56590870211221 -40.322680381585087 0 -40.322680381585087 -302.17425822751829 0 0 0 0 -0.97904545400820098 4.4726442961653845 0 4.4726442961653845 -0.17206596921393214 0 0 0 0 -86.924362598860171 -2.6077272036636714 0 -2.6077272036636714 -2.1044973385869525 0 0 0 0 13.892504068771814 -69.199009085059515 0 -69.199009085059515 -26.204683677715366 0 0 0 0 -1.3566548819342614 1.7908208037126485 0 1.7908208037126485 10.254212706452179 0 0 0 0 -29.891762213337643 -79.939467373260413 0 -79.939467373260413 64.779798620234942 0 0 0 0 -29.105694054265769 -44.469644157332368 0 -44.469644157332368 141.56322522988194 0 0 0 0 -41.52796352153382 -66.764494501781883 0 -66.764494501781883 118.74528113539418 0 0 0 0 -59.679834581540035 -123.25540778068535 0 -123.25540778068535 50.043159555672901 0 0 0 0 7.9155561214756744 -27.669402115541743 0 -27.669402115541743 25.161500333138974 0 0 0 0 -10.67847331475059 -59.9793658832441 0 -59.9793658832441 49.958079252217431 0 0 0 0 -9.9881998348173511 -22.867188368327334 0 -22.867188368327334 100.24201508676924 0 0 0 0 3.0392462957741131 1.8847021332483678 0 1.8847021332483678 17.633950642511309 0 0 0 0 -15.584614977015008 -62.606335026153829 0 -62.606335026153829 237.95682806994955 0 0 0 0 25.359884292849507 -36.810230896028827 0 -36.810230896028827 22.420102163466083 0 0 0 0 2.4055150790518383 -43.15744747723511 0 -43.15744747723511 -14.118964104261977 0 0 0 0 19.492184519734408 -24.91147930147244 0 -24.91147930147244 21.073564474347563 0 0 0 0 4.249326535398616 -21.017572218410152 0 -21.017572218410152 56.900009067962557 0 0 0 0 5.9570112377524893 -10.498999767827144 0 -10.498999767827144 37.044445744374158 0 0 0 0 9.7670506398243191 -18.786874663063344 0 -18.786874663063344 17.032435644302183 0 0 0 0 17.757471109811377 -26.61836704351208 0 -26.61836704351208 37.608096790558193 0 0 0 0 14.341134322157764 -24.017345357997385 0 -24.017345357997385 31.310083078241519 0 0 0 0 17.975204523376306 -26.150753093912499 0 -26.150753093912499 25.686785539912307 0 0 0 0 16.693847218426527 -8.7701798645284725 0 -8.7701798645284725 59.051268669703859 0 0 0 0 119.85048747557084 -82.847630597258103 0 -82.847630597258103 -38.895789386147953 0 0 0 0 -6.680112521889896 -9.9645811597729335 0 -9.9645811597729335 67.327383936804836 0 0 0 0 0.79453178919669654 -3.5680448224766792 0 -3.5680448224766792 11.45672111875318 0 0 0 0 15.269748169526888 -12.879259162951968 0 -12.879259162951968 11.892673027126513 0 0 0 0 2.6462400131907771 -17.917316381701141 0 -17.917316381701141 33.284023635351048 0 0 0 0 3.652068061039131 -10.555215178011508 0 -10.555215178011508 64.96846923600242 0 0 0 0 -5.7251275124607872 10.31678047288267 0 10.31678047288267 61.244589349136533 0 0 0 0 16.70326934730474 -32.912682289679651 0 -32.912682289679651 134.16776019234385 0 0 0 0 -0.88553674288777984 -24.238360871589975 0 -24.238360871589975 67.416501178755425 0 0 0 0 -1.2419008116270334 -15.278692305524146 0 -15.278692305524146 129.63119018779253 0 0 0 0 3.8022661621471343 -15.925954932194145 0 -15.925954932194145 61.758995942105685 0 0 0 0 7.204368191179185 -25.043554562032057 0 -25.043554562032057 70.351271314266057 0 0 0 0 -28.41778001057537 -44.889402764514671 0 -44.889402764514671 162.31400507951912 0 0 0 0 -6.1371854129749721 31.680956659269015 0 31.680956659269015 81.993135132887716 0 0 0 0 1.124812754438608 -20.29769352155563 0 -20.29769352155563 170.11796315424726 0 0 0 0 -1.2796845265474985 -16.769896772748325 0 -16.769896772748325 152.8560366697784 0 0 0 0 -3.950811526263351 14.307332217787916 0 14.307332217787916 139.78835926589818 0 0 0 0 -14.184629767079421 -3.7576686530749441 0 -3.7576686530749441 76.684338256033016 0 0 0 0 -8.7069052366468895 8.0445708158622438 0 8.0445708158622438 74.85271354712313 0 0 0 0 -4.4654853336069209 25.920406977209495 0 25.920406977209495 102.99355034841574 0 0 0 0 -5.5694797679912256 12.138890737656766 0 12.138890737656766 93.29798939023749 0 0 0 0 -0.97301237988176581 30.960740907925356 0 30.960740907925356 102.61824346223148 0 0 0 0 -5.3933093292926699 16.849226160445625 0 16.849226160445625 38.783301871480234 0 0 0 0 -200.27579405341021 81.074396238196641 0 81.074396238196641 69.330610209115548 0 0 0 0 -11.116862691720598 82.582078726656619 0 82.582078726656619 287.53254778384871 0 0 0 0 -0.095490145804149051 10.783000332198895 0 10.783000332198895 43.751962606892334 0 0 0 0 -249.58852867846144 80.339696147893847 0 80.339696147893847 332.53492102603195 0 0 0 0 -330.41660539045552 211.3890202556795 0 211.3890202556795 316.27303801173548 0 0 0 0 -165.18177715656202 -46.222704512212658 0 -46.222704512212658 331.49387624792143 0 0 0 0 -255.35458390346139 -39.221019917138619 0 -39.221019917138619 463.77828693349147 0 0 0 0 -221.23966448824285 5.7337304627581034 0 5.7337304627581034 522.96606120430806 0 0 0 0 -114.14875805312658 -114.08111077603098 0 -114.08111077603098 257.73745394789148 0 0 0 0 95.505750025653469 -185.51431954788859 0 -185.51431954788859 207.98846793864504 0 0 0 0 -27.517947366213775 -254.64743218006333 0 -254.64743218006333 483.70681993224025 0 0 0 0 124.98504948532354 -237.63647737784777 0 -237.63647737784777 194.89510093189892 0 0 0 0 85.508641156888189 -151.7059854707768 0 -151.7059854707768 21.059982413084072 0 0 0 0 -96.54617725800199 -122.52888497347885 0 -122.52888497347885 260.13518372393446 0 0 0 0 -89.221546564876917 -107.68973700032802 0 -107.68973700032802 134.65421377967868 0 0 0 0 -29.468818018835009 -51.988266398519045 0 -51.988266398519045 142.32989985776476 0 0 0 0 -66.623963728063245 -42.30565287022182 0 -42.30565287022182 244.62200739738182 0 0 0 0 -166.1787003618083 -12.386035726507544 0 -12.386035726507544 237.12934369724826 0 0 0 0 -148.80498993964648 -68.51201028599462 0 -68.51201028599462 417.35772535418801 0 0 0 0 8.4329592390171655 -149.21265230463177 0 -149.21265230463177 617.83416854569805 0 0 0 0 -0.07599968999541809 -86.339919114674558 0 -86.339919114674558 442.92229325033259 0 0 0 0 166.61815285544253 -251.14753240234859 0 -251.14753240234859 381.18121034406067 0 0 0 0 -0.29873037658147827 -0.46587015849976865 0 -0.46587015849976865 1.2099425431809436 0 0 0 0 -157.37168879410146 38.462163432450325 0 38.462163432450325 170.84478966184543 0 0 0 0 -90.861574644106952 -116.94973385430058 0 -116.94973385430058 531.44907417375362 0 0 0 0 15.91869868428148 -80.682093670839095 0 -80.682093670839095 -3.515159619244514 0 0 0 0 0.18178249760283285 4.5035638919944176 0 4.5035638919944176 25.598675597939291 0 0 0 0 162.23122531879875 -213.30277241441945 0 -213.30277241441945 169.79282978744595 0 0 0 0 -0.49153152291766156 -0.74439710355807165 0 -0.74439710355807165 1.4645772135148718 0 0 0 0 -1.6883717748810767 -4.3994886911532376 0 -4.3994886911532376 5.6579275292751845 0 0 0 0 270.85232382752372 -209.87407038101082 0 -209.87407038101082 55.476710623828694 0 0 0 0 0.01999052860631224 -0.48230753853884778 0 -0.48230753853884778 0.36503785088115137 0 0 0 0 -0.059635462603034026 3.1578236660096577 0 3.1578236660096577 -0.42914023227058351 0 0 0 0 209.2549477039033 -68.938863431278151 0 -68.938863431278151 24.901388072874397 0 0 0 0 -150.40341680382562 -128.51640582738037 0 -128.51640582738037 172.58103973990364 0 0 0 0 -271.64092868150925 57.982625896376703 0 57.982625896376703 135.06829997187015 0 0 0 0 -1.9052395136784668 -40.164498215784988 0 -40.164498215784988 -40.879833290033275 0 0 0 0 52.457186711326699 -104.30615675951776 0 -104.30615675951776 5.8526808015885763 0 0 0 0 -22.514895458275589 -66.855697697748838 0 -66.855697697748838 84.341442635297426 0 0 0 0 -52.342408326854738 -40.460423820441065 0 -40.460423820441065 21.834561084207962 0 0 0 0 -89.412489418811134 -0.80278467492462369 0 -0.80278467492462369 32.212159867391165 0 0 0 0 0.10366917001703464 1.5340790574803123 0 1.5340790574803123 6.5037031077324059 0 0 0 0 -15.562966520037282 27.427260354030295 0 27.427260354030295 -12.183395105756063 0 0 0 0 0.26207693633321577 2.0962814682497992 0 2.0962814682497992 6.9812656275864811 0 0 0 0 42.301019905811401 -45.925497664065915 0 -45.925497664065915 4.2652007152064471 0 0 0 0 7.0648184416688196 -20.627869887277484 0 -20.627869887277484 -8.3096580635683495 0 0 0 0 7.556203962703421 -55.183568995198584 0 -55.183568995198584 37.096787285845494 0 0 0 0 40.183780541587254 -23.281635214165362 0 -23.281635214165362 6.1993670259835199 0 0 0 0 87.888695592616287 -164.71807511326551 0 -164.71807511326551 504.73037036304595 0 0 0 0 113.10855086338699 -109.59626990254037 0 -109.59626990254037 67.270963657603716 0 0 0 0 0.094925990614907196 0.5420074933221315 0 0.5420074933221315 2.9400703783654194 0 0 0 0 24.587449197037049 170.87414802239073 0 170.87414802239073 123.08776658240822 0 0 0 0 -56.64333513832841 52.527978296644505 0 52.527978296644505 584.82197989203269 0 0 0 0 -46.323321501127865 68.886785643640906 0 68.886785643640906 327.34456839924678 0 0 0 0 -9.8369677399390412 9.3439387468606583 0 9.3439387468606583 209.57484526687767 0 0 0 0 5.9816445535417504 -35.762852989762905 0 -35.762852989762905 174.97664145875024 0 0 0 0 65.086297254516694 -17.884264477492252 0 -17.884264477492252 11.320411386433989 0 0 0 0 31.058382929655654 22.607692764999229 0 22.607692764999229 119.13364232681488 0 0 0 0 15.829096461044639 -47.803053157289469 0 -47.803053157289469 27.697242962225573 0 0 0 0 11.50090268865382 -47.217208055808442 0 -47.217208055808442 17.79766330315033 0 0 0 0 21.839187117845043 -49.617706419245224 0 -49.617706419245224 18.335258397521102 0 0 0 0 -45.46301296068404 -9.6410797064381768 0 -9.6410797064381768 37.541929170954973 0 0 0 0 -2.0197301597377439 -2.8272908353756065 0 -2.8272908353756065 19.634059314324986 0 0 0 0 18.759554810033499 -29.582444678751926 0 -29.582444678751926 37.957697441248456 0 0 0 0 -73.478941347596916 17.09470015084662 0 17.09470015084662 37.071882440606714 0 0 0 0 -10.689148681421045 35.780413263042647 0 35.780413263042647 25.843545831856318 0 0 0 0 -54.586826490752401 37.999167643465626 0 37.999167643465626 2.7757546980283223 0 0 0 0 -121.9722283047191 44.494014270585467 0 44.494014270585467 8.2906312749837525 0 0 0 0 -232.68576370939866 -2.2069204582930979 0 -2.2069204582930979 54.593104763363954 0 0 0 0 -76.298123708458633 46.038377531520382 0 46.038377531520382 -12.851078306717682 0 0 0 0 -64.786362151282134 63.876431398079148 0 63.876431398079148 33.604819266081904 0 0 0 0 -1.2778078442620711 -58.491593617742183 0 -58.491593617742183 94.319676958933997 0 0 0 0 -10.845218426893325 -110.82572371096467 0 -110.82572371096467 318.12559927233815 0 0 0 0 -44.987731028890622 3.1929232246257016 0 3.1929232246257016 446.13886947014544 0 0 0 0 -57.422414444705623 -185.14768254764203 0 -185.14768254764203 85.402297495566017 0 0 0 0 -133.20030514104144 -29.620190684800036 0 -29.620190684800036 488.55268129735487 0 0 0 0 -102.91677824615192 174.41163183267054 0 174.41163183267054 722.97227703453063 0 0 0 0 36.362586939818243 -119.13587929036294 0 -119.13587929036294 514.88554241626116 0 0 0 0 55.488508722143294 141.32030789023429 0 141.32030789023429 631.20824039159925 0 0 0 0 -89.564229593269147 105.67799922689301 0 105.67799922689301 635.26127705361068 0 0 0 0 -85.466727913331965 90.200401197231258 0 90.200401197231258 688.01846676923742 0 0 0 0 -13.258136553213262 -27.37147324714897 0 -27.37147324714897 18.057389077948756 0 0 0 0 -0.24381408552653738 -61.013526201437344 0 -61.013526201437344 76.268349472462432 0 0 0 0 21.636947470158702 -47.184420964244055 0 -47.184420964244055 78.303564893249131 0 0 0 0 -22.461488342365556 -24.589630830676469 0 -24.589630830676469 81.168271395028569 0 0 0 0 3.4016743057509302 -23.230448385496857 0 -23.230448385496857 53.134578599085216 0 0 0 0 2.0717005605383747 -34.890627781744115 0 -34.890627781744115 61.279615420135087 0 0 0 0 5.3590799040294135 -3.5220186716449575 0 -3.5220186716449575 1.8486485272315463 0 0 0 0 165.3497884576812 -113.9587752441148 0 -113.9587752441148 50.884400225848367 0 0 0 0 -20.077623069215576 -92.736124885481331 0 -92.736124885481331 19.723828418165795 0 0 0 0 23.621174194394857 -22.231607688644857 0 -22.231607688644857 22.943935125471512 0 0 0 0 13.448458689270339 106.76262068920914 0 106.76262068920914 372.75255434618884 0 0 0 0 43.338368294938405 42.862513809166558 0 42.862513809166558 38.110236229462316 0 0 0 0 -5.5051651606896996 -61.17179824802588 0 -61.17179824802588 101.74424357063253 0 0 0 0 -6.0990210391408732 -0.97851468714915768 0 -0.97851468714915768 9.5507757743116031 0 0 0 0 23.0878553082648 -133.21783351484919 0 -133.21783351484919 -37.350647145925905 0 0 0 0 76.537530394432238 -54.822662774517084 0 -54.822662774517084 33.085528075058392 0 0 0 0 42.2893593620188 -35.267145811296359 0 -35.267145811296359 89.844827783206711 0 0 0 0 65.280802316289851 -53.967093528372061 0 -53.967093528372061 98.333771857229294 0 0 0 0 -1.0373504638532864 -36.013280840910738 0 -36.013280840910738 372.47876891322267 0 0 0 0 -38.464367987492317 -100.62654820593889 0 -100.62654820593889 508.55562434066087 0 0 0 0 -66.20314151363165 -24.951486307458254 0 -24.951486307458254 373.64043498126466 0 0 0 0 -72.718594922385336 -49.55407079980796 0 -49.55407079980796 579.71276101063995 0 0 0 0 -69.659046838959981 -72.263261445070384 0 -72.263261445070384 493.35598559232312 0 0 0 0 -81.745359766826255 -36.774548762012273 0 -36.774548762012273 461.6251655677188 0 0 0 0 -25.910689218855065 -123.82131850908627 0 -123.82131850908627 573.74393327487633 0 0 0 0 -66.401482422721898 -64.823353282743483 0 -64.823353282743483 506.36066982340617 0 0 0 0 80.35939327063339 -91.521044166744105 0 -91.521044166744105 479.37848217244027 0 0 0 0 100.6062930251307 85.518241952726385 0 85.518241952726385 644.97665294804028 0 0 0 0 177.19027167281681 -121.59990259539336 0 -121.59990259539336 522.62321721009721 0 0 0 0 37.666875975364334 23.645718926010886 0 23.645718926010886 780.08625801907328 0 0 0 0 83.486820652040336 167.43454377166927 0 167.43454377166927 229.11613161084824 0 0 0 0 171.51231386011983 -273.83211318204121 0 -273.83211318204121 404.11973798184044 0 0 0 0 0.1917202536422018 0.50342932478869784 0 0.50342932478869784 4.4686798955916061 0 0 0 0 -23.072248259627106 -37.82525700250153 0 -37.82525700250153 457.97091495152563 0 0 0 0 96.43924147235208 -214.06407824379858 0 -214.06407824379858 332.72587869371637 0 0 0 0 48.536676072651247 -47.853280693700071 0 -47.853280693700071 174.23050211404916 0 0 0 0 130.69801005919504 -91.620989625269431 0 -91.620989625269431 43.009112970612478 0 0 0 0 102.2995667365945 -57.949400528508704 0 -57.949400528508704 45.038236133899773 0 0 0 0 40.366895499706118 -5.5620751594833564 0 -5.5620751594833564 35.977442455663549 0 0 0 0 28.336463957484682 -27.574078030564124 0 -27.574078030564124 -1.3066687069658656 0 0 0 0 67.992551206805359 -41.245375527869328 0 -41.245375527869328 17.410394663893385 0 0 0 0 -34.882128371358533 14.346155266415735 0 14.346155266415735 54.287692212921684 0 0 0 0 -10.295595719985812 1.1664045602774422 0 1.1664045602774422 19.048114948614966 0 0 0 0 0.39528419644410484 0.90392450347303566 0 0.90392450347303566 11.118141796472401 0 0 0 0 0.82630666914770701 -0.92518432627875313 0 -0.92518432627875313 0.63040511561302992 0 0 0 0 0.52537051700032711 -4.546724453283673 0 -4.546724453283673 2.647076740279374 0 0 0 0 55.026562452304574 38.949709507571242 0 38.949709507571242 22.005427928641438 0 0 0 0 123.53826598296911 27.57007039191376 0 27.57007039191376 -26.336707954400481 0 0 0 0 -37.356131866037344 -9.8241407962416361 0 -9.8241407962416361 270.36094394075917 0 0 0 0 -16.946504103359853 2.3330059433065458 0 2.3330059433065458 10.410927769960836 0 0 0 0 -0.22655362093765005 -1.2709664805260843 0 -1.2709664805260843 0.10733722249420907 0 0 0 0 -3.7415950995941811 -26.859622776837568 0 -26.859622776837568 -16.560029815082089 0 0 0 0 -8.1163112992419997 2.5663274905527942 0 2.5663274905527942 -0.00093298801220953465 0 0 0 0 -7.5478476003457473 -3.6019501997943735 0 -3.6019501997943735 13.839294263350894 0 0 0 0 -6.308156509992628 -9.5676086965104332 0 -9.5676086965104332 16.789904225835926 0 0 0 0 -16.937870695541228 -6.8918847048946503 0 -6.8918847048946503 23.654197564406786 0 0 0 0 -41.047265871425218 124.9757990985745 0 124.9757990985745 226.12884909449349 0 0 0 0 0.095721288873105409 -30.401090500658029 0 -30.401090500658029 54.78053866821574 0 0 0 0 -0.12473114179699565 -55.346523888212687 0 -55.346523888212687 460.50896882083907 0 0 0 0 -43.055231573339427 172.76055818605528 0 172.76055818605528 567.8420212581259 0 0 0 0 5.2912377509046991 -175.33812874856812 0 -175.33812874856812 778.30845465460152 0 0 0 0 -56.020222388492755 -35.417891852284811 0 -35.417891852284811 539.47769061502186 0 0 0 0 -0.011556609268150587 -13.682223809366405 0 -13.682223809366405 72.344673406871152 0 0 0 0 19.704043126934142 -44.732982825305953 0 -44.732982825305953 79.124902621595538 0 0 0 0 -1.5657906447195877 -9.3361023973411648 0 -9.3361023973411648 42.788671108555718 0 0 0 0 4.0212774164491307 -16.472242643081699 0 -16.472242643081699 39.737002616268001 0 0 0 0 3.7534237702662594 -23.062667297679582 0 -23.062667297679582 58.478584083190071 0 0 0 0 0.011466272362943723 -11.265439370843524 0 -11.265439370843524 45.089133207176928 0 0 0 0 2.8129031254921841 -12.247176492244762 0 -12.247176492244762 40.345386948567466 0 0 0 0 -0.027927829564111988 0.0032903914056703343 0 0.0032903914056703343 -0.27482793240229686 0 0 0 0 -1.7203170928164369 -9.8303930191614199 0 -9.8303930191614199 3.7769600568135502 0 0 0 0 -0.034838323699527635 -16.843368477430339 0 -16.843368477430339 14.130821575992741 0 0 0 0 -9.7593915907440874 -15.751453215503716 0 -15.751453215503716 23.28712565835167 0 0 0 0 -10.344317612342136 -9.4569143670105404 0 -9.4569143670105404 18.627949401125079 0 0 0 0 -4.1885123329213911 -6.2213021046209178 0 -6.2213021046209178 25.312322726356797 0 0 0 0 -4.6370751319206391 -9.5305375510361046 0 -9.5305375510361046 17.469316779490327 0 0 0 0 -1.0429521828626065 -4.091201605333481 0 -4.091201605333481 20.614091182374978 0 0 0 0 1.972911721367069 -3.1235189857834484 0 -3.1235189857834484 22.883925656817155 0 0 0 0 -0.16665704508644402 -0.48936707858075579 0 -0.48936707858075579 4.1814258118474594 0 0 0 0 10.010033371403809 -1.7153803325927584 0 -1.7153803325927584 18.207102630054578 0 0 0 0 -1.8527915103525103 -4.110358921912848 0 -4.110358921912848 22.767147759906948 0 0 0 0 0.1428370411785238 -3.7602464100928046 0 -3.7602464100928046 23.775176305847708 0 0 0 0 -1.7315469339455807 -0.9592992367859452 0 -0.9592992367859452 16.150381233203859 0 0 0 0 1.3026097917444588 -4.6898576512467116 0 -4.6898576512467116 20.0908027151836 0 0 0 0 0.087912133675794202 -1.5391830294606734 0 -1.5391830294606734 4.5203874711210226 0 0 0 0 1.3421884641330166 -4.8188488327905361 0 -4.8188488327905361 12.218824945972301 0 0 0 0 -1.2625720043328592 -2.2225813986812568 0 -2.2225813986812568 11.415855981817742 0 0 0 0 8.5593569432655272 -11.516934923271037 0 -11.516934923271037 20.938354955345858 0 0 0 0 -1.1536939724457578 -1.4698253829291446 0 -1.4698253829291446 7.4158154545500565 0 0 0 0 2.6313806607458901 -4.5532172289676964 0 -4.5532172289676964 8.1196071883896366 0 0 0 0 0.64248927698761338 -3.0289571549637699 0 -3.0289571549637699 8.8126445932875868 0 0 0 0 -1.3539948787640128 -3.4229841056803707 0 -3.4229841056803707 15.471878569049295 0 0 0 0 3.7540508745400416 -4.709117918042466 0 -4.709117918042466 15.740320375945885 0 0 0 0 2.6637804006757619 -9.0260047355550341 0 -9.0260047355550341 16.874297272705007 0 0 0 0 -0.77296453449531555 -8.2127718824776821 0 -8.2127718824776821 16.85846398002468 0 0 0 0 35.00647377388124 10.964109388951329 0 10.964109388951329 -21.932904229899577 0 0 0 0 2.9122795427312504 -2.893800740288782 0 -2.893800740288782 5.0638119224759919 0 0 0 0 5.7701586333863588 -11.273970287656994 0 -11.273970287656994 24.981931694957893 0 0 0 0 8.090216315607563 -12.023525105556473 0 -12.023525105556473 21.625313340147841 0 0 0 0 0.9175654436910996 -3.4973689815930129 0 -3.4973689815930129 12.112337991914758 0 0 0 0 0.030982596929818307 -2.6018695052592875 0 -2.6018695052592875 9.0291432742874349 0 0 0 0 6.1077022955784948 -6.4212019427662312 0 -6.4212019427662312 5.4716206652327308 0 0 0 0 -3.7123242656726916 -0.9492301880109153 0 -0.9492301880109153 25.158635316067375 0 0 0 0 -1.8822111295893986 0.95587309592869474 0 0.95587309592869474 13.54627336046542 0 0 0 0 -0.2320610107588621 -4.3075490514692376 0 -4.3075490514692376 10.533009210827354 0 0 0 0 1.150105648404292 -5.5949564871552866 0 -5.5949564871552866 23.279104177316185 0 0 0 0 8.5716358050513008 -8.8851638328342233 0 -8.8851638328342233 29.917050498625031 0 0 0 0 -0.13800082256267387 -3.0504827566546737 0 -3.0504827566546737 18.430323345470242 0 0 0 0 -4.9083212409800581 6.5714849880168913 0 6.5714849880168913 29.73452096532219 0 0 0 0 -1.2192309729184672 -3.056923538679257 0 -3.056923538679257 25.286414644739125 0 0 0 0 -4.801598850020957 -3.3916645000722383 0 -3.3916645000722383 16.921975986873406 0 0 0 0 -0.91181122055741115 0.15491248922613465 0 0.15491248922613465 17.409947945167858 0 0 0 0 -6.7246710015992193 5.3493684723434853 0 5.3493684723434853 25.111788544862065 0 0 0 0 -1.7113476659070272 5.1564376544265542 0 5.1564376544265542 88.727238805600791 0 0 0 0 22.496248539423711 -12.803042186467792 0 -12.803042186467792 15.102545005858701 0 0 0 0 -0.067736877586587252 1.1382318384622181 0 1.1382318384622181 4.3841601702889079 0 0 0 0 0.15971912841092051 3.9334633877239327 0 3.9334633877239327 17.80339893035557 0 0 0 0 9.7423384612259838 8.479980511328904 0 8.479980511328904 29.864346299801582 0 0 0 0 -2.7490363169760883 15.680670592781098 0 15.680670592781098 37.713218327568029 0 0 0 0 -12.919309106354376 -17.944224180027959 0 -17.944224180027959 37.309696709118725 0 0 0 0 3.2767042476320967 -13.071767083205486 0 -13.071767083205486 25.91059087170288 0 0 0 0 7.6674105573683846 -0.34255198499886319 0 -0.34255198499886319 21.965291509433882 0 0 0 0 -7.865933324379025 -6.7180615160615957 0 -6.7180615160615957 23.972727037062384 0 0 0 0 4.4691982109707169 11.300233103276696 0 11.300233103276696 48.577670032157585 0 0 0 0 -4.5019657412228611 -0.7900010334803369 0 -0.7900010334803369 22.069703942358103 0 0 0 0 -2.6282169942096516 -5.7493381070817122 0 -5.7493381070817122 35.660923564300901 0 0 0 0 -7.9959191117650334 -7.3297445803764276 0 -7.3297445803764276 47.191459731460782 0 0 0 0 -2.1819856054007687 1.391068416647613 0 1.391068416647613 34.491098076701746 0 0 0 0 -17.245796972498283 5.8046659644533065 0 5.8046659644533065 35.815742745457101 0 0 0 0 -3.9876467017951338 -0.67890834601519146 0 -0.67890834601519146 33.356546280514635 0 0 0 0 1.7446269587744929 -3.854612761369907 0 -3.854612761369907 20.867772642808802 0 0 0 0 2.8104592792115 -14.234618957983912 0 -14.234618957983912 43.75833443312149 0 0 0 0 -1.6854572539841683 -3.7162766526307678 0 -3.7162766526307678 25.085690974636236 0 0 0 0 0.97325157748271529 -0.15787908492231395 0 -0.15787908492231395 17.310132828066855 0 0 0 0 -5.9351800482709223 -5.6835857101541478 0 -5.6835857101541478 27.475741153262788 0 0 0 0 -1.0540128125953245 -6.1437074492301917 0 -6.1437074492301917 19.022965769857649 0 0 0 0 -1.7465071002698096 -5.419787103543058 0 -5.419787103543058 27.305924100684933 0 0 0 0 -2.1294230909395537 -12.024311110566487 0 -12.024311110566487 27.026432639686391 0 0 0 0 1.471183538852566 -3.028849752565236 0 -3.028849752565236 16.474322155666414 0 0 0 0 7.7783286705225692 -16.680884033543407 0 -16.680884033543407 37.350289996576976 0 0 0 0 2.9450202213643628 -6.6952830461000872 0 -6.6952830461000872 13.815180526991867 0 0 0 0 14.96772099839027 -19.206064229384651 0 -19.206064229384651 11.087188259313816 0 0 0 0 12.733656885744139 -36.917517720197793 0 -36.917517720197793 29.155471263526124 0 0 0 0 33.264799326525868 -45.63965011282562 0 -45.63965011282562 0.010411289142211899 0 0 0 0 -25.417007673535409 -59.899815536060487 0 -59.899815536060487 81.473405054071918 0 0 0 0 15.132367097235878 -31.496239463183244 0 -31.496239463183244 50.794676304025757 0 0 0 0 24.815273754142694 -14.25274908157833 0 -14.25274908157833 5.7530030294070116 0 0 0 0 -9.3800816155635403 -30.618955842917785 0 -30.618955842917785 -5.9534151560619648 0 0 0 0 -13.570769391444628 5.2919602975307498 0 5.2919602975307498 -1.2024319382999238 0 0 0 0 4.8631275534678942 -20.471904978236012 0 -20.471904978236012 23.372215704167161 0 0 0 0 -16.692576495371689 -22.051174198855591 0 -22.051174198855591 52.572772854766995 0 0 0 0 -3.2976310380248108 0.87327992958543632 0 0.87327992958543632 6.9711189976029573 0 0 0 0 -28.179404797071584 -20.191257259175472 0 -20.191257259175472 98.126710143260425 0 0 0 0 -35.730679971415157 -49.533438908547396 0 -49.533438908547396 65.180648075140198 0 0 0 0 -6.7310799867268543 -7.0740776932725566 0 -7.0740776932725566 36.453244429358165 0 0 0 0 0.023724167244722594 -4.7993261511076639 0 -4.7993261511076639 11.939391769569724 0 0 0 0 8.4989082084939582 -10.904700796119869 0 -10.904700796119869 29.912473859032616 0 0 0 0 -0.20965451501696108 -9.0638571964054506 0 -9.0638571964054506 22.748531296147291 0 0 0 0 11.576950577060703 -18.316279882324622 0 -18.316279882324622 23.046562788001438 0 0 0 0 -5.3804925899057707 -17.612929689814337 0 -17.612929689814337 13.849502304918133 0 0 0 0 -4.4018353643186856 -17.74302512477152 0 -17.74302512477152 12.384830362745561 0 0 0 0 -6.8386862811537625 -13.150475129698009 0 -13.150475129698009 44.439015331977473 0 0 0 0 -5.7241863117719483 -11.839817021557593 0 -11.839817021557593 42.567838472972483 0 0 0 0 -6.6497241333340753 -8.881364991178998 0 -8.881364991178998 28.182257353619207 0 0 0 0 -4.9577845075710227 -4.3546897633344983 0 -4.3546897633344983 26.645876951131527 0 0 0 0 -5.8600433934261673 -8.817685560323298 0 -8.817685560323298 27.375488340156153 0 0 0 0 -10.708478911476732 1.4071156890257157 0 1.4071156890257157 17.520785047770829 0 0 0 0 14.500925691376324 -49.079852132053929 0 -49.079852132053929 70.182018660719223 0 0 0 0 23.013675419573701 -31.785096653140499 0 -31.785096653140499 82.158468296620413 0 0 0 0 -9.5263922286649176 -89.413233637416852 0 -89.413233637416852 46.80144688195287 0 0 0 0 41.568875225679221 -26.568901305668987 0 -26.568901305668987 -16.162108648524736 0 0 0 0 -14.092156542252269 -41.394299569816212 0 -41.394299569816212 143.68795532925287 0 0 0 0 18.216614965836925 -16.683939718990587 0 -16.683939718990587 123.22492997942027 0 0 0 0 2.6372082412422344 -1.2600764740210195 0 -1.2600764740210195 7.0969445737903065 0 0 0 0 -7.1741723107470534 -52.09033820044715 0 -52.09033820044715 124.93601614615181 0 0 0 0 13.771731904609624 -57.924386638289434 0 -57.924386638289434 100.88670760620153 0 0 0 0 -1.153489656424199 -14.758957202891906 0 -14.758957202891906 188.45598559893551 0 0 0 0 -57.029864854970128 -59.675772145285009 0 -59.675772145285009 139.62455909556593 0 0 0 0 142.48181734954642 43.295436346481438 0 43.295436346481438 -48.104830120253609 0 0 0 0 49.518981018103659 -5.1224387604088406 0 -5.1224387604088406 14.493891582940705 0 0 0 0 1.6971231669849658 21.663345434004441 0 21.663345434004441 177.42044706029264 0 0 0 0 3.4929170972428132 1.3437917061907854 0 1.3437917061907854 1.1249941867966129 0 0 0 0 -3.7768447012083364 0.38273613216563263 0 0.38273613216563263 7.3075996668132746 0 0 0 0 5.6975151972146705 -29.598844899286632 0 -29.598844899286632 -57.60561556337052 0 0 0 0 -6.4417135445517673 7.9963032818713486 0 7.9963032818713486 16.540165549599323 0 0 0 0 5.1305668853911541 -12.832209012052203 0 -12.832209012052203 23.961758192836101 0 0 0 0 -24.277903011497983 -33.250131978315039 0 -33.250131978315039 94.138821628672304 0 0 0 0 -2.316806119206376 -8.5189301998616429 0 -8.5189301998616429 37.873464365999098 0 0 0 0 -0.73479247287286853 -36.058440119144507 0 -36.058440119144507 62.757292706533917 0 0 0 0 -51.616379568724369 -8.5018308509752387 0 -8.5018308509752387 66.030477003638225 0 0 0 0 -9.0591260847902273 10.243670335373992 0 10.243670335373992 34.631725458785951 0 0 0 0 -51.66107555970018 -18.281102010085306 0 -18.281102010085306 237.75693915577722 0 0 0 0 15.217740240172134 -158.88915941854066 0 -158.88915941854066 87.639137738631689 0 0 0 0 22.357856692080532 54.091007960611023 0 54.091007960611023 3.0162951732636429 0 0 0 0 2.5270312335245144 19.512101416369177 0 19.512101416369177 49.620528898805446 0 0 0 0 13.811042594745231 15.527953247627011 0 15.527953247627011 96.783099952095654 0 0 0 0 92.067149502670873 106.33478715953242 0 106.33478715953242 34.716537311091088 0 0 0 0 15.752074718118593 -9.7983858792140381 0 -9.7983858792140381 68.679567149461946 0 0 0 0 -6.6617002577609128 26.179080403657281 0 26.179080403657281 51.745917705135071 0 0 0 0 -10.932313600297675 18.136008206012775 0 18.136008206012775 160.23241693124328 0 0 0 0 8.6040362694650199 7.5167407140497176 0 7.5167407140497176 -2.7887859056677478 0 0 0 0 -113.34320720001165 -28.516493211293891 0 -28.516493211293891 195.32164232066134 0 0 0 0 -11.267103968413267 20.306381021222478 0 20.306381021222478 144.99390630665584 0 0 0 0 2.3313298599300651 9.6216406444266909 0 9.6216406444266909 28.829241644148272 0 0 0 0 -5.1137407210717249 -43.926755680916827 0 -43.926755680916827 112.85776332255625 0 0 0 0 17.718067775036616 -125.10177173166448 0 -125.10177173166448 4.1389471514671641 0 0 0 0 -43.488449884255715 -124.5697848912896 0 -124.5697848912896 23.252195971741457 0 0 0 0 27.010336401697259 -94.484120070606878 0 -94.484120070606878 3.4638452677172609 0 0 0 0 -141.62676964985258 -192.54926126357168 0 -192.54926126357168 48.484377637523721 0 0 0 0 -2.1477316128023851 -46.276085438653837 0 -46.276085438653837 119.03263455635479 0 0 0 0 -275.81193677283864 -324.31917976422847 0 -324.31917976422847 162.52132847641769 0 0 0 0 -85.909726209410906 119.54278762359445 0 119.54278762359445 223.78913312921941 0 0 0 0 -138.73902688850012 210.9379302520174 0 210.9379302520174 764.29398969406066 0 0 0 0 155.82597029804856 -404.96016437613434 0 -404.96016437613434 602.871220574365 0 0 0 0 -257.5812312669978 -76.909555738772269 0 -76.909555738772269 372.18832347574062 0 0 0 0 0.79334818535894946 -3.2692468885535533 0 -3.2692468885535533 17.571490073305881 0 0 0 0 -239.47568711302756 660.0816357223448 0 660.0816357223448 601.79292518139118 0 0 0 0 591.2776726652146 -169.2944342507617 0 -169.2944342507617 65.330409656467964 0 0 0 0 143.89631345387352 -833.70863924733567 0 -833.70863924733567 -590.13414254382951 0 0 0 0 -8.1186143467411966 -5.0495744434447261 0 -5.0495744434447261 142.3284302468528 0 0 0 0 803.27722667465287 334.05903761036643 0 334.05903761036643 -505.91373381423182 0 0 0 0 20.826013960397177 39.535394338774495 0 39.535394338774495 41.078561220201664 0 0 0 0 15.814773688795867 3.1374982397683198 0 3.1374982397683198 144.2997679971013 0 0 0 0 14.011590101893482 5.7585621599718593 0 5.7585621599718593 5.5039614302554583 0 0 0 0 -2.1517025802826346 4.1793903676621653 0 4.1793903676621653 10.770452602138334 0 0 0 0 -1.2492388305402304 1.7981634653842491 0 1.7981634653842491 40.887042641234132 0 0 0 0 -1.8928412695979759 -10.928321850074155 0 -10.928321850074155 62.749554302149761 0 0 0 0 -10.350771599364634 -20.442038591827441 0 -20.442038591827441 113.95941919946927 0 0 0 0 18.473908233901966 22.679950934179942 0 22.679950934179942 73.863058754533995 0 0 0 0 -129.77006602755864 185.64149264809384 0 185.64149264809384 128.84553337734542 0 0 0 0 23.076606914594777 2.8218136911236797 0 2.8218136911236797 83.398275730214664 0 0 0 0 -12.655247974525992 17.90606062412553 0 17.90606062412553 77.660043755997322 0 0 0 0 -3.2451610262134203 -7.4097506090477054 0 -7.4097506090477054 28.13852250878017 0 0 0 0 -0.61940088755836831 -5.7016345739577048 0 -5.7016345739577048 32.124100500099985 0 0 0 0 -16.715048945093258 1.5477135360415559 0 1.5477135360415559 45.320440193056129 0 0 0 0 -43.102347297719206 -15.130413317154307 0 -15.130413317154307 73.852151111146668 0 0 0 0 -9.0658360230484742 2.2740972916174087 0 2.2740972916174087 19.157126507703822 0 0 0 0 0.37502107009521524 -24.614996448523016 0 -24.614996448523016 60.478089084353996 0 0 0 0 122.77424459299297 -129.10288989519177 0 -129.10288989519177 89.094693495018873 0 0 0 0 283.68164149252266 233.99812466403819 0 233.99812466403819 -325.19588293740526 0 0 0 0 0.95290724483065836 2.616369423411129 0 2.616369423411129 5.4157276430121328 0 0 0 0 -40.875390484116224 -38.844398837798508 0 -38.844398837798508 34.125989352702163 0 0 0 0 14.137757261452276 -52.906583066491294 0 -52.906583066491294 105.27735884219874 0 0 0 0 22.406391260441808 -62.253974066872615 0 -62.253974066872615 64.613733941048849 0 0 0 0 -51.193347612969433 -101.84307169824388 0 -101.84307169824388 171.26114066832815 0 0 0 0 -82.029432730051269 26.616168393591579 0 26.616168393591579 51.356291859148769 0 0 0 0 -11.119278576704346 15.026295934221707 0 15.026295934221707 84.132006819832895 0 0 0 0 -0.12216796171840349 -1.3830976291538377 0 -1.3830976291538377 14.500737707187739 0 0 0 0 419.04500331923236 109.21639279287774 0 109.21639279287774 -165.85977813080535 0 0 0 0 -569.65011545332391 -44.152580609705183 0 -44.152580609705183 1068.7968174882408 0 0 0 0 -528.36906377629521 41.591558103551506 0 41.591558103551506 95.415120301913703 0 0 0 0 -5.7059696079732021 -9.0258468145038933 0 -9.0258468145038933 14.028747275835485 0 0 0 0 8.4224835810459169 -5.9949174893366148 0 -5.9949174893366148 30.767180908175362 0 0 0 0 4.9894622008069138 -6.9021670900761478 0 -6.9021670900761478 26.559762785209102 0 0 0 0 5.0184597507857616 -10.740874704061127 0 -10.740874704061127 23.478653564653996 0 0 0 0 9.6263623133129386 -19.214766952485661 0 -19.214766952485661 12.264485064137261 0 0 0 0 5.0239520009815477 -6.0962812346310216 0 -6.0962812346310216 15.08716673093295 0 0 0 0 -976.84059617042794 -506.94314024919004 0 -506.94314024919004 1211.2440237452975 0 0 0 0 -51.272319042103845 664.87382539673126 0 664.87382539673126 298.94785590773972 0 0 0 0 -1.6646130564238071 1.5362447974580959 0 1.5362447974580959 8.93060474157096 0 0 0 0 73.066357882878947 852.17951302820438 0 852.17951302820438 580.94103277183603 0 0 0 0 114.10272112186715 -53.056378640543699 0 -53.056378640543699 23.013251063530333 0 0 0 0 -180.72784363227743 786.03826973849209 0 786.03826973849209 850.38661380048143 0 0 0 0 14.517033956434261 201.29441812889127 0 201.29441812889127 740.88695866680064 0 0 0 0 -13.541559628620956 13.725604332523744 0 13.725604332523744 75.473300964251393 0 0 0 0 -10.608943088271843 -33.666923501739802 0 -33.666923501739802 63.538924157212023 0 0 0 0 -31.126172258385466 -5.9570231672842056 0 -5.9570231672842056 139.5933395268803 0 0 0 0 11.311656342203626 -1.2556111613375833 0 -1.2556111613375833 6.0087621654674876 0 0 0 0 -5.8779785299852563 -26.004206846213492 0 -26.004206846213492 69.658949782562559 0 0 0 0 1.633731229289662 -7.5060058040608055 0 -7.5060058040608055 13.562913440898228 0 0 0 0 -21.671537743231426 -46.960713453991048 0 -46.960713453991048 0.27122917196538765 0 0 0 0 -15.361738048202348 10.946692638067361 0 10.946692638067361 10.132385665230686 0 0 0 0 -9.2408057658077212 12.669792756896641 0 12.669792756896641 124.96406214770104 0 0 0 0 0.19671589143087959 -24.960044066996488 0 -24.960044066996488 41.483330708528229 0 0 0 0 0.070116669708822549 -0.19362694785442613 0 -0.19362694785442613 0.20220221927874604 0 0 0 0 -0.019061457753687033 -9.0891527661806322 0 -9.0891527661806322 52.344354368309723 0 0 0 0 2.3220315764558777 6.3691346244886518 0 6.3691346244886518 16.153198577159856 0 0 0 0 0.39797129393960051 -0.36948073145319427 0 -0.36948073145319427 -0.59532915492130911 0 0 0 0 -1.2764176550130628 -8.3301394011505181 0 -8.3301394011505181 37.673319067514967 0 0 0 0 1.4036289011818894 17.830262623348972 0 17.830262623348972 -22.149686523353012 0 0 0 0 -11.059859768277676 -3.0142022293584887 0 -3.0142022293584887 101.11637662123394 0 0 0 0 4.423747456589167 10.194586417392202 0 10.194586417392202 60.71458106348291 0 0 0 0 -8.1077746760830252 -0.97499766676446598 0 -0.97499766676446598 55.67528889249661 0 0 0 0 -29.634785940961592 -32.077172493052785 0 -32.077172493052785 161.31595020164241 0 0 0 0 -36.597655371088877 -89.68560337469853 0 -89.68560337469853 219.64129834872438 0 0 0 0 38.115237497451744 -121.08457661564898 0 -121.08457661564898 183.24109336541733 0 0 0 0 14.201515113315509 -98.677298211681773 0 -98.677298211681773 162.31161869640346 0 0 0 0 26.068622779645921 -70.769989250562503 0 -70.769989250562503 140.49707698069687 0 0 0 0 1.8203938076903796 -17.798976919453708 0 -17.798976919453708 115.47049477844484 0 0 0 0 36.358341293345802 -85.249364933843026 0 -85.249364933843026 157.23942573368549 0 0 0 0 55.376477637704738 -63.521254383173073 0 -63.521254383173073 104.77594999876601 0 0 0 0 -25.645885695070319 2.8178489047713811 0 2.8178489047713811 94.378527239401592 0 0 0 0 -16.816129073045659 9.839099021970469 0 9.839099021970469 91.396483521617483 0 0 0 0 30.938758742220671 -48.55765152395179 0 -48.55765152395179 21.130146989191417 0 0 0 0 -5.0644860393135787 -15.667884708473139 0 -15.667884708473139 139.33304695427069 0 0 0 0 -32.625960829837823 5.0265339352772571 0 5.0265339352772571 144.49454637656527 0 0 0 0 15.59950758802097 -50.938270904778619 0 -50.938270904778619 168.7225624712155 0 0 0 0 -21.966904046274522 -14.830728314303997 0 -14.830728314303997 181.3426180066017 0 0 0 0 -31.042438088081781 19.793599835924397 0 19.793599835924397 141.95291318534146 0 0 0 0 -34.197395321908061 2.885214637437457 0 2.885214637437457 148.05510222763405 0 0 0 0 -87.537619435993292 25.423693409997213 0 25.423693409997213 172.49992883223058 0 0 0 0 3.4161064851450647 -92.672595214338799 0 -92.672595214338799 211.94089285706286 0 0 0 0 -111.97288711029705 -79.410064210722339 0 -79.410064210722339 266.89387293902109 0 0 0 0 35.069740212908073 -228.24603837254472 0 -228.24603837254472 544.71286370007147 0 0 0 0 -3.5412121184226635 -102.17851591831277 0 -102.17851591831277 256.65808360287338 0 0 0 0 2.1866798633022473 -2.5761799258530544 0 -2.5761799258530544 4.6307937221875761 0 0 0 0 252.35165450970067 -152.07927590817144 0 -152.07927590817144 -49.801175337313907 0 0 0 0 219.31078356348826 -274.97176360923186 0 -274.97176360923186 250.4139674048929 0 0 0 0 112.89277347117695 37.61874694146718 0 37.61874694146718 -43.745444499392761 0 0 0 0 148.96161945879976 -77.083255885772815 0 -77.083255885772815 77.029580843387521 0 0 0 0 141.17208354879494 -111.88150238523667 0 -111.88150238523667 33.08753114490537 0 0 0 0 105.40799815987975 -178.68973411381739 0 -178.68973411381739 209.86885560319206 0 0 0 0 50.339589645239812 -112.62745820920463 0 -112.62745820920463 137.32647611724678 0 0 0 0 55.478273435437586 -70.138108075982018 0 -70.138108075982018 148.81786635855678 0 0 0 0 41.777217837641729 -85.591795177577296 0 -85.591795177577296 133.39054442270572 0 0 0 0 81.816753579534179 -35.47539165795024 0 -35.47539165795024 112.23107847836218 0 0 0 0 26.989931419850109 -12.659802636640961 0 -12.659802636640961 111.58745603467014 0 0 0 0 18.208061542139149 -30.076750947293476 0 -30.076750947293476 149.34047549939714 0 0 0 0 32.448010763575439 -51.339736016772804 0 -51.339736016772804 134.17219796246354 0 0 0 0 115.72758810923369 -4.172325897947303 0 -4.172325897947303 28.660037680790992 0 0 0 0 76.808657324018441 -18.059390864513261 0 -18.059390864513261 51.7015919721307 0 0 0 0 110.67349594571169 22.369174967891013 0 22.369174967891013 98.734046710465918 0 0 0 0 55.170361885421926 53.497640701416458 0 53.497640701416458 150.28428814880317 0 0 0 0 1.0833832140366724 1.8106022416826022 0 1.8106022416826022 0.84463074737751498 0 0 0 0 5.1153370492065733 -94.691367673207424 0 -94.691367673207424 257.92125449652667 0 0 0 0 143.26398403933035 -76.423702191521443 0 -76.423702191521443 197.25160136725754 0 0 0 0 25.462045251124437 14.273924067325424 0 14.273924067325424 101.85509680258292 0 0 0 0 39.871241950984768 121.62386402009406 0 121.62386402009406 130.01643215643708 0 0 0 0 59.520160176166598 -166.50393204738384 0 -166.50393204738384 110.39771200704854 0 0 0 0 -42.995267867086568 -56.029942253295303 0 -56.029942253295303 116.29791302523518 0 0 0 0 40.740732857962939 6.3852959519135766 0 6.3852959519135766 59.359380824884283 0 0 0 0 6.5944981385498842 -6.2516533948400195 0 -6.2516533948400195 17.448869358976403 0 0 0 0 30.870441071985624 -23.907077131196274 0 -23.907077131196274 73.789557636526297 0 0 0 0 25.045405506544512 -6.9527850858466991 0 -6.9527850858466991 111.86211621010443 0 0 0 0 33.064905493352853 -34.358540068278671 0 -34.358540068278671 110.29965388809796 0 0 0 0 13.6920147195342 -21.393007370490523 0 -21.393007370490523 106.56721857996308 0 0 0 0 48.978765623658546 23.68605870808824 0 23.68605870808824 68.530647271880298 0 0 0 0 26.589456422535449 -14.610879371875825 0 -14.610879371875825 0.82048785494930598 0 0 0 0 82.046807751739834 -23.094698248809436 0 -23.094698248809436 118.29556680223322 0 0 0 0 16.441139130889496 16.035383184702368 0 16.035383184702368 102.14589303266257 0 0 0 0 20.706736448340962 21.565699725586455 0 21.565699725586455 95.369294140662532 0 0 0 0 23.519053649496527 -12.332169009525387 0 -12.332169009525387 172.2701169536449 0 0 0 0 17.81362698119483 2.9453758753807051 0 2.9453758753807051 132.18468370032497 0 0 0 0 23.845409168763581 5.3129532845923677 0 5.3129532845923677 87.283059571273043 0 0 0 0 26.231745786910778 -14.033843632339995 0 -14.033843632339995 118.41783222893719 0 0 0 0 17.442946820359793 7.0154176401993027 0 7.0154176401993027 136.91879558796063 0 0 0 0 14.733255174280202 -20.368692343268776 0 -20.368692343268776 181.68121292610886 0 0 0 0 19.818716069861694 -17.63893734983867 0 -17.63893734983867 126.26150999304809 0 0 0 0 17.6696676263673 -13.381352457770845 0 -13.381352457770845 123.44274917361327 0 0 0 0 19.209685694933796 -55.613278110067768 0 -55.613278110067768 183.31878929535742 0 0 0 0 19.369206194125582 -51.449963572056731 0 -51.449963572056731 165.6912741670676 0 0 0 0 17.187899455225306 -43.086998084829247 0 -43.086998084829247 233.18090907682199 0 0 0 0 23.950927583630801 -30.188299875211669 0 -30.188299875211669 173.40886258764658 0 0 0 0 28.457085538990214 -106.63006455139111 0 -106.63006455139111 211.18097254625172 0 0 0 0 46.184339576526781 -97.594044164048682 0 -97.594044164048682 149.54759534850018 0 0 0 0 39.949931519009624 -86.059286499184964 0 -86.059286499184964 168.54490500575048 0 0 0 0 31.850651553586431 -95.191739239351591 0 -95.191739239351591 162.77780688043276 0 0 0 0 2.6033436066675106 0.7367930330235879 0 0.7367930330235879 -1.0355916979070514 0 0 0 0 49.8248308567604 -119.68087224847841 0 -119.68087224847841 -32.071821572433691 0 0 0 0 26.997432846207403 -47.973022261052392 0 -47.973022261052392 106.9322455516085 0 0 0 0 32.92211424420384 -156.87952614109963 0 -156.87952614109963 319.87459761061473 0 0 0 0 62.052058836758079 -163.24761544675857 0 -163.24761544675857 75.216847511001106 0 0 0 0 191.28732782846464 103.94570526206007 0 103.94570526206007 136.10824183982913 0 0 0 0 30.608176798894419 16.004885280213784 0 16.004885280213784 390.44070701486635 0 0 0 0 170.37542282790878 138.61159367658365 0 138.61159367658365 748.51611311805027 0 0 0 0 9.6031620343121347 -32.902226411504955 0 -32.902226411504955 6.1980826534213165 0 0 0 0 13.980945358202007 -59.898486651974963 0 -59.898486651974963 -6.5640288447029889 0 0 0 0 19.795944389803481 -57.948461890948238 0 -57.948461890948238 -7.5861643512907904 0 0 0 0 -2.4024478523569996 -30.118635338076274 0 -30.118635338076274 -10.102579614671413 0 0 0 0 50.116543010865826 -22.956575705422438 0 -22.956575705422438 -48.965156123260385 0 0 0 0 55.556436135382683 -34.925128005386796 0 -34.925128005386796 -10.48693783726776 0 0 0 0 -40.283324419099699 -86.134485826594755 0 -86.134485826594755 90.031844828812609 0 0 0 0 35.829131314122833 -18.116666030044144 0 -18.116666030044144 6.9228023729810957 0 0 0 0 -90.797567480494308 -154.78133875229832 0 -154.78133875229832 -1.2226435352204135 0 0 0 0 67.359090116468906 -52.111515225493349 0 -52.111515225493349 -11.19091747503262 0 0 0 0 28.679306696069546 -147.58083297339908 0 -147.58083297339908 -151.19635745321284 0 0 0 0 2.6859712467042272 -25.740364264047145 0 -25.740364264047145 90.799551914009214 0 0 0 0 -115.37233998297961 -12.906710754185042 0 -12.906710754185042 192.27876559161814 0 0 0 0 -15.011364572275852 -45.490237136371434 0 -45.490237136371434 159.05952432370395 0 0 0 0 -85.952348614709535 -75.812121044153173 0 -75.812121044153173 146.3344819638296 0 0 0 0 54.105958883394123 -160.02404855334316 0 -160.02404855334316 232.95284491177881 0 0 0 0 172.52195054840922 -184.35728800029028 0 -184.35728800029028 201.36094852013048 0 0 0 0 -72.846516511416667 75.513479987981555 0 75.513479987981555 274.40603085048497 0 0 0 0 280.25941716838224 261.89101747551831 0 261.89101747551831 166.64873065834399 0 0 0 0 3.0877712686599788 -25.764606977264766 0 -25.764606977264766 94.008233685502034 0 0 0 0 -123.23567975171954 -168.19571053268737 0 -168.19571053268737 91.331231207674136 0 0 0 0 -543.40267319192469 -154.87247009785642 0 -154.87247009785642 736.33909379421675 0 0 0 0 -117.43415245831784 -122.54694261246186 0 -122.54694261246186 -67.47991097898921 0 0 0 0 118.65691504430924 -197.25615939933778 0 -197.25615939933778 9.5972993345785653 0 0 0 0 -89.362487237968537 -218.45227522771893 0 -218.45227522771893 42.709622545575257 0 0 0 0 9.2962603228298271 -3.9801218322283773 0 -3.9801218322283773 2.7600278325663226 0 0 0 0 -684.67763622445727 471.61819279470365 0 471.61819279470365 1046.1657527681382 0 0 0 0 1151.7776950210473 -584.99346882056852 0 -584.99346882056852 -402.0262710757379 0 0 0 0 106.31371957519946 47.51790924611123 0 47.51790924611123 -43.743946653460625 0 0 0 0 22.757205979970422 -9.8371634270442883 0 -9.8371634270442883 -56.015213294827845 0 0 0 0 189.91919048706814 -22.642611589442822 0 -22.642611589442822 -212.11775379375831 0 0 0 0 2.7907770978041082 1.8575403738382761 0 1.8575403738382761 -0.56687992246573771 0 0 0 0 -16.273534794249827 -53.749156498844968 0 -53.749156498844968 243.62188960552157 0 0 0 0 11.093163166268994 -24.842294940091961 0 -24.842294940091961 154.27372800660669 0 0 0 0 58.660634288882875 -66.783290022955043 0 -66.783290022955043 180.17685940781666 0 0 0 0 -63.126875813465176 -146.80141317861853 0 -146.80141317861853 466.08896377273777 0 0 0 0 1.2190058578463141 2.9274920307698267 0 2.9274920307698267 0.39825330654437785 0 0 0 0 -32.576410567771291 -27.488881716679316 0 -27.488881716679316 379.07447679036704 0 0 0 0 60.110501654148621 11.172718937997161 0 11.172718937997161 197.20256216693087 0 0 0 0 -3.799426462466954 -55.727444061827555 0 -55.727444061827555 155.16385161320795 0 0 0 0 21.287356882086556 -128.96804567957224 0 -128.96804567957224 171.65473522269167 0 0 0 0 362.08895834356645 -36.0701784787816 0 -36.0701784787816 -257.17981858256462 0 0 0 0 -69.509398737671745 104.76400706508139 0 104.76400706508139 24.995373207166267 0 0 0 0 -136.9394454927542 145.51368036810891 0 145.51368036810891 11.74145699046494 0 0 0 0 8.4813525966528687 -74.461431942108902 0 -74.461431942108902 -134.99732708243027 0 0 0 0 -128.9844883454291 -20.826700155375875 0 -20.826700155375875 162.86067411734257 0 0 0 0 -201.47931747330745 45.467187251735595 0 45.467187251735595 74.72232595141395 0 0 0 0 -52.708380828351437 -11.055517242304632 0 -11.055517242304632 87.886802418110165 0 0 0 0 28.562237390472774 -37.358417485665996 0 -37.358417485665996 -32.514384981594048 0 0 0 0 -22.014312268376443 -83.134794553727261 0 -83.134794553727261 145.46406790296896 0 0 0 0 44.415769445647982 -105.78304249177654 0 -105.78304249177654 34.293309999629855 0 0 0 0 -3.3948244380908363 8.7014417317477637 0 8.7014417317477637 43.047085786005482 0 0 0 0 5.9583941161565948 2.1052624659792798 0 2.1052624659792798 12.925525348229513 0 0 0 0 40.983171233136432 41.054542806843529 0 41.054542806843529 44.301789042627206 0 0 0 0 70.720924786047362 -10.792856377825956 0 -10.792856377825956 41.481984693789855 0 0 0 0 0.82435055608086039 -12.405236637382714 0 -12.405236637382714 8.1765300960059335 0 0 0 0 13.467822129042361 -8.6001347779529169 0 -8.6001347779529169 54.392683369284896 0 0 0 0 -65.221747458514528 -20.660094641003525 0 -20.660094641003525 55.312723036107855 0 0 0 0 113.64949265128803 -68.950561858735455 0 -68.950561858735455 -25.305681668236502 0 0 0 0 -76.73729605922199 57.41837550708442 0 57.41837550708442 286.05524238654471 0 0 0 0 4.9915865194528983 1.2240465092055501 0 1.2240465092055501 -2.7886672402212866 0 0 0 0 -53.391021435143557 17.387047853502736 0 17.387047853502736 349.57310895482078 0 0 0 0 76.352374593899185 31.391180331018404 0 31.391180331018404 -9.7948084295203444 0 0 0 0 -11.27798758372046 -58.232640472677303 0 -58.232640472677303 324.66152802910801 0 0 0 0 -40.047360588321681 29.275892111021676 0 29.275892111021676 170.68482919525923 0 0 0 0 24.478991281665003 13.46589010754542 0 13.46589010754542 60.294200901058502 0 0 0 0 -41.080449523914467 6.7724181197190774 0 6.7724181197190774 99.461437851889059 0 0 0 0 -49.349044783734826 13.006840800269856 0 13.006840800269856 142.65416881765123 0 0 0 0 -68.377939971795286 23.761075410096964 0 23.761075410096964 91.762261344789295 0 0 0 0 -33.421038358224905 36.84257513396733 0 36.84257513396733 2.6184885416005272 0 0 0 0 -3.5269313314352564 3.1992105852523594 0 3.1992105852523594 14.912924175190454 0 0 0 0 -25.598560177211823 -26.847431173999212 0 -26.847431173999212 46.868674554832978 0 0 0 0 -11.05776622163512 -7.7968061936990125 0 -7.7968061936990125 79.089589509967482 0 0 0 0 76.553529622335077 -59.250396035189624 0 -59.250396035189624 -69.418904272570217 0 0 0 0 13.221733190270239 -32.946800330097801 0 -32.946800330097801 73.62542376449835 0 0 0 0 4.0904121177550259 -14.475902510105222 0 -14.475902510105222 -2.2579779312461596 0 0 0 0 64.054536235015348 72.299557173013454 0 72.299557173013454 146.81154190297821 0 0 0 0 -1.9706663176102346 0.24021940146153042 0 0.24021940146153042 85.844116288283658 0 0 0 0 -62.540795696128839 26.762574720498378 0 26.762574720498378 194.57154122850625 0 0 0 0 11.021163637538166 -68.597332529723644 0 -68.597332529723644 156.57956208110409 0 0 0 0 -0.31093244242578066 33.541469311669061 0 33.541469311669061 234.54901300776692 0 0 0 0 -44.355298928400771 2.23767793548177 0 2.23767793548177 151.10413867839088 0 0 0 0 -12.684472399638707 -3.0289568074949784 0 -3.0289568074949784 151.92486008739615 0 0 0 0 -37.147906823573521 7.3164336841145996 0 7.3164336841145996 237.20090102007089 0 0 0 0 -37.795643562878013 -8.0795951158943353 0 -8.0795951158943353 166.61754030900374 0 0 0 0 1.7656651034768061 -1.9517188221016113 0 -1.9517188221016113 74.957905750023201 0 0 0 0 6.002688763595188 -27.245321058675472 0 -27.245321058675472 76.100843609470758 0 0 0 0 -2.2527175871375489 1.2022972922159454 0 1.2022972922159454 14.451383982482017 0 0 0 0 -3.8805280174678956 -4.3481784965042607 0 -4.3481784965042607 81.705585019774844 0 0 0 0 -0.98696962917449582 -0.58432455067304545 0 -0.58432455067304545 73.442299558329978 0 0 0 0 0.31212761969792668 -0.4462703046087455 0 -0.4462703046087455 48.233739433307335 0 0 0 0 0.79648080650561193 -1.8217475640391392 0 -1.8217475640391392 10.922660810667821 0 0 0 0 2.5297282937169605 -10.578310093257102 0 -10.578310093257102 9.9738646018172794 0 0 0 0 5.8707608342086246 -24.426842404529452 0 -24.426842404529452 71.870455191701694 0 0 0 0 52.226817117630034 -52.239283718721708 0 -52.239283718721708 25.01704339630669 0 0 0 0 2.0130719926527032 3.0976931104059133 0 3.0976931104059133 5.5756204303197734 0 0 0 0 -37.734132099805947 -7.3492173886188539 0 -7.3492173886188539 38.071468666297733 0 0 0 0 35.427425180131195 -4.5354931884285179 0 -4.5354931884285179 5.6157023316482082 0 0 0 0 0.025458296798868574 1.6803921662819903 0 1.6803921662819903 3.4231178174418346 0 0 0 0 -20.212005267386303 -4.6138669965148438 0 -4.6138669965148438 14.614970302525762 0 0 0 0 121.0448133261184 -7.6996623029845068 0 -7.6996623029845068 -107.49381444812752 0 0 0 0 100.47092398008436 -79.710031904601692 0 -79.710031904601692 86.397589710017201 0 0 0 0 -6.1673999760723746 46.57071335875662 0 46.57071335875662 119.76998215907952 0 0 0 0 5.0456285524304061 -3.7934647884591328 0 -3.7934647884591328 28.301052389452138 0 0 0 0 1.1474056487147295 -11.487923924745161 0 -11.487923924745161 18.731549325089539 0 0 0 0 36.696015968412212 -38.597124086940312 0 -38.597124086940312 0.75079083738819463 0 0 0 0 7.5115698167426217 -1.825790864888404 0 -1.825790864888404 67.987162913510474 0 0 0 0 4.110308193967068 -2.3856754641036275 0 -2.3856754641036275 -3.6896457896652919 0 0 0 0 -5.6801854147042832 60.471137876185821 0 60.471137876185821 275.52426475784159 0 0 0 0 -0.36710800638983798 -4.2307744799499005 0 -4.2307744799499005 16.403431024945093 0 0 0 0 -16.596236808447429 -1.7705195220842143 0 -1.7705195220842143 82.767376477568178 0 0 0 0 -23.524845092468663 -53.453598826704365 0 -53.453598826704365 43.231939651595894 0 0 0 0 -5.3772306877867777 2.2540324249057448 0 2.2540324249057448 88.339843668945832 0 0 0 0 4.3538689098145218 -11.987676767200526 0 -11.987676767200526 14.955836246596306 0 0 0 0 1.9995132133444713 -24.308076561967027 0 -24.308076561967027 68.062560614207541 0 0 0 0 2.8658614737278185 -3.2469296588096768 0 -3.2469296588096768 73.003668884572107 0 0 0 0 -2.8803192360916086 -8.4010790690402644 0 -8.4010790690402644 71.186997988496614 0 0 0 0 -7.1788622930402255 -12.914168194605821 0 -12.914168194605821 88.99363724776785 0 0 0 0 -16.692216348470538 8.0347182705299929 0 8.0347182705299929 68.754486561650992 0 0 0 0 -12.694272905674669 -0.91288302918061959 0 -0.91288302918061959 84.482898658048128 0 0 0 0 20.570584398393351 -75.826932056364058 0 -75.826932056364058 12.644039846825763 0 0 0 0 17.366240323135525 -69.401340012431206 0 -69.401340012431206 16.383919201369281 0 0 0 0 81.596087906425055 -69.834231054854172 0 -69.834231054854172 11.146644804241078 0 0 0 0 30.947140215683362 -34.720404209345361 0 -34.720404209345361 5.8928778612316819 0 0 0 0 59.459415188906178 -9.4691833717079135 0 -9.4691833717079135 27.746805646122084 0 0 0 0 139.01814856212468 -76.8628382922725 0 -76.8628382922725 15.947421874661813 0 0 0 0 17.167649388298287 -96.979106177699578 0 -96.979106177699578 37.824153950889013 0 0 0 0 43.821452214612691 70.864742182726332 0 70.864742182726332 75.580394565215101 0 0 0 0 -0.20580383705724503 -0.43580910512643101 0 -0.43580910512643101 3.6245444330126588 0 0 0 0 183.19734832943141 64.267151467567601 0 64.267151467567601 45.137021161994198 0 0 0 0 53.754791315320858 31.11891105306313 0 31.11891105306313 78.649877343850676 0 0 0 0 60.955849038035126 11.867605752231611 0 11.867605752231611 -30.89346944593126 0 0 0 0 -94.52680380865263 128.64038905558846 0 128.64038905558846 57.197203489165986 0 0 0 0 10.045608552718022 -18.349261660565389 0 -18.349261660565389 69.069697300117696 0 0 0 0 285.19711811833577 -159.07310653895547 0 -159.07310653895547 37.145117238091188 0 0 0 0 25.028927015334943 -21.274948245401902 0 -21.274948245401902 -36.535151194402715 0 0 0 0 -475.04258590489894 -368.62736459201551 0 -368.62736459201551 469.13881686914829 0 0 0 0 2.6501689817795047 4.991698129084682 0 4.991698129084682 3.9635108468722819 0 0 0 0 68.506558269154368 59.774156047074939 0 59.774156047074939 -74.916739067033632 0 0 0 0 154.98931936465442 -33.213833855494158 0 -33.213833855494158 -113.64515999724972 0 0 0 0 -65.791175626775157 -160.33421627763892 0 -160.33421627763892 48.891232595429756 0 0 0 0 418.78764838490633 95.842720058346458 0 95.842720058346458 80.066084724719985 0 0 0 0 74.481728983432845 36.585698963095638 0 36.585698963095638 78.357476160803344 0 0 0 0 564.23370962409081 95.6304303000652 0 95.6304303000652 -224.90487364726141 0 0 0 0 338.5892162671899 349.43949068527763 0 349.43949068527763 221.09207023463387 0 0 0 0 129.73644232372419 250.1452148399112 0 250.1452148399112 199.43818670161272 0 0 0 0 120.07624241762414 229.12820152025233 0 229.12820152025233 169.35136677303672 0 0 0 0 100.73086723858523 153.05467345422949 0 153.05467345422949 124.50827078522707 0 0 0 0 92.300600087197608 204.30469938011265 0 204.30469938011265 234.40572118126147 0 0 0 0 236.42593550769607 208.90062242978456 0 208.90062242978456 117.33723528926203 0 0 0 0 62.18289615829417 128.26447179594834 0 128.26447179594834 110.84946351431881 0 0 0 0 138.65391707367917 89.484410890829167 0 89.484410890829167 71.741572719794931 0 0 0 0 -2.1246940277237627 -6.5536569875112036 0 -6.5536569875112036 46.969212236661406 0 0 0 0 25.338635762771332 90.359057179790398 0 90.359057179790398 155.83573580140364 0 0 0 0 71.42416735329607 95.842740912983572 0 95.842740912983572 134.48418491825578 0 0 0 0 3.0443720934938376 3.3370379133490928 0 3.3370379133490928 -0.87809700591945727 0 0 0 0 19.616159446073652 79.566748169578204 0 79.566748169578204 225.23879438062431 0 0 0 0 -111.19607877523777 68.472315152808733 0 68.472315152808733 162.85835121166019 0 0 0 0 -97.334448600968699 52.44953868615994 0 52.44953868615994 73.448092721650028 0 0 0 0 10.881523419242967 9.0816320893718512 0 9.0816320893718512 64.052671684679808 0 0 0 0 -0.49976234105607631 1.3117542987887134 0 1.3117542987887134 -1.5283515774617555 0 0 0 0 596.64318870848433 274.61017136640839 0 274.61017136640839 26.617950885280152 0 0 0 0 459.67464504992222 -52.643883415084929 0 -52.643883415084929 527.4480803325423 0 0 0 0 1.7084164311302708 1.8571050192763892 0 1.8571050192763892 0.22721950574046801 0 0 0 0 161.20062959541974 222.70069121339475 0 222.70069121339475 527.9178158433424 0 0 0 0 -54.737309736556199 -52.875754069285904 0 -52.875754069285904 193.70455597266846 0 0 0 0 397.1366463093691 42.01770355062763 0 42.01770355062763 -189.71734650389408 0 0 0 0 106.76684539958933 300.89952064851241 0 300.89952064851241 659.69707257357186 0 0 0 0 24.173847953433096 115.3468384128264 0 115.3468384128264 422.53096370212734 0 0 0 0 468.80391260400211 323.37280233615456 0 323.37280233615456 319.02837555993756 0 0 0 0 351.94538860521425 142.87261508130177 0 142.87261508130177 140.42380308925931 0 0 0 0 170.28999437320545 143.17327101451519 0 143.17327101451519 256.11261672891851 0 0 0 0 -219.33596267989651 112.289271851987 0 112.289271851987 200.22655174248575 0 0 0 0 97.599518693915797 224.2108169166313 0 224.2108169166313 198.58841278637556 0 0 0 0 122.20191099931071 289.24986734369304 0 289.24986734369304 322.67313785157603 0 0 0 0 73.124760382261684 277.26701367514761 0 277.26701367514761 200.06626508738555 0 0 0 0 32.621498156794758 38.559847723175608 0 38.559847723175608 140.66598209821677 0 0 0 0 -285.84305578036719 261.67941710272135 0 261.67941710272135 -89.055411597002603 0 0 0 0 -0.75326349773620382 -1.8653057369948627 0 -1.8653057369948627 1.8206887959595406 0 0 0 0 553.62179503461903 -287.96026479157081 0 -287.96026479157081 55.001491190902016 0 0 0 0 77.686564393330627 26.582919316751941 0 26.582919316751941 50.378055302309804 0 0 0 0 -30.684100558742102 -84.71332133380929 0 -84.71332133380929 281.95688706354485 0 0 0 0 -2.4834810162676524 -4.4685329047957456 0 -4.4685329047957456 1.6037884819563146 0 0 0 0 112.06024617966887 11.36590636341316 0 11.36590636341316 87.055770007282263 0 0 0 0 -81.582470780682428 -14.977355863502225 0 -14.977355863502225 103.11132989614271 0 0 0 0 117.02992290540533 42.279882187714975 0 42.279882187714975 90.011982242365775 0 0 0 0 -6.3214840521201694 2.0706023673340255 0 2.0706023673340255 99.263642563735573 0 0 0 0 118.24185971674689 -260.02681643624783 0 -260.02681643624783 -228.39907550049247 0 0 0 0 -788.98339899341909 -95.752958538621897 0 -95.752958538621897 275.03166759276064 0 0 0 0 -700.36630847496053 12.722411127280793 0 12.722411127280793 198.67579448019387 0 0 0 0 -313.04468855857067 -82.186063709028531 0 -82.186063709028531 125.34087031501986 0 0 0 0 -334.74415775562375 82.848423558549257 0 82.848423558549257 -82.796627783458462 0 0 0 0 -149.89760983039469 -210.07562338266143 0 -210.07562338266143 109.14277170109563 0 0 0 0 -299.33441573574419 -12.588500083307736 0 -12.588500083307736 231.03546852037834 0 0 0 0 -40.246644714397917 -36.324675951073004 0 -36.324675951073004 63.869631431589369 0 0 0 0 -253.95648483751665 -151.35893386246607 0 -151.35893386246607 201.30812110619445 0 0 0 0 -255.80633374080526 -119.36942933051978 0 -119.36942933051978 51.246103961195331 0 0 0 0 -582.35330688224713 -252.17796367582196 0 -252.17796367582196 131.96531254219008 0 0 0 0 -695.09850563642522 -118.49439779604654 0 -118.49439779604654 491.53789828895242 0 0 0 0 -381.45930367912865 -209.9362712119073 0 -209.9362712119073 92.983498040106497 0 0 0 0 -7.4214441688853929 -4.0693581618923318 0 -4.0693581618923318 123.1738860414745 0 0 0 0 -303.1115646952876 -44.046431677037617 0 -44.046431677037617 161.56175077165972 0 0 0 0 -50.348203589178411 -38.161808018754527 0 -38.161808018754527 115.63914067814767 0 0 0 0 -308.33610894257072 -53.648533859355666 0 -53.648533859355666 243.62010953473509 0 0 0 0 -252.4227406328996 -19.67732934650121 0 -19.67732934650121 292.41986278193508 0 0 0 0 -251.00000534264586 8.958052241077894 0 8.958052241077894 36.818021491228137 0 0 0 0 115.22778765047269 73.786917391458701 0 73.786917391458701 268.19210509810364 0 0 0 0 461.35170499983661 16.147423146689732 0 16.147423146689732 253.68622822882026 0 0 0 0 -39.667920983377371 83.205841134469665 0 83.205841134469665 308.43803024157751 0 0 0 0 181.82245425688598 -23.306973074548296 0 -23.306973074548296 171.61959629513149 0 0 0 0 189.51094408089011 -16.958970545569173 0 -16.958970545569173 303.34994995061425 0 0 0 0 230.75191820354576 131.22588608011574 0 131.22588608011574 383.81088445162823 0 0 0 0 327.14134498658768 401.99512083954323 0 401.99512083954323 721.46649590497145 0 0 0 0 282.25302135097536 228.48201217591486 0 228.48201217591486 296.01893871200446 0 0 0 0 4.4695020622846187 -7.9818508868225564 0 -7.9818508868225564 12.764406742994851 0 0 0 0 -45.755016011187763 25.725429436424747 0 25.725429436424747 42.496311974260607 0 0 0 0 217.93601289014714 300.71151313697192 0 300.71151313697192 283.37016677580323 0 0 0 0 139.51405059359331 220.09118881194445 0 220.09118881194445 334.67865413326217 0 0 0 0 128.839287923759 249.83622156697311 0 249.83622156697311 252.06276372553839 0 0 0 0 68.89887243299745 250.5354532297788 0 250.5354532297788 449.48810383057935 0 0 0 0 -22.770954489759333 120.92590512717652 0 120.92590512717652 340.06436554857646 0 0 0 0 -11.060897986100827 138.3556288631662 0 138.3556288631662 173.38665263581061 0 0 0 0 -156.77897246873636 -1.3557006366791029 0 -1.3557006366791029 82.068290878247353 0 0 0 0 -206.22452862187265 57.603142438767463 0 57.603142438767463 272.91780669716536 0 0 0 0 95.375757891291869 123.36731640152721 0 123.36731640152721 193.42234895313595 0 0 0 0 -168.42300890138995 90.234967172706092 0 90.234967172706092 273.40064475293912 0 0 0 0 2.912812702868905 205.45060575856769 0 205.45060575856769 286.8647239218044 0 0 0 0 85.507122503966457 224.9246167873207 0 224.9246167873207 273.06530165997538 0 0 0 0 23.194537020036137 41.072733192430405 0 41.072733192430405 250.9054014160356 0 0 0 0 25.478618177757198 68.524830744179781 0 68.524830744179781 478.56565810682514 0 0 0 0 60.688532459972521 271.68757056358299 0 271.68757056358299 380.21891915104061 0 0 0 0 243.50130751549545 44.275450669960264 0 44.275450669960264 248.7021291355486 0 0 0 0 176.2043566801317 162.95963139669038 0 162.95963139669038 1.0951379248945159 0 0 0 0 -83.228155710172814 179.85069677455249 0 179.85069677455249 430.82876846808358 0 0 0 0 -0.078112515711794117 89.952279718745814 0 89.952279718745814 13.114990028052704 0 0 0 0 -1.2749462946139829 15.771081514329126 0 15.771081514329126 -5.8269596741301939 0 0 0 0 5.2645221731884355 -0.55243814384958512 0 -0.55243814384958512 1.4759730141039711 0 0 0 0 -13.8432371287183 61.634896343602747 0 61.634896343602747 131.98664710754718 0 0 0 0 1.4995341816102155 8.240530964845675 0 8.240530964845675 68.436964489286765 0 0 0 0 -49.731208297627745 29.093293450772762 0 29.093293450772762 11.895257085910998 0 0 0 0 -2.6387785652898863 51.594367347923992 0 51.594367347923992 66.986524735668183 0 0 0 0 -13.30943993728698 -6.9039263227018068 0 -6.9039263227018068 60.70365965481664 0 0 0 0 -5.9693177881050019 22.933506932149442 0 22.933506932149442 28.794821818026492 0 0 0 0 -11.127939663885627 11.960736751017976 0 11.960736751017976 60.598902916884981 0 0 0 0 -3.9915025197169598 8.505159358799574 0 8.505159358799574 70.414199223392643 0 0 0 0 -189.71265477745146 -58.605560053030786 0 -58.605560053030786 69.985965432875673 0 0 0 0 -1.9472764381443284 4.5769381857064246 0 4.5769381857064246 6.1774358016796782 0 0 0 0 6.6249466184813155 -8.0892519603458197 0 -8.0892519603458197 23.485041363290691 0 0 0 0 138.12859733653022 140.1436456348747 0 140.1436456348747 13.81516456627287 0 0 0 0 -39.241924188929261 -40.831397794372606 0 -40.831397794372606 103.75508809609164 0 0 0 0 -1.3898015903432679 7.392849193609436 0 7.392849193609436 68.261142831062898 0 0 0 0 -2.5811632257027668 9.4416224226879422 0 9.4416224226879422 70.950798898458743 0 0 0 0 0.23867623450362885 -2.3459605007188316 0 -2.3459605007188316 16.467104840333445 0 0 0 0 -2.1800297740383883 2.0798277712779907 0 2.0798277712779907 15.869553950475961 0 0 0 0 8.7568564921552934 323.28775416580447 0 323.28775416580447 -79.614843085641041 0 0 0 0 -33.025026516611433 -38.074292602854257 0 -38.074292602854257 93.949326870584628 0 0 0 0 -47.683937231220625 7.978292217143462 0 7.978292217143462 166.05298781354213 0 0 0 0 -53.272133777085401 -36.439655313704861 0 -36.439655313704861 210.60203885275405 0 0 0 0 -32.138726567129197 50.631759160693036 0 50.631759160693036 282.90920344239566 0 0 0 0 -78.782525933525903 -14.558588918298483 0 -14.558588918298483 268.49492789342185 0 0 0 0 -89.543111827406847 -61.143617607540364 0 -61.143617607540364 53.555028084374499 0 0 0 0 -5.8650648023885879 42.281639345921576 0 42.281639345921576 290.95543881177218 0 0 0 0 -31.551335509203 -164.09827456761559 0 -164.09827456761559 -125.12285134851118 0 0 0 0 16.675618816025235 34.150804711211094 0 34.150804711211094 17.655454111954896 0 0 0 0 2.2083677997379709 34.300023314237478 0 34.300023314237478 119.86338821159734 0 0 0 0 125.10216852653048 206.79085293197568 0 206.79085293197568 227.75053168850718 0 0 0 0 -158.08897449030155 -199.38126603383716 0 -199.38126603383716 620.38840027581318 0 0 0 0 104.10020496481411 107.25515145271493 0 107.25515145271493 -86.893063051451463 0 0 0 0 6.1910418583635751 3.9138317635663071 0 3.9138317635663071 3.231181836011956 0 0 0 0 73.588362964939734 152.6728326176999 0 152.6728326176999 -66.374413527941215 0 0 0 0 127.92400140756081 -509.48993241426069 0 -509.48993241426069 889.42800802167403 0 0 0 0 -97.979700327635783 -24.563635399481882 0 -24.563635399481882 483.30024660832714 0 0 0 0 -35.517590036020465 91.197322839258049 0 91.197322839258049 210.87703705285094 0 0 0 0 -64.463116641360102 46.040456661801727 0 46.040456661801727 490.03341688093133 0 0 0 0 -4.2620525127022297 -0.11693696949865995 0 -0.11693696949865995 36.254725669011933 0 0 0 0 -516.57296912812762 -112.47998731958432 0 -112.47998731958432 890.47206910266232 0 0 0 0 677.57783892921816 200.02949378215089 0 200.02949378215089 -377.60072723407757 0 0 0 0 -127.5761001186529 -34.026218049548334 0 -34.026218049548334 655.7964934361853 0 0 0 0 25.325546485521045 26.210342924747238 0 26.210342924747238 582.70684420761972 0 0 0 0 126.97608279905342 -54.57928882565966 0 -54.57928882565966 631.84374311839929 0 0 0 0 107.69871928668726 -30.537391975391074 0 -30.537391975391074 615.55819302756572 0 0 0 0 134.66263955644172 82.378405723902688 0 82.378405723902688 628.7338647861543 0 0 0 0 -134.93146470966894 79.501790861148038 0 79.501790861148038 209.93330260532184 0 0 0 0 -88.626579631114964 109.19335546206275 0 109.19335546206275 219.08453960249608 0 0 0 0 3.3585133979597028 87.450586692897929 0 87.450586692897929 21.912698186609859 0 0 0 0 18.491413336878395 -7.707565660115506 0 -7.707565660115506 559.21915472881665 0 0 0 0 -168.38248878948116 122.05160283907026 0 122.05160283907026 276.97200556405005 0 0 0 0 70.87559179427717 202.22238139778347 0 202.22238139778347 45.190431541883299 0 0 0 0 -197.01100461654869 78.482602134310582 0 78.482602134310582 257.06795619269542 0 0 0 0 -10.271203129495714 -10.29839554127005 0 -10.29839554127005 179.59446210648434 0 0 0 0 -526.45794898127951 -85.869260472501082 0 -85.869260472501082 834.32233005138914 0 0 0 0 28.022256963909058 110.78129595680912 0 110.78129595680912 25.517006213114655 0 0 0 0 -19.973833732753974 111.70954363569808 0 111.70954363569808 100.84603251582303 0 0 0 0 -5.7945632608354831 -10.875257045913251 0 -10.875257045913251 162.18126444970432 0 0 0 0 -64.293740501852881 -49.023252790148035 0 -49.023252790148035 155.25388921746344 0 0 0 0 -390.42113416441589 -59.05608239193316 0 -59.05608239193316 249.48276642693963 0 0 0 0 24.946204866369953 -3.8647465146168543 0 -3.8647465146168543 168.37743682793916 0 0 0 0 -18.434325168273517 51.196288835119049 0 51.196288835119049 127.3209302417381 0 0 0 0 -25.598651101856831 27.450361524570326 0 27.450361524570326 57.432070993439083 0 0 0 0 -61.194267694768342 42.743219259044054 0 42.743219259044054 65.644141923825373 0 0 0 0 35.121575308027786 65.821564765894436 0 65.821564765894436 -61.987944357286324 0 0 0 0 -62.348951857877282 91.740128812377179 0 91.740128812377179 -4.9192393907214864 0 0 0 0 15.663869834960417 12.954805698335118 0 12.954805698335118 10.473213359698264 0 0 0 0 -25.26880891403016 24.064396557494547 0 24.064396557494547 44.414734099191264 0 0 0 0 -52.657062880047533 43.5720864537343 0 43.5720864537343 94.880287844247505 0 0 0 0 -41.792119480202928 12.585758661650289 0 12.585758661650289 111.47785493256379 0 0 0 0 -31.122274423434646 7.6760084353227285 0 7.6760084353227285 102.66138133081404 0 0 0 0 -36.619487747268977 -6.8573905021257815 0 -6.8573905021257815 138.09279151114242 0 0 0 0 -28.867902674852303 17.13202306577432 0 17.13202306577432 125.93070814020757 0 0 0 0 -34.952750300653861 -7.8112819204325206 0 -7.8112819204325206 92.834374112047954 0 0 0 0 -41.116059098574624 6.5189714011357864 0 6.5189714011357864 84.779752467169601 0 0 0 0 -38.907151721556374 2.2608708621719416 0 2.2608708621719416 88.725638239717227 0 0 0 0 -41.002756986882673 3.6158900495138369 0 3.6158900495138369 107.98781160601357 0 0 0 0 116.56671278782687 32.002536218908062 0 32.002536218908062 121.31870900512877 0 0 0 0 -7.1322626799352395 -6.5383685561286029 0 -6.5383685561286029 144.25738832614275 0 0 0 0 -506.12616590962898 -108.80669288978606 0 -108.80669288978606 205.26347975222598 0 0 0 0 25.652810515033707 -12.086885388744122 0 -12.086885388744122 129.27892371666644 0 0 0 0 92.715527531536281 -9.1165639555147209 0 -9.1165639555147209 120.41266982028174 0 0 0 0 26.652041161837531 25.765883559334156 0 25.765883559334156 161.68165505035722 0 0 0 0 23.662255179475324 3.068997283182398 0 3.068997283182398 140.07251751766307 0 0 0 0 122.76938540551873 43.537307286986106 0 43.537307286986106 111.26382382250449 0 0 0 0 66.562558345569414 24.096492075288552 0 24.096492075288552 157.13035083562136 0 0 0 0 71.622149917822753 20.429170749619516 0 20.429170749619516 90.027010296063963 0 0 0 0 6.1245248198301852 31.054486523424202 0 31.054486523424202 106.05100028739253 0 0 0 0 -35.312482757342991 -36.154012254028203 0 -36.154012254028203 119.32547143586999 0 0 0 0 -46.182844277402182 -20.03179341318355 0 -20.03179341318355 100.29205877791537 0 0 0 0 40.068825049227598 -18.389884489679389 0 -18.389884489679389 71.755306077611749 0 0 0 0 -62.199953370692583 3.1826889393341844 0 3.1826889393341844 92.757705468684435 0 0 0 0 30.867070057473939 -7.4312361075062654 0 -7.4312361075062654 123.13787681006943 0 0 0 0 73.083318214885367 9.367020482692169 0 9.367020482692169 80.967847859617905 0 0 0 0 83.284628755864105 32.010740570694907 0 32.010740570694907 98.537134300002037 0 0 0 0 90.464569885349192 -8.8882779661980749 0 -8.8882779661980749 112.48124320199713 0 0 0 0 60.465752935611818 21.846694102918264 0 21.846694102918264 96.397043230434065 0 0 0 0 -18.5316770429651 -8.5597736409369674 0 -8.5597736409369674 61.814042023330217 0 0 0 0 -40.966424013863048 -38.794635807892519 0 -38.794635807892519 78.160092985861411 0 0 0 0 -37.895244080490102 -28.546718164212507 0 -28.546718164212507 90.235452291897673 0 0 0 0 -32.110213970021391 -15.092513715905625 0 -15.092513715905625 57.62366085134272 0 0 0 0 -33.010906435739344 -17.695361034675443 0 -17.695361034675443 101.41713230633468 0 0 0 0 -24.741404677908122 -32.321200019978278 0 -32.321200019978278 84.019176636800694 0 0 0 0 -25.927957899379862 -34.340015528956428 0 -34.340015528956428 96.212052830538596 0 0 0 0 -1.4211604383046126 -2.9184508703955458 0 -2.9184508703955458 21.784875740879102 0 0 0 0 -22.285464046628704 -50.227535274912952 0 -50.227535274912952 105.33788607273891 0 0 0 0 -56.794676327410627 13.502680694424271 0 13.502680694424271 84.344942587929836 0 0 0 0 7.8343523837625071 -19.950720498432929 0 -19.950720498432929 75.615668345288213 0 0 0 0 -7.0688274753772813 12.927590816293332 0 12.927590816293332 34.448824759811998 0 0 0 0 -9.7739292314408885 -23.79403374467438 0 -23.79403374467438 131.04930151948338 0 0 0 0 6.6282383864413532 28.883304362128911 0 28.883304362128911 112.93854045751141 0 0 0 0 -7.8751554743614012 -23.162811306127722 0 -23.162811306127722 94.534140273010479 0 0 0 0 -10.455593571442193 -37.910224985011155 0 -37.910224985011155 72.57449832156999 0 0 0 0 5.2147737464484862 3.8990991692057833 0 3.8990991692057833 103.24560643549557 0 0 0 0 7.4787546169879988 7.0186238445203344 0 7.0186238445203344 99.981448438687949 0 0 0 0 4.2150339913146126 31.27216405215222 0 31.27216405215222 88.983393884955149 0 0 0 0 -43.398804167613434 -6.6752785141288769 0 -6.6752785141288769 101.03488976702829 0 0 0 0 -85.897216094782607 58.844306750703254 0 58.844306750703254 60.62875750555213 0 0 0 0 88.270380653721986 93.364222991014685 0 93.364222991014685 90.314045489554701 0 0 0 0 -58.777268373365359 -32.011074128642576 0 -32.011074128642576 85.091602848610819 0 0 0 0 8.9896111614040723 -7.6662638046742657 0 -7.6662638046742657 26.000700550992214 0 0 0 0 4.4876033034618104 10.607814949515159 0 10.607814949515159 85.03804335415407 0 0 0 0 150.03170217703615 110.90220353117729 0 110.90220353117729 70.981437753460341 0 0 0 0 1.3379738932548371 11.332363720425747 0 11.332363720425747 107.03354520194262 0 0 0 0 4.8554311195718025 -14.347168559731982 0 -14.347168559731982 53.647569350245405 0 0 0 0 -134.01354617696097 -3.8078805708098571 0 -3.8078805708098571 131.95771042104116 0 0 0 0 35.716205390037203 35.861218425703555 0 35.861218425703555 94.6480261039178 0 0 0 0 0.41379286785701552 31.030180066823959 0 31.030180066823959 111.44810915097332 0 0 0 0 -7.3664082865137743 56.474125008251121 0 56.474125008251121 72.777704166403964 0 0 0 0 28.171673663305342 28.883529419595561 0 28.883529419595561 94.03319715951784 0 0 0 0 -11.99377648177682 131.57976199045027 0 131.57976199045027 234.99186128279689 0 0 0 0 2.1210634719510608 4.0582040201267535 0 4.0582040201267535 -4.7830190947992746 0 0 0 0 82.520674277402122 95.078176956345942 0 95.078176956345942 129.57060408126654 0 0 0 0 -57.709633038560241 27.667818025391625 0 27.667818025391625 150.93665961027546 0 0 0 0 -80.294281099391583 67.166448532781487 0 67.166448532781487 87.224666839540077 0 0 0 0 -194.63094098892475 -99.122300402999826 0 -99.122300402999826 62.656968478351359 0 0 0 0 5.0135959690177092 -13.779233232543408 0 -13.779233232543408 33.907390348266645 0 0 0 0 249.95178280360958 100.93795994880134 0 100.93795994880134 88.919790928419388 0 0 0 0 2.9415068995404678 -7.7311277558366944 0 -7.7311277558366944 20.506751039813494 0 0 0 0 -9.3351762478189926 -90.496209284954602 0 -90.496209284954602 158.85309387535381 0 0 0 0 -39.440629275541141 -37.961201961770712 0 -37.961201961770712 -25.629367341077341 0 0 0 0 -328.16865372497296 -149.72053075608346 0 -149.72053075608346 50.611950459018317 0 0 0 0 -87.926170096753822 51.663230858192037 0 51.663230858192037 -0.64479839349223766 0 0 0 0 113.59164208593302 -116.2632360755706 0 -116.2632360755706 -152.07808032530738 0 0 0 0 277.2838224631472 419.15899678992901 0 419.15899678992901 66.06032303655229 0 0 0 0 -522.49278747382402 337.6601687909606 0 337.6601687909606 105.28364918487205 0 0 0 0 12.958247025266758 145.60807313207624 0 145.60807313207624 312.70751231430222 0 0 0 0 5.5204653078733941 211.18618657060392 0 211.18618657060392 -239.75071737337566 0 0 0 0 -259.15438740774073 -17.359838104655864 0 -17.359838104655864 115.06221924423153 0 0 0 0 -8.1052556660296258 -7.0003089569811578 0 -7.0003089569811578 13.05159200826116 0 0 0 0 724.07241420548644 160.46211433758435 0 160.46211433758435 -429.20682187311468 0 0 0 0 -103.59951091457879 -5.6713366128224152 0 -5.6713366128224152 292.45045074563313 0 0 0 0 -188.92988513325395 -126.27368695410496 0 -126.27368695410496 185.71527314112609 0 0 0 0 -672.13963195568488 -738.20870229934826 0 -738.20870229934826 484.5495234093396 0 0 0 0 -40.683124114924794 15.330657301892643 0 15.330657301892643 93.36248768868245 0 0 0 0 -17.165848947001933 -0.19023422555504865 0 -0.19023422555504865 67.555279652833974 0 0 0 0 -1.6252091800843118 32.241177006721045 0 32.241177006721045 69.256911300381034 0 0 0 0 101.24133333445388 1.1349013362014375 0 1.1349013362014375 160.17017279694846 0 0 0 0 -42.497838185327964 1.8801975797669002 0 1.8801975797669002 94.172613710143196 0 0 0 0 -20.905966100447053 -1.609683313318012 0 -1.609683313318012 69.502253521361695 0 0 0 0 -42.159396582929958 3.9604808892227084 0 3.9604808892227084 91.38762666448747 0 0 0 0 49.523044048301415 -2.4527115767577925 0 -2.4527115767577925 -79.095547070710381 0 0 0 0 -108.16057874515786 -196.1478187086359 0 -196.1478187086359 62.490640307041758 0 0 0 0 84.173131144036233 183.72469362759693 0 183.72469362759693 118.31515157747344 0 0 0 0 -49.654430114383331 -163.52607947466822 0 -163.52607947466822 -4.4306583524576126 0 0 0 0 1.3214618766552171 -4.9333167095994739 0 -4.9333167095994739 6.157027513652281 0 0 0 0 -24.103151075291635 21.449422707060876 0 21.449422707060876 201.64493761745325 0 0 0 0 -1.9509449227703044 -77.43756122252671 0 -77.43756122252671 93.56537339915667 0 0 0 0 -211.87044011933904 230.29346300780344 0 230.29346300780344 1330.3367563942156 0 0 0 0 -203.87780779266723 463.92453922755976 0 463.92453922755976 648.94972733109171 0 0 0 0 -544.05560995514497 -403.53047488186894 0 -403.53047488186894 1894.7671900805817 0 0 0 0 994.85754230190832 -109.16082009601359 0 -109.16082009601359 145.02413465669815 0 0 0 0 841.59813752636546 -565.65893885255355 0 -565.65893885255355 462.18980829668362 0 0 0 0 555.08757460063498 -371.67163751982844 0 -371.67163751982844 367.31351680520402 0 0 0 0 555.99738000092259 138.32271869475852 0 138.32271869475852 27.736244474985142 0 0 0 0 506.53034487099467 60.516820589166855 0 60.516820589166855 -559.22832526505408 0 0 0 0 32.369183539056422 -31.154995158546097 0 -31.154995158546097 27.261355201637706 0 0 0 0 -287.98606744753738 -370.78039448330765 0 -370.78039448330765 -195.13514816727911 0 0 0 0 -597.31380777190088 -177.02380947653319 0 -177.02380947653319 438.00129166314537 0 0 0 0 326.1969139377652 -504.93516426804808 0 -504.93516426804808 -418.63537135289619 0 0 0 0 -4.44967238609388 -129.24848079340245 0 -129.24848079340245 -37.367932347270653 0 0 0 0 -153.92369592727118 -81.128020745415597 0 -81.128020745415597 -78.81636360986522 0 0 0 0 0.19616639343291453 0.45439133848816127 0 0.45439133848816127 -2.3417284455863481 0 0 0 0 2.213164450097338 248.28116427800899 0 248.28116427800899 -156.38757780781725 0 0 0 0 198.45370140385239 -96.054223815999649 0 -96.054223815999649 -153.02645928355105 0 0 0 0 0.090439280616269713 1.9776120091905529 0 1.9776120091905529 -1.0664622449941881 0 0 0 0 -446.28305762281889 229.01314528174407 0 229.01314528174407 387.75468547440505 0 0 0 0 151.03959800505982 4.9190200874536458 0 4.9190200874536458 659.62496615598911 0 0 0 0 287.58278221260753 332.04154672906043 0 332.04154672906043 374.36244755889675 0 0 0 0 539.04285519565747 19.587959103979301 0 19.587959103979301 -109.67936806682565 0 0 0 0 575.94113758423919 30.935559577896129 0 30.935559577896129 657.54037129368953 0 0 0 0 3087.9316338249082 1363.9877214178759 0 1363.9877214178759 1283.1540813507054 0 0 0 0 -73.013924322003732 -109.0980650242509 0 -109.0980650242509 613.07956503288096 0 0 0 0 -83.945955824459816 157.36578104541786 0 157.36578104541786 643.2146177530575 0 0 0 0 -54.10384885250096 -24.992709640817338 0 -24.992709640817338 982.07684951477313 0 0 0 0 5.1780136949355438 -24.64372016584548 0 -24.64372016584548 165.68198213540404 0 0 0 0 -0.38668249971106405 4.6555293584117052 0 4.6555293584117052 -1.6024126036964343 0 0 0 0 36.446322787582176 -28.58526602072925 0 -28.58526602072925 309.15224564242271 0 0 0 0 102.26777211561239 77.303652193837479 0 77.303652193837479 353.54986374607643 0 0 0 0 1.8988167714475557 -0.44529661245651653 0 -0.44529661245651653 -0.082111851180634687 0 0 0 0 -32.336034679756267 197.6299985683454 0 197.6299985683454 263.92300788237026 0 0 0 0 197.26894757857917 53.125116831824016 0 53.125116831824016 -48.634882103502605 0 0 0 0 76.55232892110871 118.18423244846736 0 118.18423244846736 76.692084483047438 0 0 0 0 35.149493273742337 47.496494330813675 0 47.496494330813675 -34.058940682493812 0 0 0 0 -34.257467170475138 -9.33192152167112 0 -9.33192152167112 10.822003417556971 0 0 0 0 42.136335992876411 19.47160018490149 0 19.47160018490149 34.152541645424208 0 0 0 0 6.8441306380978002 3.7158850885200092 0 3.7158850885200092 -3.3301870158094307 0 0 0 0 15.998901708054518 10.849175346505945 0 10.849175346505945 3.8981353657572981 0 0 0 0 39.127006061964948 135.50460587955695 0 135.50460587955695 185.142104071223 0 0 0 0 -2.6347507699654109 2.7206710382607877 0 2.7206710382607877 4.0271243839304631 0 0 0 0 51.857080038010281 30.930901157030348 0 30.930901157030348 -1.7582023171694345 0 0 0 0 159.26550803735972 177.37618842630991 0 177.37618842630991 198.7500558680531 0 0 0 0 38.819685046952145 74.897420357014198 0 74.897420357014198 288.56516630761689 0 0 0 0 93.051477200178169 31.046586119367475 0 31.046586119367475 199.88161913590011 0 0 0 0 56.478948271069839 91.804360171163808 0 91.804360171163808 132.8921093502031 0 0 0 0 -52.258000743392927 8.3389199645016561 0 8.3389199645016561 167.37053063131862 0 0 0 0 86.632111826879736 -0.25073157343831554 0 -0.25073157343831554 46.720179919875591 0 0 0 0 97.751667253354753 -38.917816613102332 0 -38.917816613102332 212.40370116313034 0 0 0 0 85.14012156395313 -24.24890641081015 0 -24.24890641081015 195.56619492003665 0 0 0 0 147.5940553233595 -77.83370636975269 0 -77.83370636975269 100.51142277009149 0 0 0 0 22.961872609337661 -96.737909041656167 0 -96.737909041656167 95.577119078137912 0 0 0 0 140.5534455947809 -61.989307647880196 0 -61.989307647880196 34.253576344788598 0 0 0 0 134.28404379798724 -231.406846695289 0 -231.406846695289 132.10900461640995 0 0 0 0 144.41885139701662 -171.48908548591498 0 -171.48908548591498 254.36565401375105 0 0 0 0 179.90585751832577 -241.28120074541448 0 -241.28120074541448 224.0483295928243 0 0 0 0 157.35724051691193 -146.87491529673821 0 -146.87491529673821 151.99195626991423 0 0 0 0 185.02873065248787 -128.77381447815969 0 -128.77381447815969 163.24559795268578 0 0 0 0 197.64309948968503 -185.3880798330888 0 -185.3880798330888 182.80067573714769 0 0 0 0 188.52254587418247 -197.59538468400206 0 -197.59538468400206 284.71283342079914 0 0 0 0 175.84999725422858 -133.90364190689979 0 -133.90364190689979 381.3932768246741 0 0 0 0 174.00054396061387 -156.4584823662808 0 -156.4584823662808 247.54262159862446 0 0 0 0 178.52528064985904 -178.02772310603291 0 -178.02772310603291 167.12854045113636 0 0 0 0 163.3203840034148 -191.60117764079041 0 -191.60117764079041 242.88725664668527 0 0 0 0 149.71356688844389 -159.21537999548673 0 -159.21537999548673 172.99529788212021 0 0 0 0 93.70542429150737 -205.15701988437286 0 -205.15701988437286 249.23202033343114 0 0 0 0 156.72463356915159 -123.19497832318484 0 -123.19497832318484 227.19424527345109 0 0 0 0 78.947427485769367 -95.849430361393388 0 -95.849430361393388 218.05616826690857 0 0 0 0 100.36616515763581 -23.907341830473797 0 -23.907341830473797 282.10539085728669 0 0 0 0 -29.360800401291272 -64.866554083007941 0 -64.866554083007941 341.91528554605611 0 0 0 0 84.124967590818187 -140.3348845418426 0 -140.3348845418426 374.59196712236371 0 0 0 0 -19.924964702272518 -115.46866913574058 0 -115.46866913574058 598.58946562101119 0 0 0 0 21.006976471911912 -253.59316876284538 0 -253.59316876284538 556.09760413721415 0 0 0 0 22.088730308594677 -265.93085443884775 0 -265.93085443884775 390.08085953086265 0 0 0 0 31.746687600443693 -465.00883780831191 0 -465.00883780831191 240.4750302739194 0 0 0 0 -114.13932875415958 -439.53202978149784 0 -439.53202978149784 624.93131001766596 0 0 0 0 -98.752123974936694 -367.76649150773119 0 -367.76649150773119 674.46097679494596 0 0 0 0 -120.16147991945763 -278.00829246096328 0 -278.00829246096328 1014.9967229769286 0 0 0 0 130.22065311428014 -249.77021992135087 0 -249.77021992135087 84.584612476812254 0 0 0 0 154.48793895761628 -223.68417016126659 0 -223.68417016126659 156.64604458956364 0 0 0 0 96.466585327678331 -224.7907370952671 0 -224.7907370952671 315.39764464240216 0 0 0 0 133.00676749939112 -271.23302750192829 0 -271.23302750192829 241.9641865387166 0 0 0 0 146.46330253949054 -177.38805716361458 0 -177.38805716361458 180.75801357643468 0 0 0 0 102.21174803476788 -134.66215424125403 0 -134.66215424125403 327.30190961497283 0 0 0 0 74.697187486703115 -52.866096045706399 0 -52.866096045706399 95.349886448631878 0 0 0 0 78.410106282326524 -219.25263422958415 0 -219.25263422958415 126.28794839484362 0 0 0 0 139.45451976115555 -205.37102747374865 0 -205.37102747374865 69.112087502504437 0 0 0 0 78.154165204095705 -232.06014020341274 0 -232.06014020341274 -276.13406998605569 0 0 0 0 -128.84918539097816 70.143839130128981 0 70.143839130128981 -26.914386160722643 0 0 0 0 -46.783346258615893 -77.997399838971432 0 -77.997399838971432 218.85211171223091 0 0 0 0 312.15264704476067 968.03572489818498 0 968.03572489818498 1218.2455430782338 0 0 0 0 -124.919974272383 -590.27918431225419 0 -590.27918431225419 -20.998827711655395 0 0 0 0 4.1122702479192412 -6.2740148441410959 0 -6.2740148441410959 10.527437218088092 0 0 0 0 -23.07191002228484 173.36540642255341 0 173.36540642255341 388.23053513000741 0 0 0 0 77.828962423043777 -21.386723127956429 0 -21.386723127956429 180.12066232612506 0 0 0 0 124.04249506449287 54.35966198870301 0 54.35966198870301 269.81047774931267 0 0 0 0 -5.5240972575693803 -1.2126920450387431 0 -1.2126920450387431 1.6385825132508245 0 0 0 0 -167.24111469190348 -52.742526922313573 0 -52.742526922313573 128.09926397917661 0 0 0 0 -1.9214292542192197 -144.7678225189411 0 -144.7678225189411 -224.42943400992226 0 0 0 0 74.464263005444991 -286.64823697683914 0 -286.64823697683914 -459.54955795242404 0 0 0 0 -77.031574944975546 97.581132765990333 0 97.581132765990333 -18.076934768880164 0 0 0 0 -121.2817793208078 75.812516565427359 0 75.812516565427359 228.20384601311525 0 0 0 0 -58.017028521895554 -7.977919658483188 0 -7.977919658483188 135.57312104960147 0 0 0 0 -0.49432200951212479 0.77145082258303077 0 0.77145082258303077 -0.20892392914679547 0 0 0 0 107.95991501761455 64.646083274546527 0 64.646083274546527 572.69396118323493 0 0 0 0 -39.856288836491331 -30.718119721435869 0 -30.718119721435869 964.46434919852072 0 0 0 0 81.21335585943234 -387.78418282105486 0 -387.78418282105486 617.49356473681291 0 0 0 0 81.84995599405579 -401.05015513533453 0 -401.05015513533453 338.70234662022631 0 0 0 0 134.72769987726588 -427.26843465627826 0 -427.26843465627826 235.99249165138303 0 0 0 0 -98.761052234706597 -20.47661958886124 0 -20.47661958886124 889.88618482820311 0 0 0 0 703.84993583138976 -31.891207369444601 0 -31.891207369444601 198.57559864770883 0 0 0 0 -136.73316555179872 -350.85326105934837 0 -350.85326105934837 271.36947690949455 0 0 0 0 77.409540373530035 69.685910358144611 0 69.685910358144611 87.592201703660976 0 0 0 0 27.713392115814713 38.774596467679658 0 38.774596467679658 229.24607368774014 0 0 0 0 -74.093542431841342 124.2740088918581 0 124.2740088918581 158.16856838432795 0 0 0 0 340.41379906672091 -19.934060714007501 0 -19.934060714007501 199.37255349685347 0 0 0 0 150.88666880421755 -100.11109962589421 0 -100.11109962589421 241.69983703733305 0 0 0 0 144.57593172442466 18.536809179888223 0 18.536809179888223 124.08849903301598 0 0 0 0 -145.49293211535405 81.911298792419984 0 81.911298792419984 389.9502419169221 0 0 0 0 23.715027641593224 -35.044245271263208 0 -35.044245271263208 239.9888487043354 0 0 0 0 -0.076591412088873767 -12.911528674267174 0 -12.911528674267174 335.80216850969009 0 0 0 0 -82.668749352528721 34.681721877030213 0 34.681721877030213 313.17969996088505 0 0 0 0 -98.756281232286995 -140.12602944828313 0 -140.12602944828313 395.99222076832666 0 0 0 0 -11.281628353007818 65.652490924068388 0 65.652490924068388 273.0127619944833 0 0 0 0 -29.647617942475335 96.444657253185142 0 96.444657253185142 233.47046765104869 0 0 0 0 -58.351809820109338 107.01245563429256 0 107.01245563429256 305.52951381102685 0 0 0 0 -72.615340301397737 121.47748800706904 0 121.47748800706904 353.86077758514512 0 0 0 0 -90.530863722662616 90.191802147637645 0 90.191802147637645 335.96840431569581 0 0 0 0 -47.919398517366062 122.48973863164065 0 122.48973863164065 319.10097985975153 0 0 0 0 -59.594001338990438 106.25796837678354 0 106.25796837678354 317.25104680245568 0 0 0 0 -233.11201141315451 43.635088081093272 0 43.635088081093272 373.24612640339546 0 0 0 0 -88.42313722891862 45.122673432384659 0 45.122673432384659 322.48599943528825 0 0 0 0 -189.99529411888398 -232.11102702065546 0 -232.11102702065546 601.33096637516519 0 0 0 0 -5.1528242913557634 1.8915970860859019 0 1.8915970860859019 0.79633021110104529 0 0 0 0 -75.554036224331867 124.78032471974439 0 124.78032471974439 391.76119423950513 0 0 0 0 -284.88398955483615 78.44935172126543 0 78.44935172126543 365.52530796371866 0 0 0 0 -382.92425395356946 -301.88988210532398 0 -301.88988210532398 78.680208319383382 0 0 0 0 -2.4684622489967136 -1.4220495796472221 0 -1.4220495796472221 -1.4420045224851847 0 0 0 0 25.205068882347405 -83.716549453871266 0 -83.716549453871266 -280.94898237510006 0 0 0 0 -133.26498246618848 200.71405145019526 0 200.71405145019526 599.61290666671789 0 0 0 0 -27.752984262741165 -323.47693394550151 0 -323.47693394550151 -301.02406248105399 0 0 0 0 -286.92586763346844 -88.818435360939475 0 -88.818435360939475 619.09498730017003 0 0 0 0 368.09309793405964 114.69568164499015 0 114.69568164499015 109.02743750296577 0 0 0 0 120.40251877962146 -86.755184543773794 0 -86.755184543773794 348.97340151557728 0 0 0 0 88.093934911426913 23.198257624069811 0 23.198257624069811 239.50118502367695 0 0 0 0 38.043731925019529 32.382096579473 0 32.382096579473 287.6431738317915 0 0 0 0 102.83572098859622 117.60080919789107 0 117.60080919789107 280.86362879084481 0 0 0 0 -8.1022487818299851 64.439723490802862 0 64.439723490802862 255.88243244327168 0 0 0 0 155.72393127639043 150.61052535258204 0 150.61052535258204 324.7780439361668 0 0 0 0 237.87852309211667 40.635491999692022 0 40.635491999692022 284.55529650757671 0 0 0 0 36.417523045685812 158.96773837020737 0 158.96773837020737 366.78229490916419 0 0 0 0 31.731274706329714 149.13957521896373 0 149.13957521896373 324.87465277833689 0 0 0 0 23.948809985940898 111.64902013901155 0 111.64902013901155 314.16228171835246 0 0 0 0 -31.237213935892214 146.62290419951023 0 146.62290419951023 364.81291645239617 0 0 0 0 -44.090647845569038 134.28086653196078 0 134.28086653196078 353.8935065879632 0 0 0 0 16.460296429249865 134.27797524451307 0 134.27797524451307 289.44938573768013 0 0 0 0 -10.556982830272318 116.82114424702377 0 116.82114424702377 301.84043829388975 0 0 0 0 14.417782015402736 75.584675776493896 0 75.584675776493896 156.50962689417065 0 0 0 0 -40.999243840376948 84.609438026607677 0 84.609438026607677 249.19576085899462 0 0 0 0 -22.67671952271121 117.04128340686293 0 117.04128340686293 260.45042110714712 0 0 0 0 -48.285906844881083 54.335628638695198 0 54.335628638695198 220.2926089846078 0 0 0 0 -51.493170437847766 -12.127421162505925 0 -12.127421162505925 230.6462167929858 0 0 0 0 -4.2304354491589038 97.392062806909962 0 97.392062806909962 213.40046542494383 0 0 0 0 -53.040954011456051 -82.446150059731735 0 -82.446150059731735 425.84435348802435 0 0 0 0 17.551941356223324 -35.671141788643581 0 -35.671141788643581 122.67525279042093 0 0 0 0 -31.65410130046439 29.782174300329643 0 29.782174300329643 197.10767277888954 0 0 0 0 -107.35248869954012 36.068330893391249 0 36.068330893391249 399.33775474943832 0 0 0 0 -21.115229633802301 -39.168846390890394 0 -39.168846390890394 349.11229381848534 0 0 0 0 -10.502174791043227 2.9822644610033535 0 2.9822644610033535 -1.5917566818675022 0 0 0 0 268.49568857956683 -42.079016321767995 0 -42.079016321767995 300.41851741751452 0 0 0 0 -123.82675626879609 49.732004694247735 0 49.732004694247735 497.57418671075357 0 0 0 0 -18.503862744733851 116.42316645302162 0 116.42316645302162 379.27198613120163 0 0 0 0 0.19631654265427034 9.8717811186366475 0 9.8717811186366475 21.087284807452356 0 0 0 0 60.954921269863917 30.055349937862047 0 30.055349937862047 220.11693546493188 0 0 0 0 12.723054271867266 54.562441909775202 0 54.562441909775202 23.734558629197807 0 0 0 0 -105.70078448610002 -103.82121933146846 0 -103.82121933146846 134.82502267788732 0 0 0 0 -66.822314001827181 82.985203165866551 0 82.985203165866551 81.962486200503918 0 0 0 0 26.412895044650213 -105.91490721428636 0 -105.91490721428636 266.70973368603882 0 0 0 0 97.928321825689636 136.60931389474717 0 136.60931389474717 287.65885343976697 0 0 0 0 -32.468911915503668 -41.711973376022797 0 -41.711973376022797 136.82599161019971 0 0 0 0 35.624082253096617 -25.863480366884687 0 -25.863480366884687 134.81690052152044 0 0 0 0 1.4395622116521736 -45.763599384674308 0 -45.763599384674308 371.45836082224355 0 0 0 0 67.513958762207039 -2.845854907888679 0 -2.845854907888679 70.973851733866468 0 0 0 0 21.156740953123816 19.385462662044766 0 19.385462662044766 26.858188203761628 0 0 0 0 33.161280413276927 41.107674941453297 0 41.107674941453297 63.129942326565924 0 0 0 0 -31.910196660159272 35.767148987048131 0 35.767148987048131 68.930272209065151 0 0 0 0 6.0141310722888903 -6.3138766935216211 0 -6.3138766935216211 22.380556102099789 0 0 0 0 19.998495370928879 9.9715092744413596 0 9.9715092744413596 110.10597341913308 0 0 0 0 -356.24616947105301 -145.07866334011123 0 -145.07866334011123 113.80757316258587 0 0 0 0 -331.38645088678442 181.3273482908935 0 181.3273482908935 -14.956929913976637 0 0 0 0 -341.81264737994377 -41.058292424628235 0 -41.058292424628235 359.43871428367311 0 0 0 0 282.93072356129863 -46.412208250743788 0 -46.412208250743788 58.460273645130655 0 0 0 0 74.979869432694329 196.3082744676849 0 196.3082744676849 131.07552828875487 0 0 0 0 107.55058785132496 -396.11202082259297 0 -396.11202082259297 71.713619865498913 0 0 0 0 2.6231958207545842 -3.5164461928163444 0 -3.5164461928163444 5.5235580079901041 0 0 0 0 251.32229556712173 -292.73759470842924 0 -292.73759470842924 763.72253664071104 0 0 0 0 546.04911199407434 374.24903190554232 0 374.24903190554232 343.58115484141672 0 0 0 0 700.52894623524207 -393.09819758527334 0 -393.09819758527334 202.12778972681554 0 0 0 0 390.97863333207852 -390.4611717178268 0 -390.4611717178268 217.01358611422984 0 0 0 0 384.87384124854179 -379.4005096880137 0 -379.4005096880137 202.65777746878621 0 0 0 0 388.11572321935137 -418.5845314819835 0 -418.5845314819835 -57.357939161274771 0 0 0 0 60.481459248284409 80.626141387075222 0 80.626141387075222 38.960036889904586 0 0 0 0 399.36877401782704 -586.20958918378165 0 -586.20958918378165 120.26129313296769 0 0 0 0 76.477428649187459 239.75421540037041 0 239.75421540037041 752.45843278704706 0 0 0 0 2.4081017637884257 -4.5464301120893182 0 -4.5464301120893182 6.9860117124443377 0 0 0 0 87.195809266685387 -380.99136875940121 0 -380.99136875940121 258.90898526507954 0 0 0 0 95.144750956674216 -421.88927201422484 0 -421.88927201422484 299.24837502006994 0 0 0 0 170.00413308881798 -141.27234968458652 0 -141.27234968458652 299.73499044166238 0 0 0 0 219.55802843299784 -635.85246088677923 0 -635.85246088677923 627.41815986664005 0 0 0 0 8.7881147089833576 -4.0577831755072111 0 -4.0577831755072111 1011.4422599975987 0 0 0 0 6.2524898654396566 -56.496347731343121 0 -56.496347731343121 -53.530628174390586 0 0 0 0 -252.01444352342696 -460.24211707744325 0 -460.24211707744325 446.95907652004826 0 0 0 0 -429.96179235949967 -112.04203895959654 0 -112.04203895959654 410.1663301646804 0 0 0 0 357.85055826590974 408.96779670666183 0 408.96779670666183 414.51213714519326 0 0 0 0 -151.89909273348485 310.54156485115891 0 310.54156485115891 416.38938160687758 0 0 0 0 -335.13844407742954 20.459701718009455 0 20.459701718009455 307.94481999443815 0 0 0 0 244.61395926018781 140.28410821690341 0 140.28410821690341 162.23953490975691 0 0 0 0 18.891727677120343 63.473902569821803 0 63.473902569821803 212.35133932469034 0 0 0 0 150.85510677804177 -231.8620077895539 0 -231.8620077895539 808.04821659262598 0 0 0 0 283.48260704281586 71.212247781428687 0 71.212247781428687 247.61709519425131 0 0 0 0 788.50297035253197 -177.77270847952241 0 -177.77270847952241 370.29172462715178 0 0 0 0 363.35953794025772 -165.59024451625191 0 -165.59024451625191 382.57229793952138 0 0 0 0 4.4045209518265125 -37.463195592549766 0 -37.463195592549766 448.61816719096532 0 0 0 0 3.1399308033057878 -72.91710798909844 0 -72.91710798909844 637.17507441614907 0 0 0 0 81.716863838434847 136.24562284305102 0 136.24562284305102 236.30522479246156 0 0 0 0 -57.0625185815245 73.078919162548118 0 73.078919162548118 546.94735912808392 0 0 0 0 -52.751382791861488 29.88430072049232 0 29.88430072049232 374.78015367082048 0 0 0 0 -51.604674753095424 -22.161162864256767 0 -22.161162864256767 538.96198953297517 0 0 0 0 -69.67780848841312 26.992477187855002 0 26.992477187855002 425.92640818734799 0 0 0 0 -19.045500566167902 -83.83355645761003 0 -83.83355645761003 352.78306115998294 0 0 0 0 -33.517461231592733 -61.538351033461367 0 -61.538351033461367 325.72749224654399 0 0 0 0 -33.609160612279197 -109.24392330019919 0 -109.24392330019919 280.44181005765859 0 0 0 0 34.895496111038483 -59.116861567985325 0 -59.116861567985325 145.58975472580323 0 0 0 0 -3.840462294190047 -39.714932120396952 0 -39.714932120396952 212.33632882982056 0 0 0 0 -52.239886577837751 -32.784020094670268 0 -32.784020094670268 107.09534659989731 0 0 0 0 -5.2162845579701358 -13.141383323135095 0 -13.141383323135095 29.174173542847278 0 0 0 0 9.8260086985210364 -39.082258365120651 0 -39.082258365120651 143.03198218692478 0 0 0 0 1.5797742251857017 -78.965769471820749 0 -78.965769471820749 141.79077339259311 0 0 0 0 20.598412434681904 -87.976912141006324 0 -87.976912141006324 143.83742830231859 0 0 0 0 29.571438991962879 -36.358004498268201 0 -36.358004498268201 182.824108909801 0 0 0 0 81.384851603963398 -50.857757535661221 0 -50.857757535661221 186.80082448669964 0 0 0 0 -20.196041908774077 -76.655272865145889 0 -76.655272865145889 481.78222547255427 0 0 0 0 69.066742858532621 -63.517908358436216 0 -63.517908358436216 281.63238961804018 0 0 0 0 10.324849637796433 -79.835202254045726 0 -79.835202254045726 301.9301547478899 0 0 0 0 95.49413771098034 -106.8486952454914 0 -106.8486952454914 305.00888514161488 0 0 0 0 95.584746889073941 -24.891437740065271 0 -24.891437740065271 308.65147923343102 0 0 0 0 184.20776913927614 68.978897146331292 0 68.978897146331292 262.50804635527311 0 0 0 0 174.70773647842157 72.510956171518046 0 72.510956171518046 263.31923792854832 0 0 0 0 108.07850084739084 225.29120477209653 0 225.29120477209653 240.42964371836706 0 0 0 0 206.83762408103001 184.79223231580818 0 184.79223231580818 240.06053827588039 0 0 0 0 3.4848627224592441 0.92236851396759789 0 0.92236851396759789 -1.8291357929843741 0 0 0 0 122.18916848104323 259.53518105909643 0 259.53518105909643 343.80322113419061 0 0 0 0 59.231893914647742 116.37720942912802 0 116.37720942912802 482.23576961901927 0 0 0 0 -5.6744439022459119 -57.178785042335221 0 -57.178785042335221 199.35702418633446 0 0 0 0 79.72708516067064 1.8611577673091233 0 1.8611577673091233 90.301410603558907 0 0 0 0 -22.030269459912233 -1.6421677456376074 0 -1.6421677456376074 154.33342165145223 0 0 0 0 7.9084661370532965 -0.78832354158670626 0 -0.78832354158670626 21.731754606757896 0 0 0 0 -2.398320714387209 -60.598284993544425 0 -60.598284993544425 33.930084525474427 0 0 0 0 152.70516717129067 6.0095941297968238 0 6.0095941297968238 61.827510338876891 0 0 0 0 -14.404081945752296 -45.060109055335488 0 -45.060109055335488 150.35585333421295 0 0 0 0 84.112891613760212 0.53992620705867012 0 0.53992620705867012 167.67486600485245 0 0 0 0 -7.8759570994402566 -13.500109210886876 0 -13.500109210886876 188.01388296568621 0 0 0 0 0.65742726455206402 -58.588976166384725 0 -58.588976166384725 48.953164384103843 0 0 0 0 -49.752526094727727 -36.638268623100885 0 -36.638268623100885 225.84803025506699 0 0 0 0 -7.4387262071068108 -11.749228332089842 0 -11.749228332089842 181.83797078476346 0 0 0 0 5.9395090621583222 -76.128874408968841 0 -76.128874408968841 88.440450529116788 0 0 0 0 5.8250801294507255 -95.69214359961552 0 -95.69214359961552 161.3597532702297 0 0 0 0 146.19184229230223 -257.9377243024901 0 -257.9377243024901 263.87283064412622 0 0 0 0 8.0286864474553568 -44.761588103126201 0 -44.761588103126201 76.7405889110305 0 0 0 0 8.9987217720071548 -35.853896004834986 0 -35.853896004834986 26.933433912897335 0 0 0 0 -3.9226128063257644 -24.731185516192113 0 -24.731185516192113 13.684393608490694 0 0 0 0 14.55232333041522 -81.624332490566303 0 -81.624332490566303 80.048968424358463 0 0 0 0 -52.208838350082885 -14.828872470385249 0 -14.828872470385249 144.40384799808999 0 0 0 0 -35.705076680194395 5.2500149989500642 0 5.2500149989500642 91.69906823907877 0 0 0 0 -21.132945681212526 -41.869792321380068 0 -41.869792321380068 55.415383498235812 0 0 0 0 21.996165779437433 30.690683115210049 0 30.690683115210049 203.53387557357428 0 0 0 0 -12.341785437665749 169.83708805162314 0 169.83708805162314 291.8516065166466 0 0 0 0 -5.4566835233326767 3.2092916559648756 0 3.2092916559648756 18.563416295888505 0 0 0 0 -60.949266560675596 -106.89159257126448 0 -106.89159257126448 -2.2371913103925181 0 0 0 0 -34.857066324043672 -67.15066217907588 0 -67.15066217907588 2.3753864643376801 0 0 0 0 -63.538642688060406 10.128505491538363 0 10.128505491538363 121.03004654691904 0 0 0 0 -69.891572001335362 26.796736638631046 0 26.796736638631046 269.2391130409269 0 0 0 0 -50.480613873600532 -39.181659770611077 0 -39.181659770611077 146.11839942132974 0 0 0 0 -60.631336481979133 82.100154566509445 0 82.100154566509445 423.90394664567793 0 0 0 0 -54.051799994864268 -30.545329866796237 0 -30.545329866796237 156.19356208910904 0 0 0 0 -161.67737769390783 -61.194763297011377 0 -61.194763297011377 95.107643749011913 0 0 0 0 -44.787150072735585 26.672652256136644 0 26.672652256136644 -152.63172596355435 0 0 0 0 -93.217389651387293 -211.55847774780705 0 -211.55847774780705 -55.225658400559041 0 0 0 0 -96.429211594381741 27.419876922984258 0 27.419876922984258 94.825639314796717 0 0 0 0 234.01279153990617 160.26093680303347 0 160.26093680303347 182.12826009247055 0 0 0 0 47.130952429116633 -86.675763868299327 0 -86.675763868299327 176.25039646594996 0 0 0 0 -19.473176311978932 -34.589721823478612 0 -34.589721823478612 95.386196528914979 0 0 0 0 -53.085820582321048 -30.589215604923083 0 -30.589215604923083 104.7026053276677 0 0 0 0 135.78517905832223 200.19150873530543 0 200.19150873530543 302.85063210347653 0 0 0 0 210.12629067616672 74.904111799207385 0 74.904111799207385 124.04310195166909 0 0 0 0 208.40090794191474 158.43556269545115 0 158.43556269545115 227.90801916600321 0 0 0 0 100.96564708769858 98.413629906883216 0 98.413629906883216 289.31729189200632 0 0 0 0 81.536494189775567 48.924790351844422 0 48.924790351844422 164.87633027344782 0 0 0 0 117.26021318712947 -2.8646322181011783 0 -2.8646322181011783 145.756848394386 0 0 0 0 11.833658656573789 -64.699210652699549 0 -64.699210652699549 178.01333051809706 0 0 0 0 16.108520499084989 -14.377597252852865 0 -14.377597252852865 185.02008425958047 0 0 0 0 -11.480909772168845 -0.52233966916481744 0 -0.52233966916481744 95.059707047979913 0 0 0 0 -1.5099106934254873 17.876220795922741 0 17.876220795922741 45.52804055064454 0 0 0 0 -11.550575566672251 -4.7913383196755603 0 -4.7913383196755603 56.459425624288997 0 0 0 0 -0.81391561619754604 -13.373907976635529 0 -13.373907976635529 37.424891845628323 0 0 0 0 57.285313232835961 54.871198001150333 0 54.871198001150333 193.61417161660574 0 0 0 0 25.344675265891965 81.179172541866137 0 81.179172541866137 285.55127451648514 0 0 0 0 0.11259865262636826 -26.992718914717042 0 -26.992718914717042 4.5045045993274897 0 0 0 0 122.42911010766613 114.73559236177402 0 114.73559236177402 225.62518218051991 0 0 0 0 111.19207165011767 132.75088742647313 0 132.75088742647313 176.44387665448448 0 0 0 0 12.516046778778673 59.624137157932637 0 59.624137157932637 253.64823184618581 0 0 0 0 0.4591772335476989 -0.83401993096254756 0 -0.83401993096254756 4.7358595098922507 0 0 0 0 12.766065336357373 105.32691803152193 0 105.32691803152193 435.89224567952624 0 0 0 0 93.949374352505174 129.3916378573158 0 129.3916378573158 286.74386779471752 0 0 0 0 8.1569778740433776 87.346283294977184 0 87.346283294977184 276.22427986835828 0 0 0 0 38.114099350235392 143.24712498372719 0 143.24712498372719 271.6777337932981 0 0 0 0 23.861262522430934 80.323995173910589 0 80.323995173910589 253.33552300960309 0 0 0 0 -36.053061956604438 49.645790866924926 0 49.645790866924926 276.90058999975736 0 0 0 0 45.137556381829796 46.85298313432213 0 46.85298313432213 300.55481331030023 0 0 0 0 -1.8462516723128601 97.366608712407469 0 97.366608712407469 319.51829257674308 0 0 0 0 -0.44678405188426495 94.23153335070856 0 94.23153335070856 275.04972230302315 0 0 0 0 8.6294359363841977 81.358507354958419 0 81.358507354958419 272.05769866549599 0 0 0 0 -22.466425502851735 50.577119950127781 0 50.577119950127781 279.96238219248698 0 0 0 0 -19.288247050911821 75.992737676191609 0 75.992737676191609 257.51135359484942 0 0 0 0 -22.009657491924486 62.071001002217599 0 62.071001002217599 253.79670198520762 0 0 0 0 18.787895420030509 76.888760993402684 0 76.888760993402684 235.69729583246772 0 0 0 0 -33.539621326896395 38.008518967304553 0 38.008518967304553 241.13717804322596 0 0 0 0 -20.588090466420113 21.890783352660037 0 21.890783352660037 219.48253653561915 0 0 0 0 -48.494201108316076 17.076250539792454 0 17.076250539792454 230.74754164413753 0 0 0 0 -28.20087978919355 -5.8502529609431804 0 -5.8502529609431804 137.7981804132005 0 0 0 0 464.7374421318741 679.16278775212186 0 679.16278775212186 -210.82797039684647 0 0 0 0 562.60174098487278 484.31336849276295 0 484.31336849276295 -59.821035508673958 0 0 0 0 -0.31890429674408005 1.1459155708321709 0 1.1459155708321709 17.312863881113874 0 0 0 0 365.53321538285957 -223.86849528326684 0 -223.86849528326684 105.10118543857607 0 0 0 0 151.45384481677047 139.29080137681558 0 139.29080137681558 -172.7282100563616 0 0 0 0 -2.8616748685000548 -4.4106221996511508 0 -4.4106221996511508 26.635353027317073 0 0 0 0 -788.50083650354281 270.44418154633968 0 270.44418154633968 205.9995134895762 0 0 0 0 10.77634230719881 103.19063638162675 0 103.19063638162675 270.5800849525549 0 0 0 0 -226.30382846125212 773.902514442555 0 773.902514442555 221.55691864468827 0 0 0 0 -7.7862675062642008 7.2017596663109664 0 7.2017596663109664 2.1620505702295958 0 0 0 0 1338.4568118077473 -879.15771386857523 0 -879.15771386857523 108.283617030919 0 0 0 0 5.4141222510079174 65.527340116195546 0 65.527340116195546 282.91799900682599 0 0 0 0 -1.9395015443927432 8.7353479452107834 0 8.7353479452107834 2.8330476584520454 0 0 0 0 -802.60289514534418 231.21894260446334 0 231.21894260446334 752.8698896188871 0 0 0 0 -1.7709393958532216 5.155448170443254 0 5.155448170443254 3.9008399247074976 0 0 0 0 -731.10067594481484 -218.57277832364889 0 -218.57277832364889 1262.5783857877705 0 0 0 0 -392.30418549688261 427.22003282908008 0 427.22003282908008 -66.995996259272943 0 0 0 0 32.315711495208063 -158.41037881560624 0 -158.41037881560624 231.10821597630866 0 0 0 0 -191.85000521670156 -86.563685055242786 0 -86.563685055242786 249.11420482341782 0 0 0 0 137.86444698927971 -620.18114392298958 0 -620.18114392298958 625.02494090985419 0 0 0 0 26.542698987365497 -299.23417984808293 0 -299.23417984808293 452.94112332567965 0 0 0 0 -84.927168601703556 -0.66092806824326544 0 -0.66092806824326544 259.55949943846463 0 0 0 0 -87.454637470952093 40.884711273497032 0 40.884711273497032 135.60668428537247 0 0 0 0 -45.031496945539857 148.10129953114301 0 148.10129953114301 -212.86331368969331 0 0 0 0 -189.67909162769661 176.93108418085467 0 176.93108418085467 227.9381094690616 0 0 0 0 27.669187883590894 19.121172596325778 0 19.121172596325778 15.918012402224122 0 0 0 0 -2.2790258387449285 -19.050658253966049 0 -19.050658253966049 126.39740987284313 0 0 0 0 -26.018176716701873 125.96020503748878 0 125.96020503748878 -33.89422955520422 0 0 0 0 0.23440171795074438 19.188130970736982 0 19.188130970736982 91.020363889510989 0 0 0 0 -53.429752307683742 2.3836115851454451 0 2.3836115851454451 101.81814291078626 0 0 0 0 -21.022155071407724 53.701066903342507 0 53.701066903342507 107.21766800512705 0 0 0 0 -12.277926485269347 59.859954399838671 0 59.859954399838671 87.612450744611124 0 0 0 0 -34.469996183286469 -10.730558987325026 0 -10.730558987325026 107.3881879678629 0 0 0 0 1.5205641698461001 13.299095410689933 0 13.299095410689933 98.941587696947963 0 0 0 0 -170.29787357944633 -35.290032100047029 0 -35.290032100047029 95.276243692191201 0 0 0 0 -3.4219594613008226 -25.711997511188656 0 -25.711997511188656 66.251972474023205 0 0 0 0 0.80978914816455472 -8.0872202639902753 0 -8.0872202639902753 104.38721130973954 0 0 0 0 -37.24531250726568 -25.927793952748289 0 -25.927793952748289 137.58739661455846 0 0 0 0 -54.74085793618579 -60.673484370185633 0 -60.673484370185633 125.96605393065329 0 0 0 0 155.25712496667177 -116.18034144887861 0 -116.18034144887861 50.778956789472431 0 0 0 0 58.244330673761624 -70.20623537947904 0 -70.20623537947904 68.075147074084271 0 0 0 0 26.382779930972475 -30.335024130858073 0 -30.335024130858073 27.90668877195094 0 0 0 0 -0.30334208636134008 -25.767545808779687 0 -25.767545808779687 53.955412641429575 0 0 0 0 26.326932503664224 -71.106467006538878 0 -71.106467006538878 90.32630632339351 0 0 0 0 -5.041376217272159 -31.503055677392695 0 -31.503055677392695 79.382578848330013 0 0 0 0 -8.6312852643133375 -12.947284759746424 0 -12.947284759746424 49.700935338529234 0 0 0 0 -40.368301549120929 -5.9223191789978955 0 -5.9223191789978955 59.089150929863536 0 0 0 0 12.269509278037788 -13.65375642402887 0 -13.65375642402887 40.828711769983784 0 0 0 0 -147.44883773442871 62.931621039745323 0 62.931621039745323 351.53798807313706 0 0 0 0 -0.40852096869795518 -3.6375999430243038 0 -3.6375999430243038 48.280376711333219 0 0 0 0 -120.62940983050032 1.3740752711628375 0 1.3740752711628375 76.548908602673691 0 0 0 0 -50.163515834774103 -31.512467147378629 0 -31.512467147378629 48.226794796518334 0 0 0 0 153.80718489677287 58.440881075430013 0 58.440881075430013 173.21420777305775 0 0 0 0 -34.243012041770044 60.596936036503394 0 60.596936036503394 12.09970431137117 0 0 0 0 78.759961584063433 26.595488807525498 0 26.595488807525498 -24.601421189454413 0 0 0 0 148.08974273132515 -33.215765039332155 0 -33.215765039332155 7.7894562015535485 0 0 0 0 497.40289624568231 256.96323512047093 0 256.96323512047093 210.43168697458896 0 0 0 0 -12.941008093851451 150.39576347869297 0 150.39576347869297 101.54096579158795 0 0 0 0 -15.476598055236536 110.34244008142559 0 110.34244008142559 -30.765146309917327 0 0 0 0 0.17703862358464306 -3.0763013913706061 0 -3.0763013913706061 10.190661256440052 0 0 0 0 -0.65597325886665203 159.87899193240446 0 159.87899193240446 -438.00551096930576 0 0 0 0 -5.8168263884796794 8.7374485350326694 0 8.7374485350326694 6.8412544170104752 0 0 0 0 -116.96378521119277 131.8239250662009 0 131.8239250662009 -297.88261977215006 0 0 0 0 100.01281657590971 52.273658035483095 0 52.273658035483095 -330.63512801690376 0 0 0 0 -31.332811033506005 225.63097356501385 0 225.63097356501385 -197.37670152520877 0 0 0 0 -0.28604889396233091 0.41802586723523838 0 0.41802586723523838 5.3384624370451377 0 0 0 0 115.04505101697032 321.06701199883537 0 321.06701199883537 -146.84086933989602 0 0 0 0 -211.49175420570759 259.88645267938045 0 259.88645267938045 140.52199712632864 0 0 0 0 -180.86742188122025 -15.508226857040427 0 -15.508226857040427 527.7817142744243 0 0 0 0 -95.67573910223382 8.1237092635055888 0 8.1237092635055888 209.58663025693386 0 0 0 0 -93.317594996178741 36.743380063031509 0 36.743380063031509 242.47651219235559 0 0 0 0 -88.715131942366497 35.059430889850773 0 35.059430889850773 115.40284490866907 0 0 0 0 -143.46224126966081 -3.2277145653206389 0 -3.2277145653206389 104.50419831472391 0 0 0 0 -74.635182124965468 0.0053376032101368764 0 0.0053376032101368764 199.65578851533792 0 0 0 0 -93.243576902207906 2.8801230005274192 0 2.8801230005274192 204.43415808923601 0 0 0 0 -10.294401769094065 2.2087334931411533 0 2.2087334931411533 132.45504202738084 0 0 0 0 -19.133126014831127 17.49276731495668 0 17.49276731495668 21.295717907704407 0 0 0 0 -29.752248532231079 8.9138145360375347 0 8.9138145360375347 135.0313939529151 0 0 0 0 -20.56991267804289 17.86702674881127 0 17.86702674881127 42.450414200509293 0 0 0 0 -7.5521037165358393 -13.891741737534176 0 -13.891741737534176 187.22091649930735 0 0 0 0 -14.903725886400935 -24.538305694099108 0 -24.538305694099108 177.75685760212218 0 0 0 0 -17.754211308140839 -1.4042299156644731 0 -1.4042299156644731 77.389990679861512 0 0 0 0 -75.819696838644631 -2.138227892897703 0 -2.138227892897703 77.399508602128549 0 0 0 0 -320.34935965407067 -599.49089146706319 0 -599.49089146706319 15.134043992235092 0 0 0 0 -5.9971774744549293 -17.069408820545505 0 -17.069408820545505 66.10995577355061 0 0 0 0 1.7317886665401367 -16.304850096399651 0 -16.304850096399651 49.933542186165653 0 0 0 0 -25.334448639905986 -36.214901806786656 0 -36.214901806786656 90.076404148650909 0 0 0 0 -240.60159089975809 829.66847308055731 0 829.66847308055731 856.49593835628184 0 0 0 0 -19.998087391390072 -39.326936050227232 0 -39.326936050227232 31.452725627284963 0 0 0 0 -29.672754944406734 -94.92792838022433 0 -94.92792838022433 46.980738633006695 0 0 0 0 2.678936895511896 -9.9831867884335423 0 -9.9831867884335423 35.289946286899834 0 0 0 0 -594.01801651497817 124.40373456409725 0 124.40373456409725 535.89121754368534 0 0 0 0 24.422295342931648 -21.112610127514017 0 -21.112610127514017 34.792761441327457 0 0 0 0 220.16389546076562 131.89142150426051 0 131.89142150426051 -9.0045943508830533 0 0 0 0 225.81946620746885 -318.1832351117514 0 -318.1832351117514 304.48386485932861 0 0 0 0 1.6968478715441764 4.190187293323838 0 4.190187293323838 16.110966726661616 0 0 0 0 754.74539387991581 485.69626780449107 0 485.69626780449107 35.324049113696674 0 0 0 0 -25.48919857386818 336.62866300481983 0 336.62866300481983 998.73862299377652 0 0 0 0 -26.872080683650893 21.988979345114785 0 21.988979345114785 -165.18693011454889 0 0 0 0 1060.5838413902757 325.94238781069726 0 325.94238781069726 -80.282131801679498 0 0 0 0 690.45262114260822 -984.34586023661541 0 -984.34586023661541 -101.40606576967912 0 0 0 0 -440.48880988783458 -54.54679890893749 0 -54.54679890893749 161.35800192661918 0 0 0 0 -664.23209571979532 133.15573352466163 0 133.15573352466163 361.44836395272432 0 0 0 0 -121.41103208781806 53.029380846855929 0 53.029380846855929 162.07627280850284 0 0 0 0 -485.26738729910494 221.40036139170479 0 221.40036139170479 324.9565598408808 0 0 0 0 -104.96721751812515 -160.51520028306913 0 -160.51520028306913 74.875788320641732 0 0 0 0 3.060057857576794 -70.409533294259745 0 -70.409533294259745 66.746818308689399 0 0 0 0 -205.9948635760602 -159.14624883017314 0 -159.14624883017314 -29.216136355997605 0 0 0 0 -224.9793955956211 213.51448041868935 0 213.51448041868935 -54.71973698232614 0 0 0 0 -81.280661820775094 109.53342658168185 0 109.53342658168185 237.32311739760917 0 0 0 0 35.636603411458054 -169.90563898075197 0 -169.90563898075197 168.34639032612176 0 0 0 0 -154.70223676773207 -40.391651465306495 0 -40.391651465306495 215.07716154418449 0 0 0 0 87.989940705684603 -150.39300895226188 0 -150.39300895226188 81.443511380071868 0 0 0 0 48.572777981987656 -162.21498664893443 0 -162.21498664893443 211.22488358756527 0 0 0 0 -487.18665057748535 52.595491776001836 0 52.595491776001836 168.09095335254096 0 0 0 0 -1.2179874297677582 0.51014920586139034 0 0.51014920586139034 10.666560380722956 0 0 0 0 9.0440569374047755 -306.25984860753215 0 -306.25984860753215 243.04583408877807 0 0 0 0 -57.458466330213014 -67.535218023505877 0 -67.535218023505877 -17.355008086175076 0 0 0 0 -53.252888905545205 -268.9347687163463 0 -268.9347687163463 195.51774396008477 0 0 0 0 24.904512386081478 -187.74256833619438 0 -187.74256833619438 277.66613167559262 0 0 0 0 147.47484008038828 -288.91358831859907 0 -288.91358831859907 214.75876459963911 0 0 0 0 133.23636627937549 -210.09790585094015 0 -210.09790585094015 324.19015720947937 0 0 0 0 88.014493876094093 -278.50231807059754 0 -278.50231807059754 241.44952873483271 0 0 0 0 -57.75344050579497 -282.55524616412004 0 -282.55524616412004 301.62370005585399 0 0 0 0 138.95417314007818 -304.95451156290437 0 -304.95451156290437 284.08059417884215 0 0 0 0 80.458763116924274 -242.76809837413748 0 -242.76809837413748 262.2420965055353 0 0 0 0 -62.588584404213634 -233.00201971730712 0 -233.00201971730712 418.60910848369531 0 0 0 0 -65.179923188839439 46.440496139201059 0 46.440496139201059 71.954623298748629 0 0 0 0 -40.608413318459043 9.5419546082957822 0 9.5419546082957822 54.434754878951935 0 0 0 0 -23.417267088935205 -41.383281514827104 0 -41.383281514827104 108.13192598959722 0 0 0 0 -49.530684032794738 -0.11749870253697736 0 -0.11749870253697736 45.681836313960957 0 0 0 0 -26.178534037132067 -30.022055013319914 0 -30.022055013319914 13.52925604055963 0 0 0 0 8.7289314458821536 7.2869043920072727 0 7.2869043920072727 -6.7139782731246669 0 0 0 0 326.23890237707565 -184.4032551595883 0 -184.4032551595883 111.67068406168255 0 0 0 0 -1.3187664948822588 -0.18995277940217647 0 -0.18995277940217647 3.8427019062918646 0 0 0 0 0.43378266986181835 -0.23325796276800759 0 -0.23325796276800759 2.2235945459712525 0 0 0 0 319.49184546008564 -419.73923817982723 0 -419.73923817982723 487.46948597066512 0 0 0 0 363.61399773608537 -287.83411619211256 0 -287.83411619211256 258.93210343034298 0 0 0 0 293.50608179546725 -329.28482220586739 0 -329.28482220586739 224.2208023397834 0 0 0 0 210.3535684186445 -217.5449432590467 0 -217.5449432590467 279.13559219941817 0 0 0 0 283.46409965927978 -287.96020766117726 0 -287.96020766117726 315.42074249482539 0 0 0 0 -43.140293291496619 56.428025826495286 0 56.428025826495286 -20.949233172439563 0 0 0 0 -0.1766348461591285 2.0428371350832748 0 2.0428371350832748 8.0227949093089705 0 0 0 0 286.7899638240836 -306.50703150017807 0 -306.50703150017807 234.31291525655251 0 0 0 0 4.6365254243503777 0.060930426641476743 0 0.060930426641476743 1.095718965310482 0 0 0 0 4.6289965309806576 -10.261242643478909 0 -10.261242643478909 19.443024371605134 0 0 0 0 346.37878525815677 -419.78982283590449 0 -419.78982283590449 358.99914969020756 0 0 0 0 9.8516642449940264 -8.0024219322913268 0 -8.0024219322913268 7.037891939849942 0 0 0 0 481.28313207644328 -85.509818097343668 0 -85.509818097343668 32.642311798059382 0 0 0 0 2.5500078038212628 4.1006647828076837 0 4.1006647828076837 10.083320409010952 0 0 0 0 275.90920333372833 -317.01748579526611 0 -317.01748579526611 231.4288176180653 0 0 0 0 180.16591425353181 -302.94316519586937 0 -302.94316519586937 284.0176140612748 0 0 0 0 279.53259596065618 -288.50731029890449 0 -288.50731029890449 202.03745566658472 0 0 0 0 70.744844767164977 -109.08285370754311 0 -109.08285370754311 272.27927373289822 0 0 0 0 146.20944533558122 -235.87948291540306 0 -235.87948291540306 464.03586060318048 0 0 0 0 167.71163528251236 11.688841935909295 0 11.688841935909295 318.73294096263271 0 0 0 0 395.40283523835296 -167.5972328211501 0 -167.5972328211501 473.75656062057533 0 0 0 0 429.31699768566466 -414.53987796161937 0 -414.53987796161937 726.82001141110959 0 0 0 0 180.24268904931432 -171.55308960158436 0 -171.55308960158436 574.8986048616789 0 0 0 0 163.63089423389138 -73.57320970660453 0 -73.57320970660453 640.61262047666241 0 0 0 0 4.4446854808355098 2.9851406850806654 0 2.9851406850806654 4.2548711987367653 0 0 0 0 268.16598176367188 -462.39186606542353 0 -462.39186606542353 1017.5936464557799 0 0 0 0 269.3573025318492 -469.40381294229155 0 -469.40381294229155 806.119297216821 0 0 0 0 -25.257403427297504 310.54992278221471 0 310.54992278221471 871.67343831667677 0 0 0 0 231.6811860839025 227.53966748192761 0 227.53966748192761 157.02977249650576 0 0 0 0 227.61163276693151 194.44150812682346 0 194.44150812682346 174.0910050507664 0 0 0 0 -42.860407268028439 -90.808449659774851 0 -90.808449659774851 30.522946775869059 0 0 0 0 3.850500288581066 2.3987844443072959 0 2.3987844443072959 15.001349301304188 0 0 0 0 7.665114622303463 -4.7306848833904951 0 -4.7306848833904951 19.651243752698065 0 0 0 0 17.998134255619334 0.51521420585777378 0 0.51521420585777378 8.7152581496848143 0 0 0 0 10.266340337073217 -1.7241156883660409 0 -1.7241156883660409 10.265034472525002 0 0 0 0 1.7990276780651282 1.9457850038811983 0 1.9457850038811983 1.2234877436968503 0 0 0 0 -7.7693468353800199 -14.224993905620067 0 -14.224993905620067 62.897992459795205 0 0 0 0 5.8059509349386644 23.541988218566985 0 23.541988218566985 46.908328108431306 0 0 0 0 1.4465300237956438 0.37989075400952288 0 0.37989075400952288 4.6635648985475484 0 0 0 0 -22.808375192522362 302.25393687297037 0 302.25393687297037 1117.0688953141798 0 0 0 0 10.614674688046442 1.6416740059216295 0 1.6416740059216295 -0.030352737429979015 0 0 0 0 -114.36971563764382 -55.505076184163045 0 -55.505076184163045 1222.4001085306609 0 0 0 0 -143.68948129892851 162.95766876092966 0 162.95766876092966 964.05922828610346 0 0 0 0 -39.871593649291754 -22.223178987827851 0 -22.223178987827851 318.51353024674609 0 0 0 0 119.80367968006976 128.64374941954156 0 128.64374941954156 42.853251436463324 0 0 0 0 19.554754093471274 -24.752059996448224 0 -24.752059996448224 -34.706741641519329 0 0 0 0 23.796011969277117 7.3895264757756962 0 7.3895264757756962 5.9316492475670515 0 0 0 0 0.36509720730202844 0.093798089180694433 0 0.093798089180694433 1.4484646837797186 0 0 0 0 2.7482779243546247 110.27479664857674 0 110.27479664857674 160.88704056851566 0 0 0 0 -236.95061348972195 107.78273894876475 0 107.78273894876475 210.40042891395569 0 0 0 0 370.75029727492074 -19.040154965281545 0 -19.040154965281545 -79.788065651817305 0 0 0 0 -101.04907180101964 -53.876850905970059 0 -53.876850905970059 122.50138146811514 0 0 0 0 -18.396804260148201 -12.411491421713436 0 -12.411491421713436 129.49684104776316 0 0 0 0 8.222465224636835 -17.640146410718444 0 -17.640146410718444 18.889852596141282 0 0 0 0 6.4639002430635202 -13.154160514387115 0 -13.154160514387115 12.03030242937453 0 0 0 0 223.09748913011344 96.538703503872966 0 96.538703503872966 103.87223540146078 0 0 0 0 128.44502806124228 66.742538828239049 0 66.742538828239049 111.15528983699187 0 0 0 0 7.5042894871287062 -9.6010445887250029 0 -9.6010445887250029 10.326146105284209 0 0 0 0 10.10075981733538 -12.67801733507946 0 -12.67801733507946 16.509701515071001 0 0 0 0 0.077871674505140653 -9.299412729310788 0 -9.299412729310788 14.991403904793771 0 0 0 0 10.636736086876226 -9.7916698422413901 0 -9.7916698422413901 20.162144063007872 0 0 0 0 11.052989120555139 -4.7304396049512434 0 -4.7304396049512434 21.911654984214692 0 0 0 0 -100.21793422393148 -160.81348231099582 0 -160.81348231099582 -7.3035804708706564 0 0 0 0 -42.8656817843098 26.525666230620118 0 26.525666230620118 126.55396783761898 0 0 0 0 -69.525288365151937 -11.250996901857434 0 -11.250996901857434 145.02021596099075 0 0 0 0 -77.732804798575444 -29.377880792144424 0 -29.377880792144424 107.93133527586178 0 0 0 0 -6.0564501823209866 0.15110622678184882 0 0.15110622678184882 33.287240345758619 0 0 0 0 14.606777970730588 7.0140399509280513 0 7.0140399509280513 35.233383909257753 0 0 0 0 -1.3493895030590242 -7.3510192557968992 0 -7.3510192557968992 27.295278272125898 0 0 0 0 0.50076933107044308 -13.186057941308462 0 -13.186057941308462 50.693868549475553 0 0 0 0 105.22734747799382 142.57154210525186 0 142.57154210525186 -137.95767684989551 0 0 0 0 -30.374818397863351 2.6140895922726486 0 2.6140895922726486 41.865712649763736 0 0 0 0 5.936755692219343 -0.35847641314903456 0 -0.35847641314903456 2.7035590470684809 0 0 0 0 6.3360972992600182 -2.0035810398767353 0 -2.0035810398767353 21.653076167582185 0 0 0 0 438.01820786227904 101.71181762572087 0 101.71181762572087 -96.363764946876472 0 0 0 0 20.6957766490724 -117.60232240949699 0 -117.60232240949699 -168.6659663984974 0 0 0 0 7.6632260776649126 -9.2435421999218477 0 -9.2435421999218477 7.6667730283399607 0 0 0 0 -171.05829131077132 -92.488625589201547 0 -92.488625589201547 380.80801533331396 0 0 0 0 1.7563353412292528 -3.2763255309195145 0 -3.2763255309195145 1.8889983135167938 0 0 0 0 137.35623855719814 193.13140099688462 0 193.13140099688462 211.05385403027685 0 0 0 0 293.51759959054175 -122.2779006779856 0 -122.2779006779856 53.153508811163192 0 0 0 0 -87.102811749862838 57.545138286779547 0 57.545138286779547 309.55988886007253 0 0 0 0 79.062061194251783 -178.79586470403592 0 -178.79586470403592 259.67381643378758 0 0 0 0 -37.989945465983965 -51.807559939625207 0 -51.807559939625207 121.96964453396504 0 0 0 0 22.894336389827572 -109.48174662618476 0 -109.48174662618476 118.25727128011931 0 0 0 0 107.25331827681487 -77.570945063100226 0 -77.570945063100226 64.74132302882208 0 0 0 0 77.03051829155288 -20.59871953696711 0 -20.59871953696711 14.7526656872069 0 0 0 0 -4.4922306064016713 5.8784742534525236 0 5.8784742534525236 13.820696430838751 0 0 0 0 42.735764587160247 -19.709685485831869 0 -19.709685485831869 63.724554957603686 0 0 0 0 36.448608599170598 -22.55415322452609 0 -22.55415322452609 66.789063554857421 0 0 0 0 -10.989259642934091 5.6773437582622108 0 5.6773437582622108 25.69102221151644 0 0 0 0 21.712426942256911 -46.202557286476804 0 -46.202557286476804 74.907862200292584 0 0 0 0 21.627569174899918 -47.936422254124409 0 -47.936422254124409 86.192067066440359 0 0 0 0 29.664440007516077 -61.903333824207948 0 -61.903333824207948 81.57612120990234 0 0 0 0 28.688320884003865 -56.613035046917503 0 -56.613035046917503 59.532540723554121 0 0 0 0 -8.7949846026549494 -0.84357730497868033 0 -0.84357730497868033 73.750688094746693 0 0 0 0 -22.494881899589927 12.036306678855908 0 12.036306678855908 72.559530624406761 0 0 0 0 -10.734572020645182 3.5278318079754172 0 3.5278318079754172 51.176300885027217 0 0 0 0 -49.189869572396674 11.26338387830765 0 11.26338387830765 95.328829474863596 0 0 0 0 -18.657598736779356 12.247557223855395 0 12.247557223855395 49.215825515809755 0 0 0 0 -13.434809976210772 28.431815343528797 0 28.431815343528797 56.197107357176719 0 0 0 0 -17.431588212532006 0.099396627592795994 0 0.099396627592795994 65.218890256819577 0 0 0 0 -2.1774144640236273 61.913098003405139 0 61.913098003405139 51.302852342036203 0 0 0 0 -36.750417025709567 33.483654322135408 0 33.483654322135408 65.329261739185313 0 0 0 0 -14.498525718939486 18.994454725821996 0 18.994454725821996 50.877566893277972 0 0 0 0 -4.9791505544175072 -1.7727343495372025 0 -1.7727343495372025 66.529671641287109 0 0 0 0 -30.421853294461471 5.4295192297722679 0 5.4295192297722679 96.663064407969159 0 0 0 0 -23.422227433947455 11.998096984718359 0 11.998096984718359 95.144333154850756 0 0 0 0 -15.519665526579047 9.2568639314413304 0 9.2568639314413304 96.422568205278367 0 0 0 0 -7.0222282565482601 22.597868898781599 0 22.597868898781599 93.705558266243315 0 0 0 0 -18.079867030623063 1.8870492852438474 0 1.8870492852438474 100.9367793203528 0 0 0 0 -2.9225849840131559 9.8638011734692554 0 9.8638011734692554 101.54276113555534 0 0 0 0 9.0063572255494364 -14.31260259100236 0 -14.31260259100236 108.88241789117183 0 0 0 0 -6.5246960690019478 -3.4919236963141884 0 -3.4919236963141884 114.69513181311777 0 0 0 0 1.1994944616089924 22.572807649466995 0 22.572807649466995 109.62231872868142 0 0 0 0 -8.5090664552953967 -19.616204637008195 0 -19.616204637008195 70.314037428062875 0 0 0 0 -5.8162986245195434 1.3264633537779531 0 1.3264633537779531 29.668823211485517 0 0 0 0 -5.4450682969236368 -31.942055535197142 0 -31.942055535197142 85.51103427929047 0 0 0 0 21.081130020204 -17.827010404987959 0 -17.827010404987959 172.58311201666947 0 0 0 0 16.032875577067898 -18.895002087316243 0 -18.895002087316243 118.28466128650325 0 0 0 0 32.996516592280386 -20.563026615622221 0 -20.563026615622221 111.35153757769149 0 0 0 0 -7.485090544474879 -2.0490140825665435 0 -2.0490140825665435 11.909249049289059 0 0 0 0 -8.2534682312598306 -10.138411117572105 0 -10.138411117572105 120.01593973617128 0 0 0 0 -0.90715465420635155 -9.3281644773451262 0 -9.3281644773451262 95.800023593066726 0 0 0 0 -13.812070469378341 -15.987544509553118 0 -15.987544509553118 116.58000993359019 0 0 0 0 20.86094206206235 -4.2654442966522765 0 -4.2654442966522765 112.54969274421455 0 0 0 0 0.22356799177578068 -2.0584443703410216 0 -2.0584443703410216 118.12316466053016 0 0 0 0 40.673904417440099 -45.040124480510713 0 -45.040124480510713 70.619778092339402 0 0 0 0 -35.75437063477716 17.030062338239077 0 17.030062338239077 107.26848373668327 0 0 0 0 -3.5676702318642626 -9.2558964428395853 0 -9.2558964428395853 71.129344522131362 0 0 0 0 -30.753848934190501 -29.743520253367024 0 -29.743520253367024 84.673241171884001 0 0 0 0 -13.62058388585433 -16.360513007642567 0 -16.360513007642567 66.240673098305706 0 0 0 0 -5.483237175270915 -6.4344764737179503 0 -6.4344764737179503 66.408780993013352 0 0 0 0 6.1175436265002645 3.3467451876495034 0 3.3467451876495034 71.015621183381882 0 0 0 0 131.16359666720382 -1.6104163202253403 0 -1.6104163202253403 92.997187308403227 0 0 0 0 -6.7450075351765655 9.9320365147956977 0 9.9320365147956977 46.749498020884971 0 0 0 0 -21.293282222531509 13.19162928288717 0 13.19162928288717 52.802145509293837 0 0 0 0 -40.033621358816163 41.647648645128356 0 41.647648645128356 -15.212299969512969 0 0 0 0 -5.2341301650456167 1.0708032402185097 0 1.0708032402185097 33.388317057018583 0 0 0 0 -15.540735510925515 5.985610533367435 0 5.985610533367435 33.15846210840391 0 0 0 0 13.45326039428619 -20.272108764474979 0 -20.272108764474979 29.264983057393692 0 0 0 0 -14.799257167377812 -9.1105689502915936 0 -9.1105689502915936 74.103206568049615 0 0 0 0 39.726088946576056 -7.5170320174656808 0 -7.5170320174656808 59.993894471524982 0 0 0 0 37.494668995712345 1.5937384946664679 0 1.5937384946664679 -46.509586467880581 0 0 0 0 5.1312561828010281 -11.484599032661038 0 -11.484599032661038 11.43435144923032 0 0 0 0 25.09482589367326 15.133656142555992 0 15.133656142555992 72.0902698772843 0 0 0 0 49.18201479336858 99.780511229502736 0 99.780511229502736 51.538490302831633 0 0 0 0 40.031757434428528 34.248927663131326 0 34.248927663131326 156.25840410833189 0 0 0 0 -5.0555127475918455 5.5287392899742827 0 5.5287392899742827 40.537289812805597 0 0 0 0 9.4866885437104429 65.672799623367609 0 65.672799623367609 238.12326806533383 0 0 0 0 -9.9632876587733108 -82.164475691151893 0 -82.164475691151893 130.2195405888051 0 0 0 0 -27.460903295059779 -35.7213998134539 0 -35.7213998134539 71.254145894228714 0 0 0 0 -7.3711788073237585 -14.210584975415259 0 -14.210584975415259 41.41443867644557 0 0 0 0 -37.394894254023257 -2.5788683726386807 0 -2.5788683726386807 139.05679369877907 0 0 0 0 -11.546668945328292 -0.76457300767651759 0 -0.76457300767651759 79.114851781792822 0 0 0 0 -6.5504028526618816 8.8536148495495723 0 8.8536148495495723 19.71846490238768 0 0 0 0 19.03196701618981 1.174737846275093 0 1.174737846275093 64.769247532371082 0 0 0 0 -14.599019962650608 -16.15029040103218 0 -16.15029040103218 48.220079013247698 0 0 0 0 1.0133523216279627 4.6306053171501844 0 4.6306053171501844 91.072569653399114 0 0 0 0 1.9505608252158133 -19.540707809176084 0 -19.540707809176084 46.567282938871308 0 0 0 0 -9.233661150305764 -40.374160896717143 0 -40.374160896717143 58.488417654493745 0 0 0 0 45.292821409959743 -85.622473417035508 0 -85.622473417035508 82.231956452204031 0 0 0 0 -21.087051991871704 -46.242550841212505 0 -46.242550841212505 131.18466650597838 0 0 0 0 -8.7977582492985675 -26.011921349601835 0 -26.011921349601835 340.40080259773481 0 0 0 0 1.9709680287901143 -1.3810278350244261 0 -1.3810278350244261 -2.7713781175631311 0 0 0 0 -30.902370141981919 49.927251535918913 0 49.927251535918913 520.02253034537716 0 0 0 0 5.1276809033597601 28.467563819642237 0 28.467563819642237 293.1820186528912 0 0 0 0 56.95922777930582 -60.509345005541036 0 -60.509345005541036 598.4716371379327 0 0 0 0 68.555871309416943 -154.59660956760126 0 -154.59660956760126 122.87297967013001 0 0 0 0 -17.671237085126062 1.9708717238454057 0 1.9708717238454057 131.2832564290247 0 0 0 0 -9.0448357904780821 -13.847307813133028 0 -13.847307813133028 48.142896065773229 0 0 0 0 -12.424594710473684 3.0402550718208659 0 3.0402550718208659 78.033161113373353 0 0 0 0 -2.8065584131511141 -46.531606178005148 0 -46.531606178005148 26.908461982222811 0 0 0 0 2.211035278220379 -21.663306313930661 0 -21.663306313930661 85.38827038033196 0 0 0 0 2.7422784848951096 -24.556852947650441 0 -24.556852947650441 99.595669061789522 0 0 0 0 -7.9392467162779212 -25.783739448044798 0 -25.783739448044798 99.456214537345659 0 0 0 0 14.237312942163953 -26.017979681957513 0 -26.017979681957513 82.564770526565553 0 0 0 0 -25.295609537227392 -84.398633218355826 0 -84.398633218355826 -167.80411655714124 0 0 0 0 -13.897111949660598 -37.78956527102261 0 -37.78956527102261 38.556355804105941 0 0 0 0 9.9189254384096444 -7.2517546451579307 0 -7.2517546451579307 -7.1187397835798834 0 0 0 0 23.839059501011434 4.4813550239268807 0 4.4813550239268807 95.622620003614429 0 0 0 0 -15.306036335740828 24.722292224272678 0 24.722292224272678 300.38077417787281 0 0 0 0 101.63623529990764 56.752963711827761 0 56.752963711827761 111.73602536688122 0 0 0 0 0.18200819460834516 -1.2094487647251597 0 -1.2094487647251597 14.198391623857258 0 0 0 0 89.188021968027897 -13.526728836121038 0 -13.526728836121038 160.55234263709917 0 0 0 0 104.41044734836396 90.202027595951222 0 90.202027595951222 186.57873102245867 0 0 0 0 -0.2601374494574582 -4.8773690287809686 0 -4.8773690287809686 16.436850157657148 0 0 0 0 44.854363639554322 140.48469628394741 0 140.48469628394741 334.65686200073105 0 0 0 0 52.877991293536979 140.99083451234401 0 140.99083451234401 154.53936418236299 0 0 0 0 -42.664035681041469 72.872715976881409 0 72.872715976881409 555.51951937204285 0 0 0 0 -35.12098857847559 92.779030012632575 0 92.779030012632575 564.10253866035055 0 0 0 0 -6.4290329996329092 15.940768965287134 0 15.940768965287134 332.93250870305201 0 0 0 0 34.171062729928963 -23.296941818582127 0 -23.296941818582127 702.22008672228549 0 0 0 0 -12.930411497618479 129.60766253697511 0 129.60766253697511 634.05894208193058 0 0 0 0 -11.382967611298227 15.376210771843034 0 15.376210771843034 671.31910881984368 0 0 0 0 -46.807267055909506 -24.504622208940418 0 -24.504622208940418 344.61723901494406 0 0 0 0 -42.080882611736342 -89.057724447322471 0 -89.057724447322471 334.82736216675403 0 0 0 0 -103.53835139372677 -82.833149734935432 0 -82.833149734935432 588.83762158082027 0 0 0 0 -34.801818381116846 68.232600357800038 0 68.232600357800038 286.68890578470746 0 0 0 0 -163.90281569125182 -16.679170067607629 0 -16.679170067607629 349.80805068981135 0 0 0 0 2.5935152008473779 -31.553978112442564 0 -31.553978112442564 188.9970246018529 0 0 0 0 -31.015359409562279 -87.033575936851776 0 -87.033575936851776 273.59511150400431 0 0 0 0 0.27360692995063474 -0.82902174760759095 0 -0.82902174760759095 -1.2955599573466108 0 0 0 0 -46.633238859864832 -74.081255509981929 0 -74.081255509981929 305.27432288001182 0 0 0 0 16.13511038872668 -53.576103163811659 0 -53.576103163811659 33.329078080078858 0 0 0 0 -44.308953606471732 6.486599959054729 0 6.486599959054729 340.63474174766998 0 0 0 0 54.757168410676741 -104.23079987891106 0 -104.23079987891106 164.84743809486827 0 0 0 0 20.494115828801682 -86.166366551535702 0 -86.166366551535702 169.11772489793293 0 0 0 0 3.1538674218630049 -45.505533269585236 0 -45.505533269585236 28.79057520811098 0 0 0 0 56.732048885679433 -7.1206954472963844 0 -7.1206954472963844 230.7676686586401 0 0 0 0 4.5421577506964734 -0.34853205310120927 0 -0.34853205310120927 0.48787750365498539 0 0 0 0 -27.620841420752186 2.2411144473808235 0 2.2411144473808235 -183.85443065849358 0 0 0 0 -11.367111132115951 -119.53192005971687 0 -119.53192005971687 -172.28831338474265 0 0 0 0 -60.374247622995426 95.509361911615997 0 95.509361911615997 439.10799399222014 0 0 0 0 -37.345969221769337 -186.94274425608455 0 -186.94274425608455 232.74592548834335 0 0 0 0 -103.75862766767113 -90.639913083119609 0 -90.639913083119609 439.34607692716236 0 0 0 0 -5.8853443631305709 -46.041080844472162 0 -46.041080844472162 200.04628157336265 0 0 0 0 -31.70662212489151 -73.261858442274388 0 -73.261858442274388 210.63302356527129 0 0 0 0 71.635677960924113 143.08047501121473 0 143.08047501121473 151.91982153948993 0 0 0 0 138.16327747990545 -305.54612418855686 0 -305.54612418855686 -75.778168700941023 0 0 0 0 7.7100468137693472 -41.324728383068191 0 -41.324728383068191 81.548471576563315 0 0 0 0 -15.872279354959565 -4.0268848644155213 0 -4.0268848644155213 41.170742227115142 0 0 0 0 81.897308079730067 84.400180999251461 0 84.400180999251461 146.28286491195468 0 0 0 0 -40.681308687568162 -114.61367011992843 0 -114.61367011992843 440.99400801759748 0 0 0 0 8.2202699813889453 -18.348706133399361 0 -18.348706133399361 -7.7423632129973896 0 0 0 0 47.164092053206332 -23.004441267279617 0 -23.004441267279617 -102.63471938364819 0 0 0 0 29.611083282259642 -165.71070377507567 0 -165.71070377507567 -12.961417440368677 0 0 0 0 -41.341117131497413 -101.00895924865472 0 -101.00895924865472 252.19657052538923 0 0 0 0 -3.4401991287784188 -4.22207538519487 0 -4.22207538519487 4.0225758336691797 0 0 0 0 -0.58337317007585199 -2.1770887471102185 0 -2.1770887471102185 4.3613491211504964 0 0 0 0 19.529143994995138 -26.577013843809254 0 -26.577013843809254 13.345076717465417 0 0 0 0 -12.927683189506297 -43.747880603379599 0 -43.747880603379599 81.521004005160648 0 0 0 0 -8.3002101417250742 -55.537353734631324 0 -55.537353734631324 102.82261445515906 0 0 0 0 -51.238273138310888 -56.142099706547015 0 -56.142099706547015 103.35771413154725 0 0 0 0 -1.5863103404445731 1.4677611370217107 0 1.4677611370217107 1.3031966727552629 0 0 0 0 -8.6355051210393867 -33.722808678918227 0 -33.722808678918227 52.588258215950191 0 0 0 0 -21.731771113850755 -79.65917891634308 0 -79.65917891634308 71.985389267274513 0 0 0 0 -18.038653807517449 -66.46172164411837 0 -66.46172164411837 99.211776240292238 0 0 0 0 2.8612969028420139 -40.975919512464316 0 -40.975919512464316 85.989057285896251 0 0 0 0 -26.577998028772072 -58.620789028118452 0 -58.620789028118452 116.69289022617158 0 0 0 0 -11.804868493650247 -51.175234139060194 0 -51.175234139060194 112.3492808173396 0 0 0 0 -4.4754450484751942 -76.661655987256381 0 -76.661655987256381 100.32334143532535 0 0 0 0 -2.2734023725170118 -38.667893369602098 0 -38.667893369602098 121.59659618625301 0 0 0 0 -2.1281291665382014 -8.12127224845608 0 -8.12127224845608 152.32707247676444 0 0 0 0 -22.230111902218596 -45.846512132440694 0 -45.846512132440694 160.21302103669586 0 0 0 0 56.112230455698409 75.641977048111585 0 75.641977048111585 219.67572612225194 0 0 0 0 -42.536079355690163 -63.843744943766069 0 -63.843744943766069 238.9367905461404 0 0 0 0 -12.683604141273463 -33.866312939382624 0 -33.866312939382624 172.89752075586875 0 0 0 0 0.90652381479276301 -83.908561389347597 0 -83.908561389347597 80.964004901252338 0 0 0 0 -17.717102695673361 -62.514417051997953 0 -62.514417051997953 126.66324645729037 0 0 0 0 
</DataArray>
<DataArray type="Float64" Name="cross_section_updated" format="ascii">
1 1 1 1 1 1 1 1 1 1 1 1 0.010332467673858557 1 1 1 1 1 1 1 1 0.012707588967804537 1 1 1 1 1 0.015831623238555997 1 1 0.010963923737260425 1 1 1 0.016632030045658011 1 1 0.011795185939919295 1 1 1 1 1 1 1 0.010913052875430707 1 1 1 1 1 1 0.013413054826970118 1 1 1 1 1 1 1 1 0.011703496038210325 1 1 1 1 0.010432924106526121 1 1 1 1 1 1 1 1 1 1 1 0.010165131181669501 0.01059805528819564 1 1 1 1 1 1 1 1 1 1 0.011011765609956132 0.012069409481399401 1 1 1 0.011391534218145438 1 1 1 0.011097361612125883 1 1 1 0.012254853813696169 1 1 1 1 1 1 1 1 0.012636626264801212 1 1 1 1 1 1 1 1 1 1 1 1 1 1 1 1 1 1 1 1 1 1 1 1 1 0.011989251137838315 1 1 1 1 0.013998487447631486 1 1 1 1 1 1 1 1 1 0.0098706992324135261 0.0094560330034096328 1 1 0.01034777600874171 1 1 1 1 0.010358123545369777 1 0.0092282550145464503 1 1 1 1 1 1 1 1 0.009936465750645003 1 1 1 1 1 1 1 1 1 1 0.0095463912361251763 1 1 0.013279218765677505 1 1 0.010898545024981027 1 1 1 1 0.015586311696952435 1 0.015157554385514027 1 1 1 1 1 1 1 1 1 1 1 1 1 1 1 1 1 1 1 1 1 1 1 1 1 1 1 1 1 1 1 1 1 1 1 1 1 0.023458149824876699 1 1 0.011451505574137009 1 0.014692023430376511 1 1 1 1 0.011719856561758665 1 0.012201265565132541 0.0095051011447005659 1 1 1 1 0.0094739611197615647 1 0.013365251514961424 1 1 0.011012841738710907 1 1 1 1 1 1 1 1 1 1 1 1 1 1 0.013166320008393389 1 1 1 1 1 1 1 0.010387807220803022 1 1 1 1 1 1 1 1 1 1 1 1 1 1 1 1 1 1 1 1 1 1 1 1 1 1 0.010903386446717995 1 1 1 1 0.012494739092115757 1 1 1 1 1 0.011915150978191978 1 0.0091814339344000184 1 1 1 0.014635229782278457 1 1 1 1 1 1 1 1 1 1 1 0.011712163400216052 1 1 1 1 1 1 1 1 1 1 1 1 1 1 1 1 1 1 1 1 1 1 1 1 1 1 1 1 1 0.010785401192936979 1 1 1 1 0.010294722147750001 1 1 1 1 1 1 1 0.011063536488467786 1 1 1 1 1 1 1 1 0.013125754733230362 1 0.015160121736726921 1 1 0.015148844087807062 1 1 1 1 1 1 0.011224350455329987 1 0.013483200841997139 1 1 1 1 1 1 1 1 1 1 1 1 0.011879400198917086 0.010281850279523233 1 1 1 0.012725626530336411 0.0099441054816091709 1 1 1 1 1 1 1 0.014537733761617967 0.010213224550758258 1 1 1 0.0096159329016840406 1 1 1 0.011341618400119928 1 1 1 1 0.010163336373051265 0.010000930331173427 1 0.010012316381584507 1 1 1 1 0.010779913024621028 1 1 1 1 1 1 1 1 1 1 1 1 1 1 1 1 1 1 1 1 1 1 1 1 1 1 1 1 1 1 0.011084523515207244 1 1 1 1 1 1 1 1 1 1 1 1 1 1 1 1 1 1 1 1 1 0.010282505525271352 1 1 1 1 1 1 1 1 1 0.0099502911739984129 1 1 1 1 0.021403024860517192 1 1 1 0.017564499413795884 1 1 0.009323120400859003 1 1 1 1 1 1 1 1 1 1 0.014615859129877402 0.0058853476764284748 0.0064895443318949697 1 1 1 1 1 1 0.015333022955004903 1 1 1 1 1 1 1 1 0.014352331975185956 1 1 1 1 1 1 0.011443814740659038 1 1 1 1 1 1 1 1 1 1 1 1 1 0.010198932120052122 1 1 0.010537791908554464 1 1 1 1 0.0094670887695059054 1 1 0.013599227361397574 1 1 1 1 1 1 1 1 1 1 1 1 1 1 1 1 1 1 1 1 0.010640928685808543 1 1 1 1 1 1 0.010262700376177982 1 1 1 0.012153889772245548 0.019615742296034855 1 1 1 0.020640423601112005 1 1 1 1 1 1 1 1 1 1 1 1 0.010087621816249991 1 1 0.019118060865058441 1 1 1 1 0.010354598367796015 1 0.011457546129211557 1 1 1 1 1 1 1 1 1 1 0.015218542621623463 1 1 1 1 1 1 1 1 1 1 0.010974458619329379 1 1 1 1 1 1 1 1 1 1 1 1 1 1 1 1 1 0.011975133199771015 1 1 1 1 1 1 1 1 1 1 1 1 0.012784101319763205 0.018213926587922515 1 1 0.013322160473701073 1 1 1 1 0.010203514038058352 1 1 0.014234453087030443 1 1 1 1 1 1 0.01252881646773458 1 1 0.012549059322164918 1 0.012973650672932963 1 1 1 1 0.013486098509294065 1 0.010009986137674653 1 1 1 1 1 1 0.013783105271708016 1 1 1 1 0.016498232589305696 1 1 1 0.013031340202386658 1 1 0.010139524145485246 1 0.0060452440288685655 1 1 1 0.011881958022318149 1 1 1 0.010396508323801387 1 1 1 1 1 1 1 1 1 1 0.01108212802732377 1 0.0099906030825161248 1 0.01142468129818474 1 1 1 0.010018004242779106 1 1 1 1 1 1 1 0.010981583935456408 1 1 1 1 1 1 1 1 1 1 1 1 1 1 1 0.016658945615010974 1 1 1 1 0.01021993031580095 1 1 1 1 0.01604973680310734 1 1 1 1 1 0.014639679504545065 1 1 1 1 1 1 1 1 1 1 1 1 1 1 1 1 1 1 1 1 1 1 1 1 1 1 1 1 1 1 1 1 1 1 1 1 1 1 1 1 1 1 1 1 1 1 0.010166642663950313 1 1 1 1 1 1 0.010420011938617508 1 1 1 1 1 1 1 1 1 1 1 1 1 1 1 0.010492809282813199 1 1 1 1 1 0.010253369274667207 1 1 1 1 1 1 1 0.010520504586830397 1 1 1 1 1 1 1 1 1 1 1 1 1 1 1 1 1 1 1 1 1 1 1 0.011103559769892803 1 1 1 1 1 1 1 1 1 1 1 1 0.021700222727089186 1 1 1 1 1 1 1 1 1 0.014769747272065918 1 1 1 1 1 1 1 1 1 1 0.010445619500409412 1 1 1 1 1 1 1 1 1 1 1 0.021005823379323225 0.016696449425757556 1 1 1 1 1 1 1 0.011292114952805417 1 1 1 1 0.029620652762089 1 1 1 1 1 1 0.013585763185706538 1 1 1 1 1 1 1 1 1 1 0.010394706144065791 1 1 1 1 1 1 0.010005172782122172 1 1 1 1 1 1 1 0.010688869438460834 1 1 0.011539606793958566 1 0.025780480818213658 1 1 1 1 1 1 1 0.015515073895297223 1 1 1 1 0.019487154614682378 1 1 1 1 1 1 1 0.005125292980760851 1 1 1 1 0.01279202476508938 1 1 0.0049995338297129585 1 0.010061544954179168 1 1 1 1 1 0.010870521101925969 1 1 1 1 0.01084755279186511 0.010236802304785513 1 1 1 1 1 1 1 1 1 1 1 0.010085661838837454 1 1 1 1 1 1 0.011926822274135072 1 1 1 1 1 1 1 1 0.01064970165463406 1 1 1 1 1 1 1 1 1 1 1 1 1 1 0.011328472614562286 1 1 1 0.010471425306328289 1 1 1 1 1 1 1 1 1 1 1 1 0.01018080258738824 1 1 1 1 1 1 1 0.011935096010950424 1 0.011110456676860725 1 0.010817496039051258 1 0.01126123867708731 1 1 1 1 1 1 1 1 0.012129361277892308 1 1 0.009891013319773153 1 1 0.010284460062553003 1 1 1 1 0.015355335770203017 1 1 1 1 1 1 1 1 0.011465213750255649 1 0.011829506046776629 1 0.010002453202507712 1 1 0.011063522727353526 1 1 1 0.012343113442996542 1 1 1 0.0094227435317963144 1 0.010545876166321659 1 1 1 1 1 1 1 1 1 1 0.01000453959087348 0.0092359545931356337 1 0.013737644419954438 1 1 0.010637653776430474 1 1 0.011558300871458317 1 0.011476219016498033 1 1 1 0.010663272678502251 1 1 1 1 1 1 1 1 1 1 1 0.0099982997410520587 1 0.011449848155799533 1 1 1 0.010705017600562619 1 1 1 1 0.013021713506523308 1 1 0.0091615472669672633 1 1 1 0.016847752002489055 1 1 1 0.010820917568297558 1 0.015943202410924683 0.011612447387367606 1 1 1 1 1 1 1 1 1 0.013565499599712273 1 1 1 1 1 1 1 1 1 1 1 1 1 1 1 0.013599523297383682 1 1 1 1 1 1 1 1 1 1 1 0.019692592571688729 1 0.010004876465146455 1 1 1 1 1 1 0.010272376250099208 1 1 1 1 1 1 0.010332023125456669 1 1 1 1 0.01774708029273489 1 1 1 1 0.014820574158082613 1 1 0.013506220317751862 1 0.010127981818273676 1 1 1 0.018820345220074648 0.010001325635265993 1 1 1 1 1 1 1 1 1 1 1 1 0.010470963245406861 1 1 1 1 1 1 1 1 1 1 1 0.010641866450467871 0.009955812451403756 1 1 0.0098165239118792325 1 1 1 0.010229910523855117 0.0094295221547285226 1 1 1 1 1 1 1 1 1 1 1 1 1 0.015726142712476045 1 1 0.013820568092543117 1 1 1 1 1 1 1 0.010414292521064258 1 1 1 0.010400837376077644 1 1 1 1 1 0.010980001644625261 1 0.0098246339649219142 1 1 1 1 1 1 1 1 1 1 0.0097512141969438235 1 1 1 1 0.012192575248252548 0.020285122319159677 1 1 1 1 1 1 1 1 1 1 1 1 1 1 0.0098781732801058973 1 1 1 1 1 1 1 0.025292134915954782 1 1 1 0.024303503385834268 1 1 1 1 1 1 1 1 0.024330957125469965 1 1 1 1 1 1 1 1 1 1 1 1 1 0.010307230502748538 1 1 1 1 1 1 0.012048538016420864 1 1 0.010806861917819301 1 1 1 1 1 1 1 1 1 1 1 1 0.011442175078826042 1 1 1 1 1 1 0.020524078614282341 1 1 1 1 1 1 1 1 0.0099372327041624582 1 1 1 0.0096989945750063106 1 1 1 1 0.015564998646271443 1 1 1 1 1 1 0.01392409444262066 1 1 1 1 1 1 0.019286457465028752 1 1 0.013036182178536861 1 1 1 1 0.016283614276442843 1 1 1 1 1 0.011370709883023017 1 1 1 1 1 1 1 1 1 0.010742608847703949 1 1 1 0.012071044304970326 1 0.010955462147508734 1 1 1 1 1 1 1 1 1 1 1 1 1 1 0.011550169041511103 1 1 1 0.01227314419813301 1 1 1 1 1 1 1 1 1 1 1 1 1 1 1 1 0.010511818938989066 1 1 1 1 0.010858333048412033 1 1 1 1 1 1 0.010517716862443899 1 1 1 1 1 1 1 1 1 1 1 0.010820999991400251 1 1 0.011953020533116088 1 1 1 1 1 1 1 1 1 1 0.011989067849949832 1 1 1 1 1 1 1 1 1 1 0.012016350656856706 1 1 1 1 1 1 1 1 1 1 1 1 1 1 0.0083576276237313611 1 1 1 0.0097252100830679689 1 0.0099545455724255171 1 1 0.02049157963418238 1 1 1 1 1 1 1 1 1 1 1 0.010346514109422967 1 1 1 0.015333207735629358 1 1 1 1 1 1 1 1 1 1 1 1 1 1 1 1 1 1 0.018150481276012289 1 1 1 1 1 1 1 1 1 1 1 1 1 1 1 1 1 0.010037422297761342 1 0.020927133455284359 1 1 1 1 0.0211611424979181 0.011738724558779829 0.019923640399557047 1 1 1 1 1 1 1 1 1 1 1 0.010569471899033938 1 0.021332312791837213 1 1 0.023700466015524616 1 0.021084992106046085 1 1 1 1 1 1 0.023537756576784957 1 1 0.024511594741183553 1 1 0.010004417014276457 1 1 1 1 1 1 0.011171699858896048 1 0.024260789250724973 0.0063031416463194606 1 1 1 1 1 0.0088842406507768992 1 1 0.0099917800148730911 1 1 1 1 1 1 1 1 1 1 1 1 1 1 1 1 1 1 1 1 1 1 0.011503683215474767 1 1 1 1 1 1 1 1 1 0.012253215470350704 1 1 1 1 1 1 0.01002055539197624 1 1 1 1 1 1 1 1 0.01001666663633374 1 1 1 1 0.0099825920619310404 1 1 1 1 1 1 1 1 1 1 1 0.0083600038572751376 1 1 1 1 1 1 1 1 1 1 1 1 1 1 1 1 1 1 1 1 0.0098965404551467351 1 0.0089033357745153877 1 1 1 1 1 1 1 1 1 1 1 1 1 1 1 1 1 1 1 1 1 1 1 1 1 1 0.02850451134350233 1 1 1 0.012621166437916546 1 1 1 1 1 1 1 1 0.011062904584970633 1 1 1 1 0.010032125386456706 0.013987537286407913 1 1 0.017994504821970125 1 1 0.010050776047928247 0.008527731699228382 1 1 0.02740326099673223 1 1 1 1 1 1 0.029941363203285797 1 1 1 1 1 1 1 1 1 1 1 1 1 1 1 1 0.010005900915960264 1 1 1 1 0.011293894041376719 1 1 1 1 1 1 1 1 1 1 1 1 0.013700145681139383 1 1 0.0097605436964731604 1 1 0.013257230468937292 0.0089038949229477016 0.008465942937752536 1 1 1 1 1 1 1 1 0.018307202919628937 1 0.0098258035809704412 1 1 1 1 1 1 1 1 0.014214893443651717 1 0.012071823066095177 1 1 1 1 0.011676917536977374 1 0.01004941915200922 1 1 1 0.012511490455998343 0.012452461164655839 1 1 1 1 1 0.009722043314673412 1 1 0.012115054417551577 1 1 0.0077594425659073037 0.0068336367853127165 1 1 1 1 0.011343592737599259 1 1 0.0053372813192933116 1 0.0099890732749924084 0.010834722030646391 1 1 1 1 1 1 1 1 1 1 1 1 1 1 1 1 0.010207910988878018 1 1 1 1 1 1 1 1 1 1 1 1 1 1 1 0.0074461793904043736 1 0.0099572668113432072 1 1 1 1 0.0080513383132504723 1 1 1 1 1 1 0.016230646076631147 1 0.0035280294604580278 1 1 1 1 1 1 1 0.010177196642662596 1 1 0.018969327921516441 1 1 1 1 1 0.021434746767777436 0.010146381187214639 1 1 1 1 1 1 1 1 0.011119570041714238 0.010514223832804172 1 1 0.0086860721170236421 0.0034369028172202853 1 1 1 1 1 1 1 1 0.012496292148153182 1 1 1 1 0.012009236309793146 1 1 1 1 1 1 1 1 1 0.014772607799968487 1 0.022720712525137486 1 1 1 0.0091939941407402255 1 1 1 1 1 1 1 1 1 1 0.014435972972110434 1 1 1 1 0.017910419643927932 1 0.01171997350396683 1 1 0.012345670356789021 0.010635184430285594 1 1 1 1 1 1 1 1 1 1 0.0098059659797822794 1 1 1 1 1 1 1 1 1 1 1 1 1 1 1 1 1 1 1 1 1 1 1 1 1 1 1 1 1 1 1 1 1 0.010777237285949755 1 0.0088251363999480911 1 1 1 1 1 1 1 1 1 0.0063380589671277361 1 1 0.012419558754600343 1 1 1 1 1 1 1 1 1 1 1 1 1 1 1 1 1 1 1 0.016303089773085561 1 1 1 1 1 1 1 1 1 1 1 1 1 1 1 1 1 1 0.012556431073501203 1 1 1 1 1 1 1 1 1 1 0.016174853345778326 1 1 1 1 1 1 1 1 1 1 0.02061146560254256 1 1 1 1 1 1 1 1 1 1 1 1 1 1 1 1 0.010078549519528563 1 1 1 1 1 1 1 1 1 1 0.010831077618436089 1 1 1 1 0.024965524238592357 1 1 1 1 1 1 1 1 0.014103062669432396 1 0.011298184160072798 1 1 1 1 1 1 1 1 1 1 1 0.019775425835157123 1 1 1 1 1 0.016802772176175734 1 1 1 1 1 1 1 1 1 1 1 0.011828605753940116 1 1 0.021733704012633439 1 1 1 0.021822005706799458 1 1 1 1 0.011244860760178558 1 1 1 0.010574565536655424 1 1 1 1 1 1 1 0.012715226674847519 1 1 1 0.0099678064837602203 1 1 1 1 1 1 1 1 1 1 1 1 1 0.015762522769569669 1 1 0.012363149191284707 1 1 1 1 1 1 1 1 1 0.01205962952615428 1 1 1 1 1 1 1 1 0.012733865634618034 1 1 1 1 0.0068838656113757325 0.0098436644360173665 1 0.013212654613134195 1 1 1 1 1 1 0.012094097351623586 1 1 1 1 0.0098610588124055966 1 1 0.012054387211876294 1 1 1 1 1 1 1 1 1 1 1 1 1 0.010466137136692586 1 1 1 1 0.018640109998817846 1 1 0.011867993570326708 1 1 1 1 1 0.012623356111899089 1 1 1 1 1 1 1 1 1 1 1 1 1 1 1 1 1 0.01899887214687019 1 1 0.014906915976419088 1 1 1 1 1 1 0.011594804962955271 1 1 1 1 1 1 1 1 0.016415293479271995 1 1 1 0.019397621560572349 1 1 1 1 1 1 1 1 0.020375410144984719 0.017428549781712006 1 1 1 1 0.020605563325087325 1 1 1 0.022646803856413607 1 1 0.011656087763654862 1 1 1 1 1 1 1 1 1 1 1 1 1 1 1 1 1 1 0.011551144583614373 1 1 1 1 1 1 1 1 1 1 1 1 1 1 1 0.0091124068503000474 1 1 1 1 1 1 1 1 1 1 1 0.0098477900963529243 1 1 1 1 1 1 1 1 1 1 1 1 1 1 1 1 1 1 1 1 0.0077349897637999099 1 1 1 1 1 1 0.0081995235550220251 1 1 1 1 1 1 1 1 1 1 1 1 1 1 0.0013226957469650111 1 1 0.0046529409386349731 1 1 1 1 1 1 1 1 1 1 1 1 1 0.0085977706230276427 1 1 1 1 1 1 1 1 1 1 1 1 1 1 1 1 1 1 1 1 1 1 1 1 1 1 1 1 1 1 1 1 1 1 1 0.020180597235785483 1 1 1 1 1 1 1 1 0.010103760230836896 1 1 1 1 1 1 1 1 1 1 1 1 1 1 1 1 1 1 1 0.010085999578234479 0.010189759809071379 1 1 1 1 1 1 1 1 1 1 1 1 1 1 1 1 1 1 1 1 1 1 1 1 1 1 1 1 1 1 1 1 1 1 0.011628345666436897 1 1 0.010362367637817945 1 1 1 1 1 1 1 1 1 1 1 1 1 0.0103594430824357 1 1 1 0.012476100052140934 1 1 0.0088308789154363711 1 0.013590394710938741 1 1 0.0096237057568028597 1 1 1 1 1 1 1 0.007236716315102594 1 1 1 1 0.019835456600621783 1 0.0083773470308819813 0.0062040759293421916 1 1 1 1 1 1 0.015879539374187426 0.0089062500917109488 0.012685954377979689 1 1 1 1 1 1 0.013264103392755897 1 1 1 1 1 1 1 1 1 1 1 0.010692627069337893 1 0.0099433729166744679 0.01160736590681901 1 1 1 0.0096432785813472654 1 1 0.0092053889621393804 0.0094971783530515066 1 1 1 1 1 1 1 1 1 1 1 1 1 1 0.012659494391767549 1 1 1 1 1 1 1 1 1 1 1 1 1 1 1 1 1 1 1 1 1 0.010910558972578147 1 0.010448596060285677 1 1 1 1 1 1 1 1 1 1 0.016546222940929597 1 1 1 1 1 1 1 1 1 1 1 1 1 1 1 1 1 1 1 1 1 1 1 1 1 1 1 1 1 1 1 1 1 1 1 1 1 1 1 1 1 1 1 1 1 1 1 1 0.026165082265846525 1 0.02187594006146585 1 0.013185386084212193 1 1 1 1 1 1 1 1 1 1 1 1 1 1 1 1 1 1 1 0.01762628311112286 1 1 1 1 0.013333074740300533 1 1 1 1 1 1 1 1 0.011465556447635302 1 1 1 1 1 1 1 1 1 1 1 1 0.012413795959008147 1 0.012721305277266356 1 0.010703143421812363 1 1 1 1 1 0.0098725824316724733 1 1 0.015846614341145607 1 1 1 0.01122495360708904 0.019110574346947004 1 1 1 0.015491368504923383 1 1 1 0.014569001237357349 1 0.022478568223121685 1 1 1 1 1 1 1 1 1 1 1 1 1 1 0.0085337337185017702 1 0.011375230254077153 1 1 1 1 1 1 1 1 0.014135144762734798 1 1 1 1 1 1 1 1 1 1 0.012703609243680209 1 1 1 1 1 1 1 1 1 1 1 1 1 1 1 1 0.014342960057526694 1 1 1 1 1 0.0061196845152020202 1 1 1 1 0.009956153890964374 1 0.005086101520523161 1 1 1 0.022825329650236151 1 1 1 1 1 1 1 1 1 1 1 1 1 1 1 1 1 1 1 1 1 1 1 1 1 1 1 1 1 1 1 1 0.013534054008773458 0.010026097992498473 1 0.010009888070393765 1 1 0.010008298512923307 1 0.0093601613739870693 1 1 1 0.015538493383235402 1 1 1 1 1 0.010679812998400064 1 1 1 0.015940717366554981 1 1 0.0095613665962276627 1 1 0.018786363253445619 1 1 1 1 1 1 1 1 1 0.01000176216557648 1 1 1 1 1 1 1 0.011810796944627312 1 1 1 0.010500096699888842 1 1 0.010011084654703932 1 1 1 1 1 1 1 1 0.011879574585631235 0.0094084113323937221 1 1 1 1 0.015182645611612373 1 1 0.011881643550994025 1 1 1 1 1 1 1 1 1 1 1 1 1 1 1 1 1 0.0093558124119983588 1 1 0.0095348586798378772 1 0.0087211513776124482 1 0.0081251296717112648 1 1 1 1 1 0.012650109861520153 1 1 0.010171386278052443 1 0.01015904661995657 1 1 1 1 1 0.0092127504721777331 1 1 1 0.0081895960070273218 1 1 1 0.00832799987677477 1 1 0.0087626992444674711 1 1 1 1 0.0093789787888453498 0.012324926129926091 1 1 1 1 1 1 1 0.010118713953995082 0.010300913010002336 1 1 1 0.010687796332842857 1 1 1 1 1 1 1 1 1 1 0.0098552125192411764 1 1 1 1 1 1 1 1 0.010031220555088732 1 1 0.016226000010563874 1 1 1 1 1 1 1 1 1 1 1 1 1 1 1 1 1 1 0.010008046735798394 1 0.01073797764114201 1 1 1 1 1 1 1 1 1 1 1 1 1 1 1 1 1 1 1 1 1 1 1 1 1 1 1 1 1 1 1 1 1 1 1 1 1 1 1 1 1 1 1 1 1 1 1 1 1 1 1 0.0095580088478276343 1 1 1 1 1 1 1 1 1 1 1 1 1 1 1 1 1 1 0.0089356334787321565 1 1 1 0.010120041913687719 1 0.00657058860298383 1 1 1 1 1 0.0099379893422879024 1 0.0077639686643352825 1 1 1 1 1 0.011540794133266509 0.017426018855269954 1 1 1 1 1 1 1 1 1 1 1 1 1 1 0.0095818375171697612 0.018163585057316169 1 1 1 1 1 1 1 1 1 1 1 0.010200898998284483 1 0.01714769991315071 1 0.0075810886684353493 1 1 1 0.016830324909562086 1 0.006602336581255603 1 1 1 1 1 1 1 1 1 1 1 1 0.011206195600202227 0.0095655381591847072 1 1 1 1 1 1 1 1 1 1 1 1 1 1 1 1 1 1 1 1 1 1 1 1 1 1 1 1 1 0.0099983016675519783 1 1 1 0.0099995924033380677 1 1 1 1 1 1 0.016976586206882166 1 1 1 1 1 1 1 1 1 1 1 1 1 1 1 0.013397376142068079 1 1 1 1 1 1 1 1 1 1 1 1 1 1 1 1 1 1 1 1 1 1 0.012433525345591345 1 1 1 0.019198892829955419 0.010698906211202085 1 1 1 1 1 1 1 0.010531000016645611 1 1 1 1 1 1 1 1 0.015966302383597399 1 1 0.0087941911305175931 1 1 0.014431768198282457 1 1 1 1 1 1 1 0.011234377153540398 1 1 1 1 1 1 1 1 0.011696523992609752 1 1 1 1 1 1 1 1 1 1 1 1 1 1 1 1 1 1 1 1 1 0.0097542311430946476 1 0.008684397408527467 1 1 1 1 1 1 1 1 1 1 1 1 1 1 1 1 1 1 1 1 1 1 1 1 1 1 1 1 1 1 0.009686597640862658 1 1 1 1 1 1 1 1 1 0.0090213056900765552 1 1 1 1 1 1 1 1 1 1 1 1 1 1 0.01033321265888215 1 1 1 1 1 1 1 1 1 1 1 1 1 1 1 1 1 1 1 0.010969983912252762 1 1 1 0.011593853992015068 1 1 1 1 1 1 1 1 1 1 1 1 1 1 1 1 1 0.0098335865544957931 1 1 1 1 1 1 1 1 0.010035392507706218 1 1 1 1 1 1 1 1 1 1 1 1 1 1 1 1 1 1 1 1 1 1 1 1 1 1 1 1 1 0.015782982859503109 1 1 1 0.010291217707829071 1 1 0.010923007089863511 1 1 1 0.0094639271809213148 1 0.011888086327697153 1 0.0092279898242405116 0.014620910516086015 1 1 1 1 0.0089545624613911988 0.010804898484690788 1 1 1 1 1 0.012680964747633791 1 1 1 0.011206453518769033 1 1 1 1 1 1 1 1 1 1 1 1 1 1 1 1 1 1 0.011940834839998051 1 1 1 0.010983752101353571 1 1 1 1 1 1 1 1 1 1 1 1 1 1 1 1 1 1 1 1 0.011216209528276608 1 1 1 1 1 1 1 1 0.012624553172863338 1 1 1 1 0.012182739371017846 0.011277718116915074 1 1 1 1 1 1 1 1 1 1 1 1 1 1 1 1 1 1 1 0.010905021254102774 1 1 1 0.010301120510977009 1 0.014140178329166538 1 1 0.015189080278528569 1 1 1 1 1 1 1 0.0098018016432610683 1 1 1 0.013821730440110071 1 1 0.0099879172366364524 1 1 1 1 1 0.010050650073073812 0.014260241290950555 1 1 1 1 1 1 1 1 1 1 1 0.010664122603810021 1 1 1 0.010303532942486336 1 1 1 0.013310267809101273 1 0.0097376173081968956 1 1 1 1 0.009964932288155412 1 1 1 1 1 1 1 1 1 1 1 1 1 0.011330684958903228 1 1 1 0.010527193059528012 1 1 1 0.010934901413966948 1 1 1 1 1 1 1 1 1 1 1 0.010408689318269144 1 1 1 1 1 1 1 1 1 1 1 1 1 1 1 1 1 1 1 1 1 1 1 1 1 1 1 1 1 1 1 1 1 1 1 0.01036810412837208 1 1 1 1 1 1 1 1 1 1 1 1 1 1 1 1 1 1 1 0.010651982895268839 1 1 1 1 1 1 0.010330284315949307 1 1 1 1 1 0.010093931297615629 1 1 1 1 1 1 1 1 1 1 0.010235074020210393 1 1 1 1 1 1 1 1 1 1 1 1 0.0098285062176880558 1 1 1 1 1 1 1 1 1 1 1 1 1 1 1 1 1 1 1 1 1 1 1 1 0.010722428582799499 1 1 1 1 1 1 1 1 1 1 1 1 1 0.010354324454427438 1 1 1 1 1 1 1 1 1 1 1 1 1 1 1 1 1 1 1 1 1 1 1 1 1 1 1 1 1 1 0.0095151303576628439 0.010039826305427622 1 1 1 1 1 1 1 1 1 1 1 1 1 1 1 1 1 1 1 1 1 1 1 1 1 1 1 1 0.015650744083174229 1 1 1 0.0099380111915336345 1 1 1 1 1 0.0098626219577435913 1 1 1 1 1 1 1 1 0.015892364397113209 1 1 1 1 1 0.016083529233281872 1 1 1 0.0090310565019535109 1 1 1 1 0.01008096729870446 1 1 1 1 1 1 1 1 1 1 1 0.0096663504180193316 1 1 1 1 1 1 1 1 1 1 1 1 1 1 0.011241473040254725 1 1 1 1 1 1 1 1 0.012648217052888752 1 1 1 1 1 1 1 1 1 1 1 1 1 1 1 1 1 1 1 1 1 1 1 1 1 1 1 0.01192165102332509 1 1 1 1 1 1 1 1 1 1 1 0.010313870827275293 1 1 1 1 1 1 1 1 1 1 1 1 1 1 0.010665701903361566 1 1 1 1 1 1 1 1 0.015450006773736653 1 1 0.0097858924247733389 1 1 1 1 0.014790794499395632 1 1 0.011584267207756696 1 0.0087643624362085878 1 0.010000808619711761 1 1 0.0062336259310539245 1 1 1 1 1 1 1 1 1 1 1 1 0.0095337410007229131 0.009098327776626558 1 1 0.0097025665839058379 1 1 1 1 1 1 1 1 1 1 1 1 0.010924110765758895 1 1 1 1 1 1 1 1 1 1 1 1 1 1 0.010490054546175222 1 0.011024542552746507 1 1 1 1 1 1 0.011784035230811514 1 1 1 1 1 1 0.0099548414740483065 1 1 1 1 0.012550625809791514 1 0.0085684834473573092 1 1 1 0.0092911193938923151 0.013470366258070014 1 1 0.01002025921040358 1 0.010497972006064046 1 1 0.015471345736057539 1 1 1 1 1 1 1 1 1 1 1 1 0.010466411925968165 1 1 1 1 1 1 1 0.010014673014504852 1 1 1 1 1 1 1 1 1 1 1 1 1 0.015486428925752631 1 0.011182347978653202 1 0.0084557947097123973 1 0.01091026557795393 1 0.009110098924552194 0.010500927163769637 0.0094808553404698761 1 1 1 0.010395228096394711 1 1 1 0.0099390007447643283 1 1 0.010823538984596322 0.012634805990254003 1 1 1 0.010566384354626465 1 1 1 1 1 1 0.010126294525885655 1 1 1 1 1 1 1 1 1 1 1 1 1 1 1 1 1 1 0.010006936927161862 0.010877382705004622 1 1 1 0.0098089125985842823 0.010408808603908547 1 1 0.010000954243159874 1 0.010133537099849127 1 1 1 1 1 1 1 1 0.015024696475177263 1 1 1 1 1 1 1 1 1 1 1 0.010248967657246014 1 1 0.010002677869691938 0.0091352759934168609 1 1 1 0.009992266531904279 1 1 0.014175769873408191 1 1 1 1 1 1 1 1 1 1 0.0055878460022783117 1 0.0057678707854535785 0.034522364793190374 1 1 0.020762489588593617 1 0.0056693217978904973 1 1 0.0036035747354448986 0.018411642108660614 1 1 1 1 1 1 0.010446470120411441 1 0.010351967153009558 1 1 0.010199455428004933 1 1 1 1 1 1 0.010038570883809488 1 1 1 1 1 1 1 1 1 0.00084833359878668836 1 0.0031959751351018574 1 1 1 1 1 1 0.0057333295329827514 1 1 1 1 1 1 1 1 1 1 1 1 1 1 1 1 1 1 1 1 1 1 1 1 1 1 1 1 1 1 1 1 0.02749142680780909 1 1 1 1 1 0.010038538169892018 1 1 1 1 1 1 0.009994576905228451 1 1 1 1 1 1 1 1 1 1 1 1 0.011317867791546962 1 1 1 1 1 0.0308418405888372 1 1 1 1 1 0.03510693429315339 1 1 1 1 1 1 1 1 1 1 1 1 1 1 1 1 1 1 1 1 0.018932484181901688 0.010200567229921652 1 1 1 0.018262965141354635 1 1 1 1 1 1 1 1 1 1 1 1 1 0.015837334316794439 1 1 0.01426764553284314 1 1 1 1 1 1 1 1 1 1 1 1 1 1 1 1 1 1 1 1 1 1 1 1 1 1 1 1 1 1 1 1 1 1 1 1 1 1 0.01179345128225631 1 1 1 1 1 1 1 0.01066018503578053 1 1 1 1 1 1 1 1 1 0.0081134436582119464 1 1 1 1 1 1 1 0.0083688422999052756 1 1 0.0099734821255720967 1 0.0083640448392754488 0.012929508697630994 1 1 0.012191118968831099 1 1 0.010461817731410722 1 0.0070614633918361864 1 0.021890187199038451 1 1 1 1 1 0.010007963900681677 1 1 1 1 1 1 0.0093166074970890272 1 1 1 1 1 1 1 1 1 1 1 0.011525725022135842 1 1 0.047382582865331785 1 0.0090376848442613161 1 1 1 0.043636688932921788 1 1 1 1 1 1 1 1 1 1 1 1 0.012953095008574717 1 1 1 1 1 1 1 1 1 0.035754429470316068 1 1 1 1 1 0.0081484421685056405 1 1 1 0.030871488708563578 1 0.020227011960790901 1 1 1 0.018220218546558295 0.011487987324200959 0.0073305949469959462 0.0079756569507526184 1 0.010842079133999337 1 1 1 1 1 0.015768666226619165 1 1 1 1 1 1 1 0.011803119910896644 1 1 1 1 1 0.011666951530485433 0.040456165343223667 1 1 1 1 1 1 1 1 0.0076387401012674924 1 1 1 0.0079255075068044092 0.0098187987271986556 1 1 1 1 1 1 0.010391841105689258 1 1 1 1 1 1 1 1 0.010318579025239735 1 1 1 1 1 1 0.010022373608098243 1 1 1 1 1 1 1 1 1 1 1 1 1 1 1 1 0.010462672866981822 1 1 1 0.010476771477154312 0.010449841787931369 1 1 1 1 1 1 0.010277638859276645 1 1 1 0.01020573490801889 1 1 1 1 1 1 1 1 1 1 1 1 1 1 1 1 0.042113430143670395 1 1 1 1 0.04130811142146612 1 1 0.010365607418846057 1 1 1 0.024220532888562546 0.014313929412042669 1 1 1 1 1 1 1 1 1 1 1 0.014269346425265554 1 1 0.009932945126578184 1 1 1 1 1 1 1 1 1 1 1 1 1 1 1 1 1 1 1 1 1 1 1 1 1 1 1 1 1 0.015646651095799383 1 0.010613569799709836 1 1 1 1 1 1 1 1 1 1 1 1 1 1 1 1 1 1 1 1 1 0.014414181122832298 1 1 1 1 1 1 1 1 1 1 1 1 1 1 1 1 1 1 1 1 1 1 1 1 1 1 1 1 1 1 1 1 1 1 1 1 1 1 1 1 1 1 1 1 1 1 0.015077581588497091 1 1 1 1 1 1 1 1 1 1 1 1 0.011588331590079801 0.015595619709208362 1 1 1 1 1 1 1 0.011870044218368573 1 1 1 1 1 1 1 1 0.011968646347958772 0.010870321182544425 1 1 1 0.010041905785626939 1 1 1 1 1 1 1 1 1 1 1 1 1 1 1 1 0.01089528242799861 1 1 1 0.014736391780946653 1 1 1 1 1 0.011031871822553666 1 1 1 1 1 1 1 1 1 1 0.01164636490249666 1 1 1 0.012721816855530281 1 1 1 0.012823209570038097 1 1 1 1 1 1 1 1 1 1 0.014008291086795483 1 1 1 0.0090926649418086834 1 1 1 1 0.016107222133155599 1 1 1 1 1 1 1 0.011133264537061482 1 1 0.017664796958520267 1 1 1 1 1 0.008673757649818788 1 1 1 1 1 1 0.017989427894804101 0.009957339336192729 1 0.009429971625279714 0.010039892072757751 1 1 1 1 0.010263739007626112 0.011344864411227567 0.010639197902458078 1 0.012957046308473791 1 0.011725481966572759 1 0.0091531239759920086 1 1 0.010023249688892259 1 0.0099090873159269257 0.0087949018004097983 1 1 0.0091147908943896953 1 1 1 0.011632142382948189 1 1 1 1 1 1 1 1 1 1 1 1 1 1 0.019831332619682132 1 1 0.0088766188960424444 1 1 0.011321122811327881 1 1 1 1 0.0094639984793236515 0.0092857240920609894 1 0.013004623938594827 1 1 1 0.010287189570394203 1 0.010073855723208061 0.012565414534899828 1 0.010327601718795897 0.015136472334013891 1 1 1 0.010005265167466991 1 1 1 1 1 1 1 1 1 1 0.015652708523054774 1 1 0.010041047939469243 1 0.010091321306655873 1 1 1 1 1 0.019996379546883884 1 1 0.011190716780737235 1 1 1 0.018967274883991136 1 0.026186776524365504 0.014541591514508114 1 1 1 0.018708530822334861 1 1 1 0.016101053533480458 1 1 0.020209469567739766 1 1 1 1 1 1 1 1 1 1 1 1 1 1 1 1 1 1 0.011314456404940623 1 0.024457289958355347 1 1 0.013778675689911474 1 1 1 1 1 0.024597881333361139 1 1 0.022293674313417222 1 1 1 0.023400348587884499 1 1 1 0.010453482278018185 1 1 1 0.010199132617877669 1 1 1 1 1 1 1 1 1 1 1 1 1 1 1 1 1 1 1 1 1 1 1 1 1 1 1 1 1 1 1 1 1 1 1 1 1 1 1 1 1 1 1 1 1 1 1 1 1 1 1 1 1 1 1 1 1 1 1 1 1 1 1 1 1 1 1 1 1 1 1 1 1 1 1 1 1 1 1 1 1 1 1 1 0.010972107978049761 1 1 1 1 1 1 1 1 1 1 1 1 1 0.014108077255173275 1 1 0.012685357714072049 1 1 1 1 1 1 1 1 1 1 0.011325269380548808 1 0.016869461445540499 1 1 0.0094090037462578498 0.019362001221738298 1 1 1 1 0.010174236830455735 1 1 1 0.010331688242450059 0.0098844401223290319 1 0.01228381698205493 1 1 1 1 0.015761113827569638 1 1 1 1 1 1 1 1 1 0.016110645338322432 1 1 1 0.020317534401982577 1 1 1 1 1 0.01540290483059318 1 0.017133977283589376 1 1 1 1 0.010524549280687034 1 1 1 1 1 1 1 0.010582609296513047 1 1 1 1 1 1 1 1 1 1 0.0094598626732032252 1 1 1 1 1 1 1 0.011822827840422418 0.010622322592300457 1 0.011175753185909664 1 1 1 1 1 1 0.026645053688438246 1 1 1 1 1 0.015325302862288386 1 1 1 1 1 1 0.010615412953688832 1 0.019567009598172772 1 0.0080399120438152272 0.014874226199199609 1 0.022585761510551972 1 1 1 1 0.010131092347053129 1 1 1 0.019155084949463282 1 1 0.016601069451856878 1 0.0095291708413784357 1 1 1 1 1 1 1 0.010460605697303102 1 1 1 1 0.010012194108284288 1 1 1 1 1 1 1 1 1 1 1 1 1 1 1 1 0.010169967449645261 1 1 1 1 1 0.023260969241009191 1 0.015263691513726368 1 1 1 1 1 0.016584166961865598 1 1 1 0.01790448120115562 1 1 1 1 1 1 1 1 0.025096169640504706 1 0.024261489034221449 1 1 1 1 1 1 1 1 1 1 0.025807816584902651 0.019168399181107243 1 1 1 0.019476162202003808 1 1 1 1 1 1 1 1 1 1 1 1 1 1 1 1 1 1 1 1 1 1 1 1 1 1 1 1 1 1 1 1 1 1 1 1 1 1 1 1 1 1 1 1 1 1 1 1 1 1 1 1 1 1 1 1 1 1 1 0.010085477424612401 0.010098013159306753 1 1 1 1 1 1 1 1 0.012487337528661931 1 1 0.011209539040177451 1 1 1 1 0.013347863978168721 1 0.01006458001061703 1 1 1 1 1 1 1 1 1 1 1 1 1 1 1 1 1 1 1 1 1 1 1 0.010847414758644329 1 0.015983758590309156 1 1 1 1 1 1 1 1 1 0.020761206274232787 1 1 1 1 0.0135420918860447 0.013505097217773763 1 1 1 1 0.017336573156686123 1 0.0076185832303161394 1 1 1 1 1 1 1 1 1 1 0.018943687409976595 1 1 1 0.013418073235984981 1 1 1 1 1 1 1 1 1 1 1 1 0.011022502490556389 1 1 0.012526776656163127 1 1 1 0.011332095099516049 1 0.011698706918159727 1 1 0.01051989174549979 1 0.010823830686573291 1 1 1 1 1 1 1 0.010304967966106162 1 1 0.010040540954476341 1 1 0.010042014785838632 1 1 1 1 1 1 1 1 1 1 1 1 1 1 1 0.021094216138941933 1 1 1 1 1 0.010000002536015228 1 1 1 1 1 1 1 1 1 1 1 1 1 0.01467519311973494 1 1 1 1 1 1 1 1 1 1 1 1 1 1 1 1 1 1 1 0.008565311002943686 0.012420459018704269 0.01654750519207792 1 1 1 0.014439490098713859 1 0.0094603052694847492 1 1 1 0.012635949642180006 0.010109275101476687 0.011068248693033713 1 1 1 1 1 1 0.011364606248839115 1 1 1 1 1 1 1 1 1 1 1 0.012033259967546721 1 1 1 1 1 1 1 1 1 1 0.012882721142777713 1 0.010003219004523334 1 1 1 1 0.010679898531162725 0.010001758550326707 1 1 0.0115181148939386 1 1 1 0.011946050929370879 1 1 1 1 1 1 1 1 0.012059360986186561 1 1 1 1 1 1 1 1 1 0.013022635356067756 1 1 1 0.010197712912650543 1 1 0.009125540671641218 1 1 1 0.010135097496254859 0.01001303133719663 1 1 1 1 1 1 1 1 1 1 1 1 1 1 1 1 1 1 1 1 1 1 1 1 1 1 1 1 1 1 1 1 1 1 1 1 1 1 1 1 1 1 1 1 1 1 1 1 1 1 0.011622970593715264 1 1 1 0.0099584579191731373 1 1 1 1 1 1 1 1 1 1 1 1 0.014413260550038033 1 1 0.010570963710607513 1 1 1 1 1 1 1 1 1 1 1 1 1 1 1 1 1 1 0.011912072939042326 1 1 1 1 1 1 1 1 1 1 1 1 1 1 1 0.011768807348814903 1 1 1 1 1 1 1 1 1 1 1 1 0.010618361431585456 1 1 1 1 1 1 1 1 0.010292089333110536 1 1 1 1 0.014554118203008545 1 1 1 0.010642343647119128 1 1 1 1 1 1 1 1 1 1 1 1 1 1 1 1 1 1 1 1 1 1 1 1 1 1 1 1 1 1 1 1 1 1 1 1 1 0.01033894740731137 1 1 1 1 1 0.011164024318318304 1 0.01010015355182247 1 1 1 1 1 1 1 0.011975522828236364 1 1 1 1 1 1 1 1 1 1 1 1 1 1 1 1 1 1 1 1 1 1 1 1 1 1 1 1 1 1 1 1 1 1 1 1 1 0.010729703405154825 1 1 0.01129788399492339 1 1 1 1 1 1 1 1 1 0.010095752206435582 1 1 1 0.012353287204539862 0.009528622441705879 1 1 1 1 0.00968670642981697 1 1 1 0.012930390579358665 1 1 1 1 1 1 1 1 1 1 1 1 1 1 1 1 0.011251967050664842 1 1 1 1 1 1 1 1 1 1 1 1 1 1 1 1 0.011608524621105072 1 1 1 0.011406744012634029 1 1 1 1 1 1 1 1 1 1 1 1 1 1 1 1 1 0.013447842315814189 1 1 1 1 1 1 1 0.013652686088803954 1 1 1 1 1 1 1 1 1 1 1 0.010823221765766236 1 1 1 0.013173729163082425 1 1 1 1 1 1 1 1 0.011360360768987603 1 1 1 1 1 1 1 1 1 1 1 1 1 1 1 1 1 1 1 1 1 1 1 1 1 1 1 1 0.0099389185286282919 1 1 1 1 1 1 1 0.0095003546118298463 1 1 1 1 1 0.019157827078179663 1 1 1 1 0.018790318424570171 1 1 1 0.010395255955141583 1 1 0.010780796892128679 1 1 1 1 1 1 1 0.011803545467123559 1 1 1 1 0.01221985589371905 1 1 1 1 1 1 1 1 1 1 0.011260946992369613 1 1 1 1 1 1 1 1 1 1 1 1 1 1 1 1 1 1 1 0.010464861087047568 1 0.010223171153154379 1 1 1 0.01066393908803967 1 1 1 1 1 1 1 1 1 1 0.010358154483770782 1 1 1 1 0.010753739573191243 1 1 1 1 1 1 1 1 1 1 1 1 1 1 1 1 1 1 1 1 1 1 1 1 1 1 0.01074583940342904 1 1 1 1 1 0.015097221018424166 1 1 1 1 1 0.014908954861738578 1 1 1 1 0.013748533571899736 1 0.011415941493123492 1 1 1 1 1 1 0.015292021618663824 0.0092059875761792385 1 0.010564230659830948 1 1 1 1 1 1 1 1 1 0.013252898966756001 1 1 0.01102005802950589 1 1 1 1 1 1 1 1 1 1 1 1 1 1 1 1 0.010521870171116922 1 1 1 1 0.01119179900538405 1 1 1 1 1 1 1 1 1 1 1 1 1 1 1 1 0.010629646734992677 1 1 1 0.011299575569259798 1 1 1 1 1 0.010089401712025263 1 1 0.010496316812001166 1 1 1 1 1 0.010075483422921791 1 1 1 1 1 1 0.010164919535709485 1 1 1 1 1 1 1 1 1 1 1 1 1 1 1 1 1 1 1 1 1 0.0099467875814329455 1 1 0.0099026489370590901 1 1 1 1 0.0099767433882174683 1 1 1 1 0.0083726643333080775 1 0.0086746964808584286 1 1 0.016172985995791873 1 1 0.015277341262060672 1 1 1 1 1 1 1 1 0.0089386994347753143 1 1 0.010305976998121337 1 1 1 1 1 1 1 1 1 1 1 1 1 1 1 1 1 1 1 1 1 1 1 1 1 1 1 0.013853909409310729 1 1 1 1 0.011482429299334868 1 1 1 0.010635653520580884 1 1 1 1 1 1 1 1 1 1 1 1 1 0.011397240395287424 1 1 1 1 1 1 1 1 0.010761586874706543 1 1 1 1 1 1 1 1 1 1 1 1 1 1 1 1 1 1 0.012086308617515855 0.015260930847096475 1 1 0.017464992459736713 1 0.015920796287163974 1 1 0.011727090378074435 1 1 1 1 1 1 1 1 1 1 1 1 1 1 1 1 1 1 0.010707230351904573 1 1 1 1 1 0.010255517788544659 1 1 1 1 1 1 0.010471688725187181 1 1 1 1 1 1 1 1 1 1 1 1 1 1 1 1 1 1 1 1 1 1 1 1 1 1 1 1 1 1 1 1 1 1 1 1 1 1 1 1 1 1 1 1 1 1 1 1 1 1 1 0.010385540936987098 1 1 1 1 1 1 0.022149229163682716 1 0.023158830139086491 1 1 1 1 1 1 1 1 1 1 1 1 1 1 1 1 1 0.023879491918720588 1 1 1 1 0.02376822044993341 0.010719486610847137 1 1 1 1 1 1 1 1 1 1 1 1 1 1 1 1 1 0.012959547788170843 1 1 1 1 1 1 1 1 0.011106865632223508 1 1 0.011911432157943061 1 1 1 1 1 1 1 1 1 1 1 1 1 1 1 1 1 1 0.0097639592658983615 1 1 1 1 1 1 1 1 0.010003788090833535 1 1 1 0.011891941462618155 1 1 0.010663016123845431 1 1 1 1 1 1 1 1 1 1 1 1 1 1 1 1 1 1 1 0.010203362251603888 1 1 1 1 1 1 1 1 1 1 1 1 1 1 1 1 0.011344906634026701 1 1 1 1 1 1 1 1 0.010258070597927304 1 1 1 1 1 1 0.010054708346323417 1 1 0.013590131702703368 1 1 0.013416356554758419 1 1 0.012593972897778333 1 1 1 1 0.012979276997128336 1 1 0.019228334833847716 1 1 1 1 0.020452925179742676 1 1 0.01724790257607791 1 0.0099297902017993836 1 0.027408926096064087 1 1 1 1 1 1 1 1 1 0.0098941382882965674 0.028299147640015558 1 1 1 1 1 0.021074533323884988 1 1 0.018969023605646687 0.0097599280394688112 1 1 1 1 1 1 1 1 1 1 1 1 1 1 1 1 1 1 1 1 1 0.010844260677248335 1 1 1 1 1 1 1 1 1 1 1 1 1 1 1 1 1 1 1 1 1 1 1 1 1 1 1 1 1 1 1 1 1 0.0092089226417130434 1 1 0.017566298663065895 0.012392380549012615 1 1 1 0.016162493278447786 0.012571971175233253 1 1 1 1 1 1 1 1 1 1 1 1 1 1 1 0.009787057859911158 1 1 1 1 1 1 1 1 0.0092830276156073768 1 1 1 1 1 1 1 1 1 1 1 1 0.012290180581935671 1 1 1 1 0.014964474446515039 1 1 1 1 1 0.0099974745830696335 1 0.0099997541525714204 1 1 1 1 1 1 0.013649882352101128 1 0.007858409483944083 1 0.014026455681916898 1 1 0.011122494306850514 1 1 0.012023055601655695 1 1 1 1 1 1 1 1 1 1 1 0.010970121771920426 1 1 1 1 1 1 1 1 1 1 1 1 1 1 0.011869357892225006 1 1 1 1 1 1 1 1 1 0.011493556890688782 1 1 1 1 0.014407164210210745 1 1 1 1 1 1 1 1 1 1 0.010248452796207232 1 1 1 1 1 1 1 1 0.016724712590387766 1 1 1 1 0.010874511365705851 1 1 1 0.01027046509785093 1 1 1 1 0.01025824981024887 1 1 1 1 1 1 1 1 1 1 1 1 1 0.017927453681538304 1 1 0.011789793996915552 1 1 1 1 1 1 1 1 1 1 1 1 1 1 1 1 1 0.010198042849146967 1 0.011545883528414564 1 1 1 1 0.010003800976070029 1 1 1 1 1 1 1 1 1 1 1 1 1 1 0.011994828076176805 1 1 0.0093901807810714503 0.0098328874246763204 1 1 1 1 1 1 1 1 1 1 1 1 1 1 1 1 1 1 1 1 1 1 1 1 1 1 1 1 1 1 1 1 1 1 1 1 0.010448357829680203 1 1 1 1 0.011798762464115037 1 1 0.010727294833903011 1 1 1 0.021216212375991642 1 1 1 0.019807814431095059 1 1 1 1 1 1 1 1 0.0099705826928827828 1 0.019072758597101856 1 0.014839027311400604 1 1 0.020372567066689887 1 1 1 1 1 0.013056955340544456 0.010623666841571761 1 0.014252586538189579 1 1 1 1 1 1 1 1 1 0.019518498538330358 1 1 1 1 1 1 1 1 1 1 1 1 1 1 1 1 1 0.010102694590069468 1 1 1 1 1 1 1 1 1 1 0.012372692637589191 1 1 1 0.01247520548779491 1 0.019314002983910828 1 1 1 0.0099956945054388308 1 0.014297096881338487 0.015803177457732805 1 1 1 1 0.018856165426374152 1 1 1 1 1 1 1 1 0.010138890238894686 1 1 1 0.010430876159811104 1 1 0.011169351597327442 0.014060145158883959 1 0.021800616543838192 1 1 0.009752447520282698 1 1 1 1 1 0.017189073613551254 1 0.016289307984019327 1 1 1 0.017330603032781819 1 1 1 1 1 1 0.014640728495545676 1 1 1 1 1 1 1 0.0099066132257587571 1 1 1 1 1 1 1 1 1 1 1 1 0.011768231897184921 1 1 1 1 1 1 0.015096641110607189 1 1 1 1 1 1 1 1 1 1 1 1 1 1 1 1 0.017601764675734034 1 1 1 0.0098612132674492439 1 1 0.014321467143454768 1 1 1 0.0119830325478587 1 0.011661847456300839 1 0.013372506911818939 1 1 1 1 1 1 1 1 1 1 1 1 1 1 1 0.01155309832911852 1 1 1 1 1 1 1 1 1 1 1 1 1 1 1 1 0.0091924505323645826 1 0.0097083742964787327 1 0.017602566343361787 0.008903148897959446 1 1 0.010024583188191181 1 0.010821310196348983 1 1 1 1 1 1 1 0.020430586121496092 1 1 1 1 1 1 1 1 0.021713340231561903 1 0.022138841728737316 1 1 1 1 0.0079686594738033294 1 1 1 1 1 0.0092854971727371269 1 0.010578451505014266 1 1 1 1 1 1 0.011573298031533423 1 1 1 1 1 1 1 1 1 1 1 0.0067598074745812489 1 1 1 1 1 1 1 1 1 1 1 1 0.010172998737282042 1 1 1 1 1 0.010595046931281204 1 1 1 1 1 1 0.010422048193999164 1 1 1 1 1 1 1 1 1 1 1 1 1 1 1 1 1 1 1 1 1 1 1 1 1 1 0.010599400382539158 1 1 1 0.011216428250648629 1 1 1 1 1 1 1 1 1 1 1 1 1 1 1 1 1 0.012942570629652154 1 1 1 0.0099599972806285898 1 1 1 1 0.015001378019730609 1 1 1 1 1 1 1 1 1 1 1 1 1 1 1 1 1 1 1 1 1 0.0099286566952682606 0.010614959988162833 1 1 1 0.0215927491411846 1 1 1 1 0.013430361649718931 1 1 0.017738709560230201 1 1 0.0099974826575716172 1 1 1 0.01311814726906442 1 1 1 1 1 1 1 1 0.0099938919274491257 1 1 0.0099769314658223075 1 1 1 0.0088508779892588606 1 1 0.010236308103795716 0.0066806576302785546 1 1 1 0.023043440169890746 1 0.0097172409521821042 1 1 1 1 1 1 0.010036600521529559 0.023761015665047298 1 1 1 1 1 1 1 0.024762625641426176 1 1 1 1 1 1 1 1 1 1 1 1 1 1 1 1 1 0.0093838141568344784 1 1 1 0.0099033928694974276 1 1 1 1 1 1 1 1 1 1 1 1 1 1 1 1 1 1 1 0.010630127347417268 0.010201742709990946 1 1 1 1 1 1 1 0.010296389202916093 1 1 1 1 1 1 1 0.01007203643518835 1 1 1 1 1 1 1 0.010206022566347405 1 1 1 1 1 1 1 1 1 1 1 1 1 1 1 1 1 1 1 1 1 1 1 1 1 1 1 1 0.010050006520507878 1 1 1 1 1 1 1 1 1 1 1 1 1 0.013488591415855754 1 1 1 1 1 0.0099616033628939383 1 1 1 0.0098549485086620991 0.0080678739007910977 1 1 1 1 1 1 1 1 1 0.015351168604039631 1 1 0.01000702278721553 0.0084405132669606101 0.01006326921668424 1 0.0083577278552069232 1 1 1 1 1 0.016518487828187933 1 1 1 1 1 0.016094969590312952 1 1 0.020742885727517864 1 1 1 1 1 1 1 1 0.020866244336595164 1 0.011134312949496086 0.019381853648079709 1 1 1 1 1 1 1 1 0.0097818260975204626 0.01552032157620372 1 1 0.009551675029086033 1 1 1 0.014881636186468176 1 1 1 1 1 1 1 1 1 1 0.011232690949396809 1 1 1 1 0.020666362273089697 0.020595393958923194 1 1 1 1 1 1 1 1 1 1 0.017281707660643741 1 1 1 1 1 1 1 1 1 1 1 1 1 1 1 1 1 1 1 1 1 1 1 1 1 1 1 1 1 1 1 1 1 1 1 0.0098361163843066445 1 1 1 1 1 1 0.020637167217466341 0.0093119703241784299 1 1 1 1 1 1 1 1 1 1 1 1 1 1 1 1 1 1 1 1 1 1 1 0.010515951620381353 1 1 1 1 1 1 1 1 1 1 1 1 1 1 1 1 1 1 1 1 1 1 1 1 1 1 1 1 1 1 1 1 0.0091266500166483269 1 1 1 1 1 1 1 0.0097223798315735806 1 1 1 1 1 1 0.021881362833532286 1 1 1 1 1 1 1 0.016391220221447435 1 0.01983255191305125 1 1 1 0.0099110664204505247 1 1 1 1 1 0.010767030332078608 1 1 0.023365487558988665 1 1 1 1 1 1 1 1 1 1 1 0.020309569369362838 1 1 1 1 1 1 1 1 1 1 1 1 1 1 1 0.0098232961005314291 1 1 1 1 1 1 1 1 0.010319540739338995 1 1 1 1 1 1 1 1 1 1 1 1 0.018493973980484805 1 1 1 1 1 0.028084712411624073 1 1 1 1 1 1 1 0.0099282038966335643 1 1 1 1 1 0.010538471647914919 1 1 1 1 1 1 1 1 0.011862924751621741 1 1 1 1 1 1 1 1 1 1 1 1 1 1 1 0.024931836863686978 1 1 1 1 1 1 1 1 1 1 1 1 1 0.0099368404861158582 1 1 1 1 0.020552890197500472 1 1 0.013996830052409549 1 1 1 1 1 1 1 1 0.01003212742841556 1 1 0.010889003813983054 1 1 1 1 1 1 0.010886610984236446 1 1 1 1 1 1 1 1 1 1 1 1 1 1 1 1 1 1 1 0.011144052569690819 1 1 1 1 0.011141526036035873 1 1 1 1 1 1 1 1 1 1 1 1 1 1 1 1 1 1 1 1 1 1 1 1 1 1 1 1 1 1 1 1 1 1 1 1 1 1 1 1 1 1 1 1 1 1 1 1 1 1 1 1 1 1 1 1 1 1 1 0.0080844496889040333 0.0068220602189065487 1 1 0.012940189842288971 1 1 1 1 1 0 1 1 1 1 1 0.0099866279405256206 1 1 1 1 0.022094314753651347 1 1 -1.3877787807814457e-17 1 1 1 1 1 1 1 0.0094444219298706264 1 1 1 0.0093491349875709021 1 1 1 1 1 1 1 0.010166360637990111 1 1 1 0.010189147427832307 1 0.0088335979860528335 1 1 1 1 1 1 0.011224492934524898 0.012386424861751892 1 1 1 0.010589270804618016 1 0.010709621026758487 1 1 1 1 1 0.011396563207172979 1 1 1 1 1 1 0.017703975689290372 1 1 1 0.015455331292497661 1 1 1 1 1 1 1 1 1 1 1 1 0.011634579872948725 1 1 1 1 1 1 0.013989366101685746 1 1 1 1 0.0096516652585127011 1 1 1 1 0.019683089489125005 1 0.019528885980230976 1 0.010339062592528555 1 1 1 0.018164340985301831 1 1 1 0.010120493211468677 0.018920025026232093 1 1 1 1 0.0093035499744577119 1 1 1 0.0097747685476130657 1 1 1 1 1 1 1 1 1 1 1 1 1 1 1 1 0.0097564891293730471 1 1 1 1 1 1 1 1 1 1 1 1 1 0.009050816108519287 1 1 1 0.0099309369916319654 1 1 1 1 1 0.010249553151265639 1 1 1 1 1 0.0099803352139900287 1 1 1 1 1 1 1 0.010526137976509538 1 1 1 1 1 1 1 1 1 0.010145096135651191 1 1 1 1 1 1 1 0.010355307967874539 1 1 1 1 1 1 1 1 1 1 1 1 1 1 1 0.010210211832223343 1 1 1 1 1 1 1 1 1 1 1 1 1 1 1 1 1 1 1 1 1 1 1 1 1 1 1 1 1 1 1 1 1 1 1 1 1 0.0099794248696510879 1 1 1 1 1 1 0.01035555256960429 1 1 1 0.012316822721115332 1 1 1 1 1 1 0.010306280351331264 1 1 1 0.012744392082006183 1 1 1 1 0.010073749624240456 1 1 1 1 1 1 1 1 1 1 1 1 1 1 1 1 1 1 1 1 1 1 1 1 1 1 1 0.010987390933910501 1 1 1 1 1 1 1 1 1 1 1 1 1 1 1 1 1 1 1 1 1 1 1 0.010374406641996459 1 1 1 1 0.010221129191921696 1 1 1 0.010220942423023453 1 1 1 1 1 0.013434790853907405 1 1 1 1 1 0.012345556714746672 1 1 1 1 1 1 1 1 1 1 1 1 0.013211385758969546 1 0.018401860486467837 1 1 1 1 1 1 1 1 0.0098391055645277239 1 1 0.010922057369530188 1 1 1 1 1 1 1 1 1 1 1 1 0.011042714104034748 1 1 1 1 1 0.011169642539758403 1 1 0.010482481005327927 1 1 1 1 1 1 1 1 1 1 1 1 1 1 1 1 1 0.010986375441633493 1 1 0.010726623168705055 0.0099483122789070164 1 1 0.012329906025044945 1 1 1 1 0.012772986858940474 1 0.010015993357916884 0.013217567990756268 1 1 1 1 1 1 1 1 1 0.01150334131835877 1 1 0.014479852886095844 1 1 1 1 1 1 1 1 1 0.0099206177067344553 1 1 1 1 1 0.0090381820086524855 1 1 0.016375176516506672 0.010635615512897933 1 0.0053238194042998198 1 0.017431496413843714 1 1 1 1 0.025151235154117345 1 0.025226008406592403 1 1 1 1 1 1 0.024499920194010462 1 1 1 1 1 1 1 1 1 1 1 1 1 1 1 1 1 1 1 1 1 1 1 1 1 1 1 1 1 1 1 1 1 1 0.01039440235811627 1 1 1 1 1 0.010219448108965842 0.010040857799399257 1 0.010016785529491588 1 0.0099210892636840062 1 1 1 0.024873738320182456 1 1 1 1 1 0.010151934764224621 1 1 1 1 1 1 1 1 0.018369207532036566 1 0.0099981800496738611 1 1 0.020245301095381668 0.013030543078877922 1 0.0073825482932357023 1 0.022701478819771345 1 1 1 1 1 1 1 0.011496914947201453 1 1 0.012439806213184745 0.014527894219166042 1 1 1 1 1 0.011188526946144736 0.011567955849921164 1 1 0.0085602177180094038 0.012076117274694917 1 1 1 0.0095319778791534623 1 1 1 0.016725781790690133 1 1 1 1 1 1 1 1 1 1 1 1 1 1 1 1 1 1 1 0.010663982958841148 1 1 0.010927999882880644 1 1 1 1 1 0.012802450272199497 1 1 1 1 1 1 1 1 1 1 1 1 1 1 1 1 0.011783248031305683 1 1 1 1 1 1 1 1 1 1 0.0099706062872477602 1 1 0.010392379697122683 1 1 1 1 1 0.010095656299357046 1 1 1 1 1 1 0.0099908804893869673 1 1 0.0099109144998432291 1 1 1 1 1 1 1 0.010284115418045404 1 0.015570460052983522 1 0.014339660338938541 0.010763475246009114 0.01041952026025553 0.012896458494937695 1 0.014801553172847717 1 1 1 1 0.010019673819568189 0.011714964783576786 0.012787031736060168 1 0.013494150726578124 1 1 1 1 0.017571004819838587 1 0.016540605333520836 1 1 1 0.015589132246531696 1 1 1 1 0.008990456590265837 1 1 0.0099962067424012591 1 1 1 1 1 1 1 1 1 1 1 1 1 1 1 1 1 1 1 0.010077613215950222 1 1 1 1 1 0.010081742814074417 1 1 0.010003912306238753 1 1 1 1 1 1 1 1 1 0.010668409805146988 1 0.010750394702933742 1 1 1 1 1 1 0.010292421744209711 1 1 1 1 1 1 1 1 1 1 1 1 1 1 1 1 1 1 1 1 1 1 1 1 1 1 1 1 1 1 1 1 1 1 1 1 0.010422839066950303 1 1 0.014440416295405038 1 1 1 0.010009348743856762 1 1 1 1 1 1 1 1 1 1 1 1 1 1 1 1 1 1 0.010451477721114814 1 1 1 1 1 1 1 1 1 1 0.01111151476529449 0.0099993944052360912 0.0097163705942184733 1 1 1 1 0.0098659089312075759 1 1 1 1 1 1 1 1 1 1 1 1 1 1 1 1 1 1 0.0099971980705877931 1 1 1 1 1 1 1 1 0.0099843654223448122 1 1 1 0.011532896909376554 1 0.010001604034308432 1 0.011032296566943885 1 0.010123882665155508 1 0.010757990829836118 1 1 1 1 1 0.010096204403030702 1 1 0.010075491427372895 0.010148999504193144 0.010579666616369093 1 0.010600923259074198 0.0099855904480721652 1 1 1 1 1 0.010738136498420106 0.011694491522889913 1 1 1 0.010062738748341113 0.011860807204102722 1 1 1 1 1 0.010993408041631446 1 0.010666509175152744 1 1 1 1 0.013025811375843625 0.010651186659432786 1 1 0.010816519684270672 1 0.011316256827095403 1 1 0.010334292225316743 1 0.010308115008958783 0.011403624170194887 1 1 1 0.016580239601075276 0.011583759406532453 1 1 0.013252124661119268 0.0082281123628420803 0.01000275931280881 1 1 1 0.010012172438321806 1 0.011805032730724214 0.013264135737791262 1 1 0.00934317351239854 0.0094519499300548954 1 0.012622538550297289 1 0.0099076855221842397 1 1 1 1 1 1 0.010257885584599821 1 1 1 1 1 1 1 0.010136024661935748 0.0099167748957812562 1 0.010578315692026578 0.012414667186070288 1 1 1 1 0.012078688679628059 1 1 1 0.014312537898898126 1 1 1 1 1 0.010760482456028092 1 1 0.010121814228758325 0.020979230730494416 1 1 1 1 0.021700952426175056 1 1 1 1 1 0.011815873115636338 1 1 1 1 1 1 1 0.011324698538520398 0.010006888292521512 0.0098692821537643971 0.016306667748518792 1 1 1 1 1 0.011505522744458652 0.013238146293569328 1 1 0.0098827781534999576 1 1 1 0.010615591317296974 1 1 1 1 1 1 0.010011225536557698 1 1 1 1 0.013216824954582908 0.012257416113159905 0.012490139142653144 1 0.011769630249651553 1 1 0.010704458981203042 1 1 1 1 1 1 1 1 1 0.011504741032837454 1 1 1 1 0.010009520432234886 1 1 0.010044081669689238 1 1 1 1 1 1 1 1 1 1 1 1 1 1 1 1 1 1 1 1 1 1 1 1 1 1 1 0.01061937556215584 1 1 1 1 1 1 1 1 1 1 1 1 1 1 1 1 1 0.010160535421043466 1 1 1 1 1 1 1 0.01049671950519291 1 1 1 1 1 0.013260784256243307 1 1 1 1 1 1 1 1 1 1 1 1 1 1 1 1 1 1 1 0.010117309566639416 1 1 1 1 1 1 1 0.01001907639802212 1 1 1 1 1 1 1 1 1 1 0.019521799457163154 1 1 1 1 1 1 1 0.019840055125539116 1 1 1 1 1 0.011100801671289835 1 1 1 1 1 0.010287868064038379 1 1 1 1 0.01013601600634402 1 1 1 1 1 1 1 1 1 1 1 1 1 1 1 0.010576425576094582 1 1 0.010236692033177057 1 1 1 1 0.01022266057023029 1 1 1 1 1 1 1 1 1 0.0097938280713628124 1 1 1 0.015424169429919119 0.010084843358167797 1 0.018150652284906039 1 1 1 1 1 1 1 1 1 0.0097669533433554796 1 1 0.01456135842603639 0.010961180463582958 0.010390124793962435 1 1 0.010163462436883633 1 1 0.0099742075663463731 1 1 1 1 0.012295236000146554 0.010344217985665486 1 1 0.010167115081389969 1 0.010296756424998303 1 1 1 0.010591686213292244 1 1 0.015056254362295605 0.0094847044490831301 1 0.013011189723237717 1 1 1 1 1 1 1 1 0.010323972242716563 1 1 1 1 1 1 1 1 0.010820748525068055 1 1 1 1 1 1 1 1 1 1 1 1 1 1 1 1 1 0.010260535764086169 1 1 1 1 0.0099246784358605067 1 1 0.010146693175799392 1 1 1 1 1 1 1 1 1 1 1 1 1 1 0.010088110106339691 1 1 1 0.010169877450243347 1 1 1 0.019014145994721302 1 1 1 1 1 1 1 1 1 1 1 1 1 0.021657164957914025 1 1 1 1 1 1 1 1 1 1 1 1 1 0.011732706966522453 1 1 1 1 1 1 1 1 1 1 1 1 1 1 1 1 1 1 1 0.011137135946385161 1 0.010299502683397493 0.0067386407910739864 1 1 0.0089730270583716579 0.0087130964508779045 0.013264381970679041 1 1 1 0.010348236033828 0.012483288238674702 1 1 1 1 0.010000684410058327 0.0098847685804041904 1 1 1 1 1 1 1 1 1 1 1 1 1 1 0.010881943018304394 1 1 1 1 1 0.0095886374776960048 1 1 1 1 1 1 1 1 1 0.011451263842283252 1 1 1 1 0.027217232687783019 1 1 1 0.025649105549604638 1 1 1 1 1 1 1 1 0.012627592444903923 1 1 1 1 1 1 1 1 1 1 1 0.023750836814039136 1 1 1 1 1 1 1 1 1 1 1 1 1 1 1 1 1 1 0.014920715475616454 1 1 1 1 1 1 0.0099477331994619819 1 1 1 0.010636130695236827 1 1 0.016956163427957222 1 1 1 1 1 1 1 1 0.01258307536167862 1 1 1 0.01554283214804795 1 1 1 1 1 1 0.0097857749026186783 1 1 1 1 0.013917035960451551 1 0.012319195982100023 1 1 1 1 1 1 1 1 1 1 0.0093777960181370169 1 1 1 1 1 0.014661959648968081 1 1 1 0.014837789797566552 1 1 1 1 1 0.010884406536717819 1 1 1 1 1 1 1 1 1 1 0.016086998033062933 1 1 1 1 1 0.0097875586591509977 1 1 0.0098389878411171503 1 1 1 1 1 1 1 1 1 1 0.0095872280403288736 1 1 0.01006064584564894 1 1 1 1 1 1 0.010225708227462034 1 1 0.010077928302388099 1 1 1 1 1 1 1 1 1 1 1 1 1 1 1 1 1 1 1 1 1 1 1 1 1 1 1 1 1 1 1 1 1 1 1 1 1 1 1 1 1 1 1 1 1 1 1 1 1 1 1 0.011401689389813736 1 1 1 0.0095731140073280416 1 1 1 1 1 1 0.0099105295702904481 1 1 1 1 1 1 1 1 1 1 1 1 1 1 1 1 1 1 1 1 1 1 1 1 1 1 1 1 1 0.0094566072097658372 1 1 1 0.0098618792575487536 1 1 1 1 1 1 1 1 1 1 1 1 1 1 1 1 1 1 1 1 1 1 1 1 1 1 1 1 1 1 0.0089051144718879198 1 1 1 0.0097162468860047656 1 0.013119443680481086 1 1 1 1 1 1 1 1 0.014262714636756511 1 1 0.012376548647475873 1 1 1 1 1 1 1 0.010775119719686225 1 1 1 1 1 1 1 1 1 0.010977821079490031 1 1 1 1 1 1 1 1 1 1 1 1 1 1 1 1 1 1 1 1 1 1 1 1 1 1 1 1 1 1 0.0099714155771323323 1 1 1 1 1 1 1 1 1 1 1 1 1 1 0.0103499572860034 1 1 1 1 1 0.010884764572866662 0.013754926627093132 1 1 1 1 0.014059468723677923 1 1 1 1 1 1 0.013227915931897953 0.0082877939418504448 1 1 1 0.013636326321941013 1 1 0.0095496486539883157 1 1 1 1 1 1 1 1 1 1 1 1 1 1 1 1 1 1 1 1 1 1 1 0.019429836086815751 0.011666973582963369 1 0.011101780124176223 1 1 0.010018286311610222 1 1 1 0.01004553405786611 1 1 1 1 1 1 1 1 1 1 1 1 1 1 1 1 1 1 1 1 0.011632929818121562 1 1 0.010026188515336491 1 1 1 0.008888957878474664 1 1 0.010007935440615998 1 0.0095704775411371863 1 1 1 1 1 1 1 1 1 1 1 1 1 0.019349462296271533 1 1 1 1 0.020043684869487325 1 1 1 1 1 1 1 1 1 1 1 1 1 1 1 0.014798289068092801 1 1 1 1 1 1 1 1 1 0.0099411215477271733 1 0.0099967557058747124 1 1 1 0.010530521738680498 1 1 1 1 1 1 1 1 1 1 0.0097925879822846652 1 0.0099688848764053137 1 1 1 1 1 1 0.01548315853763358 1 1 1 1 0.013794694543142675 1 1 1 1 0.011681821989562888 1 1 1 1 1 1 1 1 1 1 1 1 1 1 1 1 1 1 1 0.011046473359061849 1 1 1 1 1 1 1 1 1 1 1 1 1 1 1 1 1 1 0.010120134670007989 0.010053375367598379 1 1 1 1 1 1 0.010616843646376608 1 0.010415385663822141 1 1 1 1 0.011060061168679356 1 1 1 1 1 1 1 1 1 1 0.010732643448432631 1 1 1 1 1 1 0.010721328521555074 1 1 0.011155092788522026 0.010013821709783526 1 1 0.01016993225656679 1 0.011020101433163751 1 1 1 1 1 0.01263983273201473 0.01010781779971748 1 1 1 1 1 1 0.011719357307789691 1 1 0.011805538498216597 0.012144551847172634 0.010949202185727494 1 1 1 1 1 1 1 0.012920823145254001 0.01101368776752706 0.014901930418011062 1 1 0.010520145978811464 1 1 1 0.011501534767973118 1 0.010345328681040687 1 1 1 1 1 1 1 1 0.010987593710212634 1 1 0.010838581497567813 1 1 1 1 1 1 0.013163371689469086 1 0.011888376196510344 1 1 1 1 0.012864191248034951 0.016299352655286085 1 1 1 1 1 1 1 1 1 1 0.011160926314999332 1 1 1 1 0.010003433651103198 1 1 1 1 1 1 1 0.017098904944510225 1 1 1 1 1 0.012742286234541048 0.014192537713021621 1 0.011336072398310981 1 1 0.0087029109378977086 1 1 0.010685845452811914 1 1 1 0.011754531631577522 1 1 1 1 1 1 0.0092288074535385213 1 0.013961087805063339 1 0.010507442904153143 0.013952169447232425 1 1 1 0.010041218689729989 1 1 1 1 0.014056072006337664 0.0093308504356113143 1 0.014258928715287065 1 1 1 1 1 0.011028356914745728 0.011215422509353354 1 1 1 0.01004368211132059 1 1 0.010132287839460505 1 1 1 1 1 1 1 1 1 1 1 1 1 1 1 0.010038723136494088 1 0.014996440198808388 1 1 1 0.01329880153245795 1 0.010392699433487815 1 1 1 1 1 1 1 1 1 1 0.011005409619663481 1 1 0.0095450894327291889 1 1 1 0.0096261050723833244 0.0098602786137158543 1 1 1 1 0.0099600506631988724 1 1 1 1 1 1 1 1 1 1 1 1 1 1 1 
</DataArray>
</CellData>
</Piece>
</UnstructuredGrid>
</VTKFile>
